<?xml version="1.0"?>
<VTKFile type="UnstructuredGrid" version="0.1" byte_order="LittleEndian">
<UnstructuredGrid>
<Piece NumberOfPoints="30622" NumberOfCells="10726">
<Points>
<DataArray type="Float64" NumberOfComponents="3" format="ascii">
-0.5 -0.5 0 -0.48175857830073798 -0.47803511362356338 0 -0.47645264824916389 -0.50000000000000089 0 -0.5 -0.5 0 -0.48175857830073798 -0.47803511362356338 0 -0.5 -0.44756378430225269 0 -0.48175857830073798 -0.47803511362356338 0 -0.4620596478456987 -0.48345727270434657 0 -0.47028059540882722 -0.46100677613749669 0 -0.48175857830073798 -0.47803511362356338 0 -0.47645264824916389 -0.50000000000000089 0 -0.4620596478456987 -0.48345727270434657 0 -0.47645264824916389 -0.50000000000000089 0 -0.4620596478456987 -0.48345727270434657 0 -0.47645264824916389 -0.50000000000000089 0 -0.4620596478456987 -0.48345727270434657 0 -0.44490311097661051 -0.500000000000002 0 -0.4620596478456987 -0.48345727270434657 0 -0.44766664744223322 -0.46876681043497243 0 -0.47028059540882722 -0.46100677613749669 0 -0.4620596478456987 -0.48345727270434657 0 -0.44766664744223322 -0.46876681043497243 0 -0.44766664744223322 -0.46876681043497243 0 -0.44628487920942178 -0.48438340521748718 0 -0.42810179168749762 -0.47873960737587079 0 -0.44766664744223322 -0.46876681043497243 0 -0.44628487920942178 -0.48438340521748718 0 -0.4620596478456987 -0.48345727270434657 0 -0.44766664744223322 -0.46876681043497243 0 -0.44628487920942178 -0.48438340521748718 0 -0.4620596478456987 -0.48345727270434657 0 -0.44490311097661051 -0.500000000000002 0 -0.44628487920942178 -0.48438340521748718 0 -0.44490311097661051 -0.500000000000002 0 -0.44628487920942178 -0.48438340521748718 0 -0.43472143876009411 -0.49078075314833952 0 -0.44490311097661051 -0.500000000000002 0 -0.44628487920942178 -0.48438340521748718 0 -0.44624479447212723 -0.43339096025329182 0 -0.43660761020815209 -0.45747921475174802 0 -0.4360821827968876 -0.44154577011071272 0 -0.44938053938059808 -0.44939658953474509 0 -0.44624479447212723 -0.43339096025329182 0 -0.43660761020815209 -0.45747921475174802 0 -0.44938053938059808 -0.44939658953474509 0 -0.45109443131896332 -0.43002636863451787 0 -0.44624479447212723 -0.43339096025329182 0 -0.44938053938059808 -0.44939658953474509 0 -0.45109443131896332 -0.43002636863451787 0 -0.44624479447212723 -0.43339096025329182 0 -0.43660761020815209 -0.45747921475174802 0 -0.44766664744223322 -0.46876681043497243 0 -0.44938053938059808 -0.44939658953474509 0 -0.43660761020815209 -0.45747921475174802 0 -0.44766664744223322 -0.46876681043497243 0 -0.44938053938059808 -0.44939658953474509 0 -0.44766664744223322 -0.46876681043497243 0 -0.43660761020815209 -0.45747921475174802 0 -0.44766664744223322 -0.46876681043497243 0 -0.44938053938059808 -0.44939658953474509 0 -0.47028059540882722 -0.46100677613749669 0 -0.44938053938059808 -0.44939658953474509 0 -0.46876063957734859 -0.44424178834734979 0 -0.47028059540882722 -0.46100677613749669 0 -0.44938053938059808 -0.44939658953474509 0 -0.46876063957734859 -0.44424178834734979 0 -0.45930605182455247 -0.43745027374088419 0 -0.44938053938059808 -0.44939658953474509 0 -0.45930605182455247 -0.43745027374088419 0 -0.45109443131896332 -0.43002636863451787 0 -0.46876063957734859 -0.44424178834734979 0 -0.5 -0.44756378430225269 0 -0.46798859702130041 -0.42613634844692427 0 -0.46876063957734859 -0.44424178834734979 0 -0.47028059540882722 -0.46100677613749669 0 -0.5 -0.44756378430225269 0 -0.48175857830073798 -0.47803511362356338 0 -0.47028059540882722 -0.46100677613749669 0 -0.5 -0.44756378430225269 0 -0.5 -0.44756378430225269 0 -0.47629260694278741 -0.40349661143207272 0 -0.46798859702130041 -0.42613634844692427 0 -0.5 -0.44756378430225269 0 -0.50000000000000022 -0.37886567910958968 0 -0.47629260694278741 -0.40349661143207272 0 -0.50000000000000022 -0.37886567910958968 0 -0.47629260694278741 -0.40349661143207272 0 -0.47980805615581318 -0.37784851377904871 0 -0.47629260694278741 -0.40349661143207272 0 -0.47980805615581318 -0.37784851377904871 0 -0.46551916300008062 -0.38521445125638071 0 -0.46551916300008062 -0.38521445125638071 0 -0.44819628301138992 -0.38764414753211601 0 -0.4488839627098743 -0.36568658865118597 0 -0.46551916300008062 -0.38521445125638071 0 -0.44819628301138992 -0.38764414753211601 0 -0.45588197873610392 -0.40930270575483629 0 -0.46551916300008062 -0.38521445125638071 0 -0.45588197873610392 -0.40930270575483629 0 -0.47629260694278741 -0.40349661143207272 0 -0.46551916300008062 -0.38521445125638071 0 -0.45588197873610392 -0.40930270575483629 0 -0.43830082697747452 -0.39965478629343199 0 -0.44819628301138992 -0.38764414753211601 0 -0.45588197873610392 -0.40930270575483629 0 -0.44819628301138992 -0.38764414753211601 0 -0.43239548363341612 -0.37836220570474521 0 -0.4488839627098743 -0.36568658865118597 0 -0.43830082697747452 -0.39965478629343199 0 -0.44819628301138992 -0.38764414753211601 0 -0.43239548363341612 -0.37836220570474521 0 -0.45930605182455247 -0.43745027374088419 0 -0.46798859702130041 -0.42613634844692427 0 -0.45109443131896332 -0.43002636863451787 0 -0.46876063957734859 -0.44424178834734979 0 -0.45930605182455247 -0.43745027374088419 0 -0.46798859702130041 -0.42613634844692427 0 -0.47629260694278741 -0.40349661143207272 0 -0.46798859702130041 -0.42613634844692427 0 -0.45588197873610392 -0.40930270575483629 0 -0.46798859702130041 -0.42613634844692427 0 -0.45588197873610392 -0.40930270575483629 0 -0.45109443131896332 -0.43002636863451787 0 -0.43830082697747452 -0.39965478629343199 0 -0.45588197873610392 -0.40930270575483629 0 -0.44432381636642571 -0.41865047822066542 0 -0.45588197873610392 -0.40930270575483629 0 -0.44432381636642571 -0.41865047822066542 0 -0.44624479447212723 -0.43339096025329182 0 -0.45588197873610392 -0.40930270575483629 0 -0.44624479447212723 -0.43339096025329182 0 -0.45588197873610392 -0.40930270575483629 0 -0.45109443131896332 -0.43002636863451787 0 -0.44624479447212723 -0.43339096025329182 0 -0.44432381636642571 -0.41865047822066542 0 -0.44080997004790018 -0.42776525689649247 0 -0.43300524912834248 -0.42828697152029188 0 -0.44432381636642571 -0.41865047822066542 0 -0.44080997004790018 -0.42776525689649247 0 -0.44624479447212723 -0.43339096025329182 0 -0.44624479447212723 -0.43339096025329182 0 -0.43660622108023422 -0.4339599580125314 0 -0.4360821827968876 -0.44154577011071272 0 -0.44080997004790018 -0.42776525689649247 0 -0.44624479447212723 -0.43339096025329182 0 -0.43660622108023422 -0.4339599580125314 0 -0.43660622108023422 -0.4339599580125314 0 -0.43300524912834248 -0.42828697152029188 0 -0.42829735379245731 -0.43861823111234799 0 -0.44080997004790018 -0.42776525689649247 0 -0.43660622108023422 -0.4339599580125314 0 -0.43300524912834248 -0.42828697152029188 0 -0.42324625945110439 -0.42894035692386751 0 -0.42829735379245731 -0.43861823111234799 0 -0.41897456685961898 -0.43948174718108168 0 -0.42324625945110439 -0.42894035692386751 0 -0.43300524912834248 -0.42828697152029188 0 -0.42829735379245731 -0.43861823111234799 0 -0.42324625945110439 -0.42894035692386751 0 -0.43300524912834248 -0.42828697152029188 0 -0.429045484891729 -0.41574537586483817 0 -0.44432381636642571 -0.41865047822066542 0 -0.43300524912834248 -0.42828697152029188 0 -0.429045484891729 -0.41574537586483817 0 -0.43830082697747452 -0.39965478629343199 0 -0.44432381636642571 -0.41865047822066542 0 -0.429045484891729 -0.41574537586483817 0 -0.42324625945110439 -0.42894035692386751 0 -0.429045484891729 -0.41574537586483817 0 -0.41729212567564888 -0.41710398630485268 0 -0.429045484891729 -0.41574537586483817 0 -0.41729212567564888 -0.41710398630485268 0 -0.41801221074565698 -0.39808699031092531 0 -0.41729212567564888 -0.41710398630485268 0 -0.41801221074565698 -0.39808699031092531 0 -0.40198014848332908 -0.41267016467912188 0 -0.41729212567564888 -0.41710398630485268 0 -0.41417652480642497 -0.43007704374551131 0 -0.40198014848332908 -0.41267016467912188 0 -0.41417652480642497 -0.43007704374551131 0 -0.40198014848332908 -0.41267016467912188 0 -0.40842495570485349 -0.43768544597637382 0 -0.41417652480642497 -0.43007704374551131 0 -0.41271068110096493 -0.43768251977421557 0 -0.40842495570485349 -0.43768544597637382 0 -0.41417652480642497 -0.43007704374551131 0 -0.41897456685961898 -0.43948174718108168 0 -0.41271068110096493 -0.43768251977421557 0 -0.42324625945110439 -0.42894035692386751 0 -0.41417652480642497 -0.43007704374551131 0 -0.41897456685961898 -0.43948174718108168 0 -0.42324625945110439 -0.42894035692386751 0 -0.41729212567564888 -0.41710398630485268 0 -0.41417652480642497 -0.43007704374551131 0 -0.43830082697747452 -0.39965478629343199 0 -0.43239548363341612 -0.37836220570474521 0 -0.41801221074565698 -0.39808699031092531 0 -0.43830082697747452 -0.39965478629343199 0 -0.429045484891729 -0.41574537586483817 0 -0.41801221074565698 -0.39808699031092531 0 -0.41801221074565698 -0.39808699031092531 0 -0.39553534126180467 -0.38765488338186987 0 -0.4114837764365713 -0.37264776659748722 0 -0.43239548363341612 -0.37836220570474521 0 -0.41801221074565698 -0.39808699031092531 0 -0.4114837764365713 -0.37264776659748722 0 -0.39553534126180467 -0.38765488338186987 0 -0.38909053404028032 -0.36263960208461798 0 -0.39553534126180467 -0.38765488338186987 0 -0.37617113698211418 -0.39781486166417812 0 -0.40198014848332908 -0.41267016467912188 0 -0.39553534126180467 -0.38765488338186987 0 -0.40198014848332908 -0.41267016467912188 0 -0.41801221074565698 -0.39808699031092531 0 -0.39553534126180467 -0.38765488338186987 0 -0.40198014848332908 -0.41267016467912188 0 -0.39553534126180467 -0.38765488338186987 0 -0.37993774591511659 -0.37833552289366762 0 -0.38909053404028032 -0.36263960208461798 0 -0.39553534126180467 -0.38765488338186987 0 -0.37617113698211418 -0.39781486166417812 0 -0.37993774591511659 -0.37833552289366762 0 -0.39382743442433288 -0.4281084315970522 0 -0.38673115121171781 -0.44405990790877248 0 -0.40842495570485349 -0.43768544597637382 0 -0.40198014848332908 -0.41267016467912188 0 -0.40842495570485349 -0.43768544597637382 0 -0.39382743442433288 -0.4281084315970522 0 -0.40198014848332908 -0.41267016467912188 0 -0.40842495570485349 -0.43768544597637382 0 -0.39382743442433288 -0.4281084315970522 0 -0.40198014848332908 -0.41267016467912188 0 -0.37817244211751749 -0.41949326649288188 0 -0.37617113698211418 -0.39781486166417812 0 -0.40198014848332908 -0.41267016467912188 0 -0.37817244211751749 -0.41949326649288188 0 -0.39382743442433288 -0.4281084315970522 0 -0.37817244211751749 -0.41949326649288188 0 -0.38673115121171781 -0.44405990790877248 0 -0.38673115121171781 -0.44405990790877248 0 -0.39806555783602349 -0.46247980776775571 0 -0.38620911950256043 -0.47631667062209138 0 -0.38673115121171781 -0.44405990790877248 0 -0.36404724952161782 -0.44933936370909588 0 -0.38673115121171781 -0.44405990790877248 0 -0.38620911950256043 -0.47631667062209138 0 -0.36704025334186352 -0.46792579456813288 0 -0.38673115121171781 -0.44405990790877248 0 -0.39972817726002641 -0.44853143628584752 0 -0.39806555783602349 -0.46247980776775571 0 -0.38673115121171781 -0.44405990790877248 0 -0.39972817726002641 -0.44853143628584752 0 -0.40842495570485349 -0.43768544597637382 0 -0.38673115121171781 -0.44405990790877248 0 -0.40842495570485349 -0.43768544597637382 0 -0.39972817726002641 -0.44853143628584752 0 -0.40842495570485349 -0.43768544597637382 0 -0.40673713324286143 -0.44580722500666631 0 -0.39806555783602349 -0.46247980776775571 0 -0.40600384268522738 -0.48024575322547008 0 -0.41165549852058531 -0.46324527079659722 0 -0.39972817726002641 -0.44853143628584752 0 -0.39806555783602349 -0.46247980776775571 0 -0.41165549852058531 -0.46324527079659722 0 -0.38620911950256043 -0.47631667062209138 0 -0.39260263773174953 -0.5 0 -0.36560930229665273 -0.5 0 -0.38620911950256043 -0.47631667062209138 0 -0.39260263773174953 -0.5 0 -0.40600384268522738 -0.48024575322547008 0 -0.39260263773174953 -0.5 0 -0.40600384268522738 -0.48024575322547008 0 -0.41959597316684638 -0.49999999999999489 0 -0.39806555783602349 -0.46247980776775571 0 -0.38620911950256043 -0.47631667062209138 0 -0.40600384268522738 -0.48024575322547008 0 -0.40600384268522738 -0.48024575322547008 0 -0.42810179168749762 -0.47873960737587079 0 -0.41165549852058531 -0.46324527079659722 0 -0.40600384268522738 -0.48024575322547008 0 -0.41959597316684638 -0.49999999999999489 0 -0.42810179168749762 -0.47873960737587079 0 -0.41959597316684638 -0.49999999999999489 0 -0.43472143876009411 -0.49078075314833952 0 -0.42810179168749762 -0.47873960737587079 0 -0.44628487920942178 -0.48438340521748718 0 -0.43472143876009411 -0.49078075314833952 0 -0.42810179168749762 -0.47873960737587079 0 -0.44490311097661051 -0.500000000000002 0 -0.41959597316684638 -0.49999999999999489 0 -0.43472143876009411 -0.49078075314833952 0 -0.41959597316684638 -0.49999999999999489 0 -0.42810179168749762 -0.47873960737587079 0 -0.42810179168749762 -0.47873960737587079 0 -0.43660761020815209 -0.45747921475174802 0 -0.42810179168749762 -0.47873960737587079 0 -0.4228788924216299 -0.45719223496370259 0 -0.43660761020815209 -0.45747921475174802 0 -0.44766664744223322 -0.46876681043497243 0 -0.42810179168749762 -0.47873960737587079 0 -0.43660761020815209 -0.45747921475174802 0 -0.43660761020815209 -0.45747921475174802 0 -0.42829735379245731 -0.43861823111234799 0 -0.41897456685961898 -0.43948174718108168 0 -0.43660761020815209 -0.45747921475174802 0 -0.41897456685961898 -0.43948174718108168 0 -0.4228788924216299 -0.45719223496370259 0 -0.43660761020815209 -0.45747921475174802 0 -0.41897456685961898 -0.43948174718108168 0 -0.43660761020815209 -0.45747921475174802 0 -0.4360821827968876 -0.44154577011071272 0 -0.42829735379245731 -0.43861823111234799 0 -0.43660622108023422 -0.4339599580125314 0 -0.4360821827968876 -0.44154577011071272 0 -0.42829735379245731 -0.43861823111234799 0 -0.4228788924216299 -0.45719223496370259 0 -0.41897456685961898 -0.43948174718108168 0 -0.41340535481205382 -0.44989234272557638 0 -0.41897456685961898 -0.43948174718108168 0 -0.41256230523210918 -0.44238790985966192 0 -0.41340535481205382 -0.44989234272557638 0 -0.41897456685961898 -0.43948174718108168 0 -0.41271068110096493 -0.43768251977421557 0 -0.41256230523210918 -0.44238790985966192 0 -0.41256230523210918 -0.44238790985966192 0 -0.40842495570485349 -0.43768544597637382 0 -0.40673713324286143 -0.44580722500666631 0 -0.41271068110096493 -0.43768251977421557 0 -0.41256230523210918 -0.44238790985966192 0 -0.40842495570485349 -0.43768544597637382 0 -0.39972817726002641 -0.44853143628584752 0 -0.41340535481205382 -0.44989234272557638 0 -0.40673713324286143 -0.44580722500666631 0 -0.41256230523210918 -0.44238790985966192 0 -0.41340535481205382 -0.44989234272557638 0 -0.40673713324286143 -0.44580722500666631 0 -0.42810179168749762 -0.47873960737587079 0 -0.4228788924216299 -0.45719223496370259 0 -0.41165549852058531 -0.46324527079659722 0 -0.39972817726002641 -0.44853143628584752 0 -0.41340535481205382 -0.44989234272557638 0 -0.41165549852058531 -0.46324527079659722 0 -0.4228788924216299 -0.45719223496370259 0 -0.41340535481205382 -0.44989234272557638 0 -0.41165549852058531 -0.46324527079659722 0 -0.44497875982576141 -0.25176855765867812 0 -0.44084128417106738 -0.26750170450426558 0 -0.45644516895108522 -0.26134153427462681 0 -0.44084128417106738 -0.26750170450426558 0 -0.46258921566161582 -0.27620532056566638 0 -0.44686323020782759 -0.29344493906767638 0 -0.44084128417106738 -0.26750170450426558 0 -0.46258921566161582 -0.27620532056566638 0 -0.44084128417106738 -0.26750170450426558 0 -0.46258921566161582 -0.27620532056566638 0 -0.45644516895108522 -0.26134153427462681 0 -0.45644516895108522 -0.26134153427462681 0 -0.47589771781528079 -0.25806660699248102 0 -0.460593049782828 -0.24774577637354209 0 -0.46258921566161582 -0.27620532056566638 0 -0.45644516895108522 -0.26134153427462681 0 -0.47589771781528079 -0.25806660699248102 0 -0.44497875982576141 -0.25176855765867812 0 -0.45644516895108522 -0.26134153427462681 0 -0.460593049782828 -0.24774577637354209 0 -0.47589771781528079 -0.25806660699248102 0 -0.5 -0.26138824297070151 0 -0.48696734548322179 -0.23828888459070649 0 -0.47589771781528079 -0.25806660699248102 0 -0.5 -0.26138824297070151 0 -0.48433714715216403 -0.28490893662706718 0 -0.5 -0.26138824297070151 0 -0.48433714715216403 -0.28490893662706718 0 -0.5 -0.29075760200542361 0 -0.46258921566161582 -0.27620532056566638 0 -0.48433714715216403 -0.28490893662706718 0 -0.46258921566161582 -0.27620532056566638 0 -0.47589771781528079 -0.25806660699248102 0 -0.48433714715216403 -0.28490893662706718 0 -0.46258921566161582 -0.27620532056566638 0 -0.48433714715216403 -0.28490893662706718 0 -0.46802730847796681 -0.29315415999451638 0 -0.48433714715216403 -0.28490893662706718 0 -0.4818637166091253 -0.30348464258913838 0 -0.46802730847796681 -0.29315415999451638 0 -0.48433714715216403 -0.28490893662706718 0 -0.5 -0.29075760200542361 0 -0.4818637166091253 -0.30348464258913838 0 -0.5 -0.29075760200542361 0 -0.4818637166091253 -0.30348464258913838 0 -0.5 -0.3201269610401456 0 -0.4818637166091253 -0.30348464258913838 0 -0.46198335465418039 -0.30924204346163858 0 -0.47631368143191538 -0.32303379455991549 0 -0.4818637166091253 -0.30348464258913838 0 -0.46198335465418039 -0.30924204346163858 0 -0.46802730847796681 -0.29315415999451638 0 -0.46198335465418039 -0.30924204346163858 0 -0.46802730847796681 -0.29315415999451638 0 -0.44686323020782759 -0.29344493906767638 0 -0.46258921566161582 -0.27620532056566638 0 -0.46802730847796681 -0.29315415999451638 0 -0.44686323020782759 -0.29344493906767638 0 -0.46198335465418039 -0.30924204346163858 0 -0.44686323020782759 -0.29344493906767638 0 -0.44210519262420511 -0.31648925281804008 0 -0.44686323020782759 -0.29344493906767638 0 -0.44210519262420511 -0.31648925281804008 0 -0.42730207374459939 -0.30616647952933151 0 -0.44210519262420511 -0.31648925281804008 0 -0.45711927263162527 -0.32789769255806661 0 -0.43579544843546902 -0.33838445278925511 0 -0.45711927263162527 -0.32789769255806661 0 -0.44974613400365121 -0.34910499731607347 0 -0.43579544843546902 -0.33838445278925511 0 -0.46414432714428128 -0.34221358156896109 0 -0.45711927263162527 -0.32789769255806661 0 -0.47631368143191538 -0.32303379455991549 0 -0.46414432714428128 -0.34221358156896109 0 -0.45711927263162527 -0.32789769255806661 0 -0.44974613400365121 -0.34910499731607347 0 -0.46198335465418039 -0.30924204346163858 0 -0.44210519262420511 -0.31648925281804008 0 -0.45711927263162527 -0.32789769255806661 0 -0.46198335465418039 -0.30924204346163858 0 -0.45711927263162527 -0.32789769255806661 0 -0.47631368143191538 -0.32303379455991549 0 -0.4818637166091253 -0.30348464258913838 0 -0.47631368143191538 -0.32303379455991549 0 -0.5 -0.3201269610401456 0 -0.47631368143191538 -0.32303379455991549 0 -0.5 -0.3201269610401456 0 -0.4845060344296675 -0.33908205751663301 0 -0.5 -0.3201269610401456 0 -0.4845060344296675 -0.33908205751663301 0 -0.5 -0.34949632007486758 0 -0.46414432714428128 -0.34221358156896109 0 -0.47631368143191538 -0.32303379455991549 0 -0.4845060344296675 -0.33908205751663301 0 -0.46414432714428128 -0.34221358156896109 0 -0.4751563472640572 -0.36112619675792501 0 -0.48207216357214089 -0.36053963033927527 0 -0.46414432714428128 -0.34221358156896109 0 -0.4845060344296675 -0.33908205751663301 0 -0.48207216357214089 -0.36053963033927527 0 -0.46414432714428128 -0.34221358156896109 0 -0.48207216357214089 -0.36053963033927527 0 -0.4845060344296675 -0.33908205751663301 0 -0.5 -0.34949632007486758 0 -0.48207216357214089 -0.36053963033927527 0 -0.50000000000000022 -0.37886567910958968 0 -0.5 -0.34949632007486758 0 -0.48207216357214089 -0.36053963033927527 0 -0.50000000000000022 -0.37886567910958968 0 -0.48207216357214089 -0.36053963033927527 0 -0.50000000000000022 -0.37886567910958968 0 -0.47980805615581318 -0.37784851377904871 0 -0.48207216357214089 -0.36053963033927527 0 -0.47980805615581318 -0.37784851377904871 0 -0.4751563472640572 -0.36112619675792501 0 -0.48207216357214089 -0.36053963033927527 0 -0.46551916300008062 -0.38521445125638071 0 -0.4751563472640572 -0.36112619675792501 0 -0.47980805615581318 -0.37784851377904871 0 -0.46551916300008062 -0.38521445125638071 0 -0.4751563472640572 -0.36112619675792501 0 -0.46551916300008062 -0.38521445125638071 0 -0.46132516729229389 -0.35844689702782351 0 -0.4488839627098743 -0.36568658865118597 0 -0.46551916300008062 -0.38521445125638071 0 -0.4751563472640572 -0.36112619675792501 0 -0.46132516729229389 -0.35844689702782351 0 -0.46132516729229389 -0.35844689702782351 0 -0.44974613400365121 -0.34910499731607347 0 -0.4488839627098743 -0.36568658865118597 0 -0.46414432714428128 -0.34221358156896109 0 -0.46132516729229389 -0.35844689702782351 0 -0.44974613400365121 -0.34910499731607347 0 -0.46414432714428128 -0.34221358156896109 0 -0.4751563472640572 -0.36112619675792501 0 -0.46132516729229389 -0.35844689702782351 0 -0.44974613400365121 -0.34910499731607347 0 -0.4488839627098743 -0.36568658865118597 0 -0.43096748138839058 -0.35905815872754232 0 -0.44974613400365121 -0.34910499731607347 0 -0.43096748138839058 -0.35905815872754232 0 -0.43579544843546902 -0.33838445278925511 0 -0.43239548363341612 -0.37836220570474521 0 -0.4488839627098743 -0.36568658865118597 0 -0.43096748138839058 -0.35905815872754232 0 -0.43239548363341612 -0.37836220570474521 0 -0.43096748138839058 -0.35905815872754232 0 -0.4114837764365713 -0.37264776659748722 0 -0.43096748138839058 -0.35905815872754232 0 -0.41088285567683341 -0.3511284845863229 0 -0.43579544843546902 -0.33838445278925511 0 -0.43096748138839058 -0.35905815872754232 0 -0.41088285567683341 -0.3511284845863229 0 -0.4114837764365713 -0.37264776659748722 0 -0.41088285567683341 -0.3511284845863229 0 -0.4114837764365713 -0.37264776659748722 0 -0.38909053404028032 -0.36263960208461798 0 -0.39553534126180467 -0.38765488338186987 0 -0.4114837764365713 -0.37264776659748722 0 -0.38909053404028032 -0.36263960208461798 0 -0.37993774591511659 -0.37833552289366762 0 -0.38909053404028032 -0.36263960208461798 0 -0.36834570227660079 -0.3523722011642767 0 -0.38580360493691213 -0.35088556096816048 0 -0.38785420119783909 -0.33885408389871402 0 -0.36834570227660079 -0.3523722011642767 0 -0.38909053404028032 -0.36263960208461798 0 -0.38580360493691213 -0.35088556096816048 0 -0.36834570227660079 -0.3523722011642767 0 -0.38909053404028032 -0.36263960208461798 0 -0.38580360493691213 -0.35088556096816048 0 -0.39349427834697109 -0.34773530419952042 0 -0.38580360493691213 -0.35088556096816048 0 -0.39349427834697109 -0.34773530419952042 0 -0.38785420119783909 -0.33885408389871402 0 -0.41088285567683341 -0.3511284845863229 0 -0.38909053404028032 -0.36263960208461798 0 -0.39349427834697109 -0.34773530419952042 0 -0.41088285567683341 -0.3511284845863229 0 -0.39349427834697109 -0.34773530419952042 0 -0.3938401958829908 -0.33516878945978629 0 -0.41088285567683341 -0.3511284845863229 0 -0.40442666574686098 -0.32852640822197537 0 -0.3938401958829908 -0.33516878945978629 0 -0.41088285567683341 -0.3511284845863229 0 -0.3938401958829908 -0.33516878945978629 0 -0.39349427834697109 -0.34773530419952042 0 -0.3938401958829908 -0.33516878945978629 0 -0.38785420119783909 -0.33885408389871402 0 -0.3938401958829908 -0.33516878945978629 0 -0.38785420119783909 -0.33885408389871402 0 -0.37492261045837072 -0.32656588344822168 0 -0.38785420119783909 -0.33885408389871402 0 -0.37492261045837072 -0.32656588344822168 0 -0.36834570227660079 -0.3523722011642767 0 -0.38785420119783909 -0.33885408389871402 0 -0.37492261045837072 -0.32656588344822168 0 -0.3938401958829908 -0.33516878945978629 0 -0.37679753608914918 -0.31920909433324862 0 -0.37492261045837072 -0.32656588344822168 0 -0.3938401958829908 -0.33516878945978629 0 -0.37679753608914918 -0.31920909433324862 0 -0.39147353256922363 -0.31923702377237589 0 -0.3938401958829908 -0.33516878945978629 0 -0.37679753608914918 -0.31920909433324862 0 -0.37679753608914918 -0.31920909433324862 0 -0.37492261045837072 -0.32656588344822168 0 -0.40442666574686098 -0.32852640822197537 0 -0.39147353256922363 -0.31923702377237589 0 -0.40456124240457048 -0.31137388115622211 0 -0.40442666574686098 -0.32852640822197537 0 -0.3938401958829908 -0.33516878945978629 0 -0.39147353256922363 -0.31923702377237589 0 -0.40442666574686098 -0.32852640822197537 0 -0.42137550220068681 -0.32572386213516957 0 -0.40456124240457048 -0.31137388115622211 0 -0.42137550220068681 -0.32572386213516957 0 -0.42730207374459939 -0.30616647952933151 0 -0.40456124240457048 -0.31137388115622211 0 -0.41088285567683341 -0.3511284845863229 0 -0.40442666574686098 -0.32852640822197537 0 -0.42137550220068681 -0.32572386213516957 0 -0.41088285567683341 -0.3511284845863229 0 -0.42137550220068681 -0.32572386213516957 0 -0.43579544843546902 -0.33838445278925511 0 -0.44210519262420511 -0.31648925281804008 0 -0.42137550220068681 -0.32572386213516957 0 -0.42730207374459939 -0.30616647952933151 0 -0.44210519262420511 -0.31648925281804008 0 -0.42137550220068681 -0.32572386213516957 0 -0.43579544843546902 -0.33838445278925511 0 -0.42730207374459939 -0.30616647952933151 0 -0.42319771321255989 -0.28248228398609793 0 -0.44686323020782759 -0.29344493906767638 0 -0.42730207374459939 -0.30616647952933151 0 -0.42319771321255989 -0.28248228398609793 0 -0.42319771321255989 -0.28248228398609793 0 -0.40723477185768331 -0.29343486721504308 0 -0.40215777362222521 -0.27746006717491711 0 -0.42730207374459939 -0.30616647952933151 0 -0.42319771321255989 -0.28248228398609793 0 -0.40723477185768331 -0.29343486721504308 0 -0.42730207374459939 -0.30616647952933151 0 -0.40723477185768331 -0.29343486721504308 0 -0.40456124240457048 -0.31137388115622211 0 -0.40723477185768331 -0.29343486721504308 0 -0.40456124240457048 -0.31137388115622211 0 -0.38337731155086291 -0.29339152605156033 0 -0.39147353256922363 -0.31923702377237589 0 -0.40456124240457048 -0.31137388115622211 0 -0.38337731155086291 -0.29339152605156033 0 -0.37679753608914918 -0.31920909433324862 0 -0.39147353256922363 -0.31923702377237589 0 -0.38337731155086291 -0.29339152605156033 0 -0.37679753608914918 -0.31920909433324862 0 -0.38337731155086291 -0.29339152605156033 0 -0.38337731155086291 -0.29339152605156033 0 -0.40215777362222521 -0.27746006717491711 0 -0.38402132010239542 -0.2741759046140288 0 -0.38337731155086291 -0.29339152605156033 0 -0.38402132010239542 -0.2741759046140288 0 -0.36338093022881518 -0.27882321051481568 0 -0.40723477185768331 -0.29343486721504308 0 -0.38337731155086291 -0.29339152605156033 0 -0.40215777362222521 -0.27746006717491711 0 -0.40215777362222521 -0.27746006717491711 0 -0.38402132010239542 -0.2741759046140288 0 -0.39752155358317182 -0.26377963618841571 0 -0.38402132010239542 -0.2741759046140288 0 -0.38480109142132229 -0.25925509277799202 0 -0.39752155358317182 -0.26377963618841571 0 -0.38402132010239542 -0.2741759046140288 0 -0.38480109142132229 -0.25925509277799202 0 -0.3720093115364197 -0.26511000211556768 0 -0.38480109142132229 -0.25925509277799202 0 -0.3828579426991861 -0.25092053189599872 0 -0.3995187138708407 -0.25096423349375929 0 -0.3828579426991861 -0.25092053189599872 0 -0.37380083004559339 -0.25432553415416859 0 -0.37547880863840599 -0.24729281026332789 0 -0.38480109142132229 -0.25925509277799202 0 -0.3828579426991861 -0.25092053189599872 0 -0.37380083004559339 -0.25432553415416859 0 -0.38480109142132229 -0.25925509277799202 0 -0.3720093115364197 -0.26511000211556768 0 -0.37380083004559339 -0.25432553415416859 0 -0.39752155358317182 -0.26377963618841571 0 -0.3995187138708407 -0.25096423349375929 0 -0.41909335268051939 -0.25879808844286423 0 -0.38480109142132229 -0.25925509277799202 0 -0.39752155358317182 -0.26377963618841571 0 -0.3995187138708407 -0.25096423349375929 0 -0.3995187138708407 -0.25096423349375929 0 -0.41909335268051939 -0.25879808844286423 0 -0.40510497887039032 -0.24143731959848569 0 -0.3995187138708407 -0.25096423349375929 0 -0.41909335268051939 -0.25879808844286423 0 -0.42319771321255989 -0.28248228398609793 0 -0.41909335268051939 -0.25879808844286423 0 -0.42319771321255989 -0.28248228398609793 0 -0.40215777362222521 -0.27746006717491711 0 -0.41909335268051939 -0.25879808844286423 0 -0.40215777362222521 -0.27746006717491711 0 -0.39752155358317182 -0.26377963618841571 0 -0.41909335268051939 -0.25879808844286423 0 -0.44084128417106738 -0.26750170450426558 0 -0.44686323020782759 -0.29344493906767638 0 -0.42319771321255989 -0.28248228398609793 0 -0.44084128417106738 -0.26750170450426558 0 -0.42319771321255989 -0.28248228398609793 0 -0.41909335268051939 -0.25879808844286423 0 -0.44497875982576141 -0.25176855765867812 0 -0.44084128417106738 -0.26750170450426558 0 -0.41909335268051939 -0.25879808844286423 0 -0.44084128417106738 -0.26750170450426558 0 -0.41909335268051939 -0.25879808844286423 0 -0.44497875982576141 -0.25176855765867812 0 -0.41909335268051939 -0.25879808844286423 0 -0.43419562989388633 -0.2395876413002804 0 -0.31968963613287738 -0.26573007851975972 0 -0.31042351070672292 -0.26817782396401207 0 -0.31210049989603472 -0.25241825301587262 0 -0.32742137705711583 -0.25426019856695448 0 -0.31968963613287738 -0.26573007851975972 0 -0.33485223718784618 -0.26392728557191197 0 -0.32742137705711583 -0.25426019856695448 0 -0.31968963613287738 -0.26573007851975972 0 -0.31210049989603472 -0.25241825301587262 0 -0.31968963613287738 -0.26573007851975972 0 -0.32663628834413988 -0.28068196884631957 0 -0.33617105712408069 -0.2811641983962086 0 -0.31968963613287738 -0.26573007851975972 0 -0.33617105712408069 -0.2811641983962086 0 -0.31968963613287738 -0.26573007851975972 0 -0.317618037719543 -0.27546034411448728 0 -0.31042351070672292 -0.26817782396401207 0 -0.317618037719543 -0.27546034411448728 0 -0.31149053537782162 -0.27843162855954279 0 -0.31042351070672292 -0.26817782396401207 0 -0.317618037719543 -0.27546034411448728 0 -0.31985021803615299 -0.28428022068280218 0 -0.31149053537782162 -0.27843162855954279 0 -0.317618037719543 -0.27546034411448728 0 -0.32663628834413988 -0.28068196884631957 0 -0.31985021803615299 -0.28428022068280218 0 -0.31968963613287738 -0.26573007851975972 0 -0.317618037719543 -0.27546034411448728 0 -0.32663628834413988 -0.28068196884631957 0 -0.33617105712408069 -0.2811641983962086 0 -0.34041328162905132 -0.27019530288111349 0 -0.33485223718784618 -0.26392728557191197 0 -0.31968963613287738 -0.26573007851975972 0 -0.33617105712408069 -0.2811641983962086 0 -0.33485223718784618 -0.26392728557191197 0 -0.33617105712408069 -0.2811641983962086 0 -0.34121860607675231 -0.27780618611681568 0 -0.34041328162905132 -0.27019530288111349 0 -0.33617105712408069 -0.2811641983962086 0 -0.34121860607675231 -0.27780618611681568 0 -0.34121860607675231 -0.27780618611681568 0 -0.34041328162905132 -0.27019530288111349 0 -0.34701149215872762 -0.27316346723524287 0 -0.33485223718784618 -0.26392728557191197 0 -0.34039461851881608 -0.25067750062420868 0 -0.35188851429315088 -0.25670994696186361 0 -0.34041328162905132 -0.27019530288111349 0 -0.33485223718784618 -0.26392728557191197 0 -0.35188851429315088 -0.25670994696186361 0 -0.32742137705711583 -0.25426019856695448 0 -0.33485223718784618 -0.26392728557191197 0 -0.34039461851881608 -0.25067750062420868 0 -0.35188851429315088 -0.25670994696186361 0 -0.34701149215872762 -0.27316346723524287 0 -0.35188851429315088 -0.25670994696186361 0 -0.36385882892131849 -0.25792632641398661 0 -0.35941497369252529 -0.2671207917903895 0 -0.35188851429315088 -0.25670994696186361 0 -0.36385882892131849 -0.25792632641398661 0 -0.36556925121364392 -0.2463796590546076 0 -0.36385882892131849 -0.25792632641398661 0 -0.3720093115364197 -0.26511000211556768 0 -0.35941497369252529 -0.2671207917903895 0 -0.36385882892131849 -0.25792632641398661 0 -0.3720093115364197 -0.26511000211556768 0 -0.37380083004559339 -0.25432553415416859 0 -0.36385882892131849 -0.25792632641398661 0 -0.37380083004559339 -0.25432553415416859 0 -0.36556925121364392 -0.2463796590546076 0 -0.38402132010239542 -0.2741759046140288 0 -0.3720093115364197 -0.26511000211556768 0 -0.36338093022881518 -0.27882321051481568 0 -0.3720093115364197 -0.26511000211556768 0 -0.35941497369252529 -0.2671207917903895 0 -0.36338093022881518 -0.27882321051481568 0 -0.34041328162905132 -0.27019530288111349 0 -0.35188851429315088 -0.25670994696186361 0 -0.34701149215872762 -0.27316346723524287 0 -0.35941497369252529 -0.2671207917903895 0 -0.36338093022881518 -0.27882321051481568 0 -0.34701149215872762 -0.27316346723524287 0 -0.34121860607675231 -0.27780618611681568 0 -0.36338093022881518 -0.27882321051481568 0 -0.34701149215872762 -0.27316346723524287 0 -0.35188851429315088 -0.25670994696186361 0 -0.35941497369252529 -0.2671207917903895 0 -0.34701149215872762 -0.27316346723524287 0 -0.33617105712408069 -0.2811641983962086 0 -0.34121860607675231 -0.27780618611681568 0 -0.3564842966066144 -0.30018664636472908 0 -0.34121860607675231 -0.27780618611681568 0 -0.36338093022881518 -0.27882321051481568 0 -0.3564842966066144 -0.30018664636472908 0 -0.33617105712408069 -0.2811641983962086 0 -0.3564842966066144 -0.30018664636472908 0 -0.34058158662384252 -0.29094994128588619 0 -0.33617105712408069 -0.2811641983962086 0 -0.3564842966066144 -0.30018664636472908 0 -0.38337731155086291 -0.29339152605156033 0 -0.36338093022881518 -0.27882321051481568 0 -0.3564842966066144 -0.30018664636472908 0 -0.37679753608914918 -0.31920909433324862 0 -0.3564842966066144 -0.30018664636472908 0 -0.35642841189617908 -0.30899183369039118 0 -0.37679753608914918 -0.31920909433324862 0 -0.38337731155086291 -0.29339152605156033 0 -0.3564842966066144 -0.30018664636472908 0 -0.37679753608914918 -0.31920909433324862 0 -0.3564842966066144 -0.30018664636472908 0 -0.3564842966066144 -0.30018664636472908 0 -0.35642841189617908 -0.30899183369039118 0 -0.34058158662384252 -0.29094994128588619 0 -0.35642841189617908 -0.30899183369039118 0 -0.3379342133339896 -0.29141778393255852 0 -0.35642841189617908 -0.30899183369039118 0 -0.34058158662384252 -0.29094994128588619 0 -0.3379342133339896 -0.29141778393255852 0 -0.35642841189617908 -0.30899183369039118 0 -0.32893969312722388 -0.30731784291187969 0 -0.3379342133339896 -0.29141778393255852 0 -0.34058158662384252 -0.29094994128588619 0 -0.3379342133339896 -0.29141778393255852 0 -0.33617105712408069 -0.2811641983962086 0 -0.34058158662384252 -0.29094994128588619 0 -0.3379342133339896 -0.29141778393255852 0 -0.32663628834413988 -0.28068196884631957 0 -0.33617105712408069 -0.2811641983962086 0 -0.33086122542433632 -0.28469670104579647 0 -0.33617105712408069 -0.2811641983962086 0 -0.3379342133339896 -0.29141778393255852 0 -0.33086122542433632 -0.28469670104579647 0 -0.33617105712408069 -0.2811641983962086 0 -0.33086122542433632 -0.28469670104579647 0 -0.3379342133339896 -0.29141778393255852 0 -0.33086122542433632 -0.28469670104579647 0 -0.32663628834413988 -0.28068196884631957 0 -0.33086122542433632 -0.28469670104579647 0 -0.3379342133339896 -0.29141778393255852 0 -0.3145457693584387 -0.29555097949398562 0 -0.3379342133339896 -0.29141778393255852 0 -0.33086122542433632 -0.28469670104579647 0 -0.3145457693584387 -0.29555097949398562 0 -0.33086122542433632 -0.28469670104579647 0 -0.3145457693584387 -0.29555097949398562 0 -0.31985021803615299 -0.28428022068280218 0 -0.3145457693584387 -0.29555097949398562 0 -0.31149053537782162 -0.27843162855954279 0 -0.33086122542433632 -0.28469670104579647 0 -0.31985021803615299 -0.28428022068280218 0 -0.3145457693584387 -0.29555097949398562 0 -0.32663628834413988 -0.28068196884631957 0 -0.33086122542433632 -0.28469670104579647 0 -0.31985021803615299 -0.28428022068280218 0 -0.32893969312722388 -0.30731784291187969 0 -0.3145457693584387 -0.29555097949398562 0 -0.31221002264487407 -0.31041378279218468 0 -0.32893969312722388 -0.30731784291187969 0 -0.3379342133339896 -0.29141778393255852 0 -0.3145457693584387 -0.29555097949398562 0 -0.32893969312722388 -0.30731784291187969 0 -0.31822259381597767 -0.32457915335212278 0 -0.31221002264487407 -0.31041378279218468 0 -0.31822259381597767 -0.32457915335212278 0 -0.33893773964970381 -0.3230614454762667 0 -0.32559966578145949 -0.34860664626512128 0 -0.31822259381597767 -0.32457915335212278 0 -0.32559966578145949 -0.34860664626512128 0 -0.30571541260555429 -0.33744010824089299 0 -0.33893773964970381 -0.3230614454762667 0 -0.3491649713770737 -0.33909077356307887 0 -0.32559966578145949 -0.34860664626512128 0 -0.35642841189617908 -0.30899183369039118 0 -0.32893969312722388 -0.30731784291187969 0 -0.33893773964970381 -0.3230614454762667 0 -0.32893969312722388 -0.30731784291187969 0 -0.31822259381597767 -0.32457915335212278 0 -0.33893773964970381 -0.3230614454762667 0 -0.35642841189617908 -0.30899183369039118 0 -0.33893773964970381 -0.3230614454762667 0 -0.35840009744958851 -0.3252752293462467 0 -0.35642841189617908 -0.30899183369039118 0 -0.35840009744958851 -0.3252752293462467 0 -0.37492261045837072 -0.32656588344822168 0 -0.35840009744958851 -0.3252752293462467 0 -0.37492261045837072 -0.32656588344822168 0 -0.37273027697268779 -0.32957490086103658 0 -0.35642841189617908 -0.30899183369039118 0 -0.37492261045837072 -0.32656588344822168 0 -0.37679753608914918 -0.31920909433324862 0 -0.35642841189617908 -0.30899183369039118 0 -0.37492261045837072 -0.32656588344822168 0 -0.35840009744958851 -0.3252752293462467 0 -0.37273027697268779 -0.32957490086103658 0 -0.3491649713770737 -0.33909077356307887 0 -0.37273027697268779 -0.32957490086103658 0 -0.3491649713770737 -0.33909077356307887 0 -0.36834570227660079 -0.3523722011642767 0 -0.37492261045837072 -0.32656588344822168 0 -0.37273027697268779 -0.32957490086103658 0 -0.36834570227660079 -0.3523722011642767 0 -0.37273027697268779 -0.32957490086103658 0 -0.3491649713770737 -0.33909077356307887 0 -0.37492261045837072 -0.32656588344822168 0 -0.36834570227660079 -0.3523722011642767 0 -0.33893773964970381 -0.3230614454762667 0 -0.35840009744958851 -0.3252752293462467 0 -0.3491649713770737 -0.33909077356307887 0 -0.3491649713770737 -0.33909077356307887 0 -0.36834570227660079 -0.3523722011642767 0 -0.34214277717918617 -0.36448091761750828 0 -0.37993774591511659 -0.37833552289366762 0 -0.36834570227660079 -0.3523722011642767 0 -0.36176879409482982 -0.37817851888033138 0 -0.36834570227660079 -0.3523722011642767 0 -0.36176879409482982 -0.37817851888033138 0 -0.36834570227660079 -0.3523722011642767 0 -0.34214277717918617 -0.36448091761750828 0 -0.36176879409482982 -0.37817851888033138 0 -0.34214277717918617 -0.36448091761750828 0 -0.32757914467136329 -0.3628632853407554 0 -0.32394909375273467 -0.37718586586468678 0 -0.34214277717918617 -0.36448091761750828 0 -0.32559966578145949 -0.34860664626512128 0 -0.32757914467136329 -0.3628632853407554 0 -0.3491649713770737 -0.33909077356307887 0 -0.34214277717918617 -0.36448091761750828 0 -0.32559966578145949 -0.34860664626512128 0 -0.3491649713770737 -0.33909077356307887 0 -0.32559966578145949 -0.34860664626512128 0 -0.32559966578145949 -0.34860664626512128 0 -0.30203436018584529 -0.35812251896716357 0 -0.32559966578145949 -0.34860664626512128 0 -0.31504894121792149 -0.36671940128343988 0 -0.30203436018584529 -0.35812251896716357 0 -0.32559966578145949 -0.34860664626512128 0 -0.31504894121792149 -0.36671940128343988 0 -0.32757914467136329 -0.3628632853407554 0 -0.31504894121792149 -0.36671940128343988 0 -0.32394909375273467 -0.37718586586468678 0 -0.30971386428111503 -0.38063110199780748 0 -0.31504894121792149 -0.36671940128343988 0 -0.32757914467136329 -0.3628632853407554 0 -0.32394909375273467 -0.37718586586468678 0 -0.30226511200641271 -0.37121533389663203 0 -0.30203436018584529 -0.35812251896716357 0 -0.28998730317660182 -0.36312277192354769 0 -0.31504894121792149 -0.36671940128343988 0 -0.30226511200641271 -0.37121533389663203 0 -0.30971386428111503 -0.38063110199780748 0 -0.31504894121792149 -0.36671940128343988 0 -0.30226511200641271 -0.37121533389663203 0 -0.30203436018584529 -0.35812251896716357 0 -0.30203436018584529 -0.35812251896716357 0 -0.29551259517812201 -0.3452189007822401 0 -0.30571541260555429 -0.33744010824089299 0 -0.32559966578145949 -0.34860664626512128 0 -0.30203436018584529 -0.35812251896716357 0 -0.30571541260555429 -0.33744010824089299 0 -0.28584217853824828 -0.3510868368175461 0 -0.27403410368137637 -0.35538883095197588 0 -0.28543289810772221 -0.33196910595502038 0 -0.30203436018584529 -0.35812251896716357 0 -0.28584217853824828 -0.3510868368175461 0 -0.28998730317660182 -0.36312277192354769 0 -0.30203436018584529 -0.35812251896716357 0 -0.29551259517812201 -0.3452189007822401 0 -0.28584217853824828 -0.3510868368175461 0 -0.28998730317660182 -0.36312277192354769 0 -0.28858467419784778 -0.38004572794641278 0 -0.28088465739938329 -0.37557034813830148 0 -0.28998730317660182 -0.36312277192354769 0 -0.29685266484109368 -0.38627889629614021 0 -0.30226511200641271 -0.37121533389663203 0 -0.28998730317660182 -0.36312277192354769 0 -0.29685266484109368 -0.38627889629614021 0 -0.28584217853824828 -0.3510868368175461 0 -0.28998730317660182 -0.36312277192354769 0 -0.27924568723320098 -0.36495934315615342 0 -0.28998730317660182 -0.36312277192354769 0 -0.27924568723320098 -0.36495934315615342 0 -0.28088465739938329 -0.37557034813830148 0 -0.27924568723320098 -0.36495934315615342 0 -0.27403410368137637 -0.35538883095197588 0 -0.26263530925503081 -0.37880855594893181 0 -0.27403410368137637 -0.35538883095197588 0 -0.26263530925503081 -0.37880855594893181 0 -0.27924568723320098 -0.36495934315615342 0 -0.28088465739938329 -0.37557034813830148 0 -0.26263530925503081 -0.37880855594893181 0 -0.26263530925503081 -0.37880855594893181 0 -0.2410584667203971 -0.36880170639040211 0 -0.25500649567631167 -0.35475491580672958 0 -0.26263530925503081 -0.37880855594893181 0 -0.2410584667203971 -0.36880170639040211 0 -0.25500649567631167 -0.35475491580672958 0 -0.27403410368137637 -0.35538883095197588 0 -0.26263530925503081 -0.37880855594893181 0 -0.25500649567631167 -0.35475491580672958 0 -0.26288567363771947 -0.34244777566766882 0 -0.25351994629854879 -0.33614998410327163 0 -0.25500649567631167 -0.35475491580672958 0 -0.27403410368137637 -0.35538883095197588 0 -0.26288567363771947 -0.34244777566766882 0 -0.27403410368137637 -0.35538883095197588 0 -0.27264693635650822 -0.34022981213895281 0 -0.26288567363771947 -0.34244777566766882 0 -0.28584217853824828 -0.3510868368175461 0 -0.27924568723320098 -0.36495934315615342 0 -0.27403410368137637 -0.35538883095197588 0 -0.27403410368137637 -0.35538883095197588 0 -0.28543289810772221 -0.33196910595502038 0 -0.27403410368137637 -0.35538883095197588 0 -0.27264693635650822 -0.34022981213895281 0 -0.28543289810772221 -0.33196910595502038 0 -0.27642561738091981 -0.33205303285056731 0 -0.27264693635650822 -0.34022981213895281 0 -0.28543289810772221 -0.33196910595502038 0 -0.27642561738091981 -0.33205303285056731 0 -0.26767906170055489 -0.33338451095704552 0 -0.27264693635650822 -0.34022981213895281 0 -0.27642561738091981 -0.33205303285056731 0 -0.26767906170055489 -0.33338451095704552 0 -0.27053910735494058 -0.32482754773896999 0 -0.26767906170055489 -0.33338451095704552 0 -0.27264693635650822 -0.34022981213895281 0 -0.26288567363771947 -0.34244777566766882 0 -0.25351994629854879 -0.33614998410327163 0 -0.27053910735494058 -0.32482754773896999 0 -0.26767906170055489 -0.33338451095704552 0 -0.25351994629854879 -0.33614998410327163 0 -0.27053910735494058 -0.32482754773896999 0 -0.26767906170055489 -0.33338451095704552 0 -0.26288567363771947 -0.34244777566766882 0 -0.25351994629854879 -0.33614998410327163 0 -0.25351994629854879 -0.33614998410327163 0 -0.2572663513955103 -0.31785425920739002 0 -0.27053910735494058 -0.32482754773896999 0 -0.2572663513955103 -0.31785425920739002 0 -0.27053910735494058 -0.32482754773896999 0 -0.26318398612873228 -0.30462761129958732 0 -0.25351994629854879 -0.33614998410327163 0 -0.2572663513955103 -0.31785425920739002 0 -0.2458983744681541 -0.32041556923091957 0 -0.25072407166226252 -0.31310227506437138 0 -0.2572663513955103 -0.31785425920739002 0 -0.2458983744681541 -0.32041556923091957 0 -0.27053910735494058 -0.32482754773896999 0 -0.26318398612873228 -0.30462761129958732 0 -0.27053910735494058 -0.32482754773896999 0 -0.28507300945157471 -0.31515849407241009 0 -0.26318398612873228 -0.30462761129958732 0 -0.27642561738091981 -0.33205303285056731 0 -0.27053910735494058 -0.32482754773896999 0 -0.28507300945157471 -0.31515849407241009 0 -0.27053910735494058 -0.32482754773896999 0 -0.28507300945157471 -0.31515849407241009 0 -0.28543289810772221 -0.33196910595502038 0 -0.29770526308175771 -0.30675456115282551 0 -0.28543289810772221 -0.33196910595502038 0 -0.30380745230655309 -0.32213347312263357 0 -0.29770526308175771 -0.30675456115282551 0 -0.27642561738091981 -0.33205303285056731 0 -0.28507300945157471 -0.31515849407241009 0 -0.28543289810772221 -0.33196910595502038 0 -0.28507300945157471 -0.31515849407241009 0 -0.28543289810772221 -0.33196910595502038 0 -0.28507300945157471 -0.31515849407241009 0 -0.28543289810772221 -0.33196910595502038 0 -0.29770526308175771 -0.30675456115282551 0 -0.29551259517812201 -0.3452189007822401 0 -0.28584217853824828 -0.3510868368175461 0 -0.28543289810772221 -0.33196910595502038 0 -0.29551259517812201 -0.3452189007822401 0 -0.28543289810772221 -0.33196910595502038 0 -0.30571541260555429 -0.33744010824089299 0 -0.28584217853824828 -0.3510868368175461 0 -0.28543289810772221 -0.33196910595502038 0 -0.28543289810772221 -0.33196910595502038 0 -0.30571541260555429 -0.33744010824089299 0 -0.30380745230655309 -0.32213347312263357 0 -0.31822259381597767 -0.32457915335212278 0 -0.30571541260555429 -0.33744010824089299 0 -0.30380745230655309 -0.32213347312263357 0 -0.31822259381597767 -0.32457915335212278 0 -0.30380745230655309 -0.32213347312263357 0 -0.31221002264487407 -0.31041378279218468 0 -0.30380745230655309 -0.32213347312263357 0 -0.29770526308175771 -0.30675456115282551 0 -0.31221002264487407 -0.31041378279218468 0 -0.3145457693584387 -0.29555097949398562 0 -0.30208659966653972 -0.29775275849747668 0 -0.29770526308175771 -0.30675456115282551 0 -0.3145457693584387 -0.29555097949398562 0 -0.29770526308175771 -0.30675456115282551 0 -0.3145457693584387 -0.29555097949398562 0 -0.29770526308175771 -0.30675456115282551 0 -0.31221002264487407 -0.31041378279218468 0 -0.30208659966653972 -0.29775275849747668 0 -0.29770526308175771 -0.30675456115282551 0 -0.30208659966653972 -0.29775275849747668 0 -0.296461814674501 -0.28524968269334811 0 -0.31149053537782162 -0.27843162855954279 0 -0.30208659966653972 -0.29775275849747668 0 -0.31149053537782162 -0.27843162855954279 0 -0.3145457693584387 -0.29555097949398562 0 -0.30208659966653972 -0.29775275849747668 0 -0.3145457693584387 -0.29555097949398562 0 -0.30208659966653972 -0.29775275849747668 0 -0.31149053537782162 -0.27843162855954279 0 -0.296461814674501 -0.28524968269334811 0 -0.28476590927562639 -0.30081366330667431 0 -0.28424022075072991 -0.2762584415395995 0 -0.28476590927562639 -0.30081366330667431 0 -0.28424022075072991 -0.2762584415395995 0 -0.30208659966653972 -0.29775275849747668 0 -0.296461814674501 -0.28524968269334811 0 -0.28476590927562639 -0.30081366330667431 0 -0.30208659966653972 -0.29775275849747668 0 -0.28476590927562639 -0.30081366330667431 0 -0.30208659966653972 -0.29775275849747668 0 -0.29770526308175771 -0.30675456115282551 0 -0.28476590927562639 -0.30081366330667431 0 -0.28507300945157471 -0.31515849407241009 0 -0.29770526308175771 -0.30675456115282551 0 -0.28476590927562639 -0.30081366330667431 0 -0.28507300945157471 -0.31515849407241009 0 -0.29770526308175771 -0.30675456115282551 0 -0.28507300945157471 -0.31515849407241009 0 -0.28476590927562639 -0.30081366330667431 0 -0.28476590927562639 -0.30081366330667431 0 -0.26318398612873228 -0.30462761129958732 0 -0.27142123454687578 -0.28735609120417022 0 -0.28476590927562639 -0.30081366330667431 0 -0.26318398612873228 -0.30462761129958732 0 -0.28507300945157471 -0.31515849407241009 0 -0.28476590927562639 -0.30081366330667431 0 -0.26318398612873228 -0.30462761129958732 0 -0.2572663513955103 -0.31785425920739002 0 -0.26318398612873228 -0.30462761129958732 0 -0.25571377929708311 -0.30594774297451821 0 -0.26318398612873228 -0.30462761129958732 0 -0.25571377929708311 -0.30594774297451821 0 -0.25168676349552088 -0.29943337804130671 0 -0.25571377929708311 -0.30594774297451821 0 -0.24394908907900381 -0.30810693186372679 0 -0.26318398612873228 -0.30462761129958732 0 -0.25168676349552088 -0.29943337804130671 0 -0.25571377929708311 -0.30594774297451821 0 -0.25072407166226252 -0.31310227506437138 0 -0.2572663513955103 -0.31785425920739002 0 -0.25571377929708311 -0.30594774297451821 0 -0.25072407166226252 -0.31310227506437138 0 -0.25571377929708311 -0.30594774297451821 0 -0.24394908907900381 -0.30810693186372679 0 -0.26318398612873228 -0.30462761129958732 0 -0.25514356121376902 -0.28254557250882573 0 -0.27142123454687578 -0.28735609120417022 0 -0.26318398612873228 -0.30462761129958732 0 -0.25514356121376902 -0.28254557250882573 0 -0.26318398612873228 -0.30462761129958732 0 -0.25168676349552088 -0.29943337804130671 0 -0.25514356121376902 -0.28254557250882573 0 -0.28476590927562639 -0.30081366330667431 0 -0.27142123454687578 -0.28735609120417022 0 -0.28424022075072991 -0.2762584415395995 0 -0.27142123454687578 -0.28735609120417022 0 -0.26909230415548219 -0.26429949655091051 0 -0.28424022075072991 -0.2762584415395995 0 -0.25514356121376902 -0.28254557250882573 0 -0.26909230415548219 -0.26429949655091051 0 -0.2471031362988059 -0.26046353371806419 0 -0.25514356121376902 -0.28254557250882573 0 -0.2471031362988059 -0.26046353371806419 0 -0.25514356121376902 -0.28254557250882573 0 -0.27142123454687578 -0.28735609120417022 0 -0.26909230415548219 -0.26429949655091051 0 -0.26131757946403789 -0.25017926503677518 0 -0.26909230415548219 -0.26429949655091051 0 -0.2471031362988059 -0.26046353371806419 0 -0.26131757946403789 -0.25017926503677518 0 -0.2471031362988059 -0.26046353371806419 0 -0.25237269560906372 -0.24312716399029821 0 -0.26131757946403789 -0.25017926503677518 0 -0.26909230415548219 -0.26429949655091051 0 -0.27644720576467241 -0.2464562579228419 0 -0.26909230415548219 -0.26429949655091051 0 -0.2837145322258337 -0.25170321977252469 0 -0.28424022075072991 -0.2762584415395995 0 -0.26909230415548219 -0.26429949655091051 0 -0.2837145322258337 -0.25170321977252469 0 -0.27644720576467241 -0.2464562579228419 0 -0.2837145322258337 -0.25170321977252469 0 -0.28424022075072991 -0.2762584415395995 0 -0.2837145322258337 -0.25170321977252469 0 -0.28424022075072991 -0.2762584415395995 0 -0.29178897401752141 -0.26596071124852538 0 -0.29313367440311477 -0.25755646988463998 0 -0.29697675663465212 -0.25032317055572678 0 -0.30030363166817142 -0.26106588605496572 0 -0.2837145322258337 -0.25170321977252469 0 -0.29313367440311477 -0.25755646988463998 0 -0.29697675663465212 -0.25032317055572678 0 -0.2837145322258337 -0.25170321977252469 0 -0.29313367440311477 -0.25755646988463998 0 -0.29178897401752141 -0.26596071124852538 0 -0.29313367440311477 -0.25755646988463998 0 -0.29178897401752141 -0.26596071124852538 0 -0.30030363166817142 -0.26106588605496572 0 -0.296461814674501 -0.28524968269334811 0 -0.28424022075072991 -0.2762584415395995 0 -0.29972580830178758 -0.27299192156344798 0 -0.28424022075072991 -0.2762584415395995 0 -0.29178897401752141 -0.26596071124852538 0 -0.29972580830178758 -0.27299192156344798 0 -0.29178897401752141 -0.26596071124852538 0 -0.29972580830178758 -0.27299192156344798 0 -0.30030363166817142 -0.26106588605496572 0 -0.29972580830178758 -0.27299192156344798 0 -0.31042351070672292 -0.26817782396401207 0 -0.30030363166817142 -0.26106588605496572 0 -0.296461814674501 -0.28524968269334811 0 -0.29972580830178758 -0.27299192156344798 0 -0.31149053537782162 -0.27843162855954279 0 -0.29972580830178758 -0.27299192156344798 0 -0.31149053537782162 -0.27843162855954279 0 -0.31042351070672292 -0.26817782396401207 0 -0.31042351070672292 -0.26817782396401207 0 -0.31210049989603472 -0.25241825301587262 0 -0.30030363166817142 -0.26106588605496572 0 -0.31210049989603472 -0.25241825301587262 0 -0.29697675663465212 -0.25032317055572678 0 -0.30030363166817142 -0.26106588605496572 0 -0.34136334783151789 -0.45461881950941929 0 -0.31867944614141802 -0.45989827530974281 0 -0.33452756228838493 -0.47196488380069263 0 -0.34136334783151789 -0.45461881950941929 0 -0.31867944614141802 -0.45989827530974281 0 -0.34136334783151789 -0.45461881950941929 0 -0.32782096063021232 -0.44319515051701402 0 -0.31867944614141802 -0.45989827530974281 0 -0.34136334783151789 -0.45461881950941929 0 -0.33667666664898682 -0.43931731675904773 0 -0.34821621991576712 -0.44028145810897151 0 -0.33667666664898682 -0.43931731675904773 0 -0.32782096063021232 -0.44319515051701402 0 -0.32698472205938262 -0.43094242286394541 0 -0.34136334783151789 -0.45461881950941929 0 -0.33667666664898682 -0.43931731675904773 0 -0.32782096063021232 -0.44319515051701402 0 -0.32782096063021232 -0.44319515051701402 0 -0.31979150232678999 -0.43808754550169571 0 -0.31867944614141802 -0.45989827530974281 0 -0.31867944614141802 -0.45989827530974281 0 -0.31058338817007641 -0.43259114504132568 0 -0.31979150232678999 -0.43808754550169571 0 -0.31867944614141802 -0.45989827530974281 0 -0.31058338817007641 -0.43259114504132568 0 -0.32559164391967799 -0.48321237284216478 0 -0.31416185333156532 -0.49000327564167673 0 -0.30120678990250582 -0.47902471371826921 0 -0.31867944614141802 -0.45989827530974281 0 -0.32559164391967799 -0.48321237284216478 0 -0.31154630710559861 -0.47092606262365788 0 -0.32559164391967799 -0.48321237284216478 0 -0.30120678990250582 -0.47902471371826921 0 -0.31867944614141802 -0.45989827530974281 0 -0.32559164391967799 -0.48321237284216478 0 -0.33452756228838493 -0.47196488380069263 0 -0.32559164391967799 -0.48321237284216478 0 -0.31154630710559861 -0.47092606262365788 0 -0.30120678990250582 -0.47902471371826921 0 -0.31867944614141802 -0.45989827530974281 0 -0.32559164391967799 -0.48321237284216478 0 -0.32965511814247228 -0.4969180330952212 0 -0.33861596686155582 -0.5 0 -0.31162263142645902 -0.5 0 -0.31416185333156532 -0.49000327564167673 0 -0.32965511814247228 -0.4969180330952212 0 -0.31162263142645902 -0.5 0 -0.32559164391967799 -0.48321237284216478 0 -0.31416185333156532 -0.49000327564167673 0 -0.32965511814247228 -0.4969180330952212 0 -0.32559164391967799 -0.48321237284216478 0 -0.32965511814247228 -0.4969180330952212 0 -0.33677682624107919 -0.48844422675948468 0 -0.33861596686155582 -0.5 0 -0.34754682215138227 -0.4798281384951385 0 -0.32965511814247228 -0.4969180330952212 0 -0.33677682624107919 -0.48844422675948468 0 -0.33861596686155582 -0.5 0 -0.32559164391967799 -0.48321237284216478 0 -0.32965511814247228 -0.4969180330952212 0 -0.33176217571454591 -0.48730280496405082 0 -0.32965511814247228 -0.4969180330952212 0 -0.33176217571454591 -0.48730280496405082 0 -0.33677682624107919 -0.48844422675948468 0 -0.33176217571454591 -0.48730280496405082 0 -0.33677682624107919 -0.48844422675948468 0 -0.33415338992114407 -0.48048688416690472 0 -0.34136334783151789 -0.45461881950941929 0 -0.33452756228838493 -0.47196488380069263 0 -0.34754682215138227 -0.4798281384951385 0 -0.32559164391967799 -0.48321237284216478 0 -0.33452756228838493 -0.47196488380069263 0 -0.33415338992114407 -0.48048688416690472 0 -0.32559164391967799 -0.48321237284216478 0 -0.33176217571454591 -0.48730280496405082 0 -0.33415338992114407 -0.48048688416690472 0 -0.33677682624107919 -0.48844422675948468 0 -0.33415338992114407 -0.48048688416690472 0 -0.34754682215138227 -0.4798281384951385 0 -0.33452756228838493 -0.47196488380069263 0 -0.33415338992114407 -0.48048688416690472 0 -0.34754682215138227 -0.4798281384951385 0 -0.38620911950256043 -0.47631667062209138 0 -0.36560930229665273 -0.5 0 -0.36704025334186352 -0.46792579456813288 0 -0.34754682215138227 -0.4798281384951385 0 -0.36560930229665273 -0.5 0 -0.36704025334186352 -0.46792579456813288 0 -0.33861596686155582 -0.5 0 -0.34754682215138227 -0.4798281384951385 0 -0.36560930229665273 -0.5 0 -0.38673115121171781 -0.44405990790877248 0 -0.36704025334186352 -0.46792579456813288 0 -0.36404724952161782 -0.44933936370909588 0 -0.34136334783151789 -0.45461881950941929 0 -0.34754682215138227 -0.4798281384951385 0 -0.36704025334186352 -0.46792579456813288 0 -0.34136334783151789 -0.45461881950941929 0 -0.36704025334186352 -0.46792579456813288 0 -0.36404724952161782 -0.44933936370909588 0 -0.34136334783151789 -0.45461881950941929 0 -0.36404724952161782 -0.44933936370909588 0 -0.34821621991576712 -0.44028145810897151 0 -0.36404724952161782 -0.44933936370909588 0 -0.35870314554867272 -0.42784216339789372 0 -0.34136334783151789 -0.45461881950941929 0 -0.34821621991576712 -0.44028145810897151 0 -0.36404724952161782 -0.44933936370909588 0 -0.38673115121171781 -0.44405990790877248 0 -0.36404724952161782 -0.44933936370909588 0 -0.35870314554867272 -0.42784216339789372 0 -0.37817244211751749 -0.41949326649288188 0 -0.38673115121171781 -0.44405990790877248 0 -0.35870314554867272 -0.42784216339789372 0 -0.37817244211751749 -0.41949326649288188 0 -0.35870314554867272 -0.42784216339789372 0 -0.35519188591305878 -0.40398483659638612 0 -0.37617113698211418 -0.39781486166417812 0 -0.37817244211751749 -0.41949326649288188 0 -0.35519188591305878 -0.40398483659638612 0 -0.35870314554867272 -0.42784216339789372 0 -0.35519188591305878 -0.40398483659638612 0 -0.34101909408278119 -0.41181176774882389 0 -0.34821621991576712 -0.44028145810897151 0 -0.35870314554867272 -0.42784216339789372 0 -0.33865792301332093 -0.42682744480285878 0 -0.35870314554867272 -0.42784216339789372 0 -0.33865792301332093 -0.42682744480285878 0 -0.34101909408278119 -0.41181176774882389 0 -0.37617113698211418 -0.39781486166417812 0 -0.37993774591511659 -0.37833552289366762 0 -0.36176879409482982 -0.37817851888033138 0 -0.37617113698211418 -0.39781486166417812 0 -0.36176879409482982 -0.37817851888033138 0 -0.35519188591305878 -0.40398483659638612 0 -0.36176879409482982 -0.37817851888033138 0 -0.35519188591305878 -0.40398483659638612 0 -0.36176879409482982 -0.37817851888033138 0 -0.35519188591305878 -0.40398483659638612 0 -0.3361146637155048 -0.39386761572617901 0 -0.35519188591305878 -0.40398483659638612 0 -0.3361146637155048 -0.39386761572617901 0 -0.34101909408278119 -0.41181176774882389 0 -0.34214277717918617 -0.36448091761750828 0 -0.36176879409482982 -0.37817851888033138 0 -0.3361146637155048 -0.39386761572617901 0 -0.34214277717918617 -0.36448091761750828 0 -0.3361146637155048 -0.39386761572617901 0 -0.32394909375273467 -0.37718586586468678 0 -0.3361146637155048 -0.39386761572617901 0 -0.31452195777013908 -0.39363606687946678 0 -0.32340756452641373 -0.41433288818351133 0 -0.31452195777013908 -0.39363606687946678 0 -0.32340756452641373 -0.41433288818351133 0 -0.30371802650558549 -0.40943502066873277 0 -0.3361146637155048 -0.39386761572617901 0 -0.31452195777013908 -0.39363606687946678 0 -0.32394909375273467 -0.37718586586468678 0 -0.31452195777013908 -0.39363606687946678 0 -0.32394909375273467 -0.37718586586468678 0 -0.30971386428111503 -0.38063110199780748 0 -0.33865792301332093 -0.42682744480285878 0 -0.32340756452641373 -0.41433288818351133 0 -0.32698472205938262 -0.43094242286394541 0 -0.33667666664898682 -0.43931731675904773 0 -0.33865792301332093 -0.42682744480285878 0 -0.32698472205938262 -0.43094242286394541 0 -0.33667666664898682 -0.43931731675904773 0 -0.34821621991576712 -0.44028145810897151 0 -0.33865792301332093 -0.42682744480285878 0 -0.3361146637155048 -0.39386761572617901 0 -0.34101909408278119 -0.41181176774882389 0 -0.32340756452641373 -0.41433288818351133 0 -0.33865792301332093 -0.42682744480285878 0 -0.34101909408278119 -0.41181176774882389 0 -0.32340756452641373 -0.41433288818351133 0 -0.32340756452641373 -0.41433288818351133 0 -0.31697189102341983 -0.42611657929971308 0 -0.30371802650558549 -0.40943502066873277 0 -0.32340756452641373 -0.41433288818351133 0 -0.31697189102341983 -0.42611657929971308 0 -0.32698472205938262 -0.43094242286394541 0 -0.32782096063021232 -0.44319515051701402 0 -0.31979150232678999 -0.43808754550169571 0 -0.32698472205938262 -0.43094242286394541 0 -0.31979150232678999 -0.43808754550169571 0 -0.31697189102341983 -0.42611657929971308 0 -0.32698472205938262 -0.43094242286394541 0 -0.31979150232678999 -0.43808754550169571 0 -0.31697189102341983 -0.42611657929971308 0 -0.31574718026299697 -0.43264821630490508 0 -0.31979150232678999 -0.43808754550169571 0 -0.31574718026299697 -0.43264821630490508 0 -0.31058338817007641 -0.43259114504132568 0 -0.31697189102341983 -0.42611657929971308 0 -0.31574718026299697 -0.43264821630490508 0 -0.31184861945607512 -0.43100795347654269 0 -0.31574718026299697 -0.43264821630490508 0 -0.31184861945607512 -0.43100795347654269 0 -0.31058338817007641 -0.43259114504132568 0 -0.31184861945607512 -0.43100795347654269 0 -0.31058338817007641 -0.43259114504132568 0 -0.30371802650558549 -0.40943502066873277 0 -0.31697189102341983 -0.42611657929971308 0 -0.31184861945607512 -0.43100795347654269 0 -0.30371802650558549 -0.40943502066873277 0 -0.31058338817007641 -0.43259114504132568 0 -0.30371802650558549 -0.40943502066873277 0 -0.28939410985242231 -0.43296413558365138 0 -0.31184861945607512 -0.43100795347654269 0 -0.31058338817007641 -0.43259114504132568 0 -0.31058338817007641 -0.43259114504132568 0 -0.30371802650558549 -0.40943502066873277 0 -0.30371802650558549 -0.40943502066873277 0 -0.29124126446024562 -0.40113330834280658 0 -0.2785137662986657 -0.41447417875427739 0 -0.30371802650558549 -0.40943502066873277 0 -0.28939410985242231 -0.43296413558365138 0 -0.2785137662986657 -0.41447417875427739 0 -0.31452195777013908 -0.39363606687946678 0 -0.30971386428111503 -0.38063110199780748 0 -0.29685266484109368 -0.38627889629614021 0 -0.30226511200641271 -0.37121533389663203 0 -0.30971386428111503 -0.38063110199780748 0 -0.29685266484109368 -0.38627889629614021 0 -0.30371802650558549 -0.40943502066873277 0 -0.29124126446024562 -0.40113330834280658 0 -0.29685266484109368 -0.38627889629614021 0 -0.31452195777013908 -0.39363606687946678 0 -0.30371802650558549 -0.40943502066873277 0 -0.29685266484109368 -0.38627889629614021 0 -0.30371802650558549 -0.40943502066873277 0 -0.29685266484109368 -0.38627889629614021 0 -0.29124126446024562 -0.40113330834280658 0 -0.28028499841596521 -0.40120852688952241 0 -0.2785137662986657 -0.41447417875427739 0 -0.29124126446024562 -0.40113330834280658 0 -0.2875079397098857 -0.39034391709767918 0 -0.28028499841596521 -0.40120852688952241 0 -0.2875079397098857 -0.39034391709767918 0 -0.27818152715629468 -0.39489466292079017 0 -0.28028499841596521 -0.40120852688952241 0 -0.29124126446024562 -0.40113330834280658 0 -0.29685266484109368 -0.38627889629614021 0 -0.2875079397098857 -0.39034391709767918 0 -0.28998730317660182 -0.36312277192354769 0 -0.29685266484109368 -0.38627889629614021 0 -0.28858467419784778 -0.38004572794641278 0 -0.29685266484109368 -0.38627889629614021 0 -0.2875079397098857 -0.39034391709767918 0 -0.28858467419784778 -0.38004572794641278 0 -0.2875079397098857 -0.39034391709767918 0 -0.28858467419784778 -0.38004572794641278 0 -0.28088465739938329 -0.37557034813830148 0 -0.2875079397098857 -0.39034391709767918 0 -0.28088465739938329 -0.37557034813830148 0 -0.26263530925503081 -0.37880855594893181 0 -0.27205150548462609 -0.39108823929410108 0 -0.26551524954802008 -0.39655900131954602 0 -0.26263530925503081 -0.37880855594893181 0 -0.2875079397098857 -0.39034391709767918 0 -0.27205150548462609 -0.39108823929410108 0 -0.26263530925503081 -0.37880855594893181 0 -0.2875079397098857 -0.39034391709767918 0 -0.26263530925503081 -0.37880855594893181 0 -0.27288166501470201 -0.39693796840185819 0 -0.27205150548462609 -0.39108823929410108 0 -0.26551524954802008 -0.39655900131954602 0 -0.27288166501470201 -0.39693796840185819 0 -0.27205150548462609 -0.39108823929410108 0 -0.27818152715629468 -0.39489466292079017 0 -0.2875079397098857 -0.39034391709767918 0 -0.27205150548462609 -0.39108823929410108 0 -0.27818152715629468 -0.39489466292079017 0 -0.27288166501470201 -0.39693796840185819 0 -0.27818152715629468 -0.39489466292079017 0 -0.28028499841596521 -0.40120852688952241 0 -0.28028499841596521 -0.40120852688952241 0 -0.26666126881815472 -0.40271788260373681 0 -0.2785137662986657 -0.41447417875427739 0 -0.27288166501470201 -0.39693796840185819 0 -0.28028499841596521 -0.40120852688952241 0 -0.26666126881815472 -0.40271788260373681 0 -0.27288166501470201 -0.39693796840185819 0 -0.26666126881815472 -0.40271788260373681 0 -0.26551524954802008 -0.39655900131954602 0 -0.26666126881815472 -0.40271788260373681 0 -0.25453547657105441 -0.39545030303945822 0 -0.25999187619247871 -0.41438343238017522 0 -0.2571130702634668 -0.39512538279354559 0 -0.25453547657105441 -0.39545030303945822 0 -0.26666126881815472 -0.40271788260373681 0 -0.2571130702634668 -0.39512538279354559 0 -0.25453547657105441 -0.39545030303945822 0 -0.26666126881815472 -0.40271788260373681 0 -0.2571130702634668 -0.39512538279354559 0 -0.26551524954802008 -0.39655900131954602 0 -0.25453547657105441 -0.39545030303945822 0 -0.26263530925503081 -0.37880855594893181 0 -0.2571130702634668 -0.39512538279354559 0 -0.26551524954802008 -0.39655900131954602 0 -0.26263530925503081 -0.37880855594893181 0 -0.2571130702634668 -0.39512538279354559 0 -0.25453547657105441 -0.39545030303945822 0 -0.26263530925503081 -0.37880855594893181 0 -0.25453547657105441 -0.39545030303945822 0 -0.26263530925503081 -0.37880855594893181 0 -0.2408015769208065 -0.38493132644109568 0 -0.28939410985242231 -0.43296413558365138 0 -0.2785137662986657 -0.41447417875427739 0 -0.26272293760706161 -0.43206883213692421 0 -0.26666126881815472 -0.40271788260373681 0 -0.2785137662986657 -0.41447417875427739 0 -0.25999187619247871 -0.41438343238017522 0 -0.2785137662986657 -0.41447417875427739 0 -0.25999187619247871 -0.41438343238017522 0 -0.26272293760706161 -0.43206883213692421 0 -0.25453547657105441 -0.39545030303945822 0 -0.25999187619247871 -0.41438343238017522 0 -0.24204208205115191 -0.4211189705310201 0 -0.26272293760706161 -0.43206883213692421 0 -0.24918707474357821 -0.45097152698664672 0 -0.24204208205115191 -0.4211189705310201 0 -0.25999187619247871 -0.41438343238017522 0 -0.26272293760706161 -0.43206883213692421 0 -0.24204208205115191 -0.4211189705310201 0 -0.26272293760706161 -0.43206883213692421 0 -0.2719019029635712 -0.45191205880747282 0 -0.24918707474357821 -0.45097152698664672 0 -0.26235008537498877 -0.4620518233433325 0 -0.2719019029635712 -0.45191205880747282 0 -0.24918707474357821 -0.45097152698664672 0 -0.26235008537498877 -0.4620518233433325 0 -0.25148942790747247 -0.47048665298483711 0 -0.24918707474357821 -0.45097152698664672 0 -0.2719019029635712 -0.45191205880747282 0 -0.29370266202770468 -0.45371409981784949 0 -0.27682193588533371 -0.47483705459437381 0 -0.26235008537498877 -0.4620518233433325 0 -0.2719019029635712 -0.45191205880747282 0 -0.27682193588533371 -0.47483705459437381 0 -0.28939410985242231 -0.43296413558365138 0 -0.26272293760706161 -0.43206883213692421 0 -0.2719019029635712 -0.45191205880747282 0 -0.28939410985242231 -0.43296413558365138 0 -0.2719019029635712 -0.45191205880747282 0 -0.29370266202770468 -0.45371409981784949 0 -0.29370266202770468 -0.45371409981784949 0 -0.30027678461173302 -0.46418131442186711 0 -0.27682193588533371 -0.47483705459437381 0 -0.29370266202770468 -0.45371409981784949 0 -0.27682193588533371 -0.47483705459437381 0 -0.31867944614141802 -0.45989827530974281 0 -0.30027678461173302 -0.46418131442186711 0 -0.31154630710559861 -0.47092606262365788 0 -0.29370266202770468 -0.45371409981784949 0 -0.30027678461173302 -0.46418131442186711 0 -0.30673022253014132 -0.45253430905254483 0 -0.31867944614141802 -0.45989827530974281 0 -0.30027678461173302 -0.46418131442186711 0 -0.30673022253014132 -0.45253430905254483 0 -0.31867944614141802 -0.45989827530974281 0 -0.30027678461173302 -0.46418131442186711 0 -0.31058338817007641 -0.43259114504132568 0 -0.28939410985242231 -0.43296413558365138 0 -0.29370266202770468 -0.45371409981784949 0 -0.31058338817007641 -0.43259114504132568 0 -0.29370266202770468 -0.45371409981784949 0 -0.31058338817007641 -0.43259114504132568 0 -0.29370266202770468 -0.45371409981784949 0 -0.30673022253014132 -0.45253430905254483 0 -0.31867944614141802 -0.45989827530974281 0 -0.31058338817007641 -0.43259114504132568 0 -0.30673022253014132 -0.45253430905254483 0 -0.30273308326671161 -0.49086125855272877 0 -0.31162263142645902 -0.5 0 -0.28950049059369398 -0.49518542614949113 0 -0.30273308326671161 -0.49086125855272877 0 -0.30120678990250582 -0.47902471371826921 0 -0.29354334676808919 -0.48579375167337802 0 -0.31416185333156532 -0.49000327564167673 0 -0.30273308326671161 -0.49086125855272877 0 -0.31162263142645902 -0.5 0 -0.31416185333156532 -0.49000327564167673 0 -0.30273308326671161 -0.49086125855272877 0 -0.30120678990250582 -0.47902471371826921 0 -0.30027678461173302 -0.46418131442186711 0 -0.31154630710559861 -0.47092606262365788 0 -0.30120678990250582 -0.47902471371826921 0 -0.28658043993913163 -0.48836241894908389 0 -0.29354334676808919 -0.48579375167337802 0 -0.27682193588533371 -0.47483705459437381 0 -0.30027678461173302 -0.46418131442186711 0 -0.30120678990250582 -0.47902471371826921 0 -0.27682193588533371 -0.47483705459437381 0 -0.30120678990250582 -0.47902471371826921 0 -0.29354334676808919 -0.48579375167337802 0 -0.27682193588533371 -0.47483705459437381 0 -0.30120678990250582 -0.47902471371826921 0 -0.27682193588533371 -0.47483705459437381 0 -0.28658043993913163 -0.48836241894908389 0 -0.28950049059369398 -0.49518542614949113 0 -0.279643695648222 -0.48683308624807009 0 -0.31162263142645902 -0.5 0 -0.28462929599136222 -0.5 0 -0.28950049059369398 -0.49518542614949113 0 -0.28658043993913163 -0.48836241894908389 0 -0.29354334676808919 -0.48579375167337802 0 -0.28950049059369398 -0.49518542614949113 0 -0.30273308326671161 -0.49086125855272877 0 -0.29354334676808919 -0.48579375167337802 0 -0.28950049059369398 -0.49518542614949113 0 -0.28462929599136222 -0.5 0 -0.26377566367846861 -0.49116193395700519 0 -0.25763596055626548 -0.5 0 -0.28950049059369398 -0.49518542614949113 0 -0.279643695648222 -0.48683308624807009 0 -0.26636182878919901 -0.48792584990363858 0 -0.28950049059369398 -0.49518542614949113 0 -0.26636182878919901 -0.48792584990363858 0 -0.28462929599136222 -0.5 0 -0.28950049059369398 -0.49518542614949113 0 -0.26636182878919901 -0.48792584990363858 0 -0.28462929599136222 -0.5 0 -0.26636182878919901 -0.48792584990363858 0 -0.26377566367846861 -0.49116193395700519 0 -0.279643695648222 -0.48683308624807009 0 -0.26636182878919901 -0.48792584990363858 0 -0.27682193588533371 -0.47483705459437381 0 -0.28658043993913163 -0.48836241894908389 0 -0.279643695648222 -0.48683308624807009 0 -0.27682193588533371 -0.47483705459437381 0 -0.26636182878919901 -0.48792584990363858 0 -0.27682193588533371 -0.47483705459437381 0 -0.26636182878919901 -0.48792584990363858 0 -0.25148942790747247 -0.47048665298483711 0 -0.24170856090027509 -0.48019107770889241 0 -0.26235008537498877 -0.4620518233433325 0 -0.27682193588533371 -0.47483705459437381 0 -0.25148942790747247 -0.47048665298483711 0 -0.26636182878919901 -0.48792584990363858 0 -0.24170856090027509 -0.48019107770889241 0 -0.27682193588533371 -0.47483705459437381 0 -0.25148942790747247 -0.47048665298483711 0 -0.26636182878919901 -0.48792584990363858 0 -0.27682193588533371 -0.47483705459437381 0 -0.25148942790747247 -0.47048665298483711 0 -0.26636182878919901 -0.48792584990363858 0 -0.25380424039197952 -0.49025068373515379 0 -0.24170856090027509 -0.48019107770889241 0 -0.26377566367846861 -0.49116193395700519 0 -0.25380424039197952 -0.49025068373515379 0 -0.25763596055626548 -0.5 0 -0.26636182878919901 -0.48792584990363858 0 -0.26377566367846861 -0.49116193395700519 0 -0.25380424039197952 -0.49025068373515379 0 -0.26636182878919901 -0.48792584990363858 0 -0.26377566367846861 -0.49116193395700519 0 -0.25380424039197952 -0.49025068373515379 0 -0.25763596055626548 -0.5 0 -0.2421020000873956 -0.49105086216149862 0 -0.25763596055626548 -0.5 0 -0.2421020000873956 -0.49105086216149862 0 -0.2306426251211689 -0.5 0 -0.2421020000873956 -0.49105086216149862 0 -0.24170856090027509 -0.48019107770889241 0 -0.226718613467289 -0.48481254936344692 0 -0.25380424039197952 -0.49025068373515379 0 -0.2421020000873956 -0.49105086216149862 0 -0.24170856090027509 -0.48019107770889241 0 -0.25148942790747247 -0.47048665298483711 0 -0.24170856090027509 -0.48019107770889241 0 -0.2261569199296114 -0.46613625137530001 0 -0.24170856090027509 -0.48019107770889241 0 -0.226718613467289 -0.48481254936344692 0 -0.2170552930113511 -0.4724563055141458 0 -0.24170856090027509 -0.48019107770889241 0 -0.2170552930113511 -0.4724563055141458 0 -0.24170856090027509 -0.48019107770889241 0 -0.2261569199296114 -0.46613625137530001 0 -0.2170552930113511 -0.4724563055141458 0 -0.2306426251211689 -0.5 0 -0.226718613467289 -0.48481254936344692 0 -0.21035229134871161 -0.48622815275707271 0 -0.2421020000873956 -0.49105086216149862 0 -0.2306426251211689 -0.5 0 -0.226718613467289 -0.48481254936344692 0 -0.24918707474357821 -0.45097152698664672 0 -0.22954868753125149 -0.44678763802258292 0 -0.24204208205115191 -0.4211189705310201 0 -0.24918707474357821 -0.45097152698664672 0 -0.23909552752797841 -0.45859551734234172 0 -0.22954868753125149 -0.44678763802258292 0 -0.25148942790747247 -0.47048665298483711 0 -0.2261569199296114 -0.46613625137530001 0 -0.25148942790747247 -0.47048665298483711 0 -0.24918707474357821 -0.45097152698664672 0 -0.23909552752797841 -0.45859551734234172 0 -0.25148942790747247 -0.47048665298483711 0 -0.23909552752797841 -0.45859551734234172 0 -0.2261569199296114 -0.46613625137530001 0 -0.23909552752797841 -0.45859551734234172 0 -0.2261569199296114 -0.46613625137530001 0 -0.22954868753125149 -0.44678763802258292 0 -0.22954868753125149 -0.44678763802258292 0 -0.2170552930113511 -0.4724563055141458 0 -0.2261569199296114 -0.46613625137530001 0 -0.22954868753125149 -0.44678763802258292 0 -0.2170552930113511 -0.4724563055141458 0 -0.22954868753125149 -0.44678763802258292 0 -0.2077099911550683 -0.44941490770888742 0 -0.2135047911225286 -0.42546096014920481 0 -0.22954868753125149 -0.44678763802258292 0 -0.2077099911550683 -0.44941490770888742 0 -0.2170552930113511 -0.4724563055141458 0 -0.2077099911550683 -0.44941490770888742 0 -0.1978447660018155 -0.46642915119005107 0 -0.2170552930113511 -0.4724563055141458 0 -0.2077099911550683 -0.44941490770888742 0 -0.1978447660018155 -0.46642915119005107 0 -0.19052734549479849 -0.45152803268395608 0 -0.1978447660018155 -0.46642915119005107 0 -0.1786342389922797 -0.46040199686595662 0 -0.1978447660018155 -0.46642915119005107 0 -0.19052734549479849 -0.45152803268395608 0 -0.1786342389922797 -0.46040199686595662 0 -0.2077099911550683 -0.44941490770888742 0 -0.19052734549479849 -0.45152803268395608 0 -0.1959772009004814 -0.43497505765909639 0 -0.19052734549479849 -0.45152803268395608 0 -0.17706698757168929 -0.44631382960869193 0 -0.1959772009004814 -0.43497505765909639 0 -0.2306426251211689 -0.5 0 -0.21035229134871161 -0.48622815275707271 0 -0.20364928968607221 -0.49999999999999961 0 -0.21035229134871161 -0.48622815275707271 0 -0.20364928968607221 -0.49999999999999961 0 -0.21035229134871161 -0.48622815275707271 0 -0.2170552930113511 -0.4724563055141458 0 -0.1978447660018155 -0.46642915119005107 0 -0.21035229134871161 -0.48622815275707271 0 -0.2170552930113511 -0.4724563055141458 0 -0.226718613467289 -0.48481254936344692 0 -0.21035229134871161 -0.48622815275707271 0 -0.2170552930113511 -0.4724563055141458 0 -0.1978447660018155 -0.46642915119005107 0 -0.2170552930113511 -0.4724563055141458 0 -0.1978447660018155 -0.46642915119005107 0 -0.21035229134871161 -0.48622815275707271 0 -0.19074543675728409 -0.48520230816336479 0 -0.1978447660018155 -0.46642915119005107 0 -0.19074543675728409 -0.48520230816336479 0 -0.1786342389922797 -0.46040199686595662 0 -0.21035229134871161 -0.48622815275707271 0 -0.20364928968607221 -0.49999999999999961 0 -0.19074543675728409 -0.48520230816336479 0 -0.20364928968607221 -0.49999999999999961 0 -0.19074543675728409 -0.48520230816336479 0 -0.17784158382849599 -0.5 0 -0.19074543675728409 -0.48520230816336479 0 -0.17784158382849599 -0.5 0 -0.16652563544549279 -0.47996654731705202 0 -0.17784158382849599 -0.5 0 -0.16652563544549279 -0.47996654731705202 0 -0.1520338779709198 -0.5 0 -0.16652563544549279 -0.47996654731705202 0 -0.1786342389922797 -0.46040199686595662 0 -0.15565018550723511 -0.4677382946082822 0 -0.19074543675728409 -0.48520230816336479 0 -0.16652563544549279 -0.47996654731705202 0 -0.1786342389922797 -0.46040199686595662 0 -0.19052734549479849 -0.45152803268395608 0 -0.1786342389922797 -0.46040199686595662 0 -0.17706698757168929 -0.44631382960869193 0 -0.15942371198274391 -0.45437484254186211 0 -0.1465863218291347 -0.43265444102175632 0 -0.16996535478282679 -0.43007877751839357 0 -0.17706698757168929 -0.44631382960869193 0 -0.15942371198274391 -0.45437484254186211 0 -0.16996535478282679 -0.43007877751839357 0 -0.1786342389922797 -0.46040199686595662 0 -0.17706698757168929 -0.44631382960869193 0 -0.15942371198274391 -0.45437484254186211 0 -0.1786342389922797 -0.46040199686595662 0 -0.15942371198274391 -0.45437484254186211 0 -0.1786342389922797 -0.46040199686595662 0 -0.15942371198274391 -0.45437484254186211 0 -0.15565018550723511 -0.4677382946082822 0 -0.14447498203338061 -0.45949595389032832 0 -0.1342508106667899 -0.46358935303517163 0 -0.1453016573589751 -0.47597875631923142 0 -0.15565018550723511 -0.4677382946082822 0 -0.14447498203338061 -0.45949595389032832 0 -0.1453016573589751 -0.47597875631923142 0 -0.15942371198274391 -0.45437484254186211 0 -0.14447498203338061 -0.45949595389032832 0 -0.14249422640023851 -0.44738575455418961 0 -0.15942371198274391 -0.45437484254186211 0 -0.15565018550723511 -0.4677382946082822 0 -0.14447498203338061 -0.45949595389032832 0 -0.15942371198274391 -0.45437484254186211 0 -0.14249422640023851 -0.44738575455418961 0 -0.1465863218291347 -0.43265444102175632 0 -0.1298594530980631 -0.45348957207734869 0 -0.13212666305787049 -0.43691396323965243 0 -0.1165926255611917 -0.43251996790330849 0 -0.14249422640023851 -0.44738575455418961 0 -0.1298594530980631 -0.45348957207734869 0 -0.13212666305787049 -0.43691396323965243 0 -0.14249422640023851 -0.44738575455418961 0 -0.13212666305787049 -0.43691396323965243 0 -0.1465863218291347 -0.43265444102175632 0 -0.14447498203338061 -0.45949595389032832 0 -0.14249422640023851 -0.44738575455418961 0 -0.1298594530980631 -0.45348957207734869 0 -0.14447498203338061 -0.45949595389032832 0 -0.1342508106667899 -0.46358935303517163 0 -0.1298594530980631 -0.45348957207734869 0 -0.1342508106667899 -0.46358935303517163 0 -0.1298594530980631 -0.45348957207734869 0 -0.1187064708645916 -0.45977834447648952 0 -0.1342508106667899 -0.46358935303517163 0 -0.13102138040345079 -0.47493740735521472 0 -0.1187064708645916 -0.45977834447648952 0 -0.1342508106667899 -0.46358935303517163 0 -0.13102138040345079 -0.47493740735521472 0 -0.1453016573589751 -0.47597875631923142 0 -0.13102138040345079 -0.47493740735521472 0 -0.13508068080293609 -0.48759057694482327 0 -0.1453016573589751 -0.47597875631923142 0 -0.13102138040345079 -0.47493740735521472 0 -0.13508068080293609 -0.48759057694482327 0 -0.12082031616799151 -0.48703672104967027 0 -0.1262261721133435 -0.5 0 -0.13508068080293609 -0.48759057694482327 0 -0.12082031616799151 -0.48703672104967027 0 -0.1262261721133435 -0.5 0 -0.13508068080293609 -0.48759057694482327 0 -0.1520338779709198 -0.5 0 -0.16652563544549279 -0.47996654731705202 0 -0.1520338779709198 -0.5 0 -0.1453016573589751 -0.47597875631923142 0 -0.13508068080293609 -0.48759057694482327 0 -0.1520338779709198 -0.5 0 -0.1453016573589751 -0.47597875631923142 0 -0.16652563544549279 -0.47996654731705202 0 -0.15565018550723511 -0.4677382946082822 0 -0.1453016573589751 -0.47597875631923142 0 -0.13114902494782171 -0.38831258693250731 0 -0.14790720752524281 -0.4088913987024535 0 -0.15850099060345019 -0.37750301290905708 0 -0.13114902494782171 -0.38831258693250731 0 -0.15850099060345019 -0.37750301290905708 0 -0.14883427648768791 -0.37298430600856031 0 -0.13114902494782171 -0.38831258693250731 0 -0.15850099060345019 -0.37750301290905708 0 -0.13504545314818611 -0.37688954734189722 0 -0.13114902494782171 -0.38831258693250731 0 -0.14883427648768791 -0.37298430600856031 0 -0.13114902494782171 -0.38831258693250731 0 -0.14883427648768791 -0.37298430600856031 0 -0.13504545314818611 -0.37688954734189722 0 -0.12754481631949699 -0.38103876863513259 0 -0.13114902494782171 -0.38831258693250731 0 -0.12754481631949699 -0.38103876863513259 0 -0.12956173515301311 -0.372294129314443 0 -0.12197667006036771 -0.37783513440105471 0 -0.13504545314818611 -0.37688954734189722 0 -0.12754481631949699 -0.38103876863513259 0 -0.12956173515301311 -0.372294129314443 0 -0.12754481631949699 -0.38103876863513259 0 -0.13114902494782171 -0.38831258693250731 0 -0.1202427482283749 -0.38458539436282668 0 -0.13114902494782171 -0.38831258693250731 0 -0.12919210520776561 -0.41665321263143879 0 -0.14790720752524281 -0.4088913987024535 0 -0.12919210520776561 -0.41665321263143879 0 -0.13212666305787049 -0.43691396323965243 0 -0.1165926255611917 -0.43251996790330849 0 -0.12919210520776561 -0.41665321263143879 0 -0.13212666305787049 -0.43691396323965243 0 -0.1465863218291347 -0.43265444102175632 0 -0.1465863218291347 -0.43265444102175632 0 -0.14790720752524281 -0.4088913987024535 0 -0.16996535478282679 -0.43007877751839357 0 -0.12919210520776561 -0.41665321263143879 0 -0.1465863218291347 -0.43265444102175632 0 -0.14790720752524281 -0.4088913987024535 0 -0.14790720752524281 -0.4088913987024535 0 -0.16996535478282679 -0.43007877751839357 0 -0.1745642747866957 -0.40553112478670572 0 -0.14790720752524281 -0.4088913987024535 0 -0.1745642747866957 -0.40553112478670572 0 -0.16996535478282679 -0.43007877751839357 0 -0.1959772009004814 -0.43497505765909639 0 -0.18761211075910689 -0.41995518487185529 0 -0.17706698757168929 -0.44631382960869193 0 -0.16996535478282679 -0.43007877751839357 0 -0.1959772009004814 -0.43497505765909639 0 -0.16996535478282679 -0.43007877751839357 0 -0.1745642747866957 -0.40553112478670572 0 -0.18761211075910689 -0.41995518487185529 0 -0.15850099060345019 -0.37750301290905708 0 -0.19430155638418101 -0.38533702955935761 0 -0.18585295625907861 -0.36669343888560668 0 -0.1745642747866957 -0.40553112478670572 0 -0.15850099060345019 -0.37750301290905708 0 -0.19430155638418101 -0.38533702955935761 0 -0.14790720752524281 -0.4088913987024535 0 -0.1745642747866957 -0.40553112478670572 0 -0.15850099060345019 -0.37750301290905708 0 -0.19430155638418101 -0.38533702955935761 0 -0.2012213420481487 -0.40217085087095789 0 -0.2122922504767428 -0.3825809635851839 0 -0.19430155638418101 -0.38533702955935761 0 -0.2122922504767428 -0.3825809635851839 0 -0.2024288820277596 -0.36905183531828828 0 -0.1745642747866957 -0.40553112478670572 0 -0.19430155638418101 -0.38533702955935761 0 -0.2012213420481487 -0.40217085087095789 0 -0.1745642747866957 -0.40553112478670572 0 -0.2012213420481487 -0.40217085087095789 0 -0.2012213420481487 -0.40217085087095789 0 -0.2122922504767428 -0.3825809635851839 0 -0.22787840930960179 -0.39881057695520999 0 -0.2012213420481487 -0.40217085087095789 0 -0.22787840930960179 -0.39881057695520999 0 -0.2122922504767428 -0.3825809635851839 0 -0.2264261066779614 -0.37208661063801018 0 -0.21516595862905 -0.37168633385099847 0 -0.1959772009004814 -0.43497505765909639 0 -0.18761211075910689 -0.41995518487185529 0 -0.2135047911225286 -0.42546096014920481 0 -0.1745642747866957 -0.40553112478670572 0 -0.2012213420481487 -0.40217085087095789 0 -0.18761211075910689 -0.41995518487185529 0 -0.2012213420481487 -0.40217085087095789 0 -0.18761211075910689 -0.41995518487185529 0 -0.2135047911225286 -0.42546096014920481 0 -0.2012213420481487 -0.40217085087095789 0 -0.2135047911225286 -0.42546096014920481 0 -0.22787840930960179 -0.39881057695520999 0 -0.2077099911550683 -0.44941490770888742 0 -0.1959772009004814 -0.43497505765909639 0 -0.2135047911225286 -0.42546096014920481 0 -0.22954868753125149 -0.44678763802258292 0 -0.2135047911225286 -0.42546096014920481 0 -0.24204208205115191 -0.4211189705310201 0 -0.2135047911225286 -0.42546096014920481 0 -0.24204208205115191 -0.4211189705310201 0 -0.22787840930960179 -0.39881057695520999 0 -0.25453547657105441 -0.39545030303945822 0 -0.24204208205115191 -0.4211189705310201 0 -0.22954868753125149 -0.44678763802258292 0 -0.24204208205115191 -0.4211189705310201 0 -0.2122922504767428 -0.3825809635851839 0 -0.22787840930960179 -0.39881057695520999 0 -0.2264261066779614 -0.37208661063801018 0 -0.22787840930960179 -0.39881057695520999 0 -0.2408015769208065 -0.38493132644109568 0 -0.2264261066779614 -0.37208661063801018 0 -0.25453547657105441 -0.39545030303945822 0 -0.22787840930960179 -0.39881057695520999 0 -0.25453547657105441 -0.39545030303945822 0 -0.24204208205115191 -0.4211189705310201 0 -0.22787840930960179 -0.39881057695520999 0 -0.25453547657105441 -0.39545030303945822 0 -0.22787840930960179 -0.39881057695520999 0 -0.2408015769208065 -0.38493132644109568 0 -0.2408015769208065 -0.38493132644109568 0 -0.2410584667203971 -0.36880170639040211 0 -0.2264261066779614 -0.37208661063801018 0 -0.26263530925503081 -0.37880855594893181 0 -0.2408015769208065 -0.38493132644109568 0 -0.2410584667203971 -0.36880170639040211 0 -0.2410584667203971 -0.36880170639040211 0 -0.2194816241857635 -0.35879485683187218 0 -0.2410584667203971 -0.36880170639040211 0 -0.2264261066779614 -0.37208661063801018 0 -0.2194816241857635 -0.35879485683187218 0 -0.2264261066779614 -0.37208661063801018 0 -0.2194816241857635 -0.35879485683187218 0 -0.21684997219405791 -0.36054563127429862 0 -0.2264261066779614 -0.37208661063801018 0 -0.21516595862905 -0.37168633385099847 0 -0.21684997219405791 -0.36054563127429862 0 -0.2194816241857635 -0.35879485683187218 0 -0.23650078524215609 -0.34747242046757187 0 -0.2410584667203971 -0.36880170639040211 0 -0.2194816241857635 -0.35879485683187218 0 -0.23650078524215609 -0.34747242046757187 0 -0.22223141975456459 -0.34455707852507872 0 -0.22978698375070891 -0.34933058722447369 0 -0.213204921914707 -0.35588386486215629 0 -0.2194816241857635 -0.35879485683187218 0 -0.22978698375070891 -0.34933058722447369 0 -0.213204921914707 -0.35588386486215629 0 -0.2194816241857635 -0.35879485683187218 0 -0.22978698375070891 -0.34933058722447369 0 -0.23650078524215609 -0.34747242046757187 0 -0.22978698375070891 -0.34933058722447369 0 -0.213204921914707 -0.35588386486215629 0 -0.22223141975456459 -0.34455707852507872 0 -0.22978698375070891 -0.34933058722447369 0 -0.23066774058934861 -0.33945486943085401 0 -0.22978698375070891 -0.34933058722447369 0 -0.23650078524215609 -0.34747242046757187 0 -0.23066774058934861 -0.33945486943085401 0 -0.25500649567631167 -0.35475491580672958 0 -0.2410584667203971 -0.36880170639040211 0 -0.23650078524215609 -0.34747242046757187 0 -0.25500649567631167 -0.35475491580672958 0 -0.25351994629854879 -0.33614998410327163 0 -0.23650078524215609 -0.34747242046757187 0 -0.25351994629854879 -0.33614998410327163 0 -0.23650078524215609 -0.34747242046757187 0 -0.25351994629854879 -0.33614998410327163 0 -0.23826555404333291 -0.33237887623736878 0 -0.2458983744681541 -0.32041556923091957 0 -0.25351994629854879 -0.33614998410327163 0 -0.23650078524215609 -0.34747242046757187 0 -0.23826555404333291 -0.33237887623736878 0 -0.23650078524215609 -0.34747242046757187 0 -0.23826555404333291 -0.33237887623736878 0 -0.23066774058934861 -0.33945486943085401 0 -0.2458983744681541 -0.32041556923091957 0 -0.23839987492757339 -0.31418540647134602 0 -0.24394908907900381 -0.30810693186372679 0 -0.25072407166226252 -0.31310227506437138 0 -0.2458983744681541 -0.32041556923091957 0 -0.24394908907900381 -0.30810693186372679 0 -0.23826555404333291 -0.33237887623736878 0 -0.2458983744681541 -0.32041556923091957 0 -0.23485504296279441 -0.32118849299174568 0 -0.2458983744681541 -0.32041556923091957 0 -0.23485504296279441 -0.32118849299174568 0 -0.23839987492757339 -0.31418540647134602 0 -0.23485504296279441 -0.32118849299174568 0 -0.23839987492757339 -0.31418540647134602 0 -0.2313777441716498 -0.31067845136507172 0 -0.23485504296279441 -0.32118849299174568 0 -0.22207870271242491 -0.31937869090001031 0 -0.2313777441716498 -0.31067845136507172 0 -0.23826555404333291 -0.33237887623736878 0 -0.23485504296279441 -0.32118849299174568 0 -0.22815143469899549 -0.32959192119984998 0 -0.23485504296279441 -0.32118849299174568 0 -0.22207870271242491 -0.31937869090001031 0 -0.22815143469899549 -0.32959192119984998 0 -0.22207870271242491 -0.31937869090001031 0 -0.22815143469899549 -0.32959192119984998 0 -0.21690379059226231 -0.33090389450581159 0 -0.23826555404333291 -0.33237887623736878 0 -0.23066774058934861 -0.33945486943085401 0 -0.22815143469899549 -0.32959192119984998 0 -0.23066774058934861 -0.33945486943085401 0 -0.22815143469899549 -0.32959192119984998 0 -0.22233855489478441 -0.3372801379372305 0 -0.22815143469899549 -0.32959192119984998 0 -0.22233855489478441 -0.3372801379372305 0 -0.21690379059226231 -0.33090389450581159 0 -0.22223141975456459 -0.34455707852507872 0 -0.23066774058934861 -0.33945486943085401 0 -0.22233855489478441 -0.3372801379372305 0 -0.22223141975456459 -0.34455707852507872 0 -0.22233855489478441 -0.3372801379372305 0 -0.21373838883875121 -0.34189292602455801 0 -0.22233855489478441 -0.3372801379372305 0 -0.21373838883875121 -0.34189292602455801 0 -0.21690379059226231 -0.33090389450581159 0 -0.21373838883875121 -0.34189292602455801 0 -0.21690379059226231 -0.33090389450581159 0 -0.20390778948145671 -0.33547308996365649 0 -0.21690379059226231 -0.33090389450581159 0 -0.20390778948145671 -0.33547308996365649 0 -0.20978736414263821 -0.32286359386344332 0 -0.21373838883875121 -0.34189292602455801 0 -0.20390778948145671 -0.33547308996365649 0 -0.20003692492654609 -0.34977684690361122 0 -0.22207870271242491 -0.31937869090001031 0 -0.2145193995876313 -0.31498394651013961 0 -0.21962455256363919 -0.30721546529702431 0 -0.22207870271242491 -0.31937869090001031 0 -0.2145193995876313 -0.31498394651013961 0 -0.20978736414263821 -0.32286359386344332 0 -0.22207870271242491 -0.31937869090001031 0 -0.21690379059226231 -0.33090389450581159 0 -0.20978736414263821 -0.32286359386344332 0 -0.20390778948145671 -0.33547308996365649 0 -0.20978736414263821 -0.32286359386344332 0 -0.19780009774836349 -0.32517028426701222 0 -0.2145193995876313 -0.31498394651013961 0 -0.20978736414263821 -0.32286359386344332 0 -0.20658697893182279 -0.31047803598008072 0 -0.20978736414263821 -0.32286359386344332 0 -0.19780009774836349 -0.32517028426701222 0 -0.18793628215359759 -0.31051197193208868 0 -0.19780009774836349 -0.32517028426701222 0 -0.18956895521576159 -0.33183248130886023 0 -0.18793628215359759 -0.31051197193208868 0 -0.20978736414263821 -0.32286359386344332 0 -0.20658697893182279 -0.31047803598008072 0 -0.18793628215359759 -0.31051197193208868 0 -0.20978736414263821 -0.32286359386344332 0 -0.18793628215359759 -0.31051197193208868 0 -0.18956895521576159 -0.33183248130886023 0 -0.20003692492654609 -0.34977684690361122 0 -0.18302476315420149 -0.34667086651494511 0 -0.20390778948145671 -0.33547308996365649 0 -0.18956895521576159 -0.33183248130886023 0 -0.20003692492654609 -0.34977684690361122 0 -0.20390778948145671 -0.33547308996365649 0 -0.19780009774836349 -0.32517028426701222 0 -0.18956895521576159 -0.33183248130886023 0 -0.20003692492654609 -0.34977684690361122 0 -0.18585295625907861 -0.36669343888560668 0 -0.18302476315420149 -0.34667086651494511 0 -0.20003692492654609 -0.34977684690361122 0 -0.213204921914707 -0.35588386486215629 0 -0.18585295625907861 -0.36669343888560668 0 -0.2024288820277596 -0.36905183531828828 0 -0.213204921914707 -0.35588386486215629 0 -0.18585295625907861 -0.36669343888560668 0 -0.19430155638418101 -0.38533702955935761 0 -0.2024288820277596 -0.36905183531828828 0 -0.18585295625907861 -0.36669343888560668 0 -0.213204921914707 -0.35588386486215629 0 -0.18585295625907861 -0.36669343888560668 0 -0.2024288820277596 -0.36905183531828828 0 -0.21191243369139359 -0.36429191632643532 0 -0.213204921914707 -0.35588386486215629 0 -0.2024288820277596 -0.36905183531828828 0 -0.21516595862905 -0.37168633385099847 0 -0.21191243369139359 -0.36429191632643532 0 -0.2122922504767428 -0.3825809635851839 0 -0.2024288820277596 -0.36905183531828828 0 -0.21516595862905 -0.37168633385099847 0 -0.21516595862905 -0.37168633385099847 0 -0.21191243369139359 -0.36429191632643532 0 -0.21684997219405791 -0.36054563127429862 0 -0.21191243369139359 -0.36429191632643532 0 -0.21684997219405791 -0.36054563127429862 0 -0.213204921914707 -0.35588386486215629 0 -0.2194816241857635 -0.35879485683187218 0 -0.21684997219405791 -0.36054563127429862 0 -0.2194816241857635 -0.35879485683187218 0 -0.21684997219405791 -0.36054563127429862 0 -0.213204921914707 -0.35588386486215629 0 -0.2194816241857635 -0.35879485683187218 0 -0.213204921914707 -0.35588386486215629 0 -0.22223141975456459 -0.34455707852507872 0 -0.21373838883875121 -0.34189292602455801 0 -0.213204921914707 -0.35588386486215629 0 -0.21373838883875121 -0.34189292602455801 0 -0.20003692492654609 -0.34977684690361122 0 -0.213204921914707 -0.35588386486215629 0 -0.20003692492654609 -0.34977684690361122 0 -0.213204921914707 -0.35588386486215629 0 -0.22431526222860329 -0.25734226159114848 0 -0.2471031362988059 -0.26046353371806419 0 -0.2337954412386688 -0.2495947145619575 0 -0.25514356121376902 -0.28254557250882573 0 -0.2471031362988059 -0.26046353371806419 0 -0.23033769088627151 -0.28206210219096189 0 -0.22431526222860329 -0.25734226159114848 0 -0.2471031362988059 -0.26046353371806419 0 -0.23033769088627151 -0.28206210219096189 0 -0.22431526222860329 -0.25734226159114848 0 -0.23033769088627151 -0.28206210219096189 0 -0.21320594324224831 -0.27532370240803627 0 -0.23033769088627151 -0.28206210219096189 0 -0.2169247370981236 -0.29401666911378249 0 -0.21320594324224831 -0.27532370240803627 0 -0.23033769088627151 -0.28206210219096189 0 -0.2404434017590166 -0.29593903155987511 0 -0.22894818985676649 -0.29846708195470878 0 -0.23033769088627151 -0.28206210219096189 0 -0.22894818985676649 -0.29846708195470878 0 -0.2169247370981236 -0.29401666911378249 0 -0.25168676349552088 -0.29943337804130671 0 -0.25514356121376902 -0.28254557250882573 0 -0.2404434017590166 -0.29593903155987511 0 -0.25514356121376902 -0.28254557250882573 0 -0.23033769088627151 -0.28206210219096189 0 -0.2404434017590166 -0.29593903155987511 0 -0.2404434017590166 -0.29593903155987511 0 -0.23633667282484319 -0.3039140164742451 0 -0.24394908907900381 -0.30810693186372679 0 -0.2404434017590166 -0.29593903155987511 0 -0.23633667282484319 -0.3039140164742451 0 -0.22894818985676649 -0.29846708195470878 0 -0.25168676349552088 -0.29943337804130671 0 -0.2404434017590166 -0.29593903155987511 0 -0.24394908907900381 -0.30810693186372679 0 -0.23839987492757339 -0.31418540647134602 0 -0.23633667282484319 -0.3039140164742451 0 -0.24394908907900381 -0.30810693186372679 0 -0.23839987492757339 -0.31418540647134602 0 -0.23633667282484319 -0.3039140164742451 0 -0.2313777441716498 -0.31067845136507172 0 -0.2313777441716498 -0.31067845136507172 0 -0.22894818985676649 -0.29846708195470878 0 -0.21962455256363919 -0.30721546529702431 0 -0.23633667282484319 -0.3039140164742451 0 -0.2313777441716498 -0.31067845136507172 0 -0.22894818985676649 -0.29846708195470878 0 -0.22894818985676649 -0.29846708195470878 0 -0.21962455256363919 -0.30721546529702431 0 -0.2169247370981236 -0.29401666911378249 0 -0.22207870271242491 -0.31937869090001031 0 -0.2313777441716498 -0.31067845136507172 0 -0.21962455256363919 -0.30721546529702431 0 -0.20658697893182279 -0.31047803598008072 0 -0.20221229079257499 -0.29042266102850522 0 -0.20658697893182279 -0.31047803598008072 0 -0.20221229079257499 -0.29042266102850522 0 -0.2169247370981236 -0.29401666911378249 0 -0.21962455256363919 -0.30721546529702431 0 -0.20658697893182279 -0.31047803598008072 0 -0.2169247370981236 -0.29401666911378249 0 -0.2145193995876313 -0.31498394651013961 0 -0.21962455256363919 -0.30721546529702431 0 -0.20658697893182279 -0.31047803598008072 0 -0.20658697893182279 -0.31047803598008072 0 -0.19724619295091611 -0.30201073207027718 0 -0.20221229079257499 -0.29042266102850522 0 -0.20658697893182279 -0.31047803598008072 0 -0.18793628215359759 -0.31051197193208868 0 -0.19724619295091611 -0.30201073207027718 0 -0.18793628215359759 -0.31051197193208868 0 -0.19724619295091611 -0.30201073207027718 0 -0.1870203591050838 -0.28994442733574088 0 -0.19724619295091611 -0.30201073207027718 0 -0.20221229079257499 -0.29042266102850522 0 -0.1870203591050838 -0.28994442733574088 0 -0.20221229079257499 -0.29042266102850522 0 -0.1978376026533272 -0.27036728607692961 0 -0.1870203591050838 -0.28994442733574088 0 -0.20221229079257499 -0.29042266102850522 0 -0.2169247370981236 -0.29401666911378249 0 -0.21320594324224831 -0.27532370240803627 0 -0.20221229079257499 -0.29042266102850522 0 -0.21320594324224831 -0.27532370240803627 0 -0.1978376026533272 -0.27036728607692961 0 -0.21320594324224831 -0.27532370240803627 0 -0.1978376026533272 -0.27036728607692961 0 -0.20776647204588011 -0.25773985570203939 0 -0.20221229079257499 -0.29042266102850522 0 -0.1978376026533272 -0.27036728607692961 0 -0.1978376026533272 -0.27036728607692961 0 -0.19346291451407899 -0.25031191112535411 0 -0.1978376026533272 -0.27036728607692961 0 -0.19346291451407899 -0.25031191112535411 0 -0.20776647204588011 -0.25773985570203939 0 -0.22431526222860329 -0.25734226159114848 0 -0.20776647204588011 -0.25773985570203939 0 -0.21226113152947851 -0.2354766081018875 0 -0.22431526222860329 -0.25734226159114848 0 -0.21320594324224831 -0.27532370240803627 0 -0.20776647204588011 -0.25773985570203939 0 -0.17080458591552961 -0.26819356290591101 0 -0.14970996207479509 -0.25772950794230082 0 -0.172074041572961 -0.24558676510120761 0 -0.19346291451407899 -0.25031191112535411 0 -0.17080458591552961 -0.26819356290591101 0 -0.1978376026533272 -0.27036728607692961 0 -0.19346291451407899 -0.25031191112535411 0 -0.17080458591552961 -0.26819356290591101 0 -0.19346291451407899 -0.25031191112535411 0 -0.17080458591552961 -0.26819356290591101 0 -0.172074041572961 -0.24558676510120761 0 -0.1978376026533272 -0.27036728607692961 0 -0.17080458591552961 -0.26819356290591101 0 -0.1870203591050838 -0.28994442733574088 0 -0.17080458591552961 -0.26819356290591101 0 -0.1543214250384084 -0.27378462992452851 0 -0.14970996207479509 -0.25772950794230082 0 -0.17080458591552961 -0.26819356290591101 0 -0.16608520016455711 -0.29816035000073399 0 -0.1543214250384084 -0.27378462992452851 0 -0.17080458591552961 -0.26819356290591101 0 -0.1870203591050838 -0.28994442733574088 0 -0.16608520016455711 -0.29816035000073399 0 -0.18793628215359759 -0.31051197193208868 0 -0.1870203591050838 -0.28994442733574088 0 -0.16608520016455711 -0.29816035000073399 0 -0.18793628215359759 -0.31051197193208868 0 -0.16608520016455711 -0.29816035000073399 0 -0.18793628215359759 -0.31051197193208868 0 -0.16608520016455711 -0.29816035000073399 0 -0.1723415216791522 -0.32044481565497202 0 -0.16608520016455711 -0.29816035000073399 0 -0.1723415216791522 -0.32044481565497202 0 -0.1525734038754657 -0.31769700982636712 0 -0.1473571802595379 -0.30061777080303742 0 -0.13720576224525929 -0.31158260433424062 0 -0.1525734038754657 -0.31769700982636712 0 -0.16608520016455711 -0.29816035000073399 0 -0.1473571802595379 -0.30061777080303742 0 -0.1525734038754657 -0.31769700982636712 0 -0.13720576224525929 -0.31158260433424062 0 -0.1302399065464461 -0.30738220548359341 0 -0.1336366980612505 -0.30050087250530028 0 -0.1302399065464461 -0.30738220548359341 0 -0.1254795585812688 -0.31666015425983018 0 -0.1246376072980058 -0.30078519083500271 0 -0.13720576224525929 -0.31158260433424062 0 -0.1302399065464461 -0.30738220548359341 0 -0.1254795585812688 -0.31666015425983018 0 -0.1302399065464461 -0.30738220548359341 0 -0.1336366980612505 -0.30050087250530028 0 -0.1246376072980058 -0.30078519083500271 0 -0.1336366980612505 -0.30050087250530028 0 -0.1269802785043502 -0.29080733238382972 0 -0.1246376072980058 -0.30078519083500271 0 -0.1473571802595379 -0.30061777080303742 0 -0.1336366980612505 -0.30050087250530028 0 -0.13714052483513881 -0.29193040216557858 0 -0.1473571802595379 -0.30061777080303742 0 -0.13720576224525929 -0.31158260433424062 0 -0.1336366980612505 -0.30050087250530028 0 -0.1336366980612505 -0.30050087250530028 0 -0.13714052483513881 -0.29193040216557858 0 -0.1269802785043502 -0.29080733238382972 0 -0.13714052483513881 -0.29193040216557858 0 -0.1269802785043502 -0.29080733238382972 0 -0.13349434917503861 -0.28191730706634632 0 -0.13714052483513881 -0.29193040216557858 0 -0.13349434917503861 -0.28191730706634632 0 -0.14423411817551651 -0.28580872806937929 0 -0.16608520016455711 -0.29816035000073399 0 -0.14423411817551651 -0.28580872806937929 0 -0.1543214250384084 -0.27378462992452851 0 -0.16608520016455711 -0.29816035000073399 0 -0.1473571802595379 -0.30061777080303742 0 -0.14423411817551651 -0.28580872806937929 0 -0.16608520016455711 -0.29816035000073399 0 -0.14423411817551651 -0.28580872806937929 0 -0.1473571802595379 -0.30061777080303742 0 -0.13714052483513881 -0.29193040216557858 0 -0.14423411817551651 -0.28580872806937929 0 -0.14423411817551651 -0.28580872806937929 0 -0.1543214250384084 -0.27378462992452851 0 -0.13991635586807191 -0.27009426360937561 0 -0.1543214250384084 -0.27378462992452851 0 -0.13991635586807191 -0.27009426360937561 0 -0.14970996207479509 -0.25772950794230082 0 -0.13991635586807191 -0.27009426360937561 0 -0.13102465349563519 -0.25918612652271272 0 -0.1223830361864759 -0.27345710613802449 0 -0.14423411817551651 -0.28580872806937929 0 -0.13991635586807191 -0.27009426360937561 0 -0.1223830361864759 -0.27345710613802449 0 -0.14423411817551651 -0.28580872806937929 0 -0.1223830361864759 -0.27345710613802449 0 -0.13349434917503861 -0.28191730706634632 0 -0.14423411817551651 -0.28580872806937929 0 -0.1223830361864759 -0.27345710613802449 0 -0.13102465349563519 -0.25918612652271272 0 -0.14970996207479509 -0.25772950794230082 0 -0.13756379267572519 -0.24238789422173049 0 -0.13991635586807191 -0.27009426360937561 0 -0.13102465349563519 -0.25918612652271272 0 -0.14970996207479509 -0.25772950794230082 0 -0.13102465349563519 -0.25918612652271272 0 -0.1215669228260727 -0.24881330696513551 0 -0.13756379267572519 -0.24238789422173049 0 -0.16022896388835131 -0.36120723133027283 0 -0.16493192501982321 -0.34331215868096782 0 -0.15069052168191141 -0.35133033069670072 0 -0.16022896388835131 -0.36120723133027283 0 -0.17350965208036359 -0.35447092385294809 0 -0.16493192501982321 -0.34331215868096782 0 -0.15850099060345019 -0.37750301290905708 0 -0.16022896388835131 -0.36120723133027283 0 -0.18585295625907861 -0.36669343888560668 0 -0.15850099060345019 -0.37750301290905708 0 -0.16022896388835131 -0.36120723133027283 0 -0.15246499588332649 -0.36539171515433871 0 -0.15850099060345019 -0.37750301290905708 0 -0.18585295625907861 -0.36669343888560668 0 -0.16022896388835131 -0.36120723133027283 0 -0.18585295625907861 -0.36669343888560668 0 -0.17350965208036359 -0.35447092385294809 0 -0.18585295625907861 -0.36669343888560668 0 -0.17350965208036359 -0.35447092385294809 0 -0.18302476315420149 -0.34667086651494511 0 -0.17350965208036359 -0.35447092385294809 0 -0.18302476315420149 -0.34667086651494511 0 -0.16493192501982321 -0.34331215868096782 0 -0.18956895521576159 -0.33183248130886023 0 -0.17508186445393201 -0.33445525969562062 0 -0.1723415216791522 -0.32044481565497202 0 -0.18956895521576159 -0.33183248130886023 0 -0.18302476315420149 -0.34667086651494511 0 -0.17508186445393201 -0.33445525969562062 0 -0.18302476315420149 -0.34667086651494511 0 -0.17508186445393201 -0.33445525969562062 0 -0.16493192501982321 -0.34331215868096782 0 -0.18956895521576159 -0.33183248130886023 0 -0.18793628215359759 -0.31051197193208868 0 -0.1723415216791522 -0.32044481565497202 0 -0.1723415216791522 -0.32044481565497202 0 -0.16094989514394931 -0.32999881433036371 0 -0.1525734038754657 -0.31769700982636712 0 -0.16493192501982321 -0.34331215868096782 0 -0.16094989514394931 -0.32999881433036371 0 -0.14753973888660371 -0.3340076411128805 0 -0.17508186445393201 -0.33445525969562062 0 -0.1723415216791522 -0.32044481565497202 0 -0.16094989514394931 -0.32999881433036371 0 -0.17508186445393201 -0.33445525969562062 0 -0.16493192501982321 -0.34331215868096782 0 -0.16094989514394931 -0.32999881433036371 0 -0.14753973888660371 -0.3340076411128805 0 -0.1347748926682503 -0.34029692454346627 0 -0.15069052168191141 -0.35133033069670072 0 -0.16493192501982321 -0.34331215868096782 0 -0.14753973888660371 -0.3340076411128805 0 -0.15069052168191141 -0.35133033069670072 0 -0.14753973888660371 -0.3340076411128805 0 -0.1525734038754657 -0.31769700982636712 0 -0.1395146712513696 -0.32404886681535688 0 -0.16094989514394931 -0.32999881433036371 0 -0.14753973888660371 -0.3340076411128805 0 -0.1525734038754657 -0.31769700982636712 0 -0.13720576224525929 -0.31158260433424062 0 -0.1525734038754657 -0.31769700982636712 0 -0.1395146712513696 -0.32404886681535688 0 -0.1395146712513696 -0.32404886681535688 0 -0.1254795585812688 -0.31666015425983018 0 -0.1347748926682503 -0.34029692454346627 0 -0.13720576224525929 -0.31158260433424062 0 -0.1395146712513696 -0.32404886681535688 0 -0.1254795585812688 -0.31666015425983018 0 -0.1254795585812688 -0.31666015425983018 0 -0.1347748926682503 -0.34029692454346627 0 -0.1204535945064845 -0.33430273059104693 0 -0.1347748926682503 -0.34029692454346627 0 -0.12506613179503101 -0.35636167865385571 0 -0.1204535945064845 -0.33430273059104693 0 -0.14753973888660371 -0.3340076411128805 0 -0.1395146712513696 -0.32404886681535688 0 -0.1347748926682503 -0.34029692454346627 0 -0.1254795585812688 -0.31666015425983018 0 -0.1347748926682503 -0.34029692454346627 0 -0.1347748926682503 -0.34029692454346627 0 -0.14407022675523179 -0.36393369482710253 0 -0.13282676831799259 -0.36178276289343242 0 -0.1347748926682503 -0.34029692454346627 0 -0.14407022675523179 -0.36393369482710253 0 -0.1347748926682503 -0.34029692454346627 0 -0.12506613179503101 -0.35636167865385571 0 -0.13282676831799259 -0.36178276289343242 0 -0.1347748926682503 -0.34029692454346627 0 -0.15069052168191141 -0.35133033069670072 0 -0.14407022675523179 -0.36393369482710253 0 -0.16022896388835131 -0.36120723133027283 0 -0.15069052168191141 -0.35133033069670072 0 -0.15246499588332649 -0.36539171515433871 0 -0.14883427648768791 -0.37298430600856031 0 -0.15246499588332649 -0.36539171515433871 0 -0.14407022675523179 -0.36393369482710253 0 -0.15850099060345019 -0.37750301290905708 0 -0.14883427648768791 -0.37298430600856031 0 -0.15246499588332649 -0.36539171515433871 0 -0.15069052168191141 -0.35133033069670072 0 -0.15246499588332649 -0.36539171515433871 0 -0.14407022675523179 -0.36393369482710253 0 -0.14883427648768791 -0.37298430600856031 0 -0.14407022675523179 -0.36393369482710253 0 -0.13813741283291089 -0.36981794581884248 0 -0.13504545314818611 -0.37688954734189722 0 -0.14883427648768791 -0.37298430600856031 0 -0.13813741283291089 -0.36981794581884248 0 -0.13813741283291089 -0.36981794581884248 0 -0.13282676831799259 -0.36178276289343242 0 -0.12956173515301311 -0.372294129314443 0 -0.13504545314818611 -0.37688954734189722 0 -0.13813741283291089 -0.36981794581884248 0 -0.12956173515301311 -0.372294129314443 0 -0.14407022675523179 -0.36393369482710253 0 -0.13813741283291089 -0.36981794581884248 0 -0.13282676831799259 -0.36178276289343242 0 -0.13282676831799259 -0.36178276289343242 0 -0.12956173515301311 -0.372294129314443 0 -0.11964883260638159 -0.36654503110712527 0 -0.12506613179503101 -0.35636167865385571 0 -0.13282676831799259 -0.36178276289343242 0 -0.11964883260638159 -0.36654503110712527 0 -0.1108939800829864 -0.35903501413108241 0 -0.11288521799457189 -0.38471234858574549 0 -0.11964883260638159 -0.36654503110712527 0 -0.1108939800829864 -0.35903501413108241 0 -0.11288521799457189 -0.38471234858574549 0 -0.12956173515301311 -0.372294129314443 0 -0.11964883260638159 -0.36654503110712527 0 -0.12197667006036771 -0.37783513440105471 0 -0.12506613179503101 -0.35636167865385571 0 -0.11964883260638159 -0.36654503110712527 0 -0.1108939800829864 -0.35903501413108241 0 -0.099550079316539433 -0.37283059219061349 0 -0.1108939800829864 -0.35903501413108241 0 -0.11288521799457189 -0.38471234858574549 0 -0.099550079316539433 -0.37283059219061349 0 -0.096484061389302878 -0.3581135142338378 0 -0.1108939800829864 -0.35903501413108241 0 -0.096484061389302878 -0.3581135142338378 0 -0.1108939800829864 -0.35903501413108241 0 -0.1057303835005543 -0.3431620167826725 0 -0.096484061389302878 -0.3581135142338378 0 -0.1057303835005543 -0.3431620167826725 0 -0.089084689160663866 -0.34646055242597301 0 -0.12506613179503101 -0.35636167865385571 0 -0.1155360224712641 -0.34821536003966441 0 -0.1204535945064845 -0.33430273059104693 0 -0.1155360224712641 -0.34821536003966441 0 -0.1108939800829864 -0.35903501413108241 0 -0.1057303835005543 -0.3431620167826725 0 -0.12506613179503101 -0.35636167865385571 0 -0.1204535945064845 -0.33430273059104693 0 -0.12506613179503101 -0.35636167865385571 0 -0.1155360224712641 -0.34821536003966441 0 -0.1108939800829864 -0.35903501413108241 0 -0.1204535945064845 -0.33430273059104693 0 -0.10841570546096931 -0.32664403048098989 0 -0.1057303835005543 -0.3431620167826725 0 -0.1155360224712641 -0.34821536003966441 0 -0.1204535945064845 -0.33430273059104693 0 -0.1057303835005543 -0.3431620167826725 0 -0.1204535945064845 -0.33430273059104693 0 -0.115841057217938 -0.31224378252823798 0 -0.1204535945064845 -0.33430273059104693 0 -0.10841570546096931 -0.32664403048098989 0 -0.115841057217938 -0.31224378252823798 0 -0.1254795585812688 -0.31666015425983018 0 -0.1204535945064845 -0.33430273059104693 0 -0.115841057217938 -0.31224378252823798 0 -0.1018074270174717 -0.31704387212480922 0 -0.10841570546096931 -0.32664403048098989 0 -0.115841057217938 -0.31224378252823798 0 -0.1018074270174717 -0.31704387212480922 0 -0.10841570546096931 -0.32664403048098989 0 -0.095523419971784651 -0.32878699688745627 0 -0.1018074270174717 -0.31704387212480922 0 -0.095523419971784651 -0.32878699688745627 0 -0.086441450001328995 -0.31447905829240802 0 -0.10841570546096931 -0.32664403048098989 0 -0.1057303835005543 -0.3431620167826725 0 -0.095523419971784651 -0.32878699688745627 0 -0.1057303835005543 -0.3431620167826725 0 -0.095523419971784651 -0.32878699688745627 0 -0.089084689160663866 -0.34646055242597301 0 -0.095523419971784651 -0.32878699688745627 0 -0.071969190543628714 -0.33537478182614522 0 -0.089084689160663866 -0.34646055242597301 0 -0.095523419971784651 -0.32878699688745627 0 -0.086441450001328995 -0.31447905829240802 0 -0.071969190543628714 -0.33537478182614522 0 -0.086441450001328995 -0.31447905829240802 0 -0.071969190543628714 -0.33537478182614522 0 -0.069920244501340351 -0.3055230145593551 0 -0.062960297835702686 -0.31803724540323841 0 -0.071969190543628714 -0.33537478182614522 0 -0.059354587215585931 -0.32697130650369022 0 -0.071969190543628714 -0.33537478182614522 0 -0.069920244501340351 -0.3055230145593551 0 -0.062960297835702686 -0.31803724540323841 0 -0.071969190543628714 -0.33537478182614522 0 -0.069920244501340351 -0.3055230145593551 0 -0.071969190543628714 -0.33537478182614522 0 -0.060284089687747608 -0.34351845600423181 0 -0.059354587215585931 -0.32697130650369022 0 -0.074018136585912955 -0.36522654909293523 0 -0.056934409054003571 -0.35808038414840759 0 -0.060284089687747608 -0.34351845600423181 0 -0.074018136585912955 -0.36522654909293523 0 -0.060284089687747608 -0.34351845600423181 0 -0.071969190543628714 -0.33537478182614522 0 -0.074018136585912955 -0.36522654909293523 0 -0.060284089687747608 -0.34351845600423181 0 -0.071969190543628714 -0.33537478182614522 0 -0.074018136585912955 -0.36522654909293523 0 -0.074560243719935387 -0.37312468582496311 0 -0.074018136585912955 -0.36522654909293523 0 -0.056934409054003571 -0.35808038414840759 0 -0.074560243719935387 -0.37312468582496311 0 -0.060501803247893553 -0.3717481657758992 0 -0.056934409054003571 -0.35808038414840759 0 -0.074560243719935387 -0.37312468582496311 0 -0.056934409054003571 -0.35808038414840759 0 -0.074560243719935387 -0.37312468582496311 0 -0.074018136585912955 -0.36522654909293523 0 -0.074560243719935387 -0.37312468582496311 0 -0.074018136585912955 -0.36522654909293523 0 -0.086632796446960869 -0.38516533425775767 0 -0.099550079316539433 -0.37283059219061349 0 -0.074018136585912955 -0.36522654909293523 0 -0.086632796446960869 -0.38516533425775767 0 -0.099550079316539433 -0.37283059219061349 0 -0.096484061389302878 -0.3581135142338378 0 -0.074018136585912955 -0.36522654909293523 0 -0.096484061389302878 -0.3581135142338378 0 -0.074018136585912955 -0.36522654909293523 0 -0.089084689160663866 -0.34646055242597301 0 -0.071969190543628714 -0.33537478182614522 0 -0.074018136585912955 -0.36522654909293523 0 -0.089084689160663866 -0.34646055242597301 0 -0.10053195419743539 -0.26110548420666979 0 -0.1166769174577308 -0.25767484667889662 0 -0.10787802058303481 -0.24581220956194019 0 -0.13102465349563519 -0.25918612652271272 0 -0.1166769174577308 -0.25767484667889662 0 -0.1223830361864759 -0.27345710613802449 0 -0.10053195419743539 -0.26110548420666979 0 -0.1166769174577308 -0.25767484667889662 0 -0.1223830361864759 -0.27345710613802449 0 -0.1166769174577308 -0.25767484667889662 0 -0.1215669228260727 -0.24881330696513551 0 -0.10787802058303481 -0.24581220956194019 0 -0.13102465349563519 -0.25918612652271272 0 -0.1166769174577308 -0.25767484667889662 0 -0.1215669228260727 -0.24881330696513551 0 -0.10053195419743539 -0.26110548420666979 0 -0.1223830361864759 -0.27345710613802449 0 -0.10842183031572671 -0.27676215264343262 0 -0.10053195419743539 -0.26110548420666979 0 -0.1223830361864759 -0.27345710613802449 0 -0.13349434917503861 -0.28191730706634632 0 -0.1188819339016581 -0.28058035007830823 0 -0.1223830361864759 -0.27345710613802449 0 -0.1188819339016581 -0.28058035007830823 0 -0.1223830361864759 -0.27345710613802449 0 -0.10842183031572671 -0.27676215264343262 0 -0.10053195419743539 -0.26110548420666979 0 -0.10842183031572671 -0.27676215264343262 0 -0.090759253623469538 -0.27534044384026818 0 -0.10842183031572671 -0.27676215264343262 0 -0.097216393383531718 -0.28520186687987409 0 -0.090759253623469538 -0.27534044384026818 0 -0.1112285199293912 -0.29018483446542931 0 -0.090574382215364069 -0.29785392451238762 0 -0.097216393383531718 -0.28520186687987409 0 -0.1112285199293912 -0.29018483446542931 0 -0.090574382215364069 -0.29785392451238762 0 -0.10842183031572671 -0.27676215264343262 0 -0.097216393383531718 -0.28520186687987409 0 -0.1112285199293912 -0.29018483446542931 0 -0.1188819339016581 -0.28058035007830823 0 -0.10842183031572671 -0.27676215264343262 0 -0.1112285199293912 -0.29018483446542931 0 -0.13349434917503861 -0.28191730706634632 0 -0.1112285199293912 -0.29018483446542931 0 -0.1269802785043502 -0.29080733238382972 0 -0.1112285199293912 -0.29018483446542931 0 -0.11618422449428729 -0.29302338397619387 0 -0.1269802785043502 -0.29080733238382972 0 -0.13349434917503861 -0.28191730706634632 0 -0.1112285199293912 -0.29018483446542931 0 -0.10842183031572671 -0.27676215264343262 0 -0.1112285199293912 -0.29018483446542931 0 -0.13349434917503861 -0.28191730706634632 0 -0.1188819339016581 -0.28058035007830823 0 -0.1112285199293912 -0.29018483446542931 0 -0.1269802785043502 -0.29080733238382972 0 -0.11618422449428729 -0.29302338397619387 0 -0.1246376072980058 -0.30078519083500271 0 -0.1254795585812688 -0.31666015425983018 0 -0.11618422449428729 -0.29302338397619387 0 -0.1254795585812688 -0.31666015425983018 0 -0.11618422449428729 -0.29302338397619387 0 -0.115841057217938 -0.31224378252823798 0 -0.1112285199293912 -0.29018483446542931 0 -0.11618422449428729 -0.29302338397619387 0 -0.115841057217938 -0.31224378252823798 0 -0.1112285199293912 -0.29018483446542931 0 -0.115841057217938 -0.31224378252823798 0 -0.1042907208077966 -0.30314724778054369 0 -0.1112285199293912 -0.29018483446542931 0 -0.115841057217938 -0.31224378252823798 0 -0.1254795585812688 -0.31666015425983018 0 -0.11618422449428729 -0.29302338397619387 0 -0.1246376072980058 -0.30078519083500271 0 -0.1112285199293912 -0.29018483446542931 0 -0.1042907208077966 -0.30314724778054369 0 -0.090574382215364069 -0.29785392451238762 0 -0.086441450001328995 -0.31447905829240802 0 -0.1042907208077966 -0.30314724778054369 0 -0.090574382215364069 -0.29785392451238762 0 -0.1018074270174717 -0.31704387212480922 0 -0.086441450001328995 -0.31447905829240802 0 -0.1042907208077966 -0.30314724778054369 0 -0.1018074270174717 -0.31704387212480922 0 -0.115841057217938 -0.31224378252823798 0 -0.1042907208077966 -0.30314724778054369 0 -0.086441450001328995 -0.31447905829240802 0 -0.090574382215364069 -0.29785392451238762 0 -0.069920244501340351 -0.3055230145593551 0 -0.090574382215364069 -0.29785392451238762 0 -0.069920244501340351 -0.3055230145593551 0 -0.069920244501340351 -0.3055230145593551 0 -0.061788109486696108 -0.30961994104815532 0 -0.062960297835702686 -0.31803724540323841 0 -0.069920244501340351 -0.3055230145593551 0 -0.061788109486696108 -0.30961994104815532 0 -0.069920244501340351 -0.3055230145593551 0 -0.061082073778428843 -0.29802102514380119 0 -0.061788109486696108 -0.30961994104815532 0 -0.069920244501340351 -0.3055230145593551 0 -0.068467000139244436 -0.28435022055511328 0 -0.069920244501340351 -0.3055230145593551 0 -0.068467000139244436 -0.28435022055511328 0 -0.082133655556880306 -0.28638161500103299 0 -0.069920244501340351 -0.3055230145593551 0 -0.068467000139244436 -0.28435022055511328 0 -0.061082073778428843 -0.29802102514380119 0 -0.068467000139244436 -0.28435022055511328 0 -0.082133655556880306 -0.28638161500103299 0 -0.077717693075210759 -0.27373687627202659 0 -0.090574382215364069 -0.29785392451238762 0 -0.069920244501340351 -0.3055230145593551 0 -0.082133655556880306 -0.28638161500103299 0 -0.097216393383531718 -0.28520186687987409 0 -0.090574382215364069 -0.29785392451238762 0 -0.082133655556880306 -0.28638161500103299 0 -0.097216393383531718 -0.28520186687987409 0 -0.082133655556880306 -0.28638161500103299 0 -0.090759253623469538 -0.27534044384026818 0 -0.10053195419743539 -0.26110548420666979 0 -0.090759253623469538 -0.27534044384026818 0 -0.080986897611347086 -0.26098328233485818 0 -0.090759253623469538 -0.27534044384026818 0 -0.077717693075210759 -0.27373687627202659 0 -0.080986897611347086 -0.26098328233485818 0 -0.082133655556880306 -0.28638161500103299 0 -0.090759253623469538 -0.27534044384026818 0 -0.077717693075210759 -0.27373687627202659 0 -0.068467000139244436 -0.28435022055511328 0 -0.067013755777145495 -0.26317742655087151 0 -0.055348671921737189 -0.28602969248772808 0 -0.068467000139244436 -0.28435022055511328 0 -0.077717693075210759 -0.27373687627202659 0 -0.067013755777145495 -0.26317742655087151 0 -0.068467000139244436 -0.28435022055511328 0 -0.067013755777145495 -0.26317742655087151 0 -0.077717693075210759 -0.27373687627202659 0 -0.067013755777145495 -0.26317742655087151 0 -0.080986897611347086 -0.26098328233485818 0 -0.067013755777145495 -0.26317742655087151 0 -0.06558065354919218 -0.24229808990876481 0 -0.067013755777145495 -0.26317742655087151 0 -0.073065544786520109 -0.25380316526745239 0 -0.06558065354919218 -0.24229808990876481 0 -0.067013755777145495 -0.26317742655087151 0 -0.080986897611347086 -0.26098328233485818 0 -0.067013755777145495 -0.26317742655087151 0 -0.073065544786520109 -0.25380316526745239 0 -0.080986897611347086 -0.26098328233485818 0 -0.073065544786520109 -0.25380316526745239 0 -0.080986897611347086 -0.26098328233485818 0 -0.078680872208394953 -0.24875386227531529 0 -0.10053195419743539 -0.26110548420666979 0 -0.080986897611347086 -0.26098328233485818 0 -0.078680872208394953 -0.24875386227531529 0 -0.10053195419743539 -0.26110548420666979 0 -0.078680872208394953 -0.24875386227531529 0 -0.10053195419743539 -0.26110548420666979 0 -0.092419636357667673 -0.24138170263033451 0 -0.078680872208394953 -0.24875386227531529 0 -0.035385283799287882 -0.25932191602941779 0 -0.046498038187911143 -0.2663989241653375 0 -0.025982320598678051 -0.2696204217798121 0 -0.035385283799287882 -0.25932191602941779 0 -0.029811446496305349 -0.2486117974538245 0 -0.039879591409513748 -0.2496049618838761 0 -0.035385283799287882 -0.25932191602941779 0 -0.043439594250458062 -0.2573619892798607 0 -0.046498038187911143 -0.2663989241653375 0 -0.035385283799287882 -0.25932191602941779 0 -0.043439594250458062 -0.2573619892798607 0 -0.039879591409513748 -0.2496049618838761 0 -0.043439594250458062 -0.2573619892798607 0 -0.053355027792987939 -0.25272055936140142 0 -0.039879591409513748 -0.2496049618838761 0 -0.067013755777145495 -0.26317742655087151 0 -0.053355027792987939 -0.25272055936140142 0 -0.06558065354919218 -0.24229808990876481 0 -0.067013755777145495 -0.26317742655087151 0 -0.046498038187911143 -0.2663989241653375 0 -0.067013755777145495 -0.26317742655087151 0 -0.053355027792987939 -0.25272055936140142 0 -0.046498038187911143 -0.2663989241653375 0 -0.043439594250458062 -0.2573619892798607 0 -0.053355027792987939 -0.25272055936140142 0 -0.046498038187911143 -0.2663989241653375 0 -0.046498038187911143 -0.2663989241653375 0 -0.042186023295479602 -0.28474289711302142 0 -0.055348671921737189 -0.28602969248772808 0 -0.067013755777145495 -0.26317742655087151 0 -0.046498038187911143 -0.2663989241653375 0 -0.055348671921737189 -0.28602969248772808 0 -0.046498038187911143 -0.2663989241653375 0 -0.034718553183950597 -0.27635862802886652 0 -0.042186023295479602 -0.28474289711302142 0 -0.046498038187911143 -0.2663989241653375 0 -0.034718553183950597 -0.27635862802886652 0 -0.025982320598678051 -0.2696204217798121 0 -0.046498038187911143 -0.2663989241653375 0 -0.025982320598678051 -0.2696204217798121 0 -0.034718553183950597 -0.27635862802886652 0 -0.042186023295479602 -0.28474289711302142 0 -0.024207830653733602 -0.28467226905729509 0 -0.042186023295479602 -0.28474289711302142 0 -0.054260409079247347 -0.29921024047255579 0 -0.029654279849059981 -0.29881592884506208 0 -0.042186023295479602 -0.28474289711302142 0 -0.029654279849059981 -0.29881592884506208 0 -0.024207830653733602 -0.28467226905729509 0 -0.055348671921737189 -0.28602969248772808 0 -0.054260409079247347 -0.29921024047255579 0 -0.061082073778428843 -0.29802102514380119 0 -0.068467000139244436 -0.28435022055511328 0 -0.055348671921737189 -0.28602969248772808 0 -0.061082073778428843 -0.29802102514380119 0 -0.042186023295479602 -0.28474289711302142 0 -0.055348671921737189 -0.28602969248772808 0 -0.054260409079247347 -0.29921024047255579 0 -0.054260409079247347 -0.29921024047255579 0 -0.05184905640752744 -0.30627824004440191 0 -0.054260409079247347 -0.29921024047255579 0 -0.057163666077121353 -0.3034026264392421 0 -0.05184905640752744 -0.30627824004440191 0 -0.054260409079247347 -0.29921024047255579 0 -0.057163666077121353 -0.3034026264392421 0 -0.061082073778428843 -0.29802102514380119 0 -0.057163666077121353 -0.3034026264392421 0 -0.061082073778428843 -0.29802102514380119 0 -0.061788109486696108 -0.30961994104815532 0 -0.057091705290295738 -0.31165815239366013 0 -0.05184905640752744 -0.30627824004440191 0 -0.055168292084863527 -0.31696417514171588 0 -0.061788109486696108 -0.30961994104815532 0 -0.05184905640752744 -0.30627824004440191 0 -0.061788109486696108 -0.30961994104815532 0 -0.057091705290295738 -0.31165815239366013 0 -0.05184905640752744 -0.30627824004440191 0 -0.057163666077121353 -0.3034026264392421 0 -0.061788109486696108 -0.30961994104815532 0 -0.05184905640752744 -0.30627824004440191 0 -0.061788109486696108 -0.30961994104815532 0 -0.057091705290295738 -0.31165815239366013 0 -0.059252101174389518 -0.31406987849669238 0 -0.054260409079247347 -0.29921024047255579 0 -0.05184905640752744 -0.30627824004440191 0 -0.029654279849059981 -0.29881592884506208 0 -0.033683187709135608 -0.30147295691157699 0 -0.04655004278958276 -0.32181036291552778 0 -0.05184905640752744 -0.30627824004440191 0 -0.033683187709135608 -0.30147295691157699 0 -0.04655004278958276 -0.32181036291552778 0 -0.05184905640752744 -0.30627824004440191 0 -0.029654279849059981 -0.29881592884506208 0 -0.05184905640752744 -0.30627824004440191 0 -0.033683187709135608 -0.30147295691157699 0 -0.029654279849059981 -0.29881592884506208 0 -0.029654279849059981 -0.29881592884506208 0 -0.01472865169735193 -0.30647091439014917 0 -0.0074595032905925441 -0.29135361764572232 0 -0.033683187709135608 -0.30147295691157699 0 -0.025616513750853481 -0.30932155212680479 0 -0.032763105031475691 -0.32021006615020348 0 -0.033683187709135608 -0.30147295691157699 0 -0.025616513750853481 -0.30932155212680479 0 -0.029654279849059981 -0.29881592884506208 0 -0.025616513750853481 -0.30932155212680479 0 -0.029654279849059981 -0.29881592884506208 0 -0.01472865169735193 -0.30647091439014917 0 -0.01472865169735193 -0.30647091439014917 0 -0.0074595032905925441 -0.29135361764572232 0 0.0019941613485998069 -0.30778267017866417 0 -0.0074595032905925441 -0.29135361764572232 0 -0.0095814128037685718 -0.28195360823185561 0 0.01048492816642939 -0.2805251755837368 0 -0.0074595032905925441 -0.29135361764572232 0 -0.0095814128037685718 -0.28195360823185561 0 -0.024207830653733602 -0.28467226905729509 0 -0.029654279849059981 -0.29881592884506208 0 -0.0074595032905925441 -0.29135361764572232 0 -0.029654279849059981 -0.29881592884506208 0 -0.0074595032905925441 -0.29135361764572232 0 -0.024207830653733602 -0.28467226905729509 0 -0.025982320598678051 -0.2696204217798121 0 -0.017104169587935831 -0.2710145208249784 0 -0.0096632591649378104 -0.2645684865187804 0 -0.034718553183950597 -0.27635862802886652 0 -0.024207830653733602 -0.28467226905729509 0 -0.025982320598678051 -0.2696204217798121 0 -0.025982320598678051 -0.2696204217798121 0 -0.017104169587935831 -0.2710145208249784 0 -0.0095814128037685718 -0.28195360823185561 0 -0.024207830653733602 -0.28467226905729509 0 -0.017104169587935831 -0.2710145208249784 0 -0.024207830653733602 -0.28467226905729509 0 -0.025982320598678051 -0.2696204217798121 0 -0.017104169587935831 -0.2710145208249784 0 -0.0095814128037685718 -0.28195360823185561 0 -0.017104169587935831 -0.2710145208249784 0 0.01048492816642939 -0.2805251755837368 0 -0.0054666030094449522 -0.2728419193942867 0 -0.0096632591649378104 -0.2645684865187804 0 0.01048492816642939 -0.2805251755837368 0 -0.017104169587935831 -0.2710145208249784 0 -0.0054666030094449522 -0.2728419193942867 0 0.01048492816642939 -0.2805251755837368 0 -0.017104169587935831 -0.2710145208249784 0 0.01048492816642939 -0.2805251755837368 0 -0.017104169587935831 -0.2710145208249784 0 -0.0054666030094449522 -0.2728419193942867 0 -0.017104169587935831 -0.2710145208249784 0 -0.0054666030094449522 -0.2728419193942867 0 -0.0096632591649378104 -0.2645684865187804 0 -0.0096632591649378104 -0.2645684865187804 0 -0.029811446496305349 -0.2486117974538245 0 -0.0028941976110883291 -0.2375498012394118 0 -0.0096632591649378104 -0.2645684865187804 0 -0.0028941976110883291 -0.2375498012394118 0 0.0095018751099297406 -0.25072185375926792 0 -0.035385283799287882 -0.25932191602941779 0 -0.025982320598678051 -0.2696204217798121 0 -0.029811446496305349 -0.2486117974538245 0 -0.025982320598678051 -0.2696204217798121 0 -0.0096632591649378104 -0.2645684865187804 0 -0.029811446496305349 -0.2486117974538245 0 -0.0096632591649378104 -0.2645684865187804 0 -0.029811446496305349 -0.2486117974538245 0 -0.034117256708470912 -0.35825253403739937 0 -0.056934409054003571 -0.35808038414840759 0 -0.039308574388072677 -0.34303608247185119 0 -0.034117256708470912 -0.35825253403739937 0 -0.039308574388072677 -0.34303608247185119 0 -0.02275382184540067 -0.34240226513303729 0 -0.034117256708470912 -0.35825253403739937 0 -0.039308574388072677 -0.34303608247185119 0 -0.034117256708470912 -0.35825253403739937 0 -0.046019997903160297 -0.37167234595991172 0 -0.056934409054003571 -0.35808038414840759 0 -0.034117256708470912 -0.35825253403739937 0 -0.046019997903160297 -0.37167234595991172 0 -0.02892593902886963 -0.37346898560294778 0 -0.034117256708470912 -0.35825253403739937 0 -0.02892593902886963 -0.37346898560294778 0 -0.046019997903160297 -0.37167234595991172 0 -0.060501803247893553 -0.3717481657758992 0 -0.056934409054003571 -0.35808038414840759 0 -0.056934409054003571 -0.35808038414840759 0 -0.060284089687747608 -0.34351845600423181 0 -0.039308574388072677 -0.34303608247185119 0 -0.056934409054003571 -0.35808038414840759 0 -0.039308574388072677 -0.34303608247185119 0 -0.060284089687747608 -0.34351845600423181 0 -0.059354587215585931 -0.32697130650369022 0 -0.04655004278958276 -0.32181036291552778 0 -0.060284089687747608 -0.34351845600423181 0 -0.04655004278958276 -0.32181036291552778 0 -0.039308574388072677 -0.34303608247185119 0 -0.060284089687747608 -0.34351845600423181 0 -0.04655004278958276 -0.32181036291552778 0 -0.062960297835702686 -0.31803724540323841 0 -0.061788109486696108 -0.30961994104815532 0 -0.059252101174389518 -0.31406987849669238 0 -0.057091705290295738 -0.31165815239366013 0 -0.059252101174389518 -0.31406987849669238 0 -0.055168292084863527 -0.31696417514171588 0 -0.062960297835702686 -0.31803724540323841 0 -0.059252101174389518 -0.31406987849669238 0 -0.055168292084863527 -0.31696417514171588 0 -0.062960297835702686 -0.31803724540323841 0 -0.055168292084863527 -0.31696417514171588 0 -0.059354587215585931 -0.32697130650369022 0 -0.055168292084863527 -0.31696417514171588 0 -0.059354587215585931 -0.32697130650369022 0 -0.04655004278958276 -0.32181036291552778 0 -0.05184905640752744 -0.30627824004440191 0 -0.04655004278958276 -0.32181036291552778 0 -0.05184905640752744 -0.30627824004440191 0 -0.055168292084863527 -0.31696417514171588 0 -0.04655004278958276 -0.32181036291552778 0 -0.033683187709135608 -0.30147295691157699 0 -0.032763105031475691 -0.32021006615020348 0 -0.04655004278958276 -0.32181036291552778 0 -0.032763105031475691 -0.32021006615020348 0 -0.04655004278958276 -0.32181036291552778 0 -0.039308574388072677 -0.34303608247185119 0 -0.04655004278958276 -0.32181036291552778 0 -0.039308574388072677 -0.34303608247185119 0 -0.02275382184540067 -0.34240226513303729 0 -0.018657206519736499 -0.32540937632525763 0 -0.012541568941088861 -0.33728686902397409 0 -0.032763105031475691 -0.32021006615020348 0 -0.039308574388072677 -0.34303608247185119 0 -0.018657206519736499 -0.32540937632525763 0 -0.039308574388072677 -0.34303608247185119 0 -0.02275382184540067 -0.34240226513303729 0 -0.018657206519736499 -0.32540937632525763 0 -0.039308574388072677 -0.34303608247185119 0 -0.018657206519736499 -0.32540937632525763 0 -0.025616513750853481 -0.30932155212680479 0 -0.01472865169735193 -0.30647091439014917 0 -0.018657206519736499 -0.32540937632525763 0 -0.025616513750853481 -0.30932155212680479 0 -0.032763105031475691 -0.32021006615020348 0 -0.018657206519736499 -0.32540937632525763 0 -0.018657206519736499 -0.32540937632525763 0 -0.0066935798242519252 -0.32629654126487551 0 0.0019941613485998069 -0.30778267017866417 0 -0.018657206519736499 -0.32540937632525763 0 0.0019941613485998069 -0.30778267017866417 0 -0.0066935798242519252 -0.32629654126487551 0 0.0017655166743713159 -0.3211237752102743 0 0.0019941613485998069 -0.30778267017866417 0 -0.01472865169735193 -0.30647091439014917 0 -0.018657206519736499 -0.32540937632525763 0 0.0019941613485998069 -0.30778267017866417 0 -0.0066935798242519252 -0.32629654126487551 0 -0.00088349272075888274 -0.33596060697614238 0 0.0017655166743713159 -0.3211237752102743 0 -0.012541568941088861 -0.33728686902397409 0 -0.00088349272075888274 -0.33596060697614238 0 -0.01371974379529568 -0.35636555542055759 0 -0.018657206519736499 -0.32540937632525763 0 -0.0066935798242519252 -0.32629654126487551 0 -0.012541568941088861 -0.33728686902397409 0 -0.0066935798242519252 -0.32629654126487551 0 -0.012541568941088861 -0.33728686902397409 0 -0.00088349272075888274 -0.33596060697614238 0 -0.0066935798242519252 -0.32629654126487551 0 -0.00088349272075888274 -0.33596060697614238 0 -0.01371974379529568 -0.35636555542055759 0 -0.00033496341424846639 -0.36651781080672008 0 0.0074156934516920051 -0.34976485450150879 0 -0.00088349272075888274 -0.33596060697614238 0 -0.01371974379529568 -0.35636555542055759 0 0.0074156934516920051 -0.34976485450150879 0 -0.00088349272075888274 -0.33596060697614238 0 -0.01371974379529568 -0.35636555542055759 0 -0.034117256708470912 -0.35825253403739937 0 -0.02275382184540067 -0.34240226513303729 0 -0.01371974379529568 -0.35636555542055759 0 -0.02275382184540067 -0.34240226513303729 0 -0.012541568941088861 -0.33728686902397409 0 -0.01371974379529568 -0.35636555542055759 0 -0.034117256708470912 -0.35825253403739937 0 -0.01371974379529568 -0.35636555542055759 0 -0.02892593902886963 -0.37346898560294778 0 -0.01371974379529568 -0.35636555542055759 0 -0.02892593902886963 -0.37346898560294778 0 -0.01344917922595726 -0.37912656106003928 0 -0.01371974379529568 -0.35636555542055759 0 -0.00033496341424846639 -0.36651781080672008 0 -0.01344917922595726 -0.37912656106003928 0 -0.00033496341424846639 -0.36651781080672008 0 -0.01344917922595726 -0.37912656106003928 0 0.0023635328741784898 -0.38376298102461831 0 -0.01344917922595726 -0.37912656106003928 0 -0.01098781387578333 -0.4039568600223602 0 0.0023635328741784898 -0.38376298102461831 0 -0.01098781387578333 -0.4039568600223602 0 0.0023635328741784898 -0.38376298102461831 0 0.0027567559801378091 -0.3986685255013519 0 -0.01098781387578333 -0.4039568600223602 0 0.0023635328741784898 -0.38376298102461831 0 -0.01098781387578333 -0.4039568600223602 0 -0.0031156563085633598 -0.41147211145998969 0 0.0027567559801378091 -0.3986685255013519 0 -0.01344917922595726 -0.37912656106003928 0 -0.01098781387578333 -0.4039568600223602 0 -0.022745210181111111 -0.39273251793673691 0 -0.01098781387578333 -0.4039568600223602 0 -0.022745210181111111 -0.39273251793673691 0 -0.026434784204882229 -0.40644789078150501 0 -0.01098781387578333 -0.4039568600223602 0 -0.022745210181111111 -0.39273251793673691 0 -0.022745210181111111 -0.39273251793673691 0 -0.034748994525123311 -0.39786009879094542 0 -0.026434784204882229 -0.40644789078150501 0 -0.02892593902886963 -0.37346898560294778 0 -0.022745210181111111 -0.39273251793673691 0 -0.040690747069848612 -0.38595806456162862 0 -0.02892593902886963 -0.37346898560294778 0 -0.01344917922595726 -0.37912656106003928 0 -0.022745210181111111 -0.39273251793673691 0 -0.046019997903160297 -0.37167234595991172 0 -0.02892593902886963 -0.37346898560294778 0 -0.040690747069848612 -0.38595806456162862 0 -0.022745210181111111 -0.39273251793673691 0 -0.040690747069848612 -0.38595806456162862 0 -0.034748994525123311 -0.39786009879094542 0 -0.034748994525123311 -0.39786009879094542 0 -0.036876210338351118 -0.4080156251353057 0 -0.026434784204882229 -0.40644789078150501 0 -0.047874667738487968 -0.39943991846727578 0 -0.046494154324770123 -0.40934853418893191 0 -0.036876210338351118 -0.4080156251353057 0 -0.034748994525123311 -0.39786009879094542 0 -0.047874667738487968 -0.39943991846727578 0 -0.036876210338351118 -0.4080156251353057 0 -0.040690747069848612 -0.38595806456162862 0 -0.034748994525123311 -0.39786009879094542 0 -0.047874667738487968 -0.39943991846727578 0 -0.047874667738487968 -0.39943991846727578 0 -0.056153553141863252 -0.41142144667441549 0 -0.06255197203803485 -0.39946381086613469 0 -0.047874667738487968 -0.39943991846727578 0 -0.058045366184956829 -0.38565861051743178 0 -0.06255197203803485 -0.39946381086613469 0 -0.046019997903160297 -0.37167234595991172 0 -0.040690747069848612 -0.38595806456162862 0 -0.058045366184956829 -0.38565861051743178 0 -0.040690747069848612 -0.38595806456162862 0 -0.047874667738487968 -0.39943991846727578 0 -0.058045366184956829 -0.38565861051743178 0 -0.040690747069848612 -0.38595806456162862 0 -0.058045366184956829 -0.38565861051743178 0 -0.046019997903160297 -0.37167234595991172 0 -0.060501803247893553 -0.3717481657758992 0 -0.058045366184956829 -0.38565861051743178 0 -0.053496149918538877 -0.4274380908233571 0 -0.055844899969491719 -0.43503799371925639 0 -0.038593605998987993 -0.42732800331728449 0 -0.055844899969491719 -0.43503799371925639 0 -0.038593605998987993 -0.42732800331728449 0 -0.055844899969491719 -0.43503799371925639 0 -0.038593605998987993 -0.42732800331728449 0 -0.046456154632991672 -0.43514603329842982 0 -0.053496149918538877 -0.4274380908233571 0 -0.06042921125279338 -0.42137175344268718 0 -0.050050805386603642 -0.42106288517822071 0 -0.053496149918538877 -0.4274380908233571 0 -0.050050805386603642 -0.42106288517822071 0 -0.038593605998987993 -0.42732800331728449 0 -0.055844899969491719 -0.43503799371925639 0 -0.046456154632991672 -0.43514603329842982 0 -0.054702660618996923 -0.44063611467250879 0 -0.046456154632991672 -0.43514603329842982 0 -0.040148346751270041 -0.43586136298534078 0 -0.054702660618996923 -0.44063611467250879 0 -0.053496149918538877 -0.4274380908233571 0 -0.055844899969491719 -0.43503799371925639 0 -0.062562226984817698 -0.43238981845933688 0 -0.059516300299208229 -0.43870269703129011 0 -0.065001052456368863 -0.43976611703814628 0 -0.062562226984817698 -0.43238981845933688 0 -0.055844899969491719 -0.43503799371925639 0 -0.059516300299208229 -0.43870269703129011 0 -0.062562226984817698 -0.43238981845933688 0 -0.053496149918538877 -0.4274380908233571 0 -0.06042921125279338 -0.42137175344268718 0 -0.062562226984817698 -0.43238981845933688 0 -0.06042921125279338 -0.42137175344268718 0 -0.056153553141863252 -0.41142144667441549 0 -0.050050805386603642 -0.42106288517822071 0 -0.06042921125279338 -0.42137175344268718 0 -0.056153553141863252 -0.41142144667441549 0 -0.068592944020153562 -0.41085116375514991 0 -0.056153553141863252 -0.41142144667441549 0 -0.06255197203803485 -0.39946381086613469 0 -0.068592944020153562 -0.41085116375514991 0 -0.056153553141863252 -0.41142144667441549 0 -0.050050805386603642 -0.42106288517822071 0 -0.046494154324770123 -0.40934853418893191 0 -0.047874667738487968 -0.39943991846727578 0 -0.056153553141863252 -0.41142144667441549 0 -0.046494154324770123 -0.40934853418893191 0 -0.050050805386603642 -0.42106288517822071 0 -0.041826469446210983 -0.4174550336973768 0 -0.046494154324770123 -0.40934853418893191 0 -0.041826469446210983 -0.4174550336973768 0 -0.046494154324770123 -0.40934853418893191 0 -0.036876210338351118 -0.4080156251353057 0 -0.036876210338351118 -0.4080156251353057 0 -0.033106669559862127 -0.41590177432401593 0 -0.026434784204882229 -0.40644789078150501 0 -0.041826469446210983 -0.4174550336973768 0 -0.036876210338351118 -0.4080156251353057 0 -0.033106669559862127 -0.41590177432401593 0 -0.041826469446210983 -0.4174550336973768 0 -0.033106669559862127 -0.41590177432401593 0 -0.038593605998987993 -0.42732800331728449 0 -0.038593605998987993 -0.42732800331728449 0 -0.03459177223112242 -0.43297935637508561 0 -0.027898816084528062 -0.42822588425886837 0 -0.050050805386603642 -0.42106288517822071 0 -0.041826469446210983 -0.4174550336973768 0 -0.038593605998987993 -0.42732800331728449 0 -0.038593605998987993 -0.42732800331728449 0 -0.046456154632991672 -0.43514603329842982 0 -0.040148346751270041 -0.43586136298534078 0 -0.03459177223112242 -0.43297935637508561 0 -0.027898816084528062 -0.42822588425886837 0 -0.033128630567454229 -0.43978766643238859 0 -0.038593605998987993 -0.42732800331728449 0 -0.040148346751270041 -0.43586136298534078 0 -0.03459177223112242 -0.43297935637508561 0 -0.040148346751270041 -0.43586136298534078 0 -0.03459177223112242 -0.43297935637508561 0 -0.033128630567454229 -0.43978766643238859 0 -0.027898816084528062 -0.42822588425886837 0 -0.02167712108108823 -0.42895176929232359 0 -0.02638951639151001 -0.45053988046845189 0 -0.038593605998987993 -0.42732800331728449 0 -0.021342312028484071 -0.41961801291531298 0 -0.02167712108108823 -0.42895176929232359 0 -0.016269998347354601 -0.43211395548860471 0 -0.02638951639151001 -0.45053988046845189 0 -0.038593605998987993 -0.42732800331728449 0 -0.02356442844060733 -0.42297895850272732 0 -0.021342312028484071 -0.41961801291531298 0 -0.038593605998987993 -0.42732800331728449 0 -0.027898816084528062 -0.42822588425886837 0 -0.02356442844060733 -0.42297895850272732 0 -0.027898816084528062 -0.42822588425886837 0 -0.02356442844060733 -0.42297895850272732 0 -0.02167712108108823 -0.42895176929232359 0 -0.02356442844060733 -0.42297895850272732 0 -0.02167712108108823 -0.42895176929232359 0 -0.021342312028484071 -0.41961801291531298 0 -0.02167712108108823 -0.42895176929232359 0 -0.021342312028484071 -0.41961801291531298 0 -0.011397001140072249 -0.42353521145010559 0 -0.02167712108108823 -0.42895176929232359 0 -0.016269998347354601 -0.43211395548860471 0 -0.011397001140072249 -0.42353521145010559 0 -0.033106669559862127 -0.41590177432401593 0 -0.038593605998987993 -0.42732800331728449 0 -0.021342312028484071 -0.41961801291531298 0 -0.01098781387578333 -0.4039568600223602 0 -0.021342312028484071 -0.41961801291531298 0 -0.01098781387578333 -0.4039568600223602 0 -0.026434784204882229 -0.40644789078150501 0 -0.021342312028484071 -0.41961801291531298 0 -0.033106669559862127 -0.41590177432401593 0 -0.026434784204882229 -0.40644789078150501 0 -0.021342312028484071 -0.41961801291531298 0 -0.02356442844060733 -0.42297895850272732 0 -0.021342312028484071 -0.41961801291531298 0 -0.01098781387578333 -0.4039568600223602 0 -0.021342312028484071 -0.41961801291531298 0 -0.0031156563085633598 -0.41147211145998969 0 -0.021342312028484071 -0.41961801291531298 0 -0.0031156563085633598 -0.41147211145998969 0 -0.0031156563085633598 -0.41147211145998969 0 -0.011397001140072249 -0.42353521145010559 0 -0.003411726204252417 -0.4281130985062615 0 -0.021342312028484071 -0.41961801291531298 0 -0.0031156563085633598 -0.41147211145998969 0 -0.011397001140072249 -0.42353521145010559 0 -0.01098781387578333 -0.4039568600223602 0 -0.0031156563085633598 -0.41147211145998969 0 -0.016269998347354601 -0.43211395548860471 0 -0.003411726204252417 -0.4281130985062615 0 -0.0017067506219875339 -0.44426652496461272 0 -0.016269998347354601 -0.43211395548860471 0 -0.011397001140072249 -0.42353521145010559 0 -0.003411726204252417 -0.4281130985062615 0 -0.0017067506219875339 -0.44426652496461272 0 -0.018358483082488299 -0.45334908711653538 0 0.0056529891247713224 -0.46174815418043758 0 -0.016269998347354601 -0.43211395548860471 0 -0.0017067506219875339 -0.44426652496461272 0 -0.018358483082488299 -0.45334908711653538 0 -0.018358483082488299 -0.45334908711653538 0 0.0056529891247713224 -0.46174815418043758 0 -0.0094022056535654347 -0.46730544732611468 0 -0.018358483082488299 -0.45334908711653538 0 0.0056529891247713224 -0.46174815418043758 0 -0.018358483082488299 -0.45334908711653538 0 -0.02065278560966971 -0.47667691678146662 0 -0.02638951639151001 -0.45053988046845189 0 -0.02471668526040887 -0.47527158066775632 0 -0.033663008355309373 -0.4638542162523106 0 -0.018358483082488299 -0.45334908711653538 0 -0.02638951639151001 -0.45053988046845189 0 -0.02471668526040887 -0.47527158066775632 0 -0.02638951639151001 -0.45053988046845189 0 -0.02471668526040887 -0.47527158066775632 0 -0.0094022056535654347 -0.46730544732611468 0 -0.018358483082488299 -0.45334908711653538 0 -0.02065278560966971 -0.47667691678146662 0 -0.018358483082488299 -0.45334908711653538 0 -0.02065278560966971 -0.47667691678146662 0 -0.02471668526040887 -0.47527158066775632 0 -0.016269998347354601 -0.43211395548860471 0 -0.018358483082488299 -0.45334908711653538 0 -0.02638951639151001 -0.45053988046845189 0 -0.016269998347354601 -0.43211395548860471 0 -0.018358483082488299 -0.45334908711653538 0 -0.027898816084528062 -0.42822588425886837 0 -0.02638951639151001 -0.45053988046845189 0 -0.027898816084528062 -0.42822588425886837 0 -0.02638951639151001 -0.45053988046845189 0 -0.033128630567454229 -0.43978766643238859 0 -0.018358483082488299 -0.45334908711653538 0 -0.02638951639151001 -0.45053988046845189 0 -0.0045879208912677329 -0.48240172148887189 0 -0.022995348683039169 -0.49999999999999972 0 0.0051576140421821792 -0.5 0 -0.0094022056535654347 -0.46730544732611468 0 -0.0045879208912677329 -0.48240172148887189 0 -0.02065278560966971 -0.47667691678146662 0 -0.0094022056535654347 -0.46730544732611468 0 -0.0045879208912677329 -0.48240172148887189 0 0.0056529891247713224 -0.46174815418043758 0 -0.02065278560966971 -0.47667691678146662 0 -0.02471668526040887 -0.47527158066775632 0 -0.022995348683039169 -0.49999999999999972 0 -0.02065278560966971 -0.47667691678146662 0 -0.022995348683039169 -0.49999999999999972 0 -0.02471668526040887 -0.47527158066775632 0 -0.022995348683039169 -0.49999999999999972 0 -0.0045879208912677329 -0.48240172148887189 0 -0.02065278560966971 -0.47667691678146662 0 -0.022995348683039169 -0.49999999999999972 0 -0.02471668526040887 -0.47527158066775632 0 -0.022995348683039169 -0.49999999999999972 0 -0.037108808388042001 -0.48639243498647589 0 -0.037108808388042001 -0.48639243498647589 0 -0.050795390649696043 -0.47995050489319008 0 -0.048803054540615183 -0.5 0 -0.022995348683039169 -0.49999999999999972 0 -0.037108808388042001 -0.48639243498647589 0 -0.048803054540615183 -0.5 0 -0.037108808388042001 -0.48639243498647589 0 -0.040338578429116229 -0.4709685541044773 0 -0.050795390649696043 -0.47995050489319008 0 -0.02471668526040887 -0.47527158066775632 0 -0.037108808388042001 -0.48639243498647589 0 -0.040338578429116229 -0.4709685541044773 0 -0.02471668526040887 -0.47527158066775632 0 -0.040338578429116229 -0.4709685541044773 0 -0.033663008355309373 -0.4638542162523106 0 -0.040338578429116229 -0.4709685541044773 0 -0.050795390649696043 -0.47995050489319008 0 -0.053093841638318158 -0.46518755972055581 0 -0.050795390649696043 -0.47995050489319008 0 -0.053093841638318158 -0.46518755972055581 0 -0.063370877324562813 -0.47265525549317589 0 -0.050795390649696043 -0.47995050489319008 0 -0.062620363903281448 -0.48664072182011658 0 -0.063370877324562813 -0.47265525549317589 0 -0.048803054540615183 -0.5 0 -0.074610760398191145 -0.5 0 -0.062620363903281448 -0.48664072182011658 0 -0.050795390649696043 -0.47995050489319008 0 -0.048803054540615183 -0.5 0 -0.062620363903281448 -0.48664072182011658 0 -0.02638951639151001 -0.45053988046845189 0 -0.049747197191970002 -0.45019551924144358 0 -0.054702660618996923 -0.44063611467250879 0 -0.02638951639151001 -0.45053988046845189 0 -0.033128630567454229 -0.43978766643238859 0 -0.054702660618996923 -0.44063611467250879 0 -0.02638951639151001 -0.45053988046845189 0 -0.054702660618996923 -0.44063611467250879 0 -0.040148346751270041 -0.43586136298534078 0 -0.033128630567454229 -0.43978766643238859 0 -0.054702660618996923 -0.44063611467250879 0 -0.02638951639151001 -0.45053988046845189 0 -0.043207253340203228 -0.45863684976855718 0 -0.049747197191970002 -0.45019551924144358 0 -0.02638951639151001 -0.45053988046845189 0 -0.033663008355309373 -0.4638542162523106 0 -0.043207253340203228 -0.45863684976855718 0 -0.040338578429116229 -0.4709685541044773 0 -0.033663008355309373 -0.4638542162523106 0 -0.043207253340203228 -0.45863684976855718 0 -0.040338578429116229 -0.4709685541044773 0 -0.043207253340203228 -0.45863684976855718 0 -0.053093841638318158 -0.46518755972055581 0 -0.043207253340203228 -0.45863684976855718 0 -0.054444205314125742 -0.456557293209369 0 -0.049747197191970002 -0.45019551924144358 0 -0.043207253340203228 -0.45863684976855718 0 -0.054444205314125742 -0.456557293209369 0 -0.053093841638318158 -0.46518755972055581 0 -0.053093841638318158 -0.46518755972055581 0 -0.064011109724532972 -0.45842602495816259 0 -0.063370877324562813 -0.47265525549317589 0 -0.054444205314125742 -0.456557293209369 0 -0.059529922681844628 -0.45104190224557811 0 -0.064011109724532972 -0.45842602495816259 0 -0.054444205314125742 -0.456557293209369 0 -0.053093841638318158 -0.46518755972055581 0 -0.064011109724532972 -0.45842602495816259 0 -0.059529922681844628 -0.45104190224557811 0 -0.049747197191970002 -0.45019551924144358 0 -0.059257667353473722 -0.4446496039285599 0 -0.059529922681844628 -0.45104190224557811 0 -0.059257667353473722 -0.4446496039285599 0 -0.067048870872453648 -0.44755527334239231 0 -0.054444205314125742 -0.456557293209369 0 -0.059529922681844628 -0.45104190224557811 0 -0.049747197191970002 -0.45019551924144358 0 -0.049747197191970002 -0.45019551924144358 0 -0.054702660618996923 -0.44063611467250879 0 -0.059257667353473722 -0.4446496039285599 0 -0.055844899969491719 -0.43503799371925639 0 -0.054702660618996923 -0.44063611467250879 0 -0.059516300299208229 -0.43870269703129011 0 -0.054702660618996923 -0.44063611467250879 0 -0.059257667353473722 -0.4446496039285599 0 -0.059516300299208229 -0.43870269703129011 0 -0.059257667353473722 -0.4446496039285599 0 -0.059516300299208229 -0.43870269703129011 0 -0.065001052456368863 -0.43976611703814628 0 -0.065001052456368863 -0.43976611703814628 0 -0.074160443229626616 -0.44196791045977307 0 -0.070872333515791516 -0.43419775149031092 0 -0.065001052456368863 -0.43976611703814628 0 -0.074160443229626616 -0.44196791045977307 0 -0.067048870872453648 -0.44755527334239231 0 -0.059257667353473722 -0.4446496039285599 0 -0.065001052456368863 -0.43976611703814628 0 -0.067048870872453648 -0.44755527334239231 0 -0.074160443229626616 -0.44196791045977307 0 -0.074090486204425821 -0.45342582820907529 0 -0.083046912879023355 -0.44746317371634081 0 -0.074160443229626616 -0.44196791045977307 0 -0.067048870872453648 -0.44755527334239231 0 -0.074090486204425821 -0.45342582820907529 0 -0.059529922681844628 -0.45104190224557811 0 -0.067048870872453648 -0.44755527334239231 0 -0.064011109724532972 -0.45842602495816259 0 -0.067048870872453648 -0.44755527334239231 0 -0.064011109724532972 -0.45842602495816259 0 -0.074090486204425821 -0.45342582820907529 0 -0.064011109724532972 -0.45842602495816259 0 -0.074001919425618137 -0.46575924421657727 0 -0.063370877324562813 -0.47265525549317589 0 -0.074001919425618137 -0.46575924421657727 0 -0.074090486204425821 -0.45342582820907529 0 -0.083932107224896524 -0.45926820963282899 0 -0.064011109724532972 -0.45842602495816259 0 -0.074001919425618137 -0.46575924421657727 0 -0.074090486204425821 -0.45342582820907529 0 -0.074090486204425821 -0.45342582820907529 0 -0.083932107224896524 -0.45926820963282899 0 -0.083046912879023355 -0.44746317371634081 0 -0.074001919425618137 -0.46575924421657727 0 -0.083932107224896524 -0.45926820963282899 0 -0.087136055193269918 -0.47248228754827659 0 -0.083932107224896524 -0.45926820963282899 0 -0.087136055193269918 -0.47248228754827659 0 -0.095616419664091734 -0.46412722373326859 0 -0.083932107224896524 -0.45926820963282899 0 -0.093950028382548567 -0.45255424949883921 0 -0.095616419664091734 -0.46412722373326859 0 -0.092637681300505509 -0.4421541314743056 0 -0.083046912879023355 -0.44746317371634081 0 -0.093950028382548567 -0.45255424949883921 0 -0.083932107224896524 -0.45926820963282899 0 -0.083046912879023355 -0.44746317371634081 0 -0.093950028382548567 -0.45255424949883921 0 -0.092637681300505509 -0.4421541314743056 0 -0.083046912879023355 -0.44746317371634081 0 -0.082649966682950105 -0.43470091078999501 0 -0.074160443229626616 -0.44196791045977307 0 -0.083046912879023355 -0.44746317371634081 0 -0.082649966682950105 -0.43470091078999501 0 -0.074610760398191145 -0.5 0 -0.062620363903281448 -0.48664072182011658 0 -0.075521736603342077 -0.48059784871421729 0 -0.062620363903281448 -0.48664072182011658 0 -0.075521736603342077 -0.48059784871421729 0 -0.063370877324562813 -0.47265525549317589 0 -0.074001919425618137 -0.46575924421657727 0 -0.075521736603342077 -0.48059784871421729 0 -0.063370877324562813 -0.47265525549317589 0 -0.074001919425618137 -0.46575924421657727 0 -0.075521736603342077 -0.48059784871421729 0 -0.087136055193269918 -0.47248228754827659 0 -0.087136055193269918 -0.47248228754827659 0 -0.090234478520500497 -0.48595424639473511 0 -0.09965439108713478 -0.47581911095998919 0 -0.075521736603342077 -0.48059784871421729 0 -0.087136055193269918 -0.47248228754827659 0 -0.090234478520500497 -0.48595424639473511 0 -0.074610760398191145 -0.5 0 -0.090234478520500497 -0.48595424639473511 0 -0.10041846625576729 -0.5 0 -0.074610760398191145 -0.5 0 -0.075521736603342077 -0.48059784871421729 0 -0.090234478520500497 -0.48595424639473511 0 -0.10041846625576729 -0.5 0 -0.10439449682171099 -0.48496649082219961 0 -0.12082031616799151 -0.48703672104967027 0 -0.090234478520500497 -0.48595424639473511 0 -0.10041846625576729 -0.5 0 -0.10439449682171099 -0.48496649082219961 0 -0.10439449682171099 -0.48496649082219961 0 -0.09965439108713478 -0.47581911095998919 0 -0.1108448320771611 -0.47602237570660327 0 -0.090234478520500497 -0.48595424639473511 0 -0.10439449682171099 -0.48496649082219961 0 -0.09965439108713478 -0.47581911095998919 0 -0.09965439108713478 -0.47581911095998919 0 -0.095616419664091734 -0.46412722373326859 0 -0.1072532465240776 -0.46670515932258222 0 -0.087136055193269918 -0.47248228754827659 0 -0.09965439108713478 -0.47581911095998919 0 -0.095616419664091734 -0.46412722373326859 0 -0.09965439108713478 -0.47581911095998919 0 -0.1108448320771611 -0.47602237570660327 0 -0.1072532465240776 -0.46670515932258222 0 -0.10439449682171099 -0.48496649082219961 0 -0.1108448320771611 -0.47602237570660327 0 -0.12082031616799151 -0.48703672104967027 0 -0.13102138040345079 -0.47493740735521472 0 -0.12082031616799151 -0.48703672104967027 0 -0.1187064708645916 -0.45977834447648952 0 -0.12082031616799151 -0.48703672104967027 0 -0.1187064708645916 -0.45977834447648952 0 -0.1108448320771611 -0.47602237570660327 0 -0.12082031616799151 -0.48703672104967027 0 -0.1187064708645916 -0.45977834447648952 0 -0.1262261721133435 -0.5 0 -0.10041846625576729 -0.5 0 -0.12082031616799151 -0.48703672104967027 0 -0.092637681300505509 -0.4421541314743056 0 -0.1051848036908954 -0.44491994774868537 0 -0.099454383904470089 -0.43266622087837642 0 -0.1051848036908954 -0.44491994774868537 0 -0.093950028382548567 -0.45255424949883921 0 -0.10328224553587891 -0.4573928106876054 0 -0.092637681300505509 -0.4421541314743056 0 -0.1051848036908954 -0.44491994774868537 0 -0.093950028382548567 -0.45255424949883921 0 -0.093950028382548567 -0.45255424949883921 0 -0.095616419664091734 -0.46412722373326859 0 -0.10328224553587891 -0.4573928106876054 0 -0.095616419664091734 -0.46412722373326859 0 -0.1072532465240776 -0.46670515932258222 0 -0.10328224553587891 -0.4573928106876054 0 -0.1051848036908954 -0.44491994774868537 0 -0.10328224553587891 -0.4573928106876054 0 -0.1187064708645916 -0.45977834447648952 0 -0.1108448320771611 -0.47602237570660327 0 -0.1072532465240776 -0.46670515932258222 0 -0.1187064708645916 -0.45977834447648952 0 -0.1072532465240776 -0.46670515932258222 0 -0.10328224553587891 -0.4573928106876054 0 -0.1187064708645916 -0.45977834447648952 0 -0.1298594530980631 -0.45348957207734869 0 -0.1187064708645916 -0.45977834447648952 0 -0.1165926255611917 -0.43251996790330849 0 -0.1051848036908954 -0.44491994774868537 0 -0.1187064708645916 -0.45977834447648952 0 -0.1165926255611917 -0.43251996790330849 0 -0.1187064708645916 -0.45977834447648952 0 -0.1165926255611917 -0.43251996790330849 0 -0.1298594530980631 -0.45348957207734869 0 -0.1165926255611917 -0.43251996790330849 0 -0.1165926255611917 -0.43251996790330849 0 -0.10368429418304879 -0.41211700428636849 0 -0.1165926255611917 -0.43251996790330849 0 -0.099454383904470089 -0.43266622087837642 0 -0.10368429418304879 -0.41211700428636849 0 -0.1051848036908954 -0.44491994774868537 0 -0.1165926255611917 -0.43251996790330849 0 -0.099454383904470089 -0.43266622087837642 0 -0.099454383904470089 -0.43266622087837642 0 -0.10368429418304879 -0.41211700428636849 0 -0.089306832427545974 -0.42457833525838562 0 -0.10368429418304879 -0.41211700428636849 0 -0.09515854531500556 -0.39864116927206261 0 -0.084143625775694925 -0.40941635527842929 0 -0.10368429418304879 -0.41211700428636849 0 -0.089306832427545974 -0.42457833525838562 0 -0.10368429418304879 -0.41211700428636849 0 -0.11429708592688551 -0.40291861358945469 0 -0.1165926255611917 -0.43251996790330849 0 -0.11429708592688551 -0.40291861358945469 0 -0.1165926255611917 -0.43251996790330849 0 -0.10368429418304879 -0.41211700428636849 0 -0.11429708592688551 -0.40291861358945469 0 -0.12919210520776561 -0.41665321263143879 0 -0.1165926255611917 -0.43251996790330849 0 -0.11429708592688551 -0.40291861358945469 0 -0.13114902494782171 -0.38831258693250731 0 -0.1136992021818284 -0.39520880613883391 0 -0.13114902494782171 -0.38831258693250731 0 -0.11429708592688551 -0.40291861358945469 0 -0.13114902494782171 -0.38831258693250731 0 -0.1136992021818284 -0.39520880613883391 0 -0.11429708592688551 -0.40291861358945469 0 -0.13114902494782171 -0.38831258693250731 0 -0.12919210520776561 -0.41665321263143879 0 -0.11429708592688551 -0.40291861358945469 0 -0.1136992021818284 -0.39520880613883391 0 -0.10713934436156471 -0.39058526015192258 0 -0.10739306604137359 -0.3977010089395544 0 -0.1136992021818284 -0.39520880613883391 0 -0.10739306604137359 -0.3977010089395544 0 -0.1136992021818284 -0.39520880613883391 0 -0.11429708592688551 -0.40291861358945469 0 -0.10739306604137359 -0.3977010089395544 0 -0.1136992021818284 -0.39520880613883391 0 -0.11429708592688551 -0.40291861358945469 0 -0.13114902494782171 -0.38831258693250731 0 -0.1136992021818284 -0.39520880613883391 0 -0.1202427482283749 -0.38458539436282668 0 -0.11964883260638159 -0.36654503110712527 0 -0.12197667006036771 -0.37783513440105471 0 -0.11288521799457189 -0.38471234858574549 0 -0.12197667006036771 -0.37783513440105471 0 -0.1202427482283749 -0.38458539436282668 0 -0.11288521799457189 -0.38471234858574549 0 -0.12754481631949699 -0.38103876863513259 0 -0.12197667006036771 -0.37783513440105471 0 -0.1202427482283749 -0.38458539436282668 0 -0.1136992021818284 -0.39520880613883391 0 -0.11288521799457189 -0.38471234858574549 0 -0.10713934436156471 -0.39058526015192258 0 -0.1136992021818284 -0.39520880613883391 0 -0.11288521799457189 -0.38471234858574549 0 -0.1136992021818284 -0.39520880613883391 0 -0.1202427482283749 -0.38458539436282668 0 -0.11288521799457189 -0.38471234858574549 0 -0.1202427482283749 -0.38458539436282668 0 -0.11288521799457189 -0.38471234858574549 0 -0.10713934436156471 -0.39058526015192258 0 -0.099080938041226613 -0.39302319315532402 0 -0.086632796446960869 -0.38516533425775767 0 -0.099550079316539433 -0.37283059219061349 0 -0.11288521799457189 -0.38471234858574549 0 -0.086632796446960869 -0.38516533425775767 0 -0.11288521799457189 -0.38471234858574549 0 -0.10713934436156471 -0.39058526015192258 0 -0.086632796446960869 -0.38516533425775767 0 -0.11288521799457189 -0.38471234858574549 0 -0.086632796446960869 -0.38516533425775767 0 -0.10368429418304879 -0.41211700428636849 0 -0.11429708592688551 -0.40291861358945469 0 -0.10739306604137359 -0.3977010089395544 0 -0.10368429418304879 -0.41211700428636849 0 -0.10739306604137359 -0.3977010089395544 0 -0.09515854531500556 -0.39864116927206261 0 -0.10713934436156471 -0.39058526015192258 0 -0.10739306604137359 -0.3977010089395544 0 -0.099080938041226613 -0.39302319315532402 0 -0.10739306604137359 -0.3977010089395544 0 -0.099080938041226613 -0.39302319315532402 0 -0.09515854531500556 -0.39864116927206261 0 -0.10368429418304879 -0.41211700428636849 0 -0.09515854531500556 -0.39864116927206261 0 -0.09515854531500556 -0.39864116927206261 0 -0.085302137178447424 -0.395442109548649 0 -0.084143625775694925 -0.40941635527842929 0 -0.099080938041226613 -0.39302319315532402 0 -0.09515854531500556 -0.39864116927206261 0 -0.086632796446960869 -0.38516533425775767 0 -0.09515854531500556 -0.39864116927206261 0 -0.085302137178447424 -0.395442109548649 0 -0.086632796446960869 -0.38516533425775767 0 -0.09515854531500556 -0.39864116927206261 0 -0.086632796446960869 -0.38516533425775767 0 -0.085302137178447424 -0.395442109548649 0 -0.075399985300065031 -0.38535915647323499 0 -0.076463316468521197 -0.40085117720640312 0 -0.085302137178447424 -0.395442109548649 0 -0.076463316468521197 -0.40085117720640312 0 -0.084143625775694925 -0.40941635527842929 0 -0.074018136585912955 -0.36522654909293523 0 -0.086632796446960869 -0.38516533425775767 0 -0.085302137178447424 -0.395442109548649 0 -0.086632796446960869 -0.38516533425775767 0 -0.075399985300065031 -0.38535915647323499 0 -0.086632796446960869 -0.38516533425775767 0 -0.075399985300065031 -0.38535915647323499 0 -0.074560243719935387 -0.37312468582496311 0 -0.086632796446960869 -0.38516533425775767 0 -0.075399985300065031 -0.38535915647323499 0 -0.058045366184956829 -0.38565861051743178 0 -0.075399985300065031 -0.38535915647323499 0 -0.060501803247893553 -0.3717481657758992 0 -0.058045366184956829 -0.38565861051743178 0 -0.075399985300065031 -0.38535915647323499 0 -0.058045366184956829 -0.38565861051743178 0 -0.075399985300065031 -0.38535915647323499 0 -0.06255197203803485 -0.39946381086613469 0 -0.074560243719935387 -0.37312468582496311 0 -0.075399985300065031 -0.38535915647323499 0 -0.074560243719935387 -0.37312468582496311 0 -0.060501803247893553 -0.3717481657758992 0 -0.075399985300065031 -0.38535915647323499 0 -0.075399985300065031 -0.38535915647323499 0 -0.076463316468521197 -0.40085117720640312 0 -0.06255197203803485 -0.39946381086613469 0 -0.075399985300065031 -0.38535915647323499 0 -0.076463316468521197 -0.40085117720640312 0 -0.076463316468521197 -0.40085117720640312 0 -0.06255197203803485 -0.39946381086613469 0 -0.068592944020153562 -0.41085116375514991 0 -0.076463316468521197 -0.40085117720640312 0 -0.068592944020153562 -0.41085116375514991 0 -0.084143625775694925 -0.40941635527842929 0 -0.068592944020153562 -0.41085116375514991 0 -0.070497310837142307 -0.42343352762198683 0 -0.084143625775694925 -0.40941635527842929 0 -0.06042921125279338 -0.42137175344268718 0 -0.068592944020153562 -0.41085116375514991 0 -0.070497310837142307 -0.42343352762198683 0 -0.06042921125279338 -0.42137175344268718 0 -0.062562226984817698 -0.43238981845933688 0 -0.070497310837142307 -0.42343352762198683 0 -0.065001052456368863 -0.43976611703814628 0 -0.062562226984817698 -0.43238981845933688 0 -0.070872333515791516 -0.43419775149031092 0 -0.062562226984817698 -0.43238981845933688 0 -0.070872333515791516 -0.43419775149031092 0 -0.070497310837142307 -0.42343352762198683 0 -0.074160443229626616 -0.44196791045977307 0 -0.070872333515791516 -0.43419775149031092 0 -0.082649966682950105 -0.43470091078999501 0 -0.070872333515791516 -0.43419775149031092 0 -0.070497310837142307 -0.42343352762198683 0 -0.082649966682950105 -0.43470091078999501 0 -0.070497310837142307 -0.42343352762198683 0 -0.082649966682950105 -0.43470091078999501 0 -0.089306832427545974 -0.42457833525838562 0 -0.092637681300505509 -0.4421541314743056 0 -0.099454383904470089 -0.43266622087837642 0 -0.082649966682950105 -0.43470091078999501 0 -0.099454383904470089 -0.43266622087837642 0 -0.082649966682950105 -0.43470091078999501 0 -0.089306832427545974 -0.42457833525838562 0 -0.10368429418304879 -0.41211700428636849 0 -0.089306832427545974 -0.42457833525838562 0 -0.084143625775694925 -0.40941635527842929 0 -0.070497310837142307 -0.42343352762198683 0 -0.089306832427545974 -0.42457833525838562 0 -0.084143625775694925 -0.40941635527842929 0 -0.081307955230564236 -0.078234450604778058 0 -0.071835997247306965 -0.086881385898982061 0 -0.082042046904838059 -0.096244228630395612 0 -0.081307955230564236 -0.078234450604778058 0 -0.082042046904838059 -0.096244228630395612 0 -0.1047089255026671 -0.087175703469896323 0 -0.081307955230564236 -0.078234450604778058 0 -0.093992725994597723 -0.063863475609252998 0 -0.075356424151370782 -0.061170198532508872 0 -0.081307955230564236 -0.078234450604778058 0 -0.1047089255026671 -0.087175703469896323 0 -0.093992725994597723 -0.063863475609252998 0 -0.075356424151370782 -0.061170198532508872 0 -0.059034467620097203 -0.057826816770273112 0 -0.062082068464635459 -0.077381769486889906 0 -0.081307955230564236 -0.078234450604778058 0 -0.075356424151370782 -0.061170198532508872 0 -0.062082068464635459 -0.077381769486889906 0 -0.071835997247306965 -0.086881385898982061 0 -0.082042046904838059 -0.096244228630395612 0 -0.061911918389190163 -0.095665094873864653 0 -0.071835997247306965 -0.086881385898982061 0 -0.062082068464635459 -0.077381769486889906 0 -0.061911918389190163 -0.095665094873864653 0 -0.081307955230564236 -0.078234450604778058 0 -0.071835997247306965 -0.086881385898982061 0 -0.062082068464635459 -0.077381769486889906 0 -0.075047929385218121 -0.11514969813437489 0 -0.060158935983882909 -0.1109419950860828 0 -0.061911918389190163 -0.095665094873864653 0 -0.075047929385218121 -0.11514969813437489 0 -0.082042046904838059 -0.096244228630395612 0 -0.061911918389190163 -0.095665094873864653 0 -0.075047929385218121 -0.11514969813437489 0 -0.05428721826835578 -0.12465414668620201 0 -0.060158935983882909 -0.1109419950860828 0 -0.075047929385218121 -0.11514969813437489 0 -0.097476852872701442 -0.11429036293230579 0 -0.084965694889341595 -0.13067007811210221 0 -0.075047929385218121 -0.11514969813437489 0 -0.082042046904838059 -0.096244228630395612 0 -0.097476852872701442 -0.11429036293230579 0 -0.082042046904838059 -0.096244228630395612 0 -0.097476852872701442 -0.11429036293230579 0 -0.1047089255026671 -0.087175703469896323 0 -0.097476852872701442 -0.11429036293230579 0 -0.1161826773701036 -0.10741113169807991 0 -0.1047089255026671 -0.087175703469896323 0 -0.097476852872701442 -0.11429036293230579 0 -0.11572435392288651 -0.12437890112022611 0 -0.1161826773701036 -0.10741113169807991 0 -0.11572435392288651 -0.12437890112022611 0 -0.1161826773701036 -0.10741113169807991 0 -0.13565976729563209 -0.11693100117146341 0 -0.1161826773701036 -0.10741113169807991 0 -0.1047089255026671 -0.087175703469896323 0 -0.12734348725663069 -0.094279689796507721 0 -0.1047089255026671 -0.087175703469896323 0 -0.12462655644405 -0.078060954822543355 0 -0.12734348725663069 -0.094279689796507721 0 -0.1047089255026671 -0.087175703469896323 0 -0.093992725994597723 -0.063863475609252998 0 -0.1120214925731453 -0.067499636627996878 0 -0.12462655644405 -0.078060954822543355 0 -0.1120214925731453 -0.067499636627996878 0 -0.1327277110078767 -0.063750106771884876 0 -0.1047089255026671 -0.087175703469896323 0 -0.12462655644405 -0.078060954822543355 0 -0.1120214925731453 -0.067499636627996878 0 -0.1120214925731453 -0.067499636627996878 0 -0.1242528662432196 -0.048148230250907573 0 -0.1327277110078767 -0.063750106771884876 0 -0.1120214925731453 -0.067499636627996878 0 -0.1242528662432196 -0.048148230250907573 0 -0.10519751307975291 -0.048269001557405593 0 -0.1242528662432196 -0.048148230250907573 0 -0.1147714036814077 -0.034464175142322667 0 -0.13370424763297481 -0.028799086048623981 0 -0.1242528662432196 -0.048148230250907573 0 -0.1147714036814077 -0.034464175142322667 0 -0.10519751307975291 -0.048269001557405593 0 -0.1147714036814077 -0.034464175142322667 0 -0.10519751307975291 -0.048269001557405593 0 -0.095860660060683528 -0.030423017873275181 0 -0.10519751307975291 -0.048269001557405593 0 -0.095860660060683528 -0.030423017873275181 0 -0.085843775307263004 -0.045664841852578041 0 -0.093992725994597723 -0.063863475609252998 0 -0.1120214925731453 -0.067499636627996878 0 -0.10519751307975291 -0.048269001557405593 0 -0.093992725994597723 -0.063863475609252998 0 -0.10519751307975291 -0.048269001557405593 0 -0.085843775307263004 -0.045664841852578041 0 -0.11180778605765 -0.01001731941111479 0 -0.1392861910412849 -0.0081554484471183623 0 -0.12145368885386749 0.0090400545648379113 0 -0.1147714036814077 -0.034464175142322667 0 -0.11180778605765 -0.01001731941111479 0 -0.13370424763297481 -0.028799086048623981 0 -0.1147714036814077 -0.034464175142322667 0 -0.11180778605765 -0.01001731941111479 0 -0.095860660060683528 -0.030423017873275181 0 -0.11180778605765 -0.01001731941111479 0 -0.095860660060683528 -0.030423017873275181 0 -0.084329381074014942 -0.01187919037511123 0 -0.11180778605765 -0.01001731941111479 0 -0.084329381074014942 -0.01187919037511123 0 -0.098105291580482909 0.012231115689194039 0 -0.11180778605765 -0.01001731941111479 0 -0.084329381074014942 -0.01187919037511123 0 -0.095860660060683528 -0.030423017873275181 0 -0.084329381074014942 -0.01187919037511123 0 -0.076130231711921265 -0.032406313515838149 0 -0.084329381074014942 -0.01187919037511123 0 -0.076130231711921265 -0.032406313515838149 0 -0.060466627611174037 -0.02590795277929403 0 -0.084329381074014942 -0.01187919037511123 0 -0.056850976090379833 -0.01374106133910767 0 -0.060466627611174037 -0.02590795277929403 0 -0.084329381074014942 -0.01187919037511123 0 -0.056850976090379833 -0.01374106133910767 0 -0.084329381074014942 -0.01187919037511123 0 -0.066556129952062879 -0.0037734491924631889 0 -0.056850976090379833 -0.01374106133910767 0 -0.084329381074014942 -0.01187919037511123 0 -0.066556129952062879 -0.0037734491924631889 0 -0.073014270551344823 0.0043363067053087904 0 -0.093992725994597723 -0.063863475609252998 0 -0.085843775307263004 -0.045664841852578041 0 -0.075356424151370782 -0.061170198532508872 0 -0.095860660060683528 -0.030423017873275181 0 -0.085843775307263004 -0.045664841852578041 0 -0.076130231711921265 -0.032406313515838149 0 -0.076130231711921265 -0.032406313515838149 0 -0.059645047665702812 -0.037500370908210151 0 -0.060466627611174037 -0.02590795277929403 0 -0.076130231711921265 -0.032406313515838149 0 -0.068862385344929028 -0.045995772027500492 0 -0.059645047665702812 -0.037500370908210151 0 -0.085843775307263004 -0.045664841852578041 0 -0.076130231711921265 -0.032406313515838149 0 -0.068862385344929028 -0.045995772027500492 0 -0.068862385344929028 -0.045995772027500492 0 -0.075356424151370782 -0.061170198532508872 0 -0.059034467620097203 -0.057826816770273112 0 -0.085843775307263004 -0.045664841852578041 0 -0.068862385344929028 -0.045995772027500492 0 -0.075356424151370782 -0.061170198532508872 0 -0.059034467620097203 -0.057826816770273112 0 -0.048175259684731742 -0.053447912838825253 0 -0.048073937518584672 -0.066270745283624741 0 -0.048175259684731742 -0.053447912838825253 0 -0.056084981311212687 -0.046816083137627647 0 -0.046877426435811657 -0.042273892012105352 0 -0.059034467620097203 -0.057826816770273112 0 -0.048175259684731742 -0.053447912838825253 0 -0.056084981311212687 -0.046816083137627647 0 -0.068862385344929028 -0.045995772027500492 0 -0.059034467620097203 -0.057826816770273112 0 -0.056084981311212687 -0.046816083137627647 0 -0.068862385344929028 -0.045995772027500492 0 -0.056084981311212687 -0.046816083137627647 0 -0.059645047665702812 -0.037500370908210151 0 -0.059645047665702812 -0.037500370908210151 0 -0.049601341926240883 -0.031810851396150343 0 -0.060466627611174037 -0.02590795277929403 0 -0.059645047665702812 -0.037500370908210151 0 -0.049601341926240883 -0.031810851396150343 0 -0.046877426435811657 -0.042273892012105352 0 -0.056084981311212687 -0.046816083137627647 0 -0.059645047665702812 -0.037500370908210151 0 -0.046877426435811657 -0.042273892012105352 0 -0.046877426435811657 -0.042273892012105352 0 -0.038474782087619987 -0.034541536034147342 0 -0.03744400564700047 -0.048451987859963172 0 -0.049601341926240883 -0.031810851396150343 0 -0.046877426435811657 -0.042273892012105352 0 -0.038474782087619987 -0.034541536034147342 0 -0.038474782087619987 -0.034541536034147342 0 -0.03744400564700047 -0.048451987859963172 0 -0.025802740213995218 -0.045166633999998977 0 -0.03744400564700047 -0.048451987859963172 0 -0.039169634554137189 -0.059087639221128453 0 -0.027237735104456009 -0.059227446314367022 0 -0.048175259684731742 -0.053447912838825253 0 -0.039169634554137189 -0.059087639221128453 0 -0.048073937518584672 -0.066270745283624741 0 -0.048175259684731742 -0.053447912838825253 0 -0.03744400564700047 -0.048451987859963172 0 -0.039169634554137189 -0.059087639221128453 0 -0.048175259684731742 -0.053447912838825253 0 -0.046877426435811657 -0.042273892012105352 0 -0.03744400564700047 -0.048451987859963172 0 -0.056021871807275081 -0.002528343663117944 0 -0.056850976090379833 -0.01374106133910767 0 -0.040988405250437468 -0.003304879352412598 0 -0.056850976090379833 -0.01374106133910767 0 -0.060466627611174037 -0.02590795277929403 0 -0.040988405250437468 -0.003304879352412598 0 -0.060466627611174037 -0.02590795277929403 0 -0.040988405250437468 -0.003304879352412598 0 -0.056021871807275081 -0.002528343663117944 0 -0.040988405250437468 -0.003304879352412598 0 -0.053646010029512407 0.0026794717754690862 0 -0.066556129952062879 -0.0037734491924631889 0 -0.056021871807275081 -0.002528343663117944 0 -0.056850976090379833 -0.01374106133910767 0 -0.066556129952062879 -0.0037734491924631889 0 -0.056021871807275081 -0.002528343663117944 0 -0.062564150237299734 0.0049450427097121183 0 -0.060466627611174037 -0.02590795277929403 0 -0.0422712891426031 -0.020472751145136161 0 -0.040988405250437468 -0.003304879352412598 0 -0.049601341926240883 -0.031810851396150343 0 -0.060466627611174037 -0.02590795277929403 0 -0.0422712891426031 -0.020472751145136161 0 -0.049601341926240883 -0.031810851396150343 0 -0.038474782087619987 -0.034541536034147342 0 -0.0422712891426031 -0.020472751145136161 0 -0.038474782087619987 -0.034541536034147342 0 -0.0422712891426031 -0.020472751145136161 0 -0.02824122428692585 -0.020419260808520721 0 -0.0422712891426031 -0.020472751145136161 0 -0.037868736506637607 -0.0074933505956566006 0 -0.02824122428692585 -0.020419260808520721 0 -0.0422712891426031 -0.020472751145136161 0 -0.037868736506637607 -0.0074933505956566006 0 -0.040988405250437468 -0.003304879352412598 0 -0.037868736506637607 -0.0074933505956566006 0 -0.040988405250437468 -0.003304879352412598 0 -0.031062542401675951 0.0082133692146618472 0 -0.037868736506637607 -0.0074933505956566006 0 -0.02844789134946148 -0.018321864733740201 0 -0.031062542401675951 0.0082133692146618472 0 -0.037868736506637607 -0.0074933505956566006 0 -0.02844789134946148 -0.018321864733740201 0 -0.037868736506637607 -0.0074933505956566006 0 -0.02844789134946148 -0.018321864733740201 0 -0.02824122428692585 -0.020419260808520721 0 -0.037868736506637607 -0.0074933505956566006 0 -0.02824122428692585 -0.020419260808520721 0 -0.037868736506637607 -0.0074933505956566006 0 -0.040988405250437468 -0.003304879352412598 0 -0.017394953615642701 -0.0052781137896157704 0 -0.02844789134946148 -0.018321864733740201 0 -0.031062542401675951 0.0082133692146618472 0 -0.02844789134946148 -0.018321864733740201 0 -0.031062542401675951 0.0082133692146618472 0 -0.017394953615642701 -0.0052781137896157704 0 -0.02844789134946148 -0.018321864733740201 0 -0.0044304236702025481 -0.019440370454363691 0 -0.02824122428692585 -0.020419260808520721 0 -0.01583489082431731 -0.032819508228722892 0 -0.015577508941143429 -0.037421581219575888 0 -0.02824122428692585 -0.020419260808520721 0 -0.015577508941143429 -0.037421581219575888 0 -0.02844789134946148 -0.018321864733740201 0 -0.0044304236702025481 -0.019440370454363691 0 -0.01583489082431731 -0.032819508228722892 0 -0.02844789134946148 -0.018321864733740201 0 -0.02824122428692585 -0.020419260808520721 0 -0.02844789134946148 -0.018321864733740201 0 -0.02824122428692585 -0.020419260808520721 0 -0.01583489082431731 -0.032819508228722892 0 -0.02844789134946148 -0.018321864733740201 0 -0.01583489082431731 -0.032819508228722892 0 -0.0020884286449010898 -0.020763096807024262 0 -0.0044304236702025481 -0.019440370454363691 0 -0.0032218902991737871 -0.047317151723706222 0 -0.0020884286449010898 -0.020763096807024262 0 -0.0044304236702025481 -0.019440370454363691 0 -0.0035788031155632172 0.0088068495823422216 0 -0.0044304236702025481 -0.019440370454363691 0 -0.005638957041230689 0.0084364108149788987 0 -0.0020884286449010898 -0.020763096807024262 0 -0.0035788031155632172 0.0088068495823422216 0 -0.017394953615642701 -0.0052781137896157704 0 -0.0044304236702025481 -0.019440370454363691 0 -0.005638957041230689 0.0084364108149788987 0 -0.0044304236702025481 -0.019440370454363691 0 -0.005638957041230689 0.0084364108149788987 0 -0.0035788031155632172 0.0088068495823422216 0 -0.016692586205909809 -0.055315322161972977 0 -0.025802740213995218 -0.045166633999998977 0 -0.015246657239102211 -0.048081859753044562 0 -0.016692586205909809 -0.055315322161972977 0 -0.027237735104456009 -0.059227446314367022 0 -0.025802740213995218 -0.045166633999998977 0 -0.016692586205909809 -0.055315322161972977 0 -0.027237735104456009 -0.059227446314367022 0 -0.016974745861432751 -0.064161715815494583 0 -0.03744400564700047 -0.048451987859963172 0 -0.027237735104456009 -0.059227446314367022 0 -0.025802740213995218 -0.045166633999998977 0 -0.02824122428692585 -0.020419260808520721 0 -0.025802740213995218 -0.045166633999998977 0 -0.02824122428692585 -0.020419260808520721 0 -0.025802740213995218 -0.045166633999998977 0 -0.015577508941143429 -0.037421581219575888 0 -0.038474782087619987 -0.034541536034147342 0 -0.02824122428692585 -0.020419260808520721 0 -0.025802740213995218 -0.045166633999998977 0 -0.025802740213995218 -0.045166633999998977 0 -0.015577508941143429 -0.037421581219575888 0 -0.015246657239102211 -0.048081859753044562 0 -0.0044304236702025481 -0.019440370454363691 0 -0.01583489082431731 -0.032819508228722892 0 -0.0032218902991737871 -0.047317151723706222 0 -0.01583489082431731 -0.032819508228722892 0 -0.015577508941143429 -0.037421581219575888 0 -0.0032218902991737871 -0.047317151723706222 0 -0.015577508941143429 -0.037421581219575888 0 -0.0032218902991737871 -0.047317151723706222 0 -0.0029137935953598118 -0.05442390163063001 0 -0.0020884286449010898 -0.020763096807024262 0 -0.00059805417423383265 -0.050333043196390682 0 -0.0020884286449010898 -0.020763096807024262 0 -0.00059805417423383265 -0.050333043196390682 0 -0.0032218902991737871 -0.047317151723706222 0 -0.015577508941143429 -0.037421581219575888 0 -0.0029137935953598118 -0.05442390163063001 0 -0.01583489082431731 -0.032819508228722892 0 -0.0032218902991737871 -0.047317151723706222 0 -0.015577508941143429 -0.037421581219575888 0 -0.0029137935953598118 -0.05442390163063001 0 -0.015246657239102211 -0.048081859753044562 0 -0.0044304236702025481 -0.019440370454363691 0 -0.0032218902991737871 -0.047317151723706222 0 -0.00059805417423383265 -0.050333043196390682 0 -0.0032218902991737871 -0.047317151723706222 0 -0.0029137935953598118 -0.05442390163063001 0 -0.00059805417423383265 -0.050333043196390682 0 -0.0032218902991737871 -0.047317151723706222 0 -0.00059805417423383265 -0.050333043196390682 0 -0.0029137935953598118 -0.05442390163063001 0 -0.00020882465109851411 -0.05805559639291083 0 -0.00059805417423383265 -0.050333043196390682 0 -0.00020882465109851411 -0.05805559639291083 0 -0.0032218902991737871 -0.047317151723706222 0 -0.0029137935953598118 -0.05442390163063001 0 -0.016692586205909809 -0.055315322161972977 0 -0.0029137935953598118 -0.05442390163063001 0 -0.015246657239102211 -0.048081859753044562 0 -0.016692586205909809 -0.055315322161972977 0 -0.0029137935953598118 -0.05442390163063001 0 -0.011483650029840999 -0.060413762835439352 0 -0.016692586205909809 -0.055315322161972977 0 -0.011483650029840999 -0.060413762835439352 0 -0.016974745861432751 -0.064161715815494583 0 -0.0029137935953598118 -0.05442390163063001 0 -0.011483650029840999 -0.060413762835439352 0 -0.0093534744566610584 -0.067754111733659445 0 -0.0029137935953598118 -0.05442390163063001 0 -0.00020882465109851411 -0.05805559639291083 0 -0.0029137935953598118 -0.05442390163063001 0 -0.00020882465109851411 -0.05805559639291083 0 -0.0017978694641743859 -0.080164500660798915 0 -0.00020882465109851411 -0.05805559639291083 0 -0.0017978694641743859 -0.080164500660798915 0 0.0011784181719055719 -0.085579347445247422 0 -0.0029137935953598118 -0.05442390163063001 0 -0.0017978694641743859 -0.080164500660798915 0 -0.0029137935953598118 -0.05442390163063001 0 -0.0093534744566610584 -0.067754111733659445 0 -0.0017978694641743859 -0.080164500660798915 0 -0.01102793684603366 -0.076933156955326945 0 -0.0093534744566610584 -0.067754111733659445 0 -0.0017978694641743859 -0.080164500660798915 0 -0.01102793684603366 -0.076933156955326945 0 -0.0093534744566610584 -0.067754111733659445 0 -0.015793056432713559 -0.071906002189560544 0 -0.01102793684603366 -0.076933156955326945 0 -0.017379886546717571 -0.079262362020421001 0 -0.015793056432713559 -0.071906002189560544 0 -0.0093534744566610584 -0.067754111733659445 0 -0.016974745861432751 -0.064161715815494583 0 -0.015793056432713559 -0.071906002189560544 0 -0.011483650029840999 -0.060413762835439352 0 -0.0093534744566610584 -0.067754111733659445 0 -0.016974745861432751 -0.064161715815494583 0 -0.0017978694641743859 -0.080164500660798915 0 -0.00068194533298980564 -0.1059050996909678 0 0.0011784181719055719 -0.085579347445247422 0 -0.0017978694641743859 -0.080164500660798915 0 -0.00068194533298980564 -0.1059050996909678 0 -0.0068973029395271654 -0.092791869676720443 0 -0.0017978694641743859 -0.080164500660798915 0 -0.00068194533298980564 -0.1059050996909678 0 -0.0068973029395271654 -0.092791869676720443 0 -0.0017978694641743859 -0.080164500660798915 0 -0.011108030819376309 -0.084873497656501887 0 -0.01102793684603366 -0.076933156955326945 0 -0.0017978694641743859 -0.080164500660798915 0 -0.011108030819376309 -0.084873497656501887 0 -0.01102793684603366 -0.076933156955326945 0 -0.011108030819376309 -0.084873497656501887 0 -0.017379886546717571 -0.079262362020421001 0 -0.0068973029395271654 -0.092791869676720443 0 -0.011108030819376309 -0.084873497656501887 0 -0.01286656090920291 -0.093538846845590509 0 -0.011108030819376309 -0.084873497656501887 0 -0.01286656090920291 -0.093538846845590509 0 -0.019931606820467799 -0.088636461297372252 0 -0.01286656090920291 -0.093538846845590509 0 -0.019931606820467799 -0.088636461297372252 0 -0.020565520093568958 -0.098302886666097683 0 -0.019931606820467799 -0.088636461297372252 0 -0.017379886546717571 -0.079262362020421001 0 -0.027458812231931671 -0.081550407068122749 0 -0.011108030819376309 -0.084873497656501887 0 -0.019931606820467799 -0.088636461297372252 0 -0.017379886546717571 -0.079262362020421001 0 -0.019931606820467799 -0.088636461297372252 0 -0.03021083032200941 -0.094290767527499764 0 -0.020565520093568958 -0.098302886666097683 0 -0.019931606820467799 -0.088636461297372252 0 -0.027458812231931671 -0.081550407068122749 0 -0.03021083032200941 -0.094290767527499764 0 -0.027237735104456009 -0.059227446314367022 0 -0.016974745861432751 -0.064161715815494583 0 -0.02333721308009775 -0.071350859748949391 0 -0.016974745861432751 -0.064161715815494583 0 -0.015793056432713559 -0.071906002189560544 0 -0.02333721308009775 -0.071350859748949391 0 -0.017379886546717571 -0.079262362020421001 0 -0.027458812231931671 -0.081550407068122749 0 -0.02333721308009775 -0.071350859748949391 0 -0.017379886546717571 -0.079262362020421001 0 -0.015793056432713559 -0.071906002189560544 0 -0.02333721308009775 -0.071350859748949391 0 -0.027458812231931671 -0.081550407068122749 0 -0.02333721308009775 -0.071350859748949391 0 -0.035092090949716187 -0.07167097829525293 0 -0.027237735104456009 -0.059227446314367022 0 -0.02333721308009775 -0.071350859748949391 0 -0.035092090949716187 -0.07167097829525293 0 -0.039169634554137189 -0.059087639221128453 0 -0.027237735104456009 -0.059227446314367022 0 -0.035092090949716187 -0.07167097829525293 0 -0.039169634554137189 -0.059087639221128453 0 -0.035092090949716187 -0.07167097829525293 0 -0.048073937518584672 -0.066270745283624741 0 -0.035092090949716187 -0.07167097829525293 0 -0.044452636239471578 -0.078180023115857283 0 -0.048073937518584672 -0.066270745283624741 0 -0.035092090949716187 -0.07167097829525293 0 -0.036895474605767781 -0.085820299690688967 0 -0.044452636239471578 -0.078180023115857283 0 -0.027458812231931671 -0.081550407068122749 0 -0.035092090949716187 -0.07167097829525293 0 -0.036895474605767781 -0.085820299690688967 0 -0.036895474605767781 -0.085820299690688967 0 -0.044779273228604533 -0.093168649056679403 0 -0.03021083032200941 -0.094290767527499764 0 -0.027458812231931671 -0.081550407068122749 0 -0.036895474605767781 -0.085820299690688967 0 -0.03021083032200941 -0.094290767527499764 0 -0.036895474605767781 -0.085820299690688967 0 -0.044779273228604533 -0.093168649056679403 0 -0.044452636239471578 -0.078180023115857283 0 -0.053372429727455761 -0.085691340318584497 0 -0.062082068464635459 -0.077381769486889906 0 -0.061911918389190163 -0.095665094873864653 0 -0.044779273228604533 -0.093168649056679403 0 -0.044452636239471578 -0.078180023115857283 0 -0.053372429727455761 -0.085691340318584497 0 -0.044779273228604533 -0.093168649056679403 0 -0.053372429727455761 -0.085691340318584497 0 -0.061911918389190163 -0.095665094873864653 0 -0.044452636239471578 -0.078180023115857283 0 -0.053372429727455761 -0.085691340318584497 0 -0.062082068464635459 -0.077381769486889906 0 -0.059034467620097203 -0.057826816770273112 0 -0.062082068464635459 -0.077381769486889906 0 -0.048073937518584672 -0.066270745283624741 0 -0.044452636239471578 -0.078180023115857283 0 -0.062082068464635459 -0.077381769486889906 0 -0.048073937518584672 -0.066270745283624741 0 -0.05428721826835578 -0.12465414668620201 0 -0.060158935983882909 -0.1109419950860828 0 -0.046406766039005308 -0.1102508517321313 0 -0.060158935983882909 -0.1109419950860828 0 -0.061911918389190163 -0.095665094873864653 0 -0.046406766039005308 -0.1102508517321313 0 -0.044779273228604533 -0.093168649056679403 0 -0.061911918389190163 -0.095665094873864653 0 -0.046406766039005308 -0.1102508517321313 0 -0.044779273228604533 -0.093168649056679403 0 -0.035485619199480067 -0.1042150636569109 0 -0.046406766039005308 -0.1102508517321313 0 -0.044779273228604533 -0.093168649056679403 0 -0.035485619199480067 -0.1042150636569109 0 -0.03021083032200941 -0.094290767527499764 0 -0.035485619199480067 -0.1042150636569109 0 -0.046406766039005308 -0.1102508517321313 0 -0.030530981487638931 -0.1162646134778571 0 -0.05428721826835578 -0.12465414668620201 0 -0.046406766039005308 -0.1102508517321313 0 -0.039094493427862587 -0.12617464659833119 0 -0.046406766039005308 -0.1102508517321313 0 -0.030530981487638931 -0.1162646134778571 0 -0.039094493427862587 -0.12617464659833119 0 -0.030530981487638931 -0.1162646134778571 0 -0.025363748589394351 -0.128224106728238 0 -0.039094493427862587 -0.12617464659833119 0 -0.030530981487638931 -0.1162646134778571 0 -0.017103974923723349 -0.11764605107577029 0 -0.025363748589394351 -0.128224106728238 0 -0.030530981487638931 -0.1162646134778571 0 -0.017103974923723349 -0.11764605107577029 0 -0.0255002449201422 -0.1071004364903871 0 -0.017103974923723349 -0.11764605107577029 0 -0.0255002449201422 -0.1071004364903871 0 -0.01307332058457158 -0.1059285191387826 0 -0.017103974923723349 -0.11764605107577029 0 -0.013971004071598739 -0.1283184423333697 0 -0.025363748589394351 -0.128224106728238 0 -0.03021083032200941 -0.094290767527499764 0 -0.0255002449201422 -0.1071004364903871 0 -0.020565520093568958 -0.098302886666097683 0 -0.035485619199480067 -0.1042150636569109 0 -0.03021083032200941 -0.094290767527499764 0 -0.0255002449201422 -0.1071004364903871 0 -0.035485619199480067 -0.1042150636569109 0 -0.030530981487638931 -0.1162646134778571 0 -0.0255002449201422 -0.1071004364903871 0 -0.0255002449201422 -0.1071004364903871 0 -0.020565520093568958 -0.098302886666097683 0 -0.01307332058457158 -0.1059285191387826 0 -0.01286656090920291 -0.093538846845590509 0 -0.020565520093568958 -0.098302886666097683 0 -0.01307332058457158 -0.1059285191387826 0 -0.01286656090920291 -0.093538846845590509 0 -0.0080321081718924148 -0.09947740352974313 0 -0.01307332058457158 -0.1059285191387826 0 -0.0068973029395271654 -0.092791869676720443 0 -0.01286656090920291 -0.093538846845590509 0 -0.0080321081718924148 -0.09947740352974313 0 -0.01307332058457158 -0.1059285191387826 0 -0.00068194533298980564 -0.1059050996909678 0 -0.0068641966400275062 -0.1130260490941291 0 -0.0080321081718924148 -0.09947740352974313 0 -0.01307332058457158 -0.1059285191387826 0 -0.00068194533298980564 -0.1059050996909678 0 -0.0068973029395271654 -0.092791869676720443 0 -0.0080321081718924148 -0.09947740352974313 0 -0.00068194533298980564 -0.1059050996909678 0 -0.017103974923723349 -0.11764605107577029 0 -0.0098432758834508787 -0.1200809438738526 0 -0.013971004071598739 -0.1283184423333697 0 -0.017103974923723349 -0.11764605107577029 0 -0.01307332058457158 -0.1059285191387826 0 -0.0068641966400275062 -0.1130260490941291 0 -0.017103974923723349 -0.11764605107577029 0 -0.0098432758834508787 -0.1200809438738526 0 -0.0068641966400275062 -0.1130260490941291 0 -0.00068194533298980564 -0.1059050996909678 0 -0.0068641966400275062 -0.1130260490941291 0 0.0025656609949095939 -0.113103098497584 0 -0.0068641966400275062 -0.1130260490941291 0 -0.00320301459519353 -0.1231720439733197 0 0.0025656609949095939 -0.113103098497584 0 -0.0098432758834508787 -0.1200809438738526 0 -0.00320301459519353 -0.1231720439733197 0 -0.0058261652653124833 -0.12902327885111231 0 -0.0098432758834508787 -0.1200809438738526 0 -0.0068641966400275062 -0.1130260490941291 0 -0.00320301459519353 -0.1231720439733197 0 -0.00320301459519353 -0.1231720439733197 0 -0.0058261652653124833 -0.12902327885111231 0 0.0039529038179136186 -0.14062684954992069 0 -0.0058261652653124833 -0.12902327885111231 0 -0.0070435529572617861 -0.1382270873856557 0 0.0039529038179136186 -0.14062684954992069 0 -0.0070435529572617861 -0.1382270873856557 0 -0.013971004071598739 -0.1283184423333697 0 -0.018588920119100561 -0.1408000794072497 0 -0.0058261652653124833 -0.12902327885111231 0 -0.0070435529572617861 -0.1382270873856557 0 -0.013971004071598739 -0.1283184423333697 0 -0.0098432758834508787 -0.1200809438738526 0 -0.0058261652653124833 -0.12902327885111231 0 -0.013971004071598739 -0.1283184423333697 0 -0.013971004071598739 -0.1283184423333697 0 -0.025363748589394351 -0.128224106728238 0 -0.018588920119100561 -0.1408000794072497 0 -0.025363748589394351 -0.128224106728238 0 -0.018588920119100561 -0.1408000794072497 0 -0.035583880795898117 -0.13966426780553071 0 -0.03110252097481429 -0.15231672834786381 0 -0.018588920119100561 -0.1408000794072497 0 -0.014652712429227671 -0.15887468252369261 0 -0.03110252097481429 -0.15231672834786381 0 -0.018588920119100561 -0.1408000794072497 0 -0.035583880795898117 -0.13966426780553071 0 -0.018588920119100561 -0.1408000794072497 0 -0.006198427009351748 -0.14933585989375531 0 -0.014652712429227671 -0.15887468252369261 0 -0.0070435529572617861 -0.1382270873856557 0 -0.018588920119100561 -0.1408000794072497 0 -0.006198427009351748 -0.14933585989375531 0 -0.0070435529572617861 -0.1382270873856557 0 -0.006198427009351748 -0.14933585989375531 0 0.0039529038179136186 -0.14062684954992069 0 -0.006198427009351748 -0.14933585989375531 0 -0.014652712429227671 -0.15887468252369261 0 0.0053401466409176528 -0.16815060060225759 0 -0.014652712429227671 -0.15887468252369261 0 -0.0122734014685049 -0.17266082121502191 0 0.0053401466409176528 -0.16815060060225759 0 -0.0122734014685049 -0.17266082121502191 0 0.0067273894639216826 -0.1956743516545944 0 0.0053401466409176528 -0.16815060060225759 0 -0.0122734014685049 -0.17266082121502191 0 -0.016684317326623559 -0.18989059544356809 0 0.0067273894639216826 -0.1956743516545944 0 -0.02740420538737811 -0.16916090138866879 0 -0.034108129154021533 -0.1873933267633919 0 -0.016684317326623559 -0.18989059544356809 0 -0.0122734014685049 -0.17266082121502191 0 -0.02740420538737811 -0.16916090138866879 0 -0.016684317326623559 -0.18989059544356809 0 -0.03110252097481429 -0.15231672834786381 0 -0.014652712429227671 -0.15887468252369261 0 -0.02740420538737811 -0.16916090138866879 0 -0.014652712429227671 -0.15887468252369261 0 -0.0122734014685049 -0.17266082121502191 0 -0.02740420538737811 -0.16916090138866879 0 -0.03110252097481429 -0.15231672834786381 0 -0.02740420538737811 -0.16916090138866879 0 -0.038999671857010823 -0.1624302056665784 0 -0.02740420538737811 -0.16916090138866879 0 -0.044319924764578092 -0.17407756169698421 0 -0.02740420538737811 -0.16916090138866879 0 -0.038999671857010823 -0.1624302056665784 0 -0.044319924764578092 -0.17407756169698421 0 -0.038999671857010823 -0.1624302056665784 0 -0.044319924764578092 -0.17407756169698421 0 -0.050378446986508188 -0.16439292521942789 0 -0.038999671857010823 -0.1624302056665784 0 -0.050378446986508188 -0.16439292521942789 0 -0.048565225316643763 -0.1521456660513652 0 -0.02740420538737811 -0.16916090138866879 0 -0.034108129154021533 -0.1873933267633919 0 -0.044319924764578092 -0.17407756169698421 0 -0.034108129154021533 -0.1873933267633919 0 -0.044319924764578092 -0.17407756169698421 0 -0.049852955715827249 -0.1874926626717533 0 -0.044319924764578092 -0.17407756169698421 0 -0.061235644141777179 -0.17899422200530279 0 -0.060705456237438199 -0.17126974044194149 0 -0.044319924764578092 -0.17407756169698421 0 -0.061235644141777179 -0.17899422200530279 0 -0.044319924764578092 -0.17407756169698421 0 -0.049852955715827249 -0.1874926626717533 0 -0.061235644141777179 -0.17899422200530279 0 -0.061235644141777179 -0.17899422200530279 0 -0.060705456237438199 -0.17126974044194149 0 -0.061235644141777179 -0.17899422200530279 0 -0.062303279769150822 -0.19454895581301471 0 -0.049852955715827249 -0.1874926626717533 0 -0.061235644141777179 -0.17899422200530279 0 -0.062303279769150822 -0.19454895581301471 0 -0.044319924764578092 -0.17407756169698421 0 -0.050378446986508188 -0.16439292521942789 0 -0.060705456237438199 -0.17126974044194149 0 -0.050378446986508188 -0.16439292521942789 0 -0.060068461641303063 -0.1613358534621892 0 -0.048565225316643763 -0.1521456660513652 0 -0.050378446986508188 -0.16439292521942789 0 -0.060705456237438199 -0.17126974044194149 0 -0.060068461641303063 -0.1613358534621892 0 -0.048565225316643763 -0.1521456660513652 0 -0.05182427198595644 -0.13827203785228229 0 -0.064639828949118017 -0.15060470802962619 0 -0.060068461641303063 -0.1613358534621892 0 -0.048565225316643763 -0.1521456660513652 0 -0.064639828949118017 -0.15060470802962619 0 -0.05182427198595644 -0.13827203785228229 0 -0.068774985157860374 -0.13638879194263889 0 -0.064639828949118017 -0.15060470802962619 0 -0.05428721826835578 -0.12465414668620201 0 -0.05182427198595644 -0.13827203785228229 0 -0.068774985157860374 -0.13638879194263889 0 -0.05428721826835578 -0.12465414668620201 0 -0.05182427198595644 -0.13827203785228229 0 -0.039094493427862587 -0.12617464659833119 0 -0.05182427198595644 -0.13827203785228229 0 -0.039094493427862587 -0.12617464659833119 0 -0.035583880795898117 -0.13966426780553071 0 -0.025363748589394351 -0.128224106728238 0 -0.039094493427862587 -0.12617464659833119 0 -0.035583880795898117 -0.13966426780553071 0 -0.03110252097481429 -0.15231672834786381 0 -0.048565225316643763 -0.1521456660513652 0 -0.035583880795898117 -0.13966426780553071 0 -0.048565225316643763 -0.1521456660513652 0 -0.05182427198595644 -0.13827203785228229 0 -0.035583880795898117 -0.13966426780553071 0 -0.03110252097481429 -0.15231672834786381 0 -0.038999671857010823 -0.1624302056665784 0 -0.048565225316643763 -0.1521456660513652 0 -0.029811446496305349 -0.2486117974538245 0 -0.0028941976110883291 -0.2375498012394118 0 -0.017448027355852679 -0.2257168061300974 0 -0.0028941976110883291 -0.2375498012394118 0 -0.004663156443558988 -0.22414970022455549 0 -0.017448027355852679 -0.2257168061300974 0 -0.004663156443558988 -0.22414970022455549 0 -0.0064250330942206548 -0.21013409082178189 0 0.0081146322869257107 -0.22319810270693111 0 -0.004663156443558988 -0.22414970022455549 0 -0.017448027355852679 -0.2257168061300974 0 -0.0064250330942206548 -0.21013409082178189 0 -0.029811446496305349 -0.2486117974538245 0 -0.017448027355852679 -0.2257168061300974 0 -0.034956737035145687 -0.222222375137793 0 -0.017448027355852679 -0.2257168061300974 0 -0.028625969356619079 -0.20512622138141931 0 -0.0064250330942206548 -0.21013409082178189 0 -0.017448027355852679 -0.2257168061300974 0 -0.028625969356619079 -0.20512622138141931 0 -0.034956737035145687 -0.222222375137793 0 -0.0064250330942206548 -0.21013409082178189 0 -0.016684317326623559 -0.18989059544356809 0 0.0067273894639216826 -0.1956743516545944 0 -0.034108129154021533 -0.1873933267633919 0 -0.028625969356619079 -0.20512622138141931 0 -0.016684317326623559 -0.18989059544356809 0 -0.028625969356619079 -0.20512622138141931 0 -0.0064250330942206548 -0.21013409082178189 0 -0.016684317326623559 -0.18989059544356809 0 -0.034108129154021533 -0.1873933267633919 0 -0.028625969356619079 -0.20512622138141931 0 -0.046168231464994568 -0.20564890568242361 0 -0.034108129154021533 -0.1873933267633919 0 -0.049852955715827249 -0.1874926626717533 0 -0.046168231464994568 -0.20564890568242361 0 -0.049852955715827249 -0.1874926626717533 0 -0.062303279769150822 -0.19454895581301471 0 -0.046168231464994568 -0.20564890568242361 0 -0.046168231464994568 -0.20564890568242361 0 -0.049959633827671941 -0.2326551083888671 0 -0.06337091539652645 -0.21010368962072651 0 -0.062303279769150822 -0.19454895581301471 0 -0.046168231464994568 -0.20564890568242361 0 -0.06337091539652645 -0.21010368962072651 0 -0.028625969356619079 -0.20512622138141931 0 -0.046168231464994568 -0.20564890568242361 0 -0.034956737035145687 -0.222222375137793 0 -0.046168231464994568 -0.20564890568242361 0 -0.034956737035145687 -0.222222375137793 0 -0.049959633827671941 -0.2326551083888671 0 -0.049959633827671941 -0.2326551083888671 0 -0.064147551321238117 -0.221418753266658 0 -0.06337091539652645 -0.21010368962072651 0 -0.049959633827671941 -0.2326551083888671 0 -0.06337091539652645 -0.21010368962072651 0 -0.049959633827671941 -0.2326551083888671 0 -0.06558065354919218 -0.24229808990876481 0 -0.064147551321238117 -0.221418753266658 0 -0.049959633827671941 -0.2326551083888671 0 -0.064147551321238117 -0.221418753266658 0 -0.053355027792987939 -0.25272055936140142 0 -0.049959633827671941 -0.2326551083888671 0 -0.06558065354919218 -0.24229808990876481 0 -0.053355027792987939 -0.25272055936140142 0 -0.049959633827671941 -0.2326551083888671 0 -0.039879591409513748 -0.2496049618838761 0 -0.049959633827671941 -0.2326551083888671 0 -0.039879591409513748 -0.2496049618838761 0 -0.029811446496305349 -0.2486117974538245 0 -0.034956737035145687 -0.222222375137793 0 -0.049959633827671941 -0.2326551083888671 0 -0.029811446496305349 -0.2486117974538245 0 -0.049959633827671941 -0.2326551083888671 0 -0.029811446496305349 -0.2486117974538245 0 -0.049959633827671941 -0.2326551083888671 0 -0.039879591409513748 -0.2496049618838761 0 -0.092419636357667673 -0.24138170263033451 0 -0.079191320230644902 -0.23862633294023061 0 -0.085416615695893233 -0.23005056272208041 0 -0.092419636357667673 -0.24138170263033451 0 -0.079191320230644902 -0.23862633294023061 0 -0.078680872208394953 -0.24875386227531529 0 -0.079191320230644902 -0.23862633294023061 0 -0.078680872208394953 -0.24875386227531529 0 -0.06558065354919218 -0.24229808990876481 0 -0.073065544786520109 -0.25380316526745239 0 -0.078680872208394953 -0.24875386227531529 0 -0.06558065354919218 -0.24229808990876481 0 -0.079191320230644902 -0.23862633294023061 0 -0.06558065354919218 -0.24229808990876481 0 -0.073858823342076524 -0.23064744716465799 0 -0.06558065354919218 -0.24229808990876481 0 -0.064147551321238117 -0.221418753266658 0 -0.06558065354919218 -0.24229808990876481 0 -0.073858823342076524 -0.23064744716465799 0 -0.064147551321238117 -0.221418753266658 0 -0.073858823342076524 -0.23064744716465799 0 -0.064147551321238117 -0.221418753266658 0 -0.080814849519192156 -0.22061967027181051 0 -0.079191320230644902 -0.23862633294023061 0 -0.073858823342076524 -0.23064744716465799 0 -0.085416615695893233 -0.23005056272208041 0 -0.073858823342076524 -0.23064744716465799 0 -0.080814849519192156 -0.22061967027181051 0 -0.085416615695893233 -0.23005056272208041 0 -0.092419636357667673 -0.24138170263033451 0 -0.085416615695893233 -0.23005056272208041 0 -0.10051320521345609 -0.23064943229753851 0 -0.080814849519192156 -0.22061967027181051 0 -0.085416615695893233 -0.23005056272208041 0 -0.093099679306717989 -0.21809803958657101 0 -0.085416615695893233 -0.23005056272208041 0 -0.093099679306717989 -0.21809803958657101 0 -0.10051320521345609 -0.23064943229753851 0 -0.080814849519192156 -0.22061967027181051 0 -0.093099679306717989 -0.21809803958657101 0 -0.087551577930035027 -0.20288354861908539 0 -0.064147551321238117 -0.221418753266658 0 -0.080814849519192156 -0.22061967027181051 0 -0.087551577930035027 -0.20288354861908539 0 -0.064147551321238117 -0.221418753266658 0 -0.06337091539652645 -0.21010368962072651 0 -0.087551577930035027 -0.20288354861908539 0 -0.064147551321238117 -0.221418753266658 0 -0.087551577930035027 -0.20288354861908539 0 -0.064147551321238117 -0.221418753266658 0 -0.06337091539652645 -0.21010368962072651 0 -0.06337091539652645 -0.21010368962072651 0 -0.087551577930035027 -0.20288354861908539 0 -0.078830357224002501 -0.18410823610771909 0 -0.062303279769150822 -0.19454895581301471 0 -0.06337091539652645 -0.21010368962072651 0 -0.078830357224002501 -0.18410823610771909 0 -0.06337091539652645 -0.21010368962072651 0 -0.078830357224002501 -0.18410823610771909 0 -0.062303279769150822 -0.19454895581301471 0 -0.06337091539652645 -0.21010368962072651 0 -0.10275865866928401 -0.191063147532887 0 -0.078830357224002501 -0.18410823610771909 0 -0.087551577930035027 -0.20288354861908539 0 -0.10275865866928401 -0.191063147532887 0 -0.078830357224002501 -0.18410823610771909 0 -0.10275865866928401 -0.191063147532887 0 -0.1199699015552242 -0.1923370946896826 0 -0.1051172761123161 -0.20589004398652799 0 -0.087551577930035027 -0.20288354861908539 0 -0.10275865866928401 -0.191063147532887 0 -0.1051172761123161 -0.20589004398652799 0 -0.1199699015552242 -0.1923370946896826 0 -0.1204676677325784 -0.21275693483613109 0 -0.1051172761123161 -0.20589004398652799 0 -0.1204676677325784 -0.21275693483613109 0 -0.1068561714800573 -0.21820149865481109 0 -0.1051172761123161 -0.20589004398652799 0 -0.093099679306717989 -0.21809803958657101 0 -0.1068561714800573 -0.21820149865481109 0 -0.1051172761123161 -0.20589004398652799 0 -0.093099679306717989 -0.21809803958657101 0 -0.087551577930035027 -0.20288354861908539 0 -0.1051172761123161 -0.20589004398652799 0 -0.1068561714800573 -0.21820149865481109 0 -0.10051320521345609 -0.23064943229753851 0 -0.11873040758143889 -0.23236140924937801 0 -0.093099679306717989 -0.21809803958657101 0 -0.1068561714800573 -0.21820149865481109 0 -0.10051320521345609 -0.23064943229753851 0 -0.1204676677325784 -0.21275693483613109 0 -0.1068561714800573 -0.21820149865481109 0 -0.11873040758143889 -0.23236140924937801 0 -0.1204676677325784 -0.21275693483613109 0 -0.11873040758143889 -0.23236140924937801 0 -0.132358898636942 -0.2230410513253937 0 -0.11873040758143889 -0.23236140924937801 0 -0.1215669228260727 -0.24881330696513551 0 -0.10787802058303481 -0.24581220956194019 0 -0.10051320521345609 -0.23064943229753851 0 -0.11873040758143889 -0.23236140924937801 0 -0.10787802058303481 -0.24581220956194019 0 -0.10053195419743539 -0.26110548420666979 0 -0.092419636357667673 -0.24138170263033451 0 -0.10787802058303481 -0.24581220956194019 0 -0.092419636357667673 -0.24138170263033451 0 -0.10051320521345609 -0.23064943229753851 0 -0.10787802058303481 -0.24581220956194019 0 -0.081310911662179922 -0.14780570321466549 0 -0.09146787126038608 -0.1628579275701284 0 -0.1019839320162208 -0.13944455388974791 0 -0.081310911662179922 -0.14780570321466549 0 -0.084965694889341595 -0.13067007811210221 0 -0.068774985157860374 -0.13638879194263889 0 -0.081310911662179922 -0.14780570321466549 0 -0.084965694889341595 -0.13067007811210221 0 -0.1019839320162208 -0.13944455388974791 0 -0.075047929385218121 -0.11514969813437489 0 -0.05428721826835578 -0.12465414668620201 0 -0.068774985157860374 -0.13638879194263889 0 -0.075047929385218121 -0.11514969813437489 0 -0.084965694889341595 -0.13067007811210221 0 -0.068774985157860374 -0.13638879194263889 0 -0.081310911662179922 -0.14780570321466549 0 -0.064639828949118017 -0.15060470802962619 0 -0.076033157700152745 -0.16686815974374941 0 -0.081310911662179922 -0.14780570321466549 0 -0.068774985157860374 -0.13638879194263889 0 -0.064639828949118017 -0.15060470802962619 0 -0.060068461641303063 -0.1613358534621892 0 -0.064639828949118017 -0.15060470802962619 0 -0.076033157700152745 -0.16686815974374941 0 -0.060705456237438199 -0.17126974044194149 0 -0.060068461641303063 -0.1613358534621892 0 -0.076033157700152745 -0.16686815974374941 0 -0.060705456237438199 -0.17126974044194149 0 -0.076033157700152745 -0.16686815974374941 0 -0.069933731289671189 -0.1745167722721005 0 -0.061235644141777179 -0.17899422200530279 0 -0.069933731289671189 -0.1745167722721005 0 -0.078830357224002501 -0.18410823610771909 0 -0.076033157700152745 -0.16686815974374941 0 -0.069933731289671189 -0.1745167722721005 0 -0.078830357224002501 -0.18410823610771909 0 -0.061235644141777179 -0.17899422200530279 0 -0.062303279769150822 -0.19454895581301471 0 -0.078830357224002501 -0.18410823610771909 0 -0.061235644141777179 -0.17899422200530279 0 -0.078830357224002501 -0.18410823610771909 0 -0.061235644141777179 -0.17899422200530279 0 -0.060705456237438199 -0.17126974044194149 0 -0.069933731289671189 -0.1745167722721005 0 -0.078830357224002501 -0.18410823610771909 0 -0.09146787126038608 -0.1628579275701284 0 -0.078830357224002501 -0.18410823610771909 0 -0.09146787126038608 -0.1628579275701284 0 -0.1049654119048536 -0.17381725691337621 0 -0.081310911662179922 -0.14780570321466549 0 -0.076033157700152745 -0.16686815974374941 0 -0.09146787126038608 -0.1628579275701284 0 -0.076033157700152745 -0.16686815974374941 0 -0.078830357224002501 -0.18410823610771909 0 -0.09146787126038608 -0.1628579275701284 0 -0.09146787126038608 -0.1628579275701284 0 -0.1049654119048536 -0.17381725691337621 0 -0.11140966085175261 -0.15629544883795621 0 -0.10275865866928401 -0.191063147532887 0 -0.1199699015552242 -0.1923370946896826 0 -0.1049654119048536 -0.17381725691337621 0 -0.10275865866928401 -0.191063147532887 0 -0.078830357224002501 -0.18410823610771909 0 -0.1049654119048536 -0.17381725691337621 0 -0.1199699015552242 -0.1923370946896826 0 -0.1049654119048536 -0.17381725691337621 0 -0.1242882633236493 -0.1698138690269988 0 -0.1049654119048536 -0.17381725691337621 0 -0.1242882633236493 -0.1698138690269988 0 -0.11140966085175261 -0.15629544883795621 0 -0.1242882633236493 -0.1698138690269988 0 -0.11140966085175261 -0.15629544883795621 0 -0.12873153178726099 -0.14413896505566409 0 -0.11140966085175261 -0.15629544883795621 0 -0.1019839320162208 -0.13944455388974791 0 -0.12873153178726099 -0.14413896505566409 0 -0.09146787126038608 -0.1628579275701284 0 -0.11140966085175261 -0.15629544883795621 0 -0.1019839320162208 -0.13944455388974791 0 -0.097476852872701442 -0.11429036293230579 0 -0.084965694889341595 -0.13067007811210221 0 -0.1019839320162208 -0.13944455388974791 0 -0.097476852872701442 -0.11429036293230579 0 -0.11572435392288651 -0.12437890112022611 0 -0.1019839320162208 -0.13944455388974791 0 -0.11572435392288651 -0.12437890112022611 0 -0.1019839320162208 -0.13944455388974791 0 -0.12873153178726099 -0.14413896505566409 0 -0.14886991650719261 -0.1397896119592815 0 -0.12873153178726099 -0.14413896505566409 0 -0.13565976729563209 -0.11693100117146341 0 -0.11572435392288651 -0.12437890112022611 0 -0.12873153178726099 -0.14413896505566409 0 -0.13565976729563209 -0.11693100117146341 0 -0.14886991650719261 -0.1397896119592815 0 -0.13565976729563209 -0.11693100117146341 0 -0.15332611746292521 -0.1220898997849978 0 -0.14886991650719261 -0.1397896119592815 0 -0.12873153178726099 -0.14413896505566409 0 -0.14484044135208651 -0.16085028603905449 0 -0.14886991650719261 -0.1397896119592815 0 -0.14484044135208651 -0.16085028603905449 0 -0.16174411210747561 -0.15344169710033001 0 -0.14886991650719261 -0.1397896119592815 0 -0.12873153178726099 -0.14413896505566409 0 -0.1242882633236493 -0.1698138690269988 0 -0.12873153178726099 -0.14413896505566409 0 -0.14484044135208651 -0.16085028603905449 0 -0.1199699015552242 -0.1923370946896826 0 -0.1242882633236493 -0.1698138690269988 0 -0.14578969267548211 -0.18554715717741491 0 -0.1242882633236493 -0.1698138690269988 0 -0.14578969267548211 -0.18554715717741491 0 -0.14484044135208651 -0.16085028603905449 0 -0.14578969267548211 -0.18554715717741491 0 -0.14484044135208651 -0.16085028603905449 0 -0.16418645783606281 -0.17248047000143371 0 -0.16418645783606281 -0.17248047000143371 0 -0.18181544361491181 -0.1586478586389812 0 -0.16174411210747561 -0.15344169710033001 0 -0.14484044135208651 -0.16085028603905449 0 -0.16418645783606281 -0.17248047000143371 0 -0.16174411210747561 -0.15344169710033001 0 -0.16418645783606281 -0.17248047000143371 0 -0.18432959400301241 -0.18580073461470731 0 -0.16620333774341739 -0.1915999743717495 0 -0.14578969267548211 -0.18554715717741491 0 -0.16418645783606281 -0.17248047000143371 0 -0.16620333774341739 -0.1915999743717495 0 -0.16418645783606281 -0.17248047000143371 0 -0.18432959400301241 -0.18580073461470731 0 -0.18181544361491181 -0.1586478586389812 0 -0.18181544361491181 -0.1586478586389812 0 -0.18914668594705589 -0.13109090576651811 0 -0.18181544361491181 -0.1586478586389812 0 -0.1690083012271241 -0.13544025886289879 0 -0.18914668594705589 -0.13109090576651811 0 -0.1690083012271241 -0.13544025886289879 0 -0.18914668594705589 -0.13109090576651811 0 -0.17865641379188721 -0.1214913795177229 0 -0.1690083012271241 -0.13544025886289879 0 -0.18914668594705589 -0.13109090576651811 0 -0.1690083012271241 -0.13544025886289879 0 -0.16713013639995389 -0.11851802437886599 0 -0.15332611746292521 -0.1220898997849978 0 -0.14886991650719261 -0.1397896119592815 0 -0.1690083012271241 -0.13544025886289879 0 -0.1690083012271241 -0.13544025886289879 0 -0.17865641379188721 -0.1214913795177229 0 -0.16713013639995389 -0.11851802437886599 0 -0.14886991650719261 -0.1397896119592815 0 -0.1690083012271241 -0.13544025886289879 0 -0.15332611746292521 -0.1220898997849978 0 -0.18181544361491181 -0.1586478586389812 0 -0.1690083012271241 -0.13544025886289879 0 -0.16174411210747561 -0.15344169710033001 0 -0.14886991650719261 -0.1397896119592815 0 -0.1690083012271241 -0.13544025886289879 0 -0.16174411210747561 -0.15344169710033001 0 -0.15624835649530289 -0.23964544663328549 0 -0.13756379267572519 -0.24238789422173049 0 -0.14927215291882431 -0.22428853416853689 0 -0.14970996207479509 -0.25772950794230082 0 -0.15624835649530289 -0.23964544663328549 0 -0.13756379267572519 -0.24238789422173049 0 -0.11873040758143889 -0.23236140924937801 0 -0.1215669228260727 -0.24881330696513551 0 -0.13756379267572519 -0.24238789422173049 0 -0.11873040758143889 -0.23236140924937801 0 -0.13756379267572519 -0.24238789422173049 0 -0.132358898636942 -0.2230410513253937 0 -0.13756379267572519 -0.24238789422173049 0 -0.132358898636942 -0.2230410513253937 0 -0.14927215291882431 -0.22428853416853689 0 -0.14927215291882431 -0.22428853416853689 0 -0.13847813808451931 -0.20766882763682901 0 -0.15998061751820919 -0.210471181578094 0 -0.1199699015552242 -0.1923370946896826 0 -0.1204676677325784 -0.21275693483613109 0 -0.13847813808451931 -0.20766882763682901 0 -0.1204676677325784 -0.21275693483613109 0 -0.132358898636942 -0.2230410513253937 0 -0.13847813808451931 -0.20766882763682901 0 -0.132358898636942 -0.2230410513253937 0 -0.14927215291882431 -0.22428853416853689 0 -0.13847813808451931 -0.20766882763682901 0 -0.1199699015552242 -0.1923370946896826 0 -0.14578969267548211 -0.18554715717741491 0 -0.13847813808451931 -0.20766882763682901 0 -0.14578969267548211 -0.18554715717741491 0 -0.13847813808451931 -0.20766882763682901 0 -0.15998061751820919 -0.210471181578094 0 -0.14578969267548211 -0.18554715717741491 0 -0.16620333774341739 -0.1915999743717495 0 -0.15998061751820919 -0.210471181578094 0 -0.16620333774341739 -0.1915999743717495 0 -0.18267725706142471 -0.20680172403880279 0 -0.15998061751820919 -0.210471181578094 0 -0.18432959400301241 -0.18580073461470731 0 -0.16620333774341739 -0.1915999743717495 0 -0.18267725706142471 -0.20680172403880279 0 -0.18267725706142471 -0.20680172403880279 0 -0.15998061751820919 -0.210471181578094 0 -0.16936442055741269 -0.22555103956330599 0 -0.14927215291882431 -0.22428853416853689 0 -0.15998061751820919 -0.210471181578094 0 -0.16936442055741269 -0.22555103956330599 0 -0.15624835649530289 -0.23964544663328549 0 -0.14927215291882431 -0.22428853416853689 0 -0.16936442055741269 -0.22555103956330599 0 -0.16936442055741269 -0.22555103956330599 0 -0.172074041572961 -0.24558676510120761 0 -0.18799795235965519 -0.2252582703595476 0 -0.18267725706142471 -0.20680172403880279 0 -0.16936442055741269 -0.22555103956330599 0 -0.18799795235965519 -0.2252582703595476 0 -0.19346291451407899 -0.25031191112535411 0 -0.172074041572961 -0.24558676510120761 0 -0.18799795235965519 -0.2252582703595476 0 -0.15624835649530289 -0.23964544663328549 0 -0.16936442055741269 -0.22555103956330599 0 -0.172074041572961 -0.24558676510120761 0 -0.14970996207479509 -0.25772950794230082 0 -0.15624835649530289 -0.23964544663328549 0 -0.172074041572961 -0.24558676510120761 0 -0.19346291451407899 -0.25031191112535411 0 -0.20776647204588011 -0.25773985570203939 0 -0.21226113152947851 -0.2354766081018875 0 -0.19346291451407899 -0.25031191112535411 0 -0.21226113152947851 -0.2354766081018875 0 -0.19346291451407899 -0.25031191112535411 0 -0.18799795235965519 -0.2252582703595476 0 -0.19346291451407899 -0.25031191112535411 0 -0.21226113152947851 -0.2354766081018875 0 -0.18799795235965519 -0.2252582703595476 0 -0.21226113152947851 -0.2354766081018875 0 -0.18799795235965519 -0.2252582703595476 0 -0.20996664939963319 -0.2132416890125311 0 -0.21226113152947851 -0.2354766081018875 0 -0.20996664939963319 -0.2132416890125311 0 -0.23105934854487839 -0.22064130507842161 0 -0.20996664939963319 -0.2132416890125311 0 -0.22016053731812149 -0.1948368825881657 0 -0.2252362569509774 -0.209565052960795 0 -0.18267725706142471 -0.20680172403880279 0 -0.20996664939963319 -0.2132416890125311 0 -0.1995204248246569 -0.19547141566398299 0 -0.18267725706142471 -0.20680172403880279 0 -0.18799795235965519 -0.2252582703595476 0 -0.20996664939963319 -0.2132416890125311 0 -0.18432959400301241 -0.18580073461470731 0 -0.18267725706142471 -0.20680172403880279 0 -0.1995204248246569 -0.19547141566398299 0 -0.20996664939963319 -0.2132416890125311 0 -0.1995204248246569 -0.19547141566398299 0 -0.22016053731812149 -0.1948368825881657 0 -0.1995204248246569 -0.19547141566398299 0 -0.22016053731812149 -0.1948368825881657 0 -0.20403453076247949 -0.17477114541805211 0 -0.22016053731812149 -0.1948368825881657 0 -0.23716120397897769 -0.19296055934136369 0 -0.23250976364854789 -0.20358218480559531 0 -0.22016053731812149 -0.1948368825881657 0 -0.23716120397897769 -0.19296055934136369 0 -0.2240486026861738 -0.17804720440645511 0 -0.22016053731812149 -0.1948368825881657 0 -0.23250976364854789 -0.20358218480559531 0 -0.2252362569509774 -0.209565052960795 0 -0.23716120397897769 -0.19296055934136369 0 -0.24939437876229431 -0.19745837742573921 0 -0.24816835419268279 -0.18743950968071441 0 -0.23716120397897769 -0.19296055934136369 0 -0.24939437876229431 -0.19745837742573921 0 -0.2435051934563234 -0.20543652749577729 0 -0.24939437876229431 -0.19745837742573921 0 -0.2435051934563234 -0.20543652749577729 0 -0.25693595377102252 -0.20563522483054139 0 -0.23716120397897769 -0.19296055934136369 0 -0.2435051934563234 -0.20543652749577729 0 -0.23250976364854789 -0.20358218480559531 0 -0.2435051934563234 -0.20543652749577729 0 -0.23756910511060739 -0.2132053820677566 0 -0.23250976364854789 -0.20358218480559531 0 -0.23756910511060739 -0.2132053820677566 0 -0.2423774895978901 -0.22265395712847511 0 -0.2507946868106703 -0.21629624200519559 0 -0.2435051934563234 -0.20543652749577729 0 -0.23756910511060739 -0.2132053820677566 0 -0.2507946868106703 -0.21629624200519559 0 -0.23756910511060739 -0.2132053820677566 0 -0.2252362569509774 -0.209565052960795 0 -0.23105934854487839 -0.22064130507842161 0 -0.20996664939963319 -0.2132416890125311 0 -0.2252362569509774 -0.209565052960795 0 -0.23105934854487839 -0.22064130507842161 0 -0.23756910511060739 -0.2132053820677566 0 -0.23250976364854789 -0.20358218480559531 0 -0.2252362569509774 -0.209565052960795 0 -0.23105934854487839 -0.22064130507842161 0 -0.2351078016721844 -0.23068854345449469 0 -0.22812286110774249 -0.23923762564805781 0 -0.21226113152947851 -0.2354766081018875 0 -0.23105934854487839 -0.22064130507842161 0 -0.21226113152947851 -0.2354766081018875 0 -0.23105934854487839 -0.22064130507842161 0 -0.22812286110774249 -0.23923762564805781 0 -0.23105934854487839 -0.22064130507842161 0 -0.2423774895978901 -0.22265395712847511 0 -0.2351078016721844 -0.23068854345449469 0 -0.23756910511060739 -0.2132053820677566 0 -0.23105934854487839 -0.22064130507842161 0 -0.2423774895978901 -0.22265395712847511 0 -0.2351078016721844 -0.23068854345449469 0 -0.23906271138384291 -0.2383814949273026 0 -0.25735650585110992 -0.23243831303650719 0 -0.2423774895978901 -0.22265395712847511 0 -0.2351078016721844 -0.23068854345449469 0 -0.25735650585110992 -0.23243831303650719 0 -0.2351078016721844 -0.23068854345449469 0 -0.25735650585110992 -0.23243831303650719 0 -0.2471031362988059 -0.26046353371806419 0 -0.23906271138384291 -0.2383814949273026 0 -0.2471031362988059 -0.26046353371806419 0 -0.23906271138384291 -0.2383814949273026 0 -0.25237269560906372 -0.24312716399029821 0 -0.2471031362988059 -0.26046353371806419 0 -0.23906271138384291 -0.2383814949273026 0 -0.2337954412386688 -0.2495947145619575 0 -0.23906271138384291 -0.2383814949273026 0 -0.25237269560906372 -0.24312716399029821 0 -0.25735650585110992 -0.23243831303650719 0 -0.23906271138384291 -0.2383814949273026 0 -0.2337954412386688 -0.2495947145619575 0 -0.22812286110774249 -0.23923762564805781 0 -0.22431526222860329 -0.25734226159114848 0 -0.2337954412386688 -0.2495947145619575 0 -0.22812286110774249 -0.23923762564805781 0 -0.22431526222860329 -0.25734226159114848 0 -0.21226113152947851 -0.2354766081018875 0 -0.22812286110774249 -0.23923762564805781 0 -0.2351078016721844 -0.23068854345449469 0 -0.23906271138384291 -0.2383814949273026 0 -0.22812286110774249 -0.23923762564805781 0 -0.2137376209688705 -0.13426653105550521 0 -0.2019500365296901 -0.14806763835544159 0 -0.22054810709803299 -0.1438659015489023 0 -0.2019500365296901 -0.14806763835544159 0 -0.2158176300555221 -0.15989297692507051 0 -0.22054810709803299 -0.1438659015489023 0 -0.2137376209688705 -0.13426653105550521 0 -0.20323403484301261 -0.12804841475283471 0 -0.2019500365296901 -0.14806763835544159 0 -0.2137376209688705 -0.13426653105550521 0 -0.20323403484301261 -0.12804841475283471 0 -0.21511216751694251 -0.1245367015980261 0 -0.20323403484301261 -0.12804841475283471 0 -0.18914668594705589 -0.13109090576651811 0 -0.2019500365296901 -0.14806763835544159 0 -0.20323403484301261 -0.12804841475283471 0 -0.18914668594705589 -0.13109090576651811 0 -0.19851997182092629 -0.1216875988427386 0 -0.20323403484301261 -0.12804841475283471 0 -0.18914668594705589 -0.13109090576651811 0 -0.18181544361491181 -0.1586478586389812 0 -0.18914668594705589 -0.13109090576651811 0 -0.2019500365296901 -0.14806763835544159 0 -0.18181544361491181 -0.1586478586389812 0 -0.2019500365296901 -0.14806763835544159 0 -0.20403453076247949 -0.17477114541805211 0 -0.18432959400301241 -0.18580073461470731 0 -0.18181544361491181 -0.1586478586389812 0 -0.20403453076247949 -0.17477114541805211 0 -0.18432959400301241 -0.18580073461470731 0 -0.1995204248246569 -0.19547141566398299 0 -0.20403453076247949 -0.17477114541805211 0 -0.22016053731812149 -0.1948368825881657 0 -0.20403453076247949 -0.17477114541805211 0 -0.2240486026861738 -0.17804720440645511 0 -0.20403453076247949 -0.17477114541805211 0 -0.2158176300555221 -0.15989297692507051 0 -0.2240486026861738 -0.17804720440645511 0 -0.2019500365296901 -0.14806763835544159 0 -0.20403453076247949 -0.17477114541805211 0 -0.2158176300555221 -0.15989297692507051 0 -0.2158176300555221 -0.15989297692507051 0 -0.22899323816192119 -0.1658719128625393 0 -0.2240486026861738 -0.17804720440645511 0 -0.2158176300555221 -0.15989297692507051 0 -0.22899323816192119 -0.1658719128625393 0 -0.22776511898515009 -0.1538345429246219 0 -0.22899323816192119 -0.1658719128625393 0 -0.23950916048698001 -0.15574290180861389 0 -0.22776511898515009 -0.1538345429246219 0 -0.22899323816192119 -0.1658719128625393 0 -0.2240486026861738 -0.17804720440645511 0 -0.23812447584002039 -0.17994974930353921 0 -0.23716120397897769 -0.19296055934136369 0 -0.2240486026861738 -0.17804720440645511 0 -0.23812447584002039 -0.17994974930353921 0 -0.23716120397897769 -0.19296055934136369 0 -0.23812447584002039 -0.17994974930353921 0 -0.24816835419268279 -0.18743950968071441 0 -0.23812447584002039 -0.17994974930353921 0 -0.24917172508753399 -0.17743662909608651 0 -0.24375190256447271 -0.16750151198893151 0 -0.23812447584002039 -0.17994974930353921 0 -0.24917172508753399 -0.17743662909608651 0 -0.24816835419268279 -0.18743950968071441 0 -0.22899323816192119 -0.1658719128625393 0 -0.24375190256447271 -0.16750151198893151 0 -0.23950916048698001 -0.15574290180861389 0 -0.22899323816192119 -0.1658719128625393 0 -0.23812447584002039 -0.17994974930353921 0 -0.24375190256447271 -0.16750151198893151 0 -0.24917172508753399 -0.17743662909608651 0 -0.24375190256447271 -0.16750151198893151 0 -0.25427113140178592 -0.16820685179032319 0 -0.24375190256447271 -0.16750151198893151 0 -0.23950916048698001 -0.15574290180861389 0 -0.25244168440859449 -0.15780102707248711 0 -0.2473405641598021 -0.14581896274110809 0 -0.23950916048698001 -0.15574290180861389 0 -0.25244168440859449 -0.15780102707248711 0 -0.2473405641598021 -0.14581896274110809 0 -0.2339574591232938 -0.1437990214779836 0 -0.24255679113997 -0.13435173618108681 0 -0.2473405641598021 -0.14581896274110809 0 -0.23950916048698001 -0.15574290180861389 0 -0.2339574591232938 -0.1437990214779836 0 -0.23950916048698001 -0.15574290180861389 0 -0.22776511898515009 -0.1538345429246219 0 -0.2339574591232938 -0.1437990214779836 0 -0.2158176300555221 -0.15989297692507051 0 -0.22776511898515009 -0.1538345429246219 0 -0.22054810709803299 -0.1438659015489023 0 -0.22776511898515009 -0.1538345429246219 0 -0.2339574591232938 -0.1437990214779836 0 -0.22054810709803299 -0.1438659015489023 0 -0.2137376209688705 -0.13426653105550521 0 -0.22054810709803299 -0.1438659015489023 0 -0.22784375885667421 -0.12681399902232099 0 -0.2339574591232938 -0.1437990214779836 0 -0.22054810709803299 -0.1438659015489023 0 -0.22784375885667421 -0.12681399902232099 0 -0.2137376209688705 -0.13426653105550521 0 -0.22784375885667421 -0.12681399902232099 0 -0.21511216751694251 -0.1245367015980261 0 -0.22784375885667421 -0.12681399902232099 0 -0.24255679113997 -0.13435173618108681 0 -0.24366706449551381 -0.12063578721006581 0 -0.2339574591232938 -0.1437990214779836 0 -0.22784375885667421 -0.12681399902232099 0 -0.24255679113997 -0.13435173618108681 0 -0.2473405641598021 -0.14581896274110809 0 -0.24255679113997 -0.13435173618108681 0 -0.25700139516135762 -0.1347284099774288 0 -0.24255679113997 -0.13435173618108681 0 -0.24366706449551381 -0.12063578721006581 0 -0.25700139516135762 -0.1347284099774288 0 -0.24366706449551381 -0.12063578721006581 0 -0.23455097761189189 -0.1148801105014691 0 -0.24625565025066121 -0.10454026270466681 0 -0.22784375885667421 -0.12681399902232099 0 -0.24366706449551381 -0.12063578721006581 0 -0.23455097761189189 -0.1148801105014691 0 -0.24625565025066121 -0.10454026270466681 0 -0.24520922552879479 -0.088230697655528739 0 -0.25699178412303503 -0.094359345325741584 0 -0.24625565025066121 -0.10454026270466681 0 -0.23468968189700321 -0.097093985454978493 0 -0.24520922552879479 -0.088230697655528739 0 -0.24625565025066121 -0.10454026270466681 0 -0.23468968189700321 -0.097093985454978493 0 -0.2204374368447182 -0.1075303930688227 0 -0.23455097761189189 -0.1148801105014691 0 -0.24625565025066121 -0.10454026270466681 0 -0.2204374368447182 -0.1075303930688227 0 -0.24625565025066121 -0.10454026270466681 0 -0.2204374368447182 -0.1075303930688227 0 -0.23468968189700321 -0.097093985454978493 0 -0.2204374368447182 -0.1075303930688227 0 -0.22179713036435561 -0.092298072213992 0 -0.22784375885667421 -0.12681399902232099 0 -0.2204374368447182 -0.1075303930688227 0 -0.21511216751694251 -0.1245367015980261 0 -0.22784375885667421 -0.12681399902232099 0 -0.23455097761189189 -0.1148801105014691 0 -0.2204374368447182 -0.1075303930688227 0 -0.24137485491631561 -0.065929001687820094 0 -0.24520922552879479 -0.088230697655528739 0 -0.25672703033713729 -0.069083121778188136 0 -0.24137485491631561 -0.065929001687820094 0 -0.24520922552879479 -0.088230697655528739 0 -0.23034536970676919 -0.078658615257220205 0 -0.23468968189700321 -0.097093985454978493 0 -0.24520922552879479 -0.088230697655528739 0 -0.22179713036435561 -0.092298072213992 0 -0.24520922552879479 -0.088230697655528739 0 -0.22179713036435561 -0.092298072213992 0 -0.23034536970676919 -0.078658615257220205 0 -0.24520922552879479 -0.088230697655528739 0 -0.22179713036435561 -0.092298072213992 0 -0.22179713036435561 -0.092298072213992 0 -0.23034536970676919 -0.078658615257220205 0 -0.21790527584626271 -0.079714083317638296 0 -0.24137485491631561 -0.065929001687820094 0 -0.23034536970676919 -0.078658615257220205 0 -0.22416941841462679 -0.066732110943625411 0 -0.23034536970676919 -0.078658615257220205 0 -0.22416941841462679 -0.066732110943625411 0 -0.21790527584626271 -0.079714083317638296 0 -0.2043850742390585 -0.073812271533713447 0 -0.2103851132782005 -0.05125909629497015 0 -0.22416941841462679 -0.066732110943625411 0 -0.2043850742390585 -0.073812271533713447 0 -0.21790527584626271 -0.079714083317638296 0 -0.22416941841462679 -0.066732110943625411 0 -0.2043850742390585 -0.073812271533713447 0 -0.2154001360862543 -0.061429664059391972 0 -0.22179713036435561 -0.092298072213992 0 -0.20882938650650321 -0.087069346639640388 0 -0.1983850351999166 -0.096365446772456592 0 -0.2043850742390585 -0.073812271533713447 0 -0.20882938650650321 -0.087069346639640388 0 -0.1983850351999166 -0.096365446772456592 0 -0.2043850742390585 -0.073812271533713447 0 -0.21790527584626271 -0.079714083317638296 0 -0.20882938650650321 -0.087069346639640388 0 -0.22179713036435561 -0.092298072213992 0 -0.21790527584626271 -0.079714083317638296 0 -0.20882938650650321 -0.087069346639640388 0 -0.2043850742390585 -0.073812271533713447 0 -0.1983850351999166 -0.096365446772456592 0 -0.2043850742390585 -0.073812271533713447 0 -0.1909768065006287 -0.076521278762325839 0 -0.1983850351999166 -0.096365446772456592 0 -0.1909768065006287 -0.076521278762325839 0 -0.1983850351999166 -0.096365446772456592 0 -0.18172234128590781 -0.085508055225691479 0 -0.2043850742390585 -0.073812271533713447 0 -0.1909768065006287 -0.076521278762325839 0 -0.19312354897803291 -0.061195273825026528 0 -0.2204374368447182 -0.1075303930688227 0 -0.2070799430548616 -0.11709055141862421 0 -0.19461922343877519 -0.1105205234329775 0 -0.2204374368447182 -0.1075303930688227 0 -0.2070799430548616 -0.11709055141862421 0 -0.21511216751694251 -0.1245367015980261 0 -0.20323403484301261 -0.12804841475283471 0 -0.2070799430548616 -0.11709055141862421 0 -0.21511216751694251 -0.1245367015980261 0 -0.22179713036435561 -0.092298072213992 0 -0.1983850351999166 -0.096365446772456592 0 -0.2204374368447182 -0.1075303930688227 0 -0.19461922343877519 -0.1105205234329775 0 -0.2204374368447182 -0.1075303930688227 0 -0.1983850351999166 -0.096365446772456592 0 -0.19461922343877519 -0.1105205234329775 0 -0.2204374368447182 -0.1075303930688227 0 -0.22179713036435561 -0.092298072213992 0 -0.1983850351999166 -0.096365446772456592 0 -0.1983850351999166 -0.096365446772456592 0 -0.19461922343877519 -0.1105205234329775 0 -0.1983850351999166 -0.096365446772456592 0 -0.177570648934677 -0.099981522332999367 0 -0.1983850351999166 -0.096365446772456592 0 -0.1869623962433915 -0.11140729708884831 0 -0.177570648934677 -0.099981522332999367 0 -0.1983850351999166 -0.096365446772456592 0 -0.19461922343877519 -0.1105205234329775 0 -0.1869623962433915 -0.11140729708884831 0 -0.19461922343877519 -0.1105205234329775 0 -0.1869623962433915 -0.11140729708884831 0 -0.18914668594705589 -0.13109090576651811 0 -0.19461922343877519 -0.1105205234329775 0 -0.18914668594705589 -0.13109090576651811 0 -0.19461922343877519 -0.1105205234329775 0 -0.1869623962433915 -0.11140729708884831 0 -0.18914668594705589 -0.13109090576651811 0 -0.19461922343877519 -0.1105205234329775 0 -0.19851997182092629 -0.1216875988427386 0 -0.2070799430548616 -0.11709055141862421 0 -0.19461922343877519 -0.1105205234329775 0 -0.19851997182092629 -0.1216875988427386 0 -0.20323403484301261 -0.12804841475283471 0 -0.2070799430548616 -0.11709055141862421 0 -0.19851997182092629 -0.1216875988427386 0 -0.18914668594705589 -0.13109090576651811 0 -0.1869623962433915 -0.11140729708884831 0 -0.17865641379188721 -0.1214913795177229 0 -0.1869623962433915 -0.11140729708884831 0 -0.1745103414396966 -0.11066206343138731 0 -0.17865641379188721 -0.1214913795177229 0 -0.1745103414396966 -0.11066206343138731 0 -0.17865641379188721 -0.1214913795177229 0 -0.16713013639995389 -0.11851802437886599 0 -0.1745103414396966 -0.11066206343138731 0 -0.16713013639995389 -0.11851802437886599 0 -0.1567562626694376 -0.1035975978935435 0 -0.16713013639995389 -0.11851802437886599 0 -0.1567562626694376 -0.1035975978935435 0 -0.15332611746292521 -0.1220898997849978 0 -0.1567562626694376 -0.1035975978935435 0 -0.177570648934677 -0.099981522332999367 0 -0.1745103414396966 -0.11066206343138731 0 -0.1567562626694376 -0.1035975978935435 0 -0.177570648934677 -0.099981522332999367 0 -0.1567562626694376 -0.1035975978935435 0 -0.177570648934677 -0.099981522332999367 0 -0.16402456842629509 -0.085411376908147596 0 -0.1983850351999166 -0.096365446772456592 0 -0.177570648934677 -0.099981522332999367 0 -0.18172234128590781 -0.085508055225691479 0 -0.1869623962433915 -0.11140729708884831 0 -0.1745103414396966 -0.11066206343138731 0 -0.177570648934677 -0.099981522332999367 0 -0.18172234128590781 -0.085508055225691479 0 -0.17586198467786501 -0.071131451355082573 0 -0.16402456842629509 -0.085411376908147596 0 -0.177570648934677 -0.099981522332999367 0 -0.18172234128590781 -0.085508055225691479 0 -0.16402456842629509 -0.085411376908147596 0 -0.17586198467786501 -0.071131451355082573 0 -0.19312354897803291 -0.061195273825026528 0 -0.1909768065006287 -0.076521278762325839 0 -0.17586198467786501 -0.071131451355082573 0 -0.19312354897803291 -0.061195273825026528 0 -0.1909768065006287 -0.076521278762325839 0 -0.18172234128590781 -0.085508055225691479 0 -0.17586198467786501 -0.071131451355082573 0 -0.17586198467786501 -0.071131451355082573 0 -0.157987859265208 -0.063770033883777583 0 -0.16402456842629509 -0.085411376908147596 0 -0.16402456842629509 -0.085411376908147596 0 -0.14392878917244639 -0.093007690128176224 0 -0.14523447405611051 -0.076687161008654636 0 -0.157987859265208 -0.063770033883777583 0 -0.14523447405611051 -0.076687161008654636 0 -0.1327277110078767 -0.063750106771884876 0 -0.157987859265208 -0.063770033883777583 0 -0.16402456842629509 -0.085411376908147596 0 -0.14523447405611051 -0.076687161008654636 0 -0.12462655644405 -0.078060954822543355 0 -0.14523447405611051 -0.076687161008654636 0 -0.1327277110078767 -0.063750106771884876 0 -0.12462655644405 -0.078060954822543355 0 -0.14392878917244639 -0.093007690128176224 0 -0.12734348725663069 -0.094279689796507721 0 -0.12462655644405 -0.078060954822543355 0 -0.14392878917244639 -0.093007690128176224 0 -0.14523447405611051 -0.076687161008654636 0 -0.1161826773701036 -0.10741113169807991 0 -0.12734348725663069 -0.094279689796507721 0 -0.13565976729563209 -0.11693100117146341 0 -0.14392878917244639 -0.093007690128176224 0 -0.12734348725663069 -0.094279689796507721 0 -0.13565976729563209 -0.11693100117146341 0 -0.1567562626694376 -0.1035975978935435 0 -0.13565976729563209 -0.11693100117146341 0 -0.15332611746292521 -0.1220898997849978 0 -0.1567562626694376 -0.1035975978935435 0 -0.14392878917244639 -0.093007690128176224 0 -0.13565976729563209 -0.11693100117146341 0 -0.1567562626694376 -0.1035975978935435 0 -0.16402456842629509 -0.085411376908147596 0 -0.14392878917244639 -0.093007690128176224 0 -0.15579971370453821 -0.025406984166604508 0 -0.1392861910412849 -0.0081554484471183623 0 -0.13370424763297481 -0.028799086048623981 0 -0.1392861910412849 -0.0081554484471183623 0 -0.16835351915437599 -0.0059665003200060447 0 -0.14573804686938699 0.010337812259593061 0 -0.15579971370453821 -0.025406984166604508 0 -0.1392861910412849 -0.0081554484471183623 0 -0.16835351915437599 -0.0059665003200060447 0 -0.11180778605765 -0.01001731941111479 0 -0.1392861910412849 -0.0081554484471183623 0 -0.11180778605765 -0.01001731941111479 0 -0.1392861910412849 -0.0081554484471183623 0 -0.13370424763297481 -0.028799086048623981 0 -0.1242528662432196 -0.048148230250907573 0 -0.13370424763297481 -0.028799086048623981 0 -0.14709482948416031 -0.046107375357211412 0 -0.1242528662432196 -0.048148230250907573 0 -0.1327277110078767 -0.063750106771884876 0 -0.14709482948416031 -0.046107375357211412 0 -0.157987859265208 -0.063770033883777583 0 -0.1327277110078767 -0.063750106771884876 0 -0.14709482948416031 -0.046107375357211412 0 -0.15579971370453821 -0.025406984166604508 0 -0.13370424763297481 -0.028799086048623981 0 -0.14709482948416031 -0.046107375357211412 0 -0.15579971370453821 -0.025406984166604508 0 -0.17268904328530121 -0.047577205034390509 0 -0.18534022165339201 -0.02441210798007323 0 -0.15579971370453821 -0.025406984166604508 0 -0.14709482948416031 -0.046107375357211412 0 -0.17268904328530121 -0.047577205034390509 0 -0.17586198467786501 -0.071131451355082573 0 -0.157987859265208 -0.063770033883777583 0 -0.17268904328530121 -0.047577205034390509 0 -0.157987859265208 -0.063770033883777583 0 -0.14709482948416031 -0.046107375357211412 0 -0.17268904328530121 -0.047577205034390509 0 -0.17268904328530121 -0.047577205034390509 0 -0.19312354897803291 -0.061195273825026528 0 -0.19182789789821089 -0.042413818591830299 0 -0.17586198467786501 -0.071131451355082573 0 -0.17268904328530121 -0.047577205034390509 0 -0.19312354897803291 -0.061195273825026528 0 -0.17268904328530121 -0.047577205034390509 0 -0.18534022165339201 -0.02441210798007323 0 -0.19182789789821089 -0.042413818591830299 0 -0.15579971370453821 -0.025406984166604508 0 -0.18534022165339201 -0.02441210798007323 0 -0.16835351915437599 -0.0059665003200060447 0 -0.18534022165339201 -0.02441210798007323 0 -0.16835351915437599 -0.0059665003200060447 0 -0.19689211567662521 0.0052435676939808374 0 -0.18534022165339201 -0.02441210798007323 0 -0.2060984928499853 -0.01982205532724482 0 -0.19689211567662521 0.0052435676939808374 0 -0.18534022165339201 -0.02441210798007323 0 -0.2060984928499853 -0.01982205532724482 0 -0.20342671564948989 -0.034057473138334918 0 -0.2060984928499853 -0.01982205532724482 0 -0.21628233308281419 -0.032383779083562478 0 -0.23062607826435991 -0.02402158625438278 0 -0.2060984928499853 -0.01982205532724482 0 -0.20342671564948989 -0.034057473138334918 0 -0.21628233308281419 -0.032383779083562478 0 -0.2060984928499853 -0.01982205532724482 0 -0.22431019346743189 -0.0061557212356707254 0 -0.19689211567662521 0.0052435676939808374 0 -0.22431019346743189 -0.0061557212356707254 0 -0.19689211567662521 0.0052435676939808374 0 -0.19312354897803291 -0.061195273825026528 0 -0.20313499806923219 -0.04510647127917046 0 -0.2103851132782005 -0.05125909629497015 0 -0.2043850742390585 -0.073812271533713447 0 -0.19312354897803291 -0.061195273825026528 0 -0.2103851132782005 -0.05125909629497015 0 -0.19312354897803291 -0.061195273825026528 0 -0.19182789789821089 -0.042413818591830299 0 -0.20313499806923219 -0.04510647127917046 0 -0.19312354897803291 -0.061195273825026528 0 -0.2103851132782005 -0.05125909629497015 0 -0.18534022165339201 -0.02441210798007323 0 -0.19182789789821089 -0.042413818591830299 0 -0.20342671564948989 -0.034057473138334918 0 -0.19182789789821089 -0.042413818591830299 0 -0.20342671564948989 -0.034057473138334918 0 -0.20313499806923219 -0.04510647127917046 0 -0.21248396303850911 -0.043369859885798397 0 -0.2103851132782005 -0.05125909629497015 0 -0.2265295875680621 -0.041965943027747379 0 -0.2103851132782005 -0.05125909629497015 0 -0.2265295875680621 -0.041965943027747379 0 -0.20342671564948989 -0.034057473138334918 0 -0.21628233308281419 -0.032383779083562478 0 -0.21248396303850911 -0.043369859885798397 0 -0.21628233308281419 -0.032383779083562478 0 -0.21248396303850911 -0.043369859885798397 0 -0.2265295875680621 -0.041965943027747379 0 -0.21248396303850911 -0.043369859885798397 0 -0.20313499806923219 -0.04510647127917046 0 -0.2103851132782005 -0.05125909629497015 0 -0.20342671564948989 -0.034057473138334918 0 -0.21248396303850911 -0.043369859885798397 0 -0.20313499806923219 -0.04510647127917046 0 -0.2043850742390585 -0.073812271533713447 0 -0.2103851132782005 -0.05125909629497015 0 -0.2154001360862543 -0.061429664059391972 0 -0.21248396303850911 -0.043369859885798397 0 -0.2103851132782005 -0.05125909629497015 0 -0.2103851132782005 -0.05125909629497015 0 -0.2154001360862543 -0.061429664059391972 0 -0.22266093841313131 -0.053915177465258882 0 -0.2103851132782005 -0.05125909629497015 0 -0.22266093841313131 -0.053915177465258882 0 -0.2265295875680621 -0.041965943027747379 0 -0.24137485491631561 -0.065929001687820094 0 -0.22416941841462679 -0.066732110943625411 0 -0.23398426474927669 -0.053780819157803889 0 -0.22416941841462679 -0.066732110943625411 0 -0.22266093841313131 -0.053915177465258882 0 -0.23398426474927669 -0.053780819157803889 0 -0.22416941841462679 -0.066732110943625411 0 -0.2154001360862543 -0.061429664059391972 0 -0.22266093841313131 -0.053915177465258882 0 -0.22266093841313131 -0.053915177465258882 0 -0.23398426474927669 -0.053780819157803889 0 -0.2265295875680621 -0.041965943027747379 0 -0.21628233308281419 -0.032383779083562478 0 -0.2265295875680621 -0.041965943027747379 0 -0.23062607826435991 -0.02402158625438278 0 -0.2265295875680621 -0.041965943027747379 0 -0.2426740618579234 -0.032672789760524248 0 -0.23062607826435991 -0.02402158625438278 0 -0.23398426474927669 -0.053780819157803889 0 -0.2265295875680621 -0.041965943027747379 0 -0.23898677989768891 -0.043599787739406343 0 -0.2265295875680621 -0.041965943027747379 0 -0.2426740618579234 -0.032672789760524248 0 -0.23898677989768891 -0.043599787739406343 0 -0.2265295875680621 -0.041965943027747379 0 -0.2426740618579234 -0.032672789760524248 0 -0.2426740618579234 -0.032672789760524248 0 -0.2477100147512972 -0.041000057899157172 0 -0.25124481984893787 -0.033312503234072387 0 -0.2477100147512972 -0.041000057899157172 0 -0.23898677989768891 -0.043599787739406343 0 -0.24427623602678561 -0.04950141225346702 0 -0.2426740618579234 -0.032672789760524248 0 -0.2477100147512972 -0.041000057899157172 0 -0.23898677989768891 -0.043599787739406343 0 -0.24137485491631561 -0.065929001687820094 0 -0.24427623602678561 -0.04950141225346702 0 -0.26136817612515001 -0.045913796508315868 0 -0.24137485491631561 -0.065929001687820094 0 -0.23398426474927669 -0.053780819157803889 0 -0.24427623602678561 -0.04950141225346702 0 -0.23398426474927669 -0.053780819157803889 0 -0.23898677989768891 -0.043599787739406343 0 -0.24427623602678561 -0.04950141225346702 0 -0.2060984928499853 -0.01982205532724482 0 -0.22431019346743189 -0.0061557212356707254 0 -0.23062607826435991 -0.02402158625438278 0 -0.23062607826435991 -0.02402158625438278 0 -0.2468783232211178 -0.02419402986630435 0 -0.24853562763342399 -0.01187519939238324 0 -0.2426740618579234 -0.032672789760524248 0 -0.23062607826435991 -0.02402158625438278 0 -0.2468783232211178 -0.02419402986630435 0 -0.2426740618579234 -0.032672789760524248 0 -0.2468783232211178 -0.02419402986630435 0 -0.25124481984893787 -0.033312503234072387 0 -0.22431019346743189 -0.0061557212356707254 0 -0.24853562763342399 -0.01187519939238324 0 -0.25292970563774841 0.0047829274478382649 0 -0.22431019346743189 -0.0061557212356707254 0 -0.23062607826435991 -0.02402158625438278 0 -0.24853562763342399 -0.01187519939238324 0 -0.24853562763342399 -0.01187519939238324 0 -0.26826601167534331 -0.0030655646655694791 0 -0.25292970563774841 0.0047829274478382649 0 -0.24853562763342399 -0.01187519939238324 0 -0.26537361256906988 -0.01714173307496478 0 -0.26826601167534331 -0.0030655646655694791 0 -0.24853562763342399 -0.01187519939238324 0 -0.25646424547439112 -0.024314940747895569 0 -0.26537361256906988 -0.01714173307496478 0 -0.2468783232211178 -0.02419402986630435 0 -0.25646424547439112 -0.024314940747895569 0 -0.25124481984893787 -0.033312503234072387 0 -0.2468783232211178 -0.02419402986630435 0 -0.24853562763342399 -0.01187519939238324 0 -0.25646424547439112 -0.024314940747895569 0 -0.25646424547439112 -0.024314940747895569 0 -0.26630315859146048 -0.02960554728144079 0 -0.25124481984893787 -0.033312503234072387 0 -0.25646424547439112 -0.024314940747895569 0 -0.26537361256906988 -0.01714173307496478 0 -0.26630315859146048 -0.02960554728144079 0 -0.26537361256906988 -0.01714173307496478 0 -0.26630315859146048 -0.02960554728144079 0 -0.27420452062151202 -0.020404204248861871 0 -0.26537361256906988 -0.01714173307496478 0 -0.27420452062151202 -0.020404204248861871 0 -0.27589405031024378 -0.0125896366731795 0 -0.27420452062151202 -0.020404204248861871 0 -0.28209028430280131 -0.016785512885912741 0 -0.28136149733398341 -0.02589859132881046 0 -0.27420452062151202 -0.020404204248861871 0 -0.27589405031024378 -0.0125896366731795 0 -0.28209028430280131 -0.016785512885912741 0 -0.26630315859146048 -0.02960554728144079 0 -0.28136149733398341 -0.02589859132881046 0 -0.26630315859146048 -0.02960554728144079 0 -0.27420452062151202 -0.020404204248861871 0 -0.28136149733398341 -0.02589859132881046 0 -0.26537361256906988 -0.01714173307496478 0 -0.26826601167534331 -0.0030655646655694791 0 -0.27589405031024378 -0.0125896366731795 0 -0.27589405031024378 -0.0125896366731795 0 -0.28329998580232479 -0.0060286550507528281 0 -0.28209028430280131 -0.016785512885912741 0 -0.26826601167534331 -0.0030655646655694791 0 -0.27589405031024378 -0.0125896366731795 0 -0.28329998580232479 -0.0060286550507528281 0 -0.26826601167534331 -0.0030655646655694791 0 -0.28329998580232479 -0.0060286550507528281 0 -0.27888041515797929 0.0072797642280855836 0 -0.29111335067895822 -0.016136063955725699 0 -0.29345390246882092 0.0045770139971485491 0 -0.28329998580232479 -0.0060286550507528281 0 -0.29111335067895822 -0.016136063955725699 0 -0.29345390246882092 0.0045770139971485491 0 -0.28329998580232479 -0.0060286550507528281 0 -0.28209028430280131 -0.016785512885912741 0 -0.29111335067895822 -0.016136063955725699 0 -0.28136149733398341 -0.02589859132881046 0 -0.29111335067895822 -0.016136063955725699 0 -0.28209028430280131 -0.016785512885912741 0 -0.28136149733398341 -0.02589859132881046 0 -0.29111335067895822 -0.016136063955725699 0 -0.28136149733398341 -0.02589859132881046 0 -0.2902576641221869 -0.023708595540096199 0 -0.27827742422435969 -0.041799776670691943 0 -0.28136149733398341 -0.02589859132881046 0 -0.2902576641221869 -0.023708595540096199 0 -0.29111335067895822 -0.016136063955725699 0 -0.28136149733398341 -0.02589859132881046 0 -0.2902576641221869 -0.023708595540096199 0 -0.2902576641221869 -0.023708595540096199 0 -0.29111335067895822 -0.016136063955725699 0 -0.30355624367964079 -0.01187338707262096 0 -0.2902576641221869 -0.023708595540096199 0 -0.29111335067895822 -0.016136063955725699 0 -0.2902576641221869 -0.023708595540096199 0 -0.30355624367964079 -0.01187338707262096 0 -0.31544037449283119 -0.017509292967080922 0 -0.2902576641221869 -0.023708595540096199 0 -0.30752594450814352 -0.03960747697006263 0 -0.31544037449283119 -0.017509292967080922 0 -0.2902576641221869 -0.023708595540096199 0 -0.31544037449283119 -0.017509292967080922 0 -0.30355624367964079 -0.01187338707262096 0 -0.32082955449403772 -0.0048523325184361109 0 -0.30780530592239741 0.00057416170187308407 0 -0.29111335067895822 -0.016136063955725699 0 -0.30780530592239741 0.00057416170187308407 0 -0.29111335067895822 -0.016136063955725699 0 -0.29345390246882092 0.0045770139971485491 0 -0.30780530592239741 0.00057416170187308407 0 -0.29111335067895822 -0.016136063955725699 0 -0.30355624367964079 -0.01187338707262096 0 -0.30780530592239741 0.00057416170187308407 0 -0.31228418406237618 -0.055004350380500368 0 -0.30752594450814352 -0.03960747697006263 0 -0.28714528548113111 -0.051252075539219982 0 -0.31228418406237618 -0.055004350380500368 0 -0.28714528548113111 -0.051252075539219982 0 -0.30956122243481399 -0.069240850973273552 0 -0.2902576641221869 -0.023708595540096199 0 -0.28714528548113111 -0.051252075539219982 0 -0.27827742422435969 -0.041799776670691943 0 -0.2902576641221869 -0.023708595540096199 0 -0.30752594450814352 -0.03960747697006263 0 -0.28714528548113111 -0.051252075539219982 0 -0.2902576641221869 -0.023708595540096199 0 -0.28714528548113111 -0.051252075539219982 0 -0.27125449805934598 -0.062225824437016131 0 -0.27827742422435969 -0.041799776670691943 0 -0.26136817612515001 -0.045913796508315868 0 -0.28714528548113111 -0.051252075539219982 0 -0.27125449805934598 -0.062225824437016131 0 -0.27827742422435969 -0.041799776670691943 0 -0.28136149733398341 -0.02589859132881046 0 -0.26136817612515001 -0.045913796508315868 0 -0.26630315859146048 -0.02960554728144079 0 -0.28136149733398341 -0.02589859132881046 0 -0.26136817612515001 -0.045913796508315868 0 -0.28136149733398341 -0.02589859132881046 0 -0.27827742422435969 -0.041799776670691943 0 -0.26136817612515001 -0.045913796508315868 0 -0.26630315859146048 -0.02960554728144079 0 -0.26136817612515001 -0.045913796508315868 0 -0.25124481984893787 -0.033312503234072387 0 -0.2477100147512972 -0.041000057899157172 0 -0.24427623602678561 -0.04950141225346702 0 -0.26136817612515001 -0.045913796508315868 0 -0.26630315859146048 -0.02960554728144079 0 -0.25124481984893787 -0.033312503234072387 0 -0.2477100147512972 -0.041000057899157172 0 -0.26136817612515001 -0.045913796508315868 0 -0.25124481984893787 -0.033312503234072387 0 -0.24137485491631561 -0.065929001687820094 0 -0.26136817612515001 -0.045913796508315868 0 -0.25672703033713729 -0.069083121778188136 0 -0.24137485491631561 -0.065929001687820094 0 -0.26136817612515001 -0.045913796508315868 0 -0.27125449805934598 -0.062225824437016131 0 -0.26136817612515001 -0.045913796508315868 0 -0.25672703033713729 -0.069083121778188136 0 -0.27125449805934598 -0.062225824437016131 0 -0.25672703033713729 -0.069083121778188136 0 -0.26442839705608012 -0.083116288602259863 0 -0.26442839705608012 -0.083116288602259863 0 -0.25699178412303503 -0.094359345325741584 0 -0.27207386365660408 -0.101550132340511 0 -0.24520922552879479 -0.088230697655528739 0 -0.25672703033713729 -0.069083121778188136 0 -0.26442839705608012 -0.083116288602259863 0 -0.24520922552879479 -0.088230697655528739 0 -0.26442839705608012 -0.083116288602259863 0 -0.25699178412303503 -0.094359345325741584 0 -0.26442839705608012 -0.083116288602259863 0 -0.27207386365660408 -0.101550132340511 0 -0.28403290684007559 -0.078795555538343762 0 -0.28714528548113111 -0.051252075539219982 0 -0.27125449805934598 -0.062225824437016131 0 -0.28403290684007559 -0.078795555538343762 0 -0.27125449805934598 -0.062225824437016131 0 -0.26442839705608012 -0.083116288602259863 0 -0.28403290684007559 -0.078795555538343762 0 -0.24366706449551381 -0.12063578721006581 0 -0.24625565025066121 -0.10454026270466681 0 -0.2616014495949005 -0.1181727308728843 0 -0.24366706449551381 -0.12063578721006581 0 -0.2616014495949005 -0.1181727308728843 0 -0.25700139516135762 -0.1347284099774288 0 -0.24625565025066121 -0.10454026270466681 0 -0.27207386365660408 -0.101550132340511 0 -0.24625565025066121 -0.10454026270466681 0 -0.25699178412303503 -0.094359345325741584 0 -0.27207386365660408 -0.101550132340511 0 -0.24625565025066121 -0.10454026270466681 0 -0.2616014495949005 -0.1181727308728843 0 -0.27207386365660408 -0.101550132340511 0 -0.27207386365660408 -0.101550132340511 0 -0.28092052819902019 -0.1063390355374676 0 -0.28403290684007559 -0.078795555538343762 0 -0.27207386365660408 -0.101550132340511 0 -0.28092052819902019 -0.1063390355374676 0 -0.2712737495093866 -0.1135939913958917 0 -0.28092052819902019 -0.1063390355374676 0 -0.2712737495093866 -0.1135939913958917 0 -0.27780814955796468 -0.13388251553659131 0 -0.28092052819902019 -0.1063390355374676 0 -0.27780814955796468 -0.13388251553659131 0 -0.2616014495949005 -0.1181727308728843 0 -0.27207386365660408 -0.101550132340511 0 -0.2712737495093866 -0.1135939913958917 0 -0.2616014495949005 -0.1181727308728843 0 -0.2712737495093866 -0.1135939913958917 0 -0.27780814955796468 -0.13388251553659131 0 -0.28092052819902019 -0.1063390355374676 0 -0.2950857607192266 -0.1156143553967756 0 -0.27780814955796468 -0.13388251553659131 0 -0.2950857607192266 -0.1156143553967756 0 -0.29220877690464758 -0.099482497261028646 0 -0.30137792000330238 -0.1044353150729295 0 -0.28092052819902019 -0.1063390355374676 0 -0.29220877690464758 -0.099482497261028646 0 -0.28403290684007559 -0.078795555538343762 0 -0.28092052819902019 -0.1063390355374676 0 -0.2950857607192266 -0.1156143553967756 0 -0.29220877690464758 -0.099482497261028646 0 -0.31055054040492119 -0.098701365594783472 0 -0.30137792000330238 -0.1044353150729295 0 -0.29962676876161309 -0.092228224759626762 0 -0.29220877690464758 -0.099482497261028646 0 -0.30137792000330238 -0.1044353150729295 0 -0.29962676876161309 -0.092228224759626762 0 -0.31055054040492119 -0.098701365594783472 0 -0.30137792000330238 -0.1044353150729295 0 -0.31058433287743442 -0.111005112692177 0 -0.2950857607192266 -0.1156143553967756 0 -0.31058433287743442 -0.111005112692177 0 -0.30662250931012619 -0.1210938664505072 0 -0.2950857607192266 -0.1156143553967756 0 -0.30137792000330238 -0.1044353150729295 0 -0.31058433287743442 -0.111005112692177 0 -0.31058433287743442 -0.111005112692177 0 -0.30662250931012619 -0.1210938664505072 0 -0.31822657692883749 -0.1164746528890314 0 -0.2950857607192266 -0.1156143553967756 0 -0.30662250931012619 -0.1210938664505072 0 -0.29788094689836109 -0.13116116624113511 0 -0.28714528548113111 -0.051252075539219982 0 -0.28403290684007559 -0.078795555538343762 0 -0.29933503752353691 -0.080438096210827439 0 -0.28714528548113111 -0.051252075539219982 0 -0.28403290684007559 -0.078795555538343762 0 -0.29220877690464758 -0.099482497261028646 0 -0.28403290684007559 -0.078795555538343762 0 -0.29962676876161309 -0.092228224759626762 0 -0.28092052819902019 -0.1063390355374676 0 -0.28403290684007559 -0.078795555538343762 0 -0.28403290684007559 -0.078795555538343762 0 -0.29933503752353691 -0.080438096210827439 0 -0.29962676876161309 -0.092228224759626762 0 -0.29933503752353691 -0.080438096210827439 0 -0.31160310423119081 -0.085489472687137413 0 -0.30956122243481399 -0.069240850973273552 0 -0.29933503752353691 -0.080438096210827439 0 -0.29962676876161309 -0.092228224759626762 0 -0.31160310423119081 -0.085489472687137413 0 -0.31055054040492119 -0.098701365594783472 0 -0.29962676876161309 -0.092228224759626762 0 -0.31160310423119081 -0.085489472687137413 0 -0.28714528548113111 -0.051252075539219982 0 -0.29933503752353691 -0.080438096210827439 0 -0.30956122243481399 -0.069240850973273552 0 -0.31160310423119081 -0.085489472687137413 0 -0.30956122243481399 -0.069240850973273552 0 -0.32331600108081882 -0.07817152941214911 0 -0.31228418406237618 -0.055004350380500368 0 -0.30956122243481399 -0.069240850973273552 0 -0.32175013267758212 -0.065123292079766207 0 -0.32175013267758212 -0.065123292079766207 0 -0.32331600108081882 -0.07817152941214911 0 -0.3353543121662555 -0.070492730608437998 0 -0.30956122243481399 -0.069240850973273552 0 -0.32175013267758212 -0.065123292079766207 0 -0.32331600108081882 -0.07817152941214911 0 -0.31160310423119081 -0.085489472687137413 0 -0.32347045421924298 -0.092996914573901523 0 -0.32331600108081882 -0.07817152941214911 0 -0.31055054040492119 -0.098701365594783472 0 -0.31160310423119081 -0.085489472687137413 0 -0.32347045421924298 -0.092996914573901523 0 -0.32331600108081882 -0.07817152941214911 0 -0.3434396142636057 -0.086932683864891586 0 -0.3353543121662555 -0.070492730608437998 0 -0.32347045421924298 -0.092996914573901523 0 -0.32331600108081882 -0.07817152941214911 0 -0.3434396142636057 -0.086932683864891586 0 -0.32175013267758212 -0.065123292079766207 0 -0.3353543121662555 -0.070492730608437998 0 -0.3282349436436458 -0.052706999024470007 0 -0.3434396142636057 -0.086932683864891586 0 -0.3353543121662555 -0.070492730608437998 0 -0.34837241092115379 -0.075388206497496696 0 -0.3353543121662555 -0.070492730608437998 0 -0.34837241092115379 -0.075388206497496696 0 -0.34433851581537361 -0.062220528047278532 0 -0.32544411414662122 -0.1228023903310858 0 -0.31822657692883749 -0.1164746528890314 0 -0.32812057412315832 -0.1136937109329315 0 -0.30662250931012619 -0.1210938664505072 0 -0.31822657692883749 -0.1164746528890314 0 -0.31635937495642619 -0.12564147849651131 0 -0.32544411414662122 -0.1228023903310858 0 -0.31822657692883749 -0.1164746528890314 0 -0.31635937495642619 -0.12564147849651131 0 -0.31058433287743442 -0.111005112692177 0 -0.31822657692883749 -0.1164746528890314 0 -0.32034707539336449 -0.1060899281080156 0 -0.31822657692883749 -0.1164746528890314 0 -0.32812057412315832 -0.1136937109329315 0 -0.32034707539336449 -0.1060899281080156 0 -0.32812057412315832 -0.1136937109329315 0 -0.32034707539336449 -0.1060899281080156 0 -0.33246049331580763 -0.10277498640651971 0 -0.31055054040492119 -0.098701365594783472 0 -0.31058433287743442 -0.111005112692177 0 -0.32034707539336449 -0.1060899281080156 0 -0.31055054040492119 -0.098701365594783472 0 -0.32347045421924298 -0.092996914573901523 0 -0.32034707539336449 -0.1060899281080156 0 -0.32347045421924298 -0.092996914573901523 0 -0.32034707539336449 -0.1060899281080156 0 -0.33246049331580763 -0.10277498640651971 0 -0.3434396142636057 -0.086932683864891586 0 -0.34333184939363981 -0.1042193257680615 0 -0.33246049331580763 -0.10277498640651971 0 -0.32347045421924298 -0.092996914573901523 0 -0.3434396142636057 -0.086932683864891586 0 -0.33246049331580763 -0.10277498640651971 0 -0.3434396142636057 -0.086932683864891586 0 -0.34333184939363981 -0.1042193257680615 0 -0.34333184939363981 -0.1042193257680615 0 -0.33246049331580763 -0.10277498640651971 0 -0.33605339250183502 -0.1127173551913164 0 -0.34333184939363981 -0.1042193257680615 0 -0.34322408452367298 -0.1215059676712313 0 -0.34333184939363981 -0.1042193257680615 0 -0.33605339250183502 -0.1127173551913164 0 -0.34322408452367298 -0.1215059676712313 0 -0.32812057412315832 -0.1136937109329315 0 -0.33605339250183502 -0.1127173551913164 0 -0.33371986734909442 -0.1203069342288491 0 -0.32812057412315832 -0.1136937109329315 0 -0.33246049331580763 -0.10277498640651971 0 -0.33605339250183502 -0.1127173551913164 0 -0.33605339250183502 -0.1127173551913164 0 -0.34322408452367298 -0.1215059676712313 0 -0.33371986734909442 -0.1203069342288491 0 -0.34322408452367298 -0.1215059676712313 0 -0.33371986734909442 -0.1203069342288491 0 -0.33335756066496108 -0.130577891752653 0 -0.34322408452367298 -0.1215059676712313 0 -0.34319979531063971 -0.12540221816493971 0 -0.32544411414662122 -0.1228023903310858 0 -0.33371986734909442 -0.1203069342288491 0 -0.33335756066496108 -0.130577891752653 0 -0.32544411414662122 -0.1228023903310858 0 -0.32812057412315832 -0.1136937109329315 0 -0.33371986734909442 -0.1203069342288491 0 -0.34333184939363981 -0.1042193257680615 0 -0.34322408452367298 -0.1215059676712313 0 -0.34710194652243859 -0.117940409004894 0 -0.35461577615796341 -0.1176843377591434 0 -0.36266673949819478 -0.12064991492415141 0 -0.35403385658536762 -0.12614297903293251 0 -0.35461577615796341 -0.1176843377591434 0 -0.34879796370956678 -0.1213908840189824 0 -0.35403385658536762 -0.12614297903293251 0 -0.34879796370956678 -0.1213908840189824 0 -0.34319979531063971 -0.12540221816493971 0 -0.35403385658536762 -0.12614297903293251 0 -0.34322408452367298 -0.1215059676712313 0 -0.34879796370956678 -0.1213908840189824 0 -0.34319979531063971 -0.12540221816493971 0 -0.34322408452367298 -0.1215059676712313 0 -0.34879796370956678 -0.1213908840189824 0 -0.34710194652243859 -0.117940409004894 0 -0.34322408452367298 -0.1215059676712313 0 -0.34710194652243859 -0.117940409004894 0 -0.35461577615796341 -0.1176843377591434 0 -0.34879796370956678 -0.1213908840189824 0 -0.34710194652243859 -0.117940409004894 0 -0.34333184939363981 -0.1042193257680615 0 -0.34710194652243859 -0.117940409004894 0 -0.35687192808930462 -0.10787745290684039 0 -0.35461577615796341 -0.1176843377591434 0 -0.35687192808930462 -0.10787745290684039 0 -0.36266673949819478 -0.12064991492415141 0 -0.35461577615796341 -0.1176843377591434 0 -0.34710194652243859 -0.117940409004894 0 -0.35687192808930462 -0.10787745290684039 0 -0.3434396142636057 -0.086932683864891586 0 -0.34333184939363981 -0.1042193257680615 0 -0.35388864501550987 -0.095736039061956657 0 -0.34333184939363981 -0.1042193257680615 0 -0.35687192808930462 -0.10787745290684039 0 -0.35388864501550987 -0.095736039061956657 0 -0.35687192808930462 -0.10787745290684039 0 -0.35388864501550987 -0.095736039061956657 0 -0.36639621089286328 -0.096669640479538785 0 -0.36639621089286328 -0.096669640479538785 0 -0.37533615985446972 -0.085998386151636338 0 -0.37676736140647682 -0.1060024183628151 0 -0.35687192808930462 -0.10787745290684039 0 -0.36639621089286328 -0.096669640479538785 0 -0.37676736140647682 -0.1060024183628151 0 -0.35687192808930462 -0.10787745290684039 0 -0.36266673949819478 -0.12064991492415141 0 -0.37676736140647682 -0.1060024183628151 0 -0.36266673949819478 -0.12064991492415141 0 -0.3807844080387533 -0.1225397416406788 0 -0.37676736140647682 -0.1060024183628151 0 -0.35653959005764679 -0.069017559996290626 0 -0.34837241092115379 -0.075388206497496696 0 -0.35940362243813623 -0.0829810922904511 0 -0.35653959005764679 -0.069017559996290626 0 -0.36197415216679951 -0.059633581451675091 0 -0.35344017071560058 -0.059839563051299373 0 -0.35653959005764679 -0.069017559996290626 0 -0.34837241092115379 -0.075388206497496696 0 -0.34433851581537361 -0.062220528047278532 0 -0.35653959005764679 -0.069017559996290626 0 -0.35344017071560058 -0.059839563051299373 0 -0.34433851581537361 -0.062220528047278532 0 -0.3434396142636057 -0.086932683864891586 0 -0.35388864501550987 -0.095736039061956657 0 -0.35940362243813623 -0.0829810922904511 0 -0.3434396142636057 -0.086932683864891586 0 -0.34837241092115379 -0.075388206497496696 0 -0.35940362243813623 -0.0829810922904511 0 -0.35940362243813623 -0.0829810922904511 0 -0.37049303423304619 -0.069314959240704979 0 -0.37533615985446972 -0.085998386151636338 0 -0.36639621089286328 -0.096669640479538785 0 -0.35940362243813623 -0.0829810922904511 0 -0.37533615985446972 -0.085998386151636338 0 -0.35388864501550987 -0.095736039061956657 0 -0.36639621089286328 -0.096669640479538785 0 -0.35940362243813623 -0.0829810922904511 0 -0.35653959005764679 -0.069017559996290626 0 -0.35940362243813623 -0.0829810922904511 0 -0.37049303423304619 -0.069314959240704979 0 -0.35653959005764679 -0.069017559996290626 0 -0.37049303423304619 -0.069314959240704979 0 -0.36197415216679951 -0.059633581451675091 0 -0.37049303423304619 -0.069314959240704979 0 -0.3717516547221249 -0.055143498931134752 0 -0.36197415216679951 -0.059633581451675091 0 -0.37049303423304619 -0.069314959240704979 0 -0.3717516547221249 -0.055143498931134752 0 -0.38035717589407753 -0.060249091979146643 0 -0.3717516547221249 -0.055143498931134752 0 -0.37538418909087368 -0.041961775602815207 0 -0.3717516547221249 -0.055143498931134752 0 -0.36554908897936461 -0.049507925827089197 0 -0.37538418909087368 -0.041961775602815207 0 -0.36554908897936461 -0.049507925827089197 0 -0.36197415216679951 -0.059633581451675091 0 -0.3564259373264449 -0.052052446651875937 0 -0.3717516547221249 -0.055143498931134752 0 -0.36554908897936461 -0.049507925827089197 0 -0.36197415216679951 -0.059633581451675091 0 -0.36197415216679951 -0.059633581451675091 0 -0.35344017071560058 -0.059839563051299373 0 -0.3564259373264449 -0.052052446651875937 0 -0.35344017071560058 -0.059839563051299373 0 -0.3564259373264449 -0.052052446651875937 0 -0.3456351667710485 -0.050064360944257459 0 -0.36554908897936461 -0.049507925827089197 0 -0.3564259373264449 -0.052052446651875937 0 -0.35553110799941151 -0.041216801985058581 0 -0.3564259373264449 -0.052052446651875937 0 -0.3456351667710485 -0.050064360944257459 0 -0.35553110799941151 -0.041216801985058581 0 -0.35344017071560058 -0.059839563051299373 0 -0.3456351667710485 -0.050064360944257459 0 -0.34433851581537361 -0.062220528047278532 0 -0.35553110799941151 -0.041216801985058581 0 -0.35304308365740811 -0.028643375972470759 0 -0.33591472345567819 -0.032352865265930987 0 -0.3456351667710485 -0.050064360944257459 0 -0.35553110799941151 -0.041216801985058581 0 -0.33591472345567819 -0.032352865265930987 0 -0.35553110799941151 -0.041216801985058581 0 -0.36615133832293417 -0.034383045121687307 0 -0.35304308365740811 -0.028643375972470759 0 -0.36554908897936461 -0.049507925827089197 0 -0.35553110799941151 -0.041216801985058581 0 -0.36615133832293417 -0.034383045121687307 0 -0.36554908897936461 -0.049507925827089197 0 -0.36615133832293417 -0.034383045121687307 0 -0.37538418909087368 -0.041961775602815207 0 -0.36554908897936461 -0.049507925827089197 0 -0.37538418909087368 -0.041961775602815207 0 -0.36615133832293417 -0.034383045121687307 0 -0.37804325026237617 -0.032312587152635748 0 -0.37538418909087368 -0.041961775602815207 0 -0.36615133832293417 -0.034383045121687307 0 -0.37979695041963629 -0.025948768416961601 0 -0.37804325026237617 -0.032312587152635748 0 -0.36615133832293417 -0.034383045121687307 0 -0.36493832737432869 -0.019221938159557181 0 -0.37979695041963629 -0.025948768416961601 0 -0.36615133832293417 -0.034383045121687307 0 -0.36493832737432869 -0.019221938159557181 0 -0.35304308365740811 -0.028643375972470759 0 -0.36580579523411999 -0.0051106878210500899 0 -0.38420971174839841 -0.0099357612311078043 0 -0.3690408733870596 0.010282761487076479 0 -0.36493832737432869 -0.019221938159557181 0 -0.36580579523411999 -0.0051106878210500899 0 -0.38420971174839841 -0.0099357612311078043 0 -0.36580579523411999 -0.0051106878210500899 0 -0.34062308486347559 -0.01130999039406552 0 -0.3521011206947966 0.0053121624451801597 0 -0.36493832737432869 -0.019221938159557181 0 -0.36580579523411999 -0.0051106878210500899 0 -0.34062308486347559 -0.01130999039406552 0 -0.36580579523411999 -0.0051106878210500899 0 -0.34062308486347559 -0.01130999039406552 0 -0.36493832737432869 -0.019221938159557181 0 -0.35304308365740811 -0.028643375972470759 0 -0.34062308486347559 -0.01130999039406552 0 -0.35304308365740811 -0.028643375972470759 0 -0.34062308486347559 -0.01130999039406552 0 -0.33591472345567819 -0.032352865265930987 0 -0.34062308486347559 -0.01130999039406552 0 -0.31544037449283119 -0.017509292967080922 0 -0.33591472345567819 -0.032352865265930987 0 -0.34062308486347559 -0.01130999039406552 0 -0.32082955449403772 -0.0048523325184361109 0 -0.33625763912469558 0.003533673190869252 0 -0.34062308486347559 -0.01130999039406552 0 -0.33625763912469558 0.003533673190869252 0 -0.3521011206947966 0.0053121624451801597 0 -0.34062308486347559 -0.01130999039406552 0 -0.31544037449283119 -0.017509292967080922 0 -0.30355624367964079 -0.01187338707262096 0 -0.32082955449403772 -0.0048523325184361109 0 -0.31544037449283119 -0.017509292967080922 0 -0.34062308486347559 -0.01130999039406552 0 -0.32082955449403772 -0.0048523325184361109 0 -0.31544037449283119 -0.017509292967080922 0 -0.30752594450814352 -0.03960747697006263 0 -0.31544037449283119 -0.017509292967080922 0 -0.32177899652507469 -0.035544158556886141 0 -0.31544037449283119 -0.017509292967080922 0 -0.32177899652507469 -0.035544158556886141 0 -0.33591472345567819 -0.032352865265930987 0 -0.30752594450814352 -0.03960747697006263 0 -0.32177899652507469 -0.035544158556886141 0 -0.3282349436436458 -0.052706999024470007 0 -0.31228418406237618 -0.055004350380500368 0 -0.30752594450814352 -0.03960747697006263 0 -0.3282349436436458 -0.052706999024470007 0 -0.31228418406237618 -0.055004350380500368 0 -0.32175013267758212 -0.065123292079766207 0 -0.3282349436436458 -0.052706999024470007 0 -0.3353543121662555 -0.070492730608437998 0 -0.34433851581537361 -0.062220528047278532 0 -0.3282349436436458 -0.052706999024470007 0 -0.3456351667710485 -0.050064360944257459 0 -0.34433851581537361 -0.062220528047278532 0 -0.3282349436436458 -0.052706999024470007 0 -0.32177899652507469 -0.035544158556886141 0 -0.3282349436436458 -0.052706999024470007 0 -0.33591472345567819 -0.032352865265930987 0 -0.3456351667710485 -0.050064360944257459 0 -0.3282349436436458 -0.052706999024470007 0 -0.33591472345567819 -0.032352865265930987 0 -0.31210049989603472 -0.25241825301587262 0 -0.29697675663465212 -0.25032317055572678 0 -0.30532531882921488 -0.23621086397517449 0 -0.29697675663465212 -0.25032317055572678 0 -0.30532531882921488 -0.23621086397517449 0 -0.28846221682880369 -0.2434649873246193 0 -0.30532531882921488 -0.23621086397517449 0 -0.3005168510706262 -0.21924647540335929 0 -0.321401303331319 -0.2236386781758021 0 -0.3005168510706262 -0.21924647540335929 0 -0.27960521003003541 -0.23418808261852231 0 -0.28554084678557651 -0.2111293955045086 0 -0.30532531882921488 -0.23621086397517449 0 -0.3005168510706262 -0.21924647540335929 0 -0.27960521003003541 -0.23418808261852231 0 -0.27960521003003541 -0.23418808261852231 0 -0.28554084678557651 -0.2111293955045086 0 -0.30532531882921488 -0.23621086397517449 0 -0.28846221682880369 -0.2434649873246193 0 -0.27960521003003541 -0.23418808261852231 0 -0.30532531882921488 -0.23621086397517449 0 -0.27960521003003541 -0.23418808261852231 0 -0.28846221682880369 -0.2434649873246193 0 -0.27644720576467241 -0.2464562579228419 0 -0.27960521003003541 -0.23418808261852231 0 -0.2837145322258337 -0.25170321977252469 0 -0.29697675663465212 -0.25032317055572678 0 -0.28846221682880369 -0.2434649873246193 0 -0.2837145322258337 -0.25170321977252469 0 -0.28846221682880369 -0.2434649873246193 0 -0.27644720576467241 -0.2464562579228419 0 -0.26541983934378383 -0.2412778165209889 0 -0.25735650585110992 -0.23243831303650719 0 -0.27960521003003541 -0.23418808261852231 0 -0.27644720576467241 -0.2464562579228419 0 -0.27960521003003541 -0.23418808261852231 0 -0.27644720576467241 -0.2464562579228419 0 -0.26541983934378383 -0.2412778165209889 0 -0.27960521003003541 -0.23418808261852231 0 -0.26131757946403789 -0.25017926503677518 0 -0.27644720576467241 -0.2464562579228419 0 -0.26541983934378383 -0.2412778165209889 0 -0.26131757946403789 -0.25017926503677518 0 -0.26541983934378383 -0.2412778165209889 0 -0.25237269560906372 -0.24312716399029821 0 -0.26541983934378383 -0.2412778165209889 0 -0.25237269560906372 -0.24312716399029821 0 -0.25735650585110992 -0.23243831303650719 0 -0.25735650585110992 -0.23243831303650719 0 -0.26679587113361442 -0.21721270284978919 0 -0.2507946868106703 -0.21629624200519559 0 -0.2423774895978901 -0.22265395712847511 0 -0.25735650585110992 -0.23243831303650719 0 -0.2507946868106703 -0.21629624200519559 0 -0.27960521003003541 -0.23418808261852231 0 -0.26679587113361442 -0.21721270284978919 0 -0.28554084678557651 -0.2111293955045086 0 -0.25735650585110992 -0.23243831303650719 0 -0.27960521003003541 -0.23418808261852231 0 -0.25735650585110992 -0.23243831303650719 0 -0.27960521003003541 -0.23418808261852231 0 -0.26679587113361442 -0.21721270284978919 0 -0.26679587113361442 -0.21721270284978919 0 -0.26934517245026418 -0.20080320055264159 0 -0.28554084678557651 -0.2111293955045086 0 -0.26679587113361442 -0.21721270284978919 0 -0.25693595377102252 -0.20563522483054139 0 -0.26934517245026418 -0.20080320055264159 0 -0.26679587113361442 -0.21721270284978919 0 -0.25693595377102252 -0.20563522483054139 0 -0.2507946868106703 -0.21629624200519559 0 -0.2435051934563234 -0.20543652749577729 0 -0.25693595377102252 -0.20563522483054139 0 -0.2507946868106703 -0.21629624200519559 0 -0.24939437876229431 -0.19745837742573921 0 -0.24816835419268279 -0.18743950968071441 0 -0.25793508365070661 -0.1938426756458248 0 -0.24816835419268279 -0.18743950968071441 0 -0.25793508365070661 -0.1938426756458248 0 -0.25710785676987019 -0.18357527248012481 0 -0.24939437876229431 -0.19745837742573921 0 -0.25693595377102252 -0.20563522483054139 0 -0.25793508365070661 -0.1938426756458248 0 -0.25693595377102252 -0.20563522483054139 0 -0.25793508365070661 -0.1938426756458248 0 -0.26934517245026418 -0.20080320055264159 0 -0.25793508365070661 -0.1938426756458248 0 -0.26665878595810588 -0.18814446890518749 0 -0.26934517245026418 -0.20080320055264159 0 -0.25793508365070661 -0.1938426756458248 0 -0.26665878595810588 -0.18814446890518749 0 -0.25710785676987019 -0.18357527248012481 0 -0.26934517245026418 -0.20080320055264159 0 -0.27815351118053599 -0.19085771396298981 0 -0.28554084678557651 -0.2111293955045086 0 -0.26665878595810588 -0.18814446890518749 0 -0.26934517245026418 -0.20080320055264159 0 -0.27815351118053599 -0.19085771396298981 0 -0.29147648354111722 -0.18807070839049481 0 -0.28554084678557651 -0.2111293955045086 0 -0.27815351118053599 -0.19085771396298981 0 -0.29147648354111722 -0.18807070839049481 0 -0.28554084678557651 -0.2111293955045086 0 -0.29147648354111722 -0.18807070839049481 0 -0.28554084678557651 -0.2111293955045086 0 -0.29849798013097628 -0.203320733365566 0 -0.3005168510706262 -0.21924647540335929 0 -0.28554084678557651 -0.2111293955045086 0 -0.29849798013097628 -0.203320733365566 0 -0.3005168510706262 -0.21924647540335929 0 -0.31492458103522147 -0.20639988753246341 0 -0.321401303331319 -0.2236386781758021 0 -0.3005168510706262 -0.21924647540335929 0 -0.29849798013097628 -0.203320733365566 0 -0.31492458103522147 -0.20639988753246341 0 -0.29849798013097628 -0.203320733365566 0 -0.30731230838545059 -0.18560021666873389 0 -0.31492458103522147 -0.20639988753246341 0 -0.29147648354111722 -0.18807070839049481 0 -0.29849798013097628 -0.203320733365566 0 -0.30731230838545059 -0.18560021666873389 0 -0.29147648354111722 -0.18807070839049481 0 -0.2989660882773002 -0.1756822922450508 0 -0.30731230838545059 -0.18560021666873389 0 -0.2989660882773002 -0.1756822922450508 0 -0.30702452606249908 -0.1710487532246085 0 -0.30154211004801518 -0.1694582781823239 0 -0.2989660882773002 -0.1756822922450508 0 -0.30731230838545059 -0.18560021666873389 0 -0.30702452606249908 -0.1710487532246085 0 -0.30731230838545059 -0.18560021666873389 0 -0.30702452606249908 -0.1710487532246085 0 -0.31885878892689329 -0.1768991402135138 0 -0.30702452606249908 -0.1710487532246085 0 -0.30745635182397529 -0.16299226891596541 0 -0.31554713645001559 -0.16303748434273679 0 -0.30702452606249908 -0.1710487532246085 0 -0.30745635182397529 -0.16299226891596541 0 -0.30276570555560373 -0.16609004598315499 0 -0.3119469715897456 -0.1573599751253317 0 -0.30745635182397529 -0.16299226891596541 0 -0.29992480859393639 -0.1613181395810287 0 -0.3119469715897456 -0.1573599751253317 0 -0.30745635182397529 -0.16299226891596541 0 -0.31554713645001559 -0.16303748434273679 0 -0.30745635182397529 -0.16299226891596541 0 -0.29992480859393639 -0.1613181395810287 0 -0.30276570555560373 -0.16609004598315499 0 -0.29992480859393639 -0.1613181395810287 0 -0.29452901999563619 -0.1577204159929608 0 -0.29841363270486038 -0.15523548609928339 0 -0.2989660882773002 -0.1756822922450508 0 -0.30154211004801518 -0.1694582781823239 0 -0.29741212029665792 -0.1650120212764811 0 -0.30702452606249908 -0.1710487532246085 0 -0.30154211004801518 -0.1694582781823239 0 -0.30276570555560373 -0.16609004598315499 0 -0.30154211004801518 -0.1694582781823239 0 -0.30276570555560373 -0.16609004598315499 0 -0.29741212029665792 -0.1650120212764811 0 -0.29992480859393639 -0.1613181395810287 0 -0.30276570555560373 -0.16609004598315499 0 -0.29741212029665792 -0.1650120212764811 0 -0.29992480859393639 -0.1613181395810287 0 -0.29741212029665792 -0.1650120212764811 0 -0.28320843255842398 -0.1766882634952166 0 -0.28727768054487213 -0.15976833009129701 0 -0.27469577091690989 -0.16142599553571521 0 -0.29424970083292729 -0.15114329427469519 0 -0.27469577091690989 -0.16142599553571521 0 -0.29424970083292729 -0.15114329427469519 0 -0.29992480859393639 -0.1613181395810287 0 -0.28717946042890469 -0.1670427657369942 0 -0.28320843255842398 -0.1766882634952166 0 -0.29992480859393639 -0.1613181395810287 0 -0.28320843255842398 -0.1766882634952166 0 -0.29992480859393639 -0.1613181395810287 0 -0.29098990797190438 -0.16206138625834329 0 -0.28717946042890469 -0.1670427657369942 0 -0.29992480859393639 -0.1613181395810287 0 -0.29452901999563619 -0.1577204159929608 0 -0.29098990797190438 -0.16206138625834329 0 -0.29452901999563619 -0.1577204159929608 0 -0.29098990797190438 -0.16206138625834329 0 -0.28727768054487213 -0.15976833009129701 0 -0.28727768054487213 -0.15976833009129701 0 -0.28433070723135839 -0.16306877748219539 0 -0.28603857029617269 -0.1644572798894357 0 -0.29098990797190438 -0.16206138625834329 0 -0.28727768054487213 -0.15976833009129701 0 -0.28603857029617269 -0.1644572798894357 0 -0.28727768054487213 -0.15976833009129701 0 -0.28433070723135839 -0.16306877748219539 0 -0.28114673873570878 -0.16232189413155709 0 -0.28433070723135839 -0.16306877748219539 0 -0.28057637717022071 -0.1653198033037773 0 -0.28114673873570878 -0.16232189413155709 0 -0.28717946042890469 -0.1670427657369942 0 -0.28320843255842398 -0.1766882634952166 0 -0.28022559643141298 -0.1706601554329 0 -0.29098990797190438 -0.16206138625834329 0 -0.28717946042890469 -0.1670427657369942 0 -0.28603857029617269 -0.1644572798894357 0 -0.28717946042890469 -0.1670427657369942 0 -0.28603857029617269 -0.1644572798894357 0 -0.28305896019789539 -0.16696956110389399 0 -0.28305896019789539 -0.16696956110389399 0 -0.28057637717022071 -0.1653198033037773 0 -0.28022559643141298 -0.1706601554329 0 -0.28433070723135839 -0.16306877748219539 0 -0.28603857029617269 -0.1644572798894357 0 -0.28305896019789539 -0.16696956110389399 0 -0.28433070723135839 -0.16306877748219539 0 -0.28305896019789539 -0.16696956110389399 0 -0.28057637717022071 -0.1653198033037773 0 -0.28717946042890469 -0.1670427657369942 0 -0.28305896019789539 -0.16696956110389399 0 -0.28022559643141298 -0.1706601554329 0 -0.29147648354111722 -0.18807070839049481 0 -0.29741212029665792 -0.1650120212764811 0 -0.28320843255842398 -0.1766882634952166 0 -0.29147648354111722 -0.18807070839049481 0 -0.29741212029665792 -0.1650120212764811 0 -0.29147648354111722 -0.18807070839049481 0 -0.2989660882773002 -0.1756822922450508 0 -0.29741212029665792 -0.1650120212764811 0 -0.27815351118053599 -0.19085771396298981 0 -0.29147648354111722 -0.18807070839049481 0 -0.28320843255842398 -0.1766882634952166 0 -0.27815351118053599 -0.19085771396298981 0 -0.28320843255842398 -0.1766882634952166 0 -0.27263913400982798 -0.17962652447150071 0 -0.27263913400982798 -0.17962652447150071 0 -0.277365957591449 -0.16712494469412051 0 -0.28022559643141298 -0.1706601554329 0 -0.28320843255842398 -0.1766882634952166 0 -0.27263913400982798 -0.17962652447150071 0 -0.28022559643141298 -0.1706601554329 0 -0.27263913400982798 -0.17962652447150071 0 -0.26472156431280852 -0.1803371490048398 0 -0.26854096380467751 -0.17003391819184979 0 -0.26665878595810588 -0.18814446890518749 0 -0.27815351118053599 -0.19085771396298981 0 -0.27263913400982798 -0.17962652447150071 0 -0.26665878595810588 -0.18814446890518749 0 -0.27263913400982798 -0.17962652447150071 0 -0.26472156431280852 -0.1803371490048398 0 -0.26665878595810588 -0.18814446890518749 0 -0.26472156431280852 -0.1803371490048398 0 -0.25710785676987019 -0.18357527248012481 0 -0.26472156431280852 -0.1803371490048398 0 -0.25958471031051461 -0.1744734253087068 0 -0.26854096380467751 -0.17003391819184979 0 -0.26472156431280852 -0.1803371490048398 0 -0.25958471031051461 -0.1744734253087068 0 -0.25710785676987019 -0.18357527248012481 0 -0.24917172508753399 -0.17743662909608651 0 -0.25958471031051461 -0.1744734253087068 0 -0.25427113140178592 -0.16820685179032319 0 -0.24917172508753399 -0.17743662909608651 0 -0.25958471031051461 -0.1744734253087068 0 -0.25710785676987019 -0.18357527248012481 0 -0.24917172508753399 -0.17743662909608651 0 -0.24816835419268279 -0.18743950968071441 0 -0.25710785676987019 -0.18357527248012481 0 -0.25244168440859449 -0.15780102707248711 0 -0.25427113140178592 -0.16820685179032319 0 -0.26164682731624289 -0.16203238707149181 0 -0.24375190256447271 -0.16750151198893151 0 -0.25244168440859449 -0.15780102707248711 0 -0.25427113140178592 -0.16820685179032319 0 -0.25958471031051461 -0.1744734253087068 0 -0.25427113140178592 -0.16820685179032319 0 -0.26224641300311857 -0.16817980129634219 0 -0.25958471031051461 -0.1744734253087068 0 -0.26224641300311857 -0.16817980129634219 0 -0.26854096380467751 -0.17003391819184979 0 -0.25427113140178592 -0.16820685179032319 0 -0.26224641300311857 -0.16817980129634219 0 -0.26164682731624289 -0.16203238707149181 0 -0.26224641300311857 -0.16817980129634219 0 -0.26164682731624289 -0.16203238707149181 0 -0.26795546733711217 -0.16401550339292309 0 -0.25244168440859449 -0.15780102707248711 0 -0.26164682731624289 -0.16203238707149181 0 -0.26270261069179057 -0.15481110523319891 0 -0.26164682731624289 -0.16203238707149181 0 -0.26843235675955218 -0.15849374906551719 0 -0.26270261069179057 -0.15481110523319891 0 -0.27263913400982798 -0.17962652447150071 0 -0.27220597646531569 -0.1644053719299701 0 -0.27469577091690989 -0.16142599553571521 0 -0.26843235675955218 -0.15849374906551719 0 -0.27469577091690989 -0.16142599553571521 0 -0.26897205829438109 -0.1500993626436434 0 -0.27263913400982798 -0.17962652447150071 0 -0.27469577091690989 -0.16142599553571521 0 -0.27263913400982798 -0.17962652447150071 0 -0.277365957591449 -0.16712494469412051 0 -0.27469577091690989 -0.16142599553571521 0 -0.26164682731624289 -0.16203238707149181 0 -0.26843235675955218 -0.15849374906551719 0 -0.26795546733711217 -0.16401550339292309 0 -0.26843235675955218 -0.15849374906551719 0 -0.26795546733711217 -0.16401550339292309 0 -0.27098197706264698 -0.16102940478058869 0 -0.26795546733711217 -0.16401550339292309 0 -0.27098197706264698 -0.16102940478058869 0 -0.27220597646531569 -0.1644053719299701 0 -0.26843235675955218 -0.15849374906551719 0 -0.27098197706264698 -0.16102940478058869 0 -0.27469577091690989 -0.16142599553571521 0 -0.27098197706264698 -0.16102940478058869 0 -0.27220597646531569 -0.1644053719299701 0 -0.27469577091690989 -0.16142599553571521 0 -0.27263913400982798 -0.17962652447150071 0 -0.26854096380467751 -0.17003391819184979 0 -0.27220597646531569 -0.1644053719299701 0 -0.26224641300311857 -0.16817980129634219 0 -0.26795546733711217 -0.16401550339292309 0 -0.26854096380467751 -0.17003391819184979 0 -0.26795546733711217 -0.16401550339292309 0 -0.26854096380467751 -0.17003391819184979 0 -0.27220597646531569 -0.1644053719299701 0 -0.277365957591449 -0.16712494469412051 0 -0.27469577091690989 -0.16142599553571521 0 -0.27911060189812409 -0.1638564294658186 0 -0.28057637717022071 -0.1653198033037773 0 -0.277365957591449 -0.16712494469412051 0 -0.28022559643141298 -0.1706601554329 0 -0.28057637717022071 -0.1653198033037773 0 -0.277365957591449 -0.16712494469412051 0 -0.27911060189812409 -0.1638564294658186 0 -0.28727768054487213 -0.15976833009129701 0 -0.27469577091690989 -0.16142599553571521 0 -0.28114673873570878 -0.16232189413155709 0 -0.27469577091690989 -0.16142599553571521 0 -0.27911060189812409 -0.1638564294658186 0 -0.28114673873570878 -0.16232189413155709 0 -0.28057637717022071 -0.1653198033037773 0 -0.27911060189812409 -0.1638564294658186 0 -0.28114673873570878 -0.16232189413155709 0 -0.26575316942584382 -0.14217845354555031 0 -0.26897205829438109 -0.1500993626436434 0 -0.27780814955796468 -0.13388251553659131 0 -0.27469577091690989 -0.16142599553571521 0 -0.27780814955796468 -0.13388251553659131 0 -0.28431487180316473 -0.14698183351240529 0 -0.27469577091690989 -0.16142599553571521 0 -0.26897205829438109 -0.1500993626436434 0 -0.27780814955796468 -0.13388251553659131 0 -0.27469577091690989 -0.16142599553571521 0 -0.27780814955796468 -0.13388251553659131 0 -0.26575316942584382 -0.14217845354555031 0 -0.26897205829438109 -0.1500993626436434 0 -0.26406388416977261 -0.14868533359025679 0 -0.26843235675955218 -0.15849374906551719 0 -0.26897205829438109 -0.1500993626436434 0 -0.26270261069179057 -0.15481110523319891 0 -0.25244168440859449 -0.15780102707248711 0 -0.26270261069179057 -0.15481110523319891 0 -0.25882769826707491 -0.1476524129386344 0 -0.26897205829438109 -0.1500993626436434 0 -0.26270261069179057 -0.15481110523319891 0 -0.26406388416977261 -0.14868533359025679 0 -0.26270261069179057 -0.15481110523319891 0 -0.26406388416977261 -0.14868533359025679 0 -0.25882769826707491 -0.1476524129386344 0 -0.26575316942584382 -0.14217845354555031 0 -0.26406388416977261 -0.14868533359025679 0 -0.25882769826707491 -0.1476524129386344 0 -0.26575316942584382 -0.14217845354555031 0 -0.25882769826707491 -0.1476524129386344 0 -0.25700139516135762 -0.1347284099774288 0 -0.2473405641598021 -0.14581896274110809 0 -0.25882769826707491 -0.1476524129386344 0 -0.25700139516135762 -0.1347284099774288 0 -0.2473405641598021 -0.14581896274110809 0 -0.25244168440859449 -0.15780102707248711 0 -0.25882769826707491 -0.1476524129386344 0 -0.2616014495949005 -0.1181727308728843 0 -0.25700139516135762 -0.1347284099774288 0 -0.27780814955796468 -0.13388251553659131 0 -0.26575316942584382 -0.14217845354555031 0 -0.25700139516135762 -0.1347284099774288 0 -0.27780814955796468 -0.13388251553659131 0 -0.27780814955796468 -0.13388251553659131 0 -0.290505865904857 -0.14147552870261959 0 -0.29788094689836109 -0.13116116624113511 0 -0.2950857607192266 -0.1156143553967756 0 -0.27780814955796468 -0.13388251553659131 0 -0.29788094689836109 -0.13116116624113511 0 -0.290505865904857 -0.14147552870261959 0 -0.30168555029652988 -0.14169058321316011 0 -0.29788094689836109 -0.13116116624113511 0 -0.27469577091690989 -0.16142599553571521 0 -0.28431487180316473 -0.14698183351240529 0 -0.29424970083292729 -0.15114329427469519 0 -0.27780814955796468 -0.13388251553659131 0 -0.28431487180316473 -0.14698183351240529 0 -0.290505865904857 -0.14147552870261959 0 -0.29452901999563619 -0.1577204159929608 0 -0.28727768054487213 -0.15976833009129701 0 -0.29424970083292729 -0.15114329427469519 0 -0.29452901999563619 -0.1577204159929608 0 -0.29424970083292729 -0.15114329427469519 0 -0.29841363270486038 -0.15523548609928339 0 -0.29424970083292729 -0.15114329427469519 0 -0.290505865904857 -0.14147552870261959 0 -0.30168555029652988 -0.14169058321316011 0 -0.28431487180316473 -0.14698183351240529 0 -0.29424970083292729 -0.15114329427469519 0 -0.290505865904857 -0.14147552870261959 0 -0.3119469715897456 -0.1573599751253317 0 -0.29992480859393639 -0.1613181395810287 0 -0.31664118462944879 -0.14594801566684079 0 -0.29424970083292729 -0.15114329427469519 0 -0.3138036307489443 -0.1408605930136741 0 -0.29424970083292729 -0.15114329427469519 0 -0.30168555029652988 -0.14169058321316011 0 -0.3138036307489443 -0.1408605930136741 0 -0.29992480859393639 -0.1613181395810287 0 -0.31664118462944879 -0.14594801566684079 0 -0.29424970083292729 -0.15114329427469519 0 -0.30495100139694192 -0.15076009454844921 0 -0.3138036307489443 -0.1408605930136741 0 -0.29992480859393639 -0.1613181395810287 0 -0.30495100139694192 -0.15076009454844921 0 -0.31664118462944879 -0.14594801566684079 0 -0.29424970083292729 -0.15114329427469519 0 -0.29841363270486038 -0.15523548609928339 0 -0.30495100139694192 -0.15076009454844921 0 -0.29992480859393639 -0.1613181395810287 0 -0.29841363270486038 -0.15523548609928339 0 -0.30495100139694192 -0.15076009454844921 0 -0.30495100139694192 -0.15076009454844921 0 -0.31664118462944879 -0.14594801566684079 0 -0.3138036307489443 -0.1408605930136741 0 -0.30738261732151528 -0.13689060845327039 0 -0.31382634424888262 -0.13302251374325691 0 -0.3138036307489443 -0.1408605930136741 0 -0.30168555029652988 -0.14169058321316011 0 -0.30738261732151528 -0.13689060845327039 0 -0.3138036307489443 -0.1408605930136741 0 -0.30738261732151528 -0.13689060845327039 0 -0.3088006459730947 -0.12992849382924171 0 -0.31382634424888262 -0.13302251374325691 0 -0.30662250931012619 -0.1210938664505072 0 -0.3088006459730947 -0.12992849382924171 0 -0.31635937495642619 -0.12564147849651131 0 -0.30738261732151528 -0.13689060845327039 0 -0.3088006459730947 -0.12992849382924171 0 -0.29788094689836109 -0.13116116624113511 0 -0.30662250931012619 -0.1210938664505072 0 -0.3088006459730947 -0.12992849382924171 0 -0.29788094689836109 -0.13116116624113511 0 -0.30168555029652988 -0.14169058321316011 0 -0.30738261732151528 -0.13689060845327039 0 -0.29788094689836109 -0.13116116624113511 0 -0.31664118462944879 -0.14594801566684079 0 -0.33335756066496108 -0.130577891752653 0 -0.32055820495316711 -0.13058097346743619 0 -0.3138036307489443 -0.1408605930136741 0 -0.33335756066496108 -0.130577891752653 0 -0.31664118462944879 -0.14594801566684079 0 -0.32852712961663361 -0.14209970300286301 0 -0.33335756066496108 -0.130577891752653 0 -0.31664118462944879 -0.14594801566684079 0 -0.3138036307489443 -0.1408605930136741 0 -0.33335756066496108 -0.130577891752653 0 -0.3138036307489443 -0.1408605930136741 0 -0.33335756066496108 -0.130577891752653 0 -0.32544411414662122 -0.1228023903310858 0 -0.32055820495316711 -0.13058097346743619 0 -0.33335756066496108 -0.130577891752653 0 -0.32544411414662122 -0.1228023903310858 0 -0.32055820495316711 -0.13058097346743619 0 -0.31635937495642619 -0.12564147849651131 0 -0.32055820495316711 -0.13058097346743619 0 -0.31635937495642619 -0.12564147849651131 0 -0.31382634424888262 -0.13302251374325691 0 -0.3088006459730947 -0.12992849382924171 0 -0.31635937495642619 -0.12564147849651131 0 -0.31382634424888262 -0.13302251374325691 0 -0.32055820495316711 -0.13058097346743619 0 -0.31382634424888262 -0.13302251374325691 0 -0.3138036307489443 -0.1408605930136741 0 -0.31664118462944879 -0.14594801566684079 0 -0.32052563644518489 -0.15589751422525649 0 -0.3235622664995132 -0.14896284026488499 0 -0.3119469715897456 -0.1573599751253317 0 -0.31664118462944879 -0.14594801566684079 0 -0.32052563644518489 -0.15589751422525649 0 -0.3235622664995132 -0.14896284026488499 0 -0.32852712961663361 -0.14209970300286301 0 -0.32843138509564629 -0.15459274232821629 0 -0.32052563644518489 -0.15589751422525649 0 -0.3235622664995132 -0.14896284026488499 0 -0.32843138509564629 -0.15459274232821629 0 -0.31664118462944879 -0.14594801566684079 0 -0.3235622664995132 -0.14896284026488499 0 -0.32852712961663361 -0.14209970300286301 0 -0.32852712961663361 -0.14209970300286301 0 -0.3430234394578911 -0.1536915899702184 0 -0.33335756066496108 -0.130577891752653 0 -0.32852712961663361 -0.14209970300286301 0 -0.32843138509564629 -0.15459274232821629 0 -0.3430234394578911 -0.1536915899702184 0 -0.3430234394578911 -0.1536915899702184 0 -0.34319979531063971 -0.12540221816493971 0 -0.3430234394578911 -0.1536915899702184 0 -0.33335756066496108 -0.130577891752653 0 -0.34319979531063971 -0.12540221816493971 0 -0.34322408452367298 -0.1215059676712313 0 -0.33335756066496108 -0.130577891752653 0 -0.33335756066496108 -0.130577891752653 0 -0.34319979531063971 -0.12540221816493971 0 -0.34322408452367298 -0.1215059676712313 0 -0.33335756066496108 -0.130577891752653 0 -0.34319979531063971 -0.12540221816493971 0 -0.3430234394578911 -0.1536915899702184 0 -0.34319979531063971 -0.12540221816493971 0 -0.35134344510554377 -0.1395982212550872 0 -0.34319979531063971 -0.12540221816493971 0 -0.35134344510554377 -0.1395982212550872 0 -0.35403385658536762 -0.12614297903293251 0 -0.35134344510554377 -0.1395982212550872 0 -0.35403385658536762 -0.12614297903293251 0 -0.36349279505934701 -0.13418982935345991 0 -0.35134344510554377 -0.1395982212550872 0 -0.36349279505934701 -0.13418982935345991 0 -0.36732347721176278 -0.1455196951308457 0 -0.36266673949819478 -0.12064991492415141 0 -0.35403385658536762 -0.12614297903293251 0 -0.36349279505934701 -0.13418982935345991 0 -0.36349279505934701 -0.13418982935345991 0 -0.36732347721176278 -0.1455196951308457 0 -0.38209645689586608 -0.13903833642428251 0 -0.36266673949819478 -0.12064991492415141 0 -0.36349279505934701 -0.13418982935345991 0 -0.38209645689586608 -0.13903833642428251 0 -0.36266673949819478 -0.12064991492415141 0 -0.38209645689586608 -0.13903833642428251 0 -0.35134344510554377 -0.1395982212550872 0 -0.36732347721176278 -0.1455196951308457 0 -0.36270162278962931 -0.16107867097527759 0 -0.36732347721176278 -0.1455196951308457 0 -0.36270162278962931 -0.16107867097527759 0 -0.37722731872360221 -0.15470167214624919 0 -0.3430234394578911 -0.1536915899702184 0 -0.35134344510554377 -0.1395982212550872 0 -0.36270162278962931 -0.16107867097527759 0 -0.3430234394578911 -0.1536915899702184 0 -0.36270162278962931 -0.16107867097527759 0 -0.34284708360514132 -0.18198096177549711 0 -0.36270162278962931 -0.16107867097527759 0 -0.38028403908724973 -0.1679617423788515 0 -0.37722731872360221 -0.15470167214624919 0 -0.36270162278962931 -0.16107867097527759 0 -0.37278718436303032 -0.18620448641568441 0 -0.38028403908724973 -0.1679617423788515 0 -0.36270162278962931 -0.16107867097527759 0 -0.37278718436303032 -0.18620448641568441 0 -0.34284708360514132 -0.18198096177549711 0 -0.34284708360514132 -0.18198096177549711 0 -0.32758939777240592 -0.16572782678197731 0 -0.31885878892689329 -0.1768991402135138 0 -0.34284708360514132 -0.18198096177549711 0 -0.31885878892689329 -0.1768991402135138 0 -0.32795388597827202 -0.19312476458416469 0 -0.3430234394578911 -0.1536915899702184 0 -0.34284708360514132 -0.18198096177549711 0 -0.32758939777240592 -0.16572782678197731 0 -0.3430234394578911 -0.1536915899702184 0 -0.34284708360514132 -0.18198096177549711 0 -0.32843138509564629 -0.15459274232821629 0 -0.3430234394578911 -0.1536915899702184 0 -0.32758939777240592 -0.16572782678197731 0 -0.32758939777240592 -0.16572782678197731 0 -0.31554713645001559 -0.16303748434273679 0 -0.31885878892689329 -0.1768991402135138 0 -0.32052563644518489 -0.15589751422525649 0 -0.32843138509564629 -0.15459274232821629 0 -0.32758939777240592 -0.16572782678197731 0 -0.32052563644518489 -0.15589751422525649 0 -0.32758939777240592 -0.16572782678197731 0 -0.31554713645001559 -0.16303748434273679 0 -0.3119469715897456 -0.1573599751253317 0 -0.32052563644518489 -0.15589751422525649 0 -0.31554713645001559 -0.16303748434273679 0 -0.30702452606249908 -0.1710487532246085 0 -0.31554713645001559 -0.16303748434273679 0 -0.31885878892689329 -0.1768991402135138 0 -0.30731230838545059 -0.18560021666873389 0 -0.31885878892689329 -0.1768991402135138 0 -0.32795388597827202 -0.19312476458416469 0 -0.30731230838545059 -0.18560021666873389 0 -0.32795388597827202 -0.19312476458416469 0 -0.31492458103522147 -0.20639988753246341 0 -0.32795388597827202 -0.19312476458416469 0 -0.31492458103522147 -0.20639988753246341 0 -0.33718127625748873 -0.21092905748648641 0 -0.31492458103522147 -0.20639988753246341 0 -0.33718127625748873 -0.21092905748648641 0 -0.321401303331319 -0.2236386781758021 0 -0.32795388597827202 -0.19312476458416469 0 -0.33718127625748873 -0.21092905748648641 0 -0.35154537443182832 -0.19919611449627109 0 -0.34284708360514132 -0.18198096177549711 0 -0.32795388597827202 -0.19312476458416469 0 -0.35154537443182832 -0.19919611449627109 0 -0.37278718436303032 -0.18620448641568441 0 -0.34284708360514132 -0.18198096177549711 0 -0.35154537443182832 -0.19919611449627109 0 -0.37278718436303032 -0.18620448641568441 0 -0.36477636039530231 -0.21323045655208431 0 -0.37278718436303032 -0.18620448641568441 0 -0.35154537443182832 -0.19919611449627109 0 -0.36477636039530231 -0.21323045655208431 0 -0.33718127625748873 -0.21092905748648641 0 -0.36477636039530231 -0.21323045655208431 0 -0.34378877541972408 -0.22788609694988371 0 -0.33718127625748873 -0.21092905748648641 0 -0.35154537443182832 -0.19919611449627109 0 -0.36477636039530231 -0.21323045655208431 0 -0.36477636039530231 -0.21323045655208431 0 -0.34378877541972408 -0.22788609694988371 0 -0.35676553642757353 -0.2402564266884841 0 -0.36477636039530231 -0.21323045655208431 0 -0.36744922722131201 -0.23416147321853531 0 -0.35676553642757353 -0.2402564266884841 0 -0.36477636039530231 -0.21323045655208431 0 -0.36744922722131201 -0.23416147321853531 0 -0.37299092609716822 -0.22616888340800109 0 -0.36477636039530231 -0.21323045655208431 0 -0.35676553642757353 -0.2402564266884841 0 -0.36477636039530231 -0.21323045655208431 0 -0.37299092609716822 -0.22616888340800109 0 -0.38404025036913891 -0.22197050822369979 0 -0.36744922722131201 -0.23416147321853531 0 -0.37299092609716822 -0.22616888340800109 0 -0.37676088419940262 -0.2334827127180979 0 -0.35676553642757353 -0.2402564266884841 0 -0.3752219441724442 -0.2417079476672106 0 -0.36556925121364392 -0.2463796590546076 0 -0.35676553642757353 -0.2402564266884841 0 -0.3752219441724442 -0.2417079476672106 0 -0.36744922722131201 -0.23416147321853531 0 -0.35676553642757353 -0.2402564266884841 0 -0.3752219441724442 -0.2417079476672106 0 -0.36556925121364392 -0.2463796590546076 0 -0.3752219441724442 -0.2417079476672106 0 -0.37547880863840599 -0.24729281026332789 0 -0.37380083004559339 -0.25432553415416859 0 -0.36556925121364392 -0.2463796590546076 0 -0.37547880863840599 -0.24729281026332789 0 -0.36744922722131201 -0.23416147321853531 0 -0.3752219441724442 -0.2417079476672106 0 -0.37676088419940262 -0.2334827127180979 0 -0.34378877541972408 -0.22788609694988371 0 -0.35676553642757353 -0.2402564266884841 0 -0.33104542762839417 -0.2382336453318292 0 -0.34039461851881608 -0.25067750062420868 0 -0.35188851429315088 -0.25670994696186361 0 -0.35676553642757353 -0.2402564266884841 0 -0.35188851429315088 -0.25670994696186361 0 -0.36556925121364392 -0.2463796590546076 0 -0.35676553642757353 -0.2402564266884841 0 -0.35676553642757353 -0.2402564266884841 0 -0.33104542762839417 -0.2382336453318292 0 -0.35188851429315088 -0.25670994696186361 0 -0.35676553642757353 -0.2402564266884841 0 -0.32742137705711583 -0.25426019856695448 0 -0.34039461851881608 -0.25067750062420868 0 -0.33104542762839417 -0.2382336453318292 0 -0.34039461851881608 -0.25067750062420868 0 -0.35676553642757353 -0.2402564266884841 0 -0.33104542762839417 -0.2382336453318292 0 -0.33718127625748873 -0.21092905748648641 0 -0.34378877541972408 -0.22788609694988371 0 -0.321401303331319 -0.2236386781758021 0 -0.34378877541972408 -0.22788609694988371 0 -0.33104542762839417 -0.2382336453318292 0 -0.321401303331319 -0.2236386781758021 0 -0.30532531882921488 -0.23621086397517449 0 -0.33104542762839417 -0.2382336453318292 0 -0.321401303331319 -0.2236386781758021 0 -0.31210049989603472 -0.25241825301587262 0 -0.30532531882921488 -0.23621086397517449 0 -0.33104542762839417 -0.2382336453318292 0 -0.32742137705711583 -0.25426019856695448 0 -0.31210049989603472 -0.25241825301587262 0 -0.33104542762839417 -0.2382336453318292 0 -0.30532531882921488 -0.23621086397517449 0 -0.33104542762839417 -0.2382336453318292 0 -0.41909335268051939 -0.25879808844286423 0 -0.43419562989388633 -0.2395876413002804 0 -0.41493888119855382 -0.23482472786949549 0 -0.43419562989388633 -0.2395876413002804 0 -0.43337519866595808 -0.2232352706921516 0 -0.42041278406425397 -0.21323282401151911 0 -0.43419562989388633 -0.2395876413002804 0 -0.41493888119855382 -0.23482472786949549 0 -0.42041278406425397 -0.21323282401151911 0 -0.43419562989388633 -0.2395876413002804 0 -0.42041278406425397 -0.21323282401151911 0 -0.41493888119855382 -0.23482472786949549 0 -0.41078440971658708 -0.21085136729612691 0 -0.41493888119855382 -0.23482472786949549 0 -0.41078440971658708 -0.21085136729612691 0 -0.42041278406425397 -0.21323282401151911 0 -0.41493888119855382 -0.23482472786949549 0 -0.39970414347981298 -0.22891280983145351 0 -0.41078440971658708 -0.21085136729612691 0 -0.41909335268051939 -0.25879808844286423 0 -0.41493888119855382 -0.23482472786949549 0 -0.40510497887039032 -0.24143731959848569 0 -0.41909335268051939 -0.25879808844286423 0 -0.41493888119855382 -0.23482472786949549 0 -0.41493888119855382 -0.23482472786949549 0 -0.40510497887039032 -0.24143731959848569 0 -0.39970414347981298 -0.22891280983145351 0 -0.3995187138708407 -0.25096423349375929 0 -0.39367835191731498 -0.24315946864593729 0 -0.37994407506116218 -0.24313037854465391 0 -0.3995187138708407 -0.25096423349375929 0 -0.40510497887039032 -0.24143731959848569 0 -0.39367835191731498 -0.24315946864593729 0 -0.40510497887039032 -0.24143731959848569 0 -0.39367835191731498 -0.24315946864593729 0 -0.39970414347981298 -0.22891280983145351 0 -0.39367835191731498 -0.24315946864593729 0 -0.38566086078327938 -0.23390211423653581 0 -0.39970414347981298 -0.22891280983145351 0 -0.39367835191731498 -0.24315946864593729 0 -0.3752219441724442 -0.2417079476672106 0 -0.38566086078327938 -0.23390211423653581 0 -0.3828579426991861 -0.25092053189599872 0 -0.3995187138708407 -0.25096423349375929 0 -0.37994407506116218 -0.24313037854465391 0 -0.39367835191731498 -0.24315946864593729 0 -0.3752219441724442 -0.2417079476672106 0 -0.37994407506116218 -0.24313037854465391 0 -0.39367835191731498 -0.24315946864593729 0 -0.3752219441724442 -0.2417079476672106 0 -0.3995187138708407 -0.25096423349375929 0 -0.37994407506116218 -0.24313037854465391 0 -0.3752219441724442 -0.2417079476672106 0 -0.37676088419940262 -0.2334827127180979 0 -0.38566086078327938 -0.23390211423653581 0 -0.3752219441724442 -0.2417079476672106 0 -0.37547880863840599 -0.24729281026332789 0 -0.37994407506116218 -0.24313037854465391 0 -0.3828579426991861 -0.25092053189599872 0 -0.37547880863840599 -0.24729281026332789 0 -0.37994407506116218 -0.24313037854465391 0 -0.38566086078327938 -0.23390211423653581 0 -0.38404025036913891 -0.22197050822369979 0 -0.39970414347981298 -0.22891280983145351 0 -0.37299092609716822 -0.22616888340800109 0 -0.37676088419940262 -0.2334827127180979 0 -0.38404025036913891 -0.22197050822369979 0 -0.37676088419940262 -0.2334827127180979 0 -0.38566086078327938 -0.23390211423653581 0 -0.38404025036913891 -0.22197050822369979 0 -0.38404025036913891 -0.22197050822369979 0 -0.39970414347981298 -0.22891280983145351 0 -0.39690629844550379 -0.21374648287117659 0 -0.39970414347981298 -0.22891280983145351 0 -0.39690629844550379 -0.21374648287117659 0 -0.41078440971658708 -0.21085136729612691 0 -0.40065004623641048 -0.20317450976620441 0 -0.39690629844550379 -0.21374648287117659 0 -0.41078440971658708 -0.21085136729612691 0 -0.40065004623641048 -0.20317450976620441 0 -0.39690629844550379 -0.21374648287117659 0 -0.38827953854893033 -0.2012221821747561 0 -0.36477636039530231 -0.21323045655208431 0 -0.38404025036913891 -0.22197050822369979 0 -0.38827953854893033 -0.2012221821747561 0 -0.38404025036913891 -0.22197050822369979 0 -0.39690629844550379 -0.21374648287117659 0 -0.38827953854893033 -0.2012221821747561 0 -0.37278718436303032 -0.18620448641568441 0 -0.38827953854893033 -0.2012221821747561 0 -0.38818278250930599 -0.1805908561973262 0 -0.37278718436303032 -0.18620448641568441 0 -0.36477636039530231 -0.21323045655208431 0 -0.38827953854893033 -0.2012221821747561 0 -0.40065004623641048 -0.20317450976620441 0 -0.41078440971658708 -0.21085136729612691 0 -0.40662993823462112 -0.1868780067227582 0 -0.38827953854893033 -0.2012221821747561 0 -0.40662993823462112 -0.1868780067227582 0 -0.38818278250930599 -0.1805908561973262 0 -0.40065004623641048 -0.20317450976620441 0 -0.38827953854893033 -0.2012221821747561 0 -0.40662993823462112 -0.1868780067227582 0 -0.41078440971658708 -0.21085136729612691 0 -0.40662993823462112 -0.1868780067227582 0 -0.42041278406425397 -0.21323282401151911 0 -0.40662993823462112 -0.1868780067227582 0 -0.41937727402475772 -0.19503066222067969 0 -0.42041278406425397 -0.21323282401151911 0 -0.40662993823462112 -0.1868780067227582 0 -0.41078440971658708 -0.21085136729612691 0 -0.42041278406425397 -0.21323282401151911 0 -0.40662993823462112 -0.1868780067227582 0 -0.41937727402475772 -0.19503066222067969 0 -0.42041278406425397 -0.21323282401151911 0 -0.42656603022000872 -0.20834539638173341 0 -0.42041278406425397 -0.21323282401151911 0 -0.42656603022000872 -0.20834539638173341 0 -0.4299516344289151 -0.21406693215328509 0 -0.43337519866595808 -0.2232352706921516 0 -0.42041278406425397 -0.21323282401151911 0 -0.4299516344289151 -0.21406693215328509 0 -0.43337519866595808 -0.2232352706921516 0 -0.4299516344289151 -0.21406693215328509 0 -0.43945252476543972 -0.21145423752773651 0 -0.42656603022000872 -0.20834539638173341 0 -0.4299516344289151 -0.21406693215328509 0 -0.43945252476543972 -0.21145423752773651 0 -0.41937727402475772 -0.19503066222067969 0 -0.42656603022000872 -0.20834539638173341 0 -0.43091388565149102 -0.18523949509984219 0 -0.42656603022000872 -0.20834539638173341 0 -0.43091388565149102 -0.18523949509984219 0 -0.42656603022000872 -0.20834539638173341 0 -0.43091388565149102 -0.18523949509984219 0 -0.43945252476543972 -0.21145423752773651 0 -0.41937727402475772 -0.19503066222067969 0 -0.43091388565149102 -0.18523949509984219 0 -0.41622002997251478 -0.17133312651212729 0 -0.43091388565149102 -0.18523949509984219 0 -0.4357554422276993 -0.15950990724586531 0 -0.41622002997251478 -0.17133312651212729 0 -0.43091388565149102 -0.18523949509984219 0 -0.4357554422276993 -0.15950990724586531 0 -0.43091388565149102 -0.18523949509984219 0 -0.41622002997251478 -0.17133312651212729 0 -0.4357554422276993 -0.15950990724586531 0 -0.41622002997251478 -0.17133312651212729 0 -0.41933033781650142 -0.15468546202332739 0 -0.41622002997251478 -0.17133312651212729 0 -0.40152617429353621 -0.15742675792441471 0 -0.41933033781650142 -0.15468546202332739 0 -0.41622002997251478 -0.17133312651212729 0 -0.40152617429353621 -0.15742675792441471 0 -0.41622002997251478 -0.17133312651212729 0 -0.40662993823462112 -0.1868780067227582 0 -0.40152617429353621 -0.15742675792441471 0 -0.41937727402475772 -0.19503066222067969 0 -0.41622002997251478 -0.17133312651212729 0 -0.40662993823462112 -0.1868780067227582 0 -0.40662993823462112 -0.1868780067227582 0 -0.39293321231269868 -0.16068786329458101 0 -0.40662993823462112 -0.1868780067227582 0 -0.38818278250930599 -0.1805908561973262 0 -0.39293321231269868 -0.16068786329458101 0 -0.40662993823462112 -0.1868780067227582 0 -0.40152617429353621 -0.15742675792441471 0 -0.37278718436303032 -0.18620448641568441 0 -0.38818278250930599 -0.1805908561973262 0 -0.38028403908724973 -0.1679617423788515 0 -0.38818278250930599 -0.1805908561973262 0 -0.38028403908724973 -0.1679617423788515 0 -0.39293321231269868 -0.16068786329458101 0 -0.38028403908724973 -0.1679617423788515 0 -0.39293321231269868 -0.16068786329458101 0 -0.37722731872360221 -0.15470167214624919 0 -0.40662993823462112 -0.1868780067227582 0 -0.39293321231269868 -0.16068786329458101 0 -0.40152617429353621 -0.15742675792441471 0 -0.39293321231269868 -0.16068786329458101 0 -0.40152617429353621 -0.15742675792441471 0 -0.38209645689586608 -0.13903833642428251 0 -0.40152617429353621 -0.15742675792441471 0 -0.38209645689586608 -0.13903833642428251 0 -0.40152617429353621 -0.15742675792441471 0 -0.38209645689586608 -0.13903833642428251 0 -0.39752996891173409 -0.13436667123012039 0 -0.40152617429353621 -0.15742675792441471 0 -0.39752996891173409 -0.13436667123012039 0 -0.41325967610207759 -0.143001882852241 0 -0.40152617429353621 -0.15742675792441471 0 -0.39752996891173409 -0.13436667123012039 0 -0.36732347721176278 -0.1455196951308457 0 -0.37722731872360221 -0.15470167214624919 0 -0.38209645689586608 -0.13903833642428251 0 -0.39293321231269868 -0.16068786329458101 0 -0.37722731872360221 -0.15470167214624919 0 -0.38209645689586608 -0.13903833642428251 0 -0.38209645689586608 -0.13903833642428251 0 -0.39752996891173409 -0.13436667123012039 0 -0.3807844080387533 -0.1225397416406788 0 -0.36266673949819478 -0.12064991492415141 0 -0.38209645689586608 -0.13903833642428251 0 -0.3807844080387533 -0.1225397416406788 0 -0.41405905438178509 -0.1270067752700986 0 -0.41325967610207759 -0.143001882852241 0 -0.42989036648668139 -0.1421556355819886 0 -0.39752996891173409 -0.13436667123012039 0 -0.41405905438178509 -0.1270067752700986 0 -0.41325967610207759 -0.143001882852241 0 -0.40152617429353621 -0.15742675792441471 0 -0.41933033781650142 -0.15468546202332739 0 -0.41325967610207759 -0.143001882852241 0 -0.41933033781650142 -0.15468546202332739 0 -0.41325967610207759 -0.143001882852241 0 -0.42989036648668139 -0.1421556355819886 0 -0.4357554422276993 -0.15950990724586531 0 -0.41933033781650142 -0.15468546202332739 0 -0.42989036648668139 -0.1421556355819886 0 -0.4357554422276993 -0.15950990724586531 0 -0.42989036648668139 -0.1421556355819886 0 -0.44059699880391062 -0.13378031939188889 0 -0.41405905438178509 -0.1270067752700986 0 -0.42989036648668139 -0.1421556355819886 0 -0.43302108226327463 -0.1184365694613512 0 -0.42989036648668139 -0.1421556355819886 0 -0.44059699880391062 -0.13378031939188889 0 -0.43302108226327463 -0.1184365694613512 0 -0.42989036648668139 -0.1421556355819886 0 -0.43302108226327463 -0.1184365694613512 0 -0.44059699880391062 -0.13378031939188889 0 -0.46028183177892767 -0.14927748030183169 0 -0.47257843921570158 -0.12614142360048861 0 -0.4357554422276993 -0.15950990724586531 0 -0.44059699880391062 -0.13378031939188889 0 -0.4357554422276993 -0.15950990724586531 0 -0.44059699880391062 -0.13378031939188889 0 -0.46028183177892767 -0.14927748030183169 0 -0.47257843921570158 -0.12614142360048861 0 -0.5 -0.14391080683181409 0 -0.5 -0.1145414477970923 0 -0.46028183177892767 -0.14927748030183169 0 -0.47257843921570158 -0.12614142360048861 0 -0.47988904595097998 -0.15287781157510669 0 -0.47257843921570158 -0.12614142360048861 0 -0.5 -0.14391080683181409 0 -0.47988904595097998 -0.15287781157510669 0 -0.5 -0.17328016586653611 0 -0.46658495876027062 -0.1717791812748633 0 -0.47356876630497807 -0.1965913296931629 0 -0.46028183177892767 -0.14927748030183169 0 -0.47988904595097998 -0.15287781157510669 0 -0.46658495876027062 -0.1717791812748633 0 -0.47988904595097998 -0.15287781157510669 0 -0.5 -0.17328016586653611 0 -0.46658495876027062 -0.1717791812748633 0 -0.5 -0.14391080683181409 0 -0.47988904595097998 -0.15287781157510669 0 -0.5 -0.17328016586653611 0 -0.46658495876027062 -0.1717791812748633 0 -0.45002090744799172 -0.18376332357775299 0 -0.47356876630497807 -0.1965913296931629 0 -0.4357554422276993 -0.15950990724586531 0 -0.46028183177892767 -0.14927748030183169 0 -0.46658495876027062 -0.1717791812748633 0 -0.4357554422276993 -0.15950990724586531 0 -0.46658495876027062 -0.1717791812748633 0 -0.45002090744799172 -0.18376332357775299 0 -0.43091388565149102 -0.18523949509984219 0 -0.4357554422276993 -0.15950990724586531 0 -0.45002090744799172 -0.18376332357775299 0 -0.43091388565149102 -0.18523949509984219 0 -0.44959837226206872 -0.2029226249301295 0 -0.43945252476543972 -0.21145423752773651 0 -0.43091388565149102 -0.18523949509984219 0 -0.44959837226206872 -0.2029226249301295 0 -0.43091388565149102 -0.18523949509984219 0 -0.45002090744799172 -0.18376332357775299 0 -0.44959837226206872 -0.2029226249301295 0 -0.44959837226206872 -0.2029226249301295 0 -0.43945252476543972 -0.21145423752773651 0 -0.45022044750707019 -0.22918300017169149 0 -0.44959837226206872 -0.2029226249301295 0 -0.46828285887264531 -0.22060575476041799 0 -0.45022044750707019 -0.22918300017169149 0 -0.44959837226206872 -0.2029226249301295 0 -0.46828285887264531 -0.22060575476041799 0 -0.44959837226206872 -0.2029226249301295 0 -0.47356876630497807 -0.1965913296931629 0 -0.46828285887264531 -0.22060575476041799 0 -0.45002090744799172 -0.18376332357775299 0 -0.44959837226206872 -0.2029226249301295 0 -0.47356876630497807 -0.1965913296931629 0 -0.5 -0.17328016586653611 0 -0.47356876630497807 -0.1965913296931629 0 -0.5 -0.2026495249012579 0 -0.5 -0.2026495249012579 0 -0.48622331686172682 -0.21783182667410891 0 -0.5 -0.23201888393597969 0 -0.47356876630497807 -0.1965913296931629 0 -0.5 -0.2026495249012579 0 -0.48622331686172682 -0.21783182667410891 0 -0.47356876630497807 -0.1965913296931629 0 -0.48622331686172682 -0.21783182667410891 0 -0.46828285887264531 -0.22060575476041799 0 -0.48696734548322179 -0.23828888459070649 0 -0.47023219251284148 -0.23710400199618351 0 -0.46828285887264531 -0.22060575476041799 0 -0.48622331686172682 -0.21783182667410891 0 -0.48696734548322179 -0.23828888459070649 0 -0.46828285887264531 -0.22060575476041799 0 -0.48696734548322179 -0.23828888459070649 0 -0.46828285887264531 -0.22060575476041799 0 -0.48622331686172682 -0.21783182667410891 0 -0.5 -0.23201888393597969 0 -0.48696734548322179 -0.23828888459070649 0 -0.5 -0.26138824297070151 0 -0.5 -0.23201888393597969 0 -0.48696734548322179 -0.23828888459070649 0 -0.47589771781528079 -0.25806660699248102 0 -0.47023219251284148 -0.23710400199618351 0 -0.460593049782828 -0.24774577637354209 0 -0.47589771781528079 -0.25806660699248102 0 -0.48696734548322179 -0.23828888459070649 0 -0.47023219251284148 -0.23710400199618351 0 -0.47023219251284148 -0.23710400199618351 0 -0.460593049782828 -0.24774577637354209 0 -0.45022044750707019 -0.22918300017169149 0 -0.47023219251284148 -0.23710400199618351 0 -0.46828285887264531 -0.22060575476041799 0 -0.45022044750707019 -0.22918300017169149 0 -0.43337519866595808 -0.2232352706921516 0 -0.43945252476543972 -0.21145423752773651 0 -0.45022044750707019 -0.22918300017169149 0 -0.43419562989388633 -0.2395876413002804 0 -0.43337519866595808 -0.2232352706921516 0 -0.45022044750707019 -0.22918300017169149 0 -0.44497875982576141 -0.25176855765867812 0 -0.460593049782828 -0.24774577637354209 0 -0.45022044750707019 -0.22918300017169149 0 -0.44497875982576141 -0.25176855765867812 0 -0.43419562989388633 -0.2395876413002804 0 -0.45022044750707019 -0.22918300017169149 0 -0.408096229192216 -0.041774065792848418 0 -0.4249184229277953 -0.047074658229107842 0 -0.408096229192216 -0.041774065792848418 0 -0.4249184229277953 -0.047074658229107842 0 -0.42324799273890312 -0.028896524050685431 0 -0.408096229192216 -0.041774065792848418 0 -0.42324799273890312 -0.028896524050685431 0 -0.40957518668696669 -0.02787070406271033 0 -0.408096229192216 -0.041774065792848418 0 -0.42090167468493089 -0.058842425573833623 0 -0.408096229192216 -0.041774065792848418 0 -0.42090167468493089 -0.058842425573833623 0 -0.40513710620380122 -0.058433087681254832 0 -0.408096229192216 -0.041774065792848418 0 -0.42090167468493089 -0.058842425573833623 0 -0.4249184229277953 -0.047074658229107842 0 -0.4249184229277953 -0.047074658229107842 0 -0.44174061666337439 -0.052375250665367822 0 -0.4249184229277953 -0.047074658229107842 0 -0.43211006965404231 -0.061040311408641051 0 -0.44174061666337439 -0.052375250665367822 0 -0.42090167468493089 -0.058842425573833623 0 -0.4249184229277953 -0.047074658229107842 0 -0.43211006965404231 -0.061040311408641051 0 -0.4249184229277953 -0.047074658229107842 0 -0.43372272698185188 -0.039037490771756979 0 -0.42324799273890312 -0.028896524050685431 0 -0.43372272698185188 -0.039037490771756979 0 -0.42324799273890312 -0.028896524050685431 0 -0.44498387559733471 -0.027803530141866779 0 -0.4249184229277953 -0.047074658229107842 0 -0.43372272698185188 -0.039037490771756979 0 -0.44174061666337439 -0.052375250665367822 0 -0.43509640494811103 -0.015768205232610851 0 -0.42324799273890312 -0.028896524050685431 0 -0.44498387559733471 -0.027803530141866779 0 -0.43509640494811103 -0.015768205232610851 0 -0.42323818291832971 -0.015763729474702289 0 -0.42324799273890312 -0.028896524050685431 0 -0.42520893429888851 -0.0037328803233539661 0 -0.44036951958425441 -0.0060607394341176471 0 -0.44355140429012652 0.00070104396701335463 0 -0.43509640494811103 -0.015768205232610851 0 -0.42520893429888851 -0.0037328803233539661 0 -0.43509640494811103 -0.015768205232610851 0 -0.42520893429888851 -0.0037328803233539661 0 -0.44036951958425441 -0.0060607394341176471 0 -0.43509640494811103 -0.015768205232610851 0 -0.42323818291832971 -0.015763729474702289 0 -0.42520893429888851 -0.0037328803233539661 0 -0.42520893429888851 -0.0037328803233539661 0 -0.41072181970521188 -0.014848368910220089 0 -0.41003352224135392 -0.0018020111556050909 0 -0.42520893429888851 -0.0037328803233539661 0 -0.41072181970521188 -0.014848368910220089 0 -0.42323818291832971 -0.015763729474702289 0 -0.42520893429888851 -0.0037328803233539661 0 -0.41072181970521188 -0.014848368910220089 0 -0.41072181970521188 -0.014848368910220089 0 -0.41003352224135392 -0.0018020111556050909 0 -0.39827106171924731 -0.011138994796523499 0 -0.42324799273890312 -0.028896524050685431 0 -0.41072181970521188 -0.014848368910220089 0 -0.40957518668696669 -0.02787070406271033 0 -0.42323818291832971 -0.015763729474702289 0 -0.42324799273890312 -0.028896524050685431 0 -0.41072181970521188 -0.014848368910220089 0 -0.39623470511153608 -0.025963857497087049 0 -0.39827106171924731 -0.011138994796523499 0 -0.38420971174839841 -0.0099357612311078043 0 -0.41072181970521188 -0.014848368910220089 0 -0.39623470511153608 -0.025963857497087049 0 -0.39827106171924731 -0.011138994796523499 0 -0.41072181970521188 -0.014848368910220089 0 -0.40957518668696669 -0.02787070406271033 0 -0.39623470511153608 -0.025963857497087049 0 -0.41072181970521188 -0.014848368910220089 0 -0.39623470511153608 -0.025963857497087049 0 -0.39623470511153608 -0.025963857497087049 0 -0.38508067896206599 -0.034521976476563757 0 -0.41003352224135392 -0.0018020111556050909 0 -0.39827106171924731 -0.011138994796523499 0 -0.39927067890938228 0.002103023771928305 0 -0.39827106171924731 -0.011138994796523499 0 -0.38420971174839841 -0.0099357612311078043 0 -0.39927067890938228 0.002103023771928305 0 -0.39623470511153608 -0.025963857497087049 0 -0.38420971174839841 -0.0099357612311078043 0 -0.38420971174839841 -0.0099357612311078043 0 -0.37979695041963629 -0.025948768416961601 0 -0.39623470511153608 -0.025963857497087049 0 -0.38420971174839841 -0.0099357612311078043 0 -0.38715559381523501 -0.025418030408888809 0 -0.36493832737432869 -0.019221938159557181 0 -0.38420971174839841 -0.0099357612311078043 0 -0.37979695041963629 -0.025948768416961601 0 -0.38420971174839841 -0.0099357612311078043 0 -0.38715559381523501 -0.025418030408888809 0 -0.37979695041963629 -0.025948768416961601 0 -0.38715559381523501 -0.025418030408888809 0 -0.37979695041963629 -0.025948768416961601 0 -0.38508067896206599 -0.034521976476563757 0 -0.39623470511153608 -0.025963857497087049 0 -0.38715559381523501 -0.025418030408888809 0 -0.38508067896206599 -0.034521976476563757 0 -0.37979695041963629 -0.025948768416961601 0 -0.37804325026237617 -0.032312587152635748 0 -0.38508067896206599 -0.034521976476563757 0 -0.37979695041963629 -0.025948768416961601 0 -0.37804325026237617 -0.032312587152635748 0 -0.37804325026237617 -0.032312587152635748 0 -0.37538418909087368 -0.041961775602815207 0 -0.38508067896206599 -0.034521976476563757 0 -0.38508067896206599 -0.034521976476563757 0 -0.39107074025388872 -0.053067169118431103 0 -0.3808306105197472 -0.049289185588094843 0 -0.37538418909087368 -0.041961775602815207 0 -0.38508067896206599 -0.034521976476563757 0 -0.37804325026237617 -0.032312587152635748 0 -0.37538418909087368 -0.041961775602815207 0 -0.37804325026237617 -0.032312587152635748 0 -0.38508067896206599 -0.034521976476563757 0 -0.37538418909087368 -0.041961775602815207 0 -0.38508067896206599 -0.034521976476563757 0 -0.3808306105197472 -0.049289185588094843 0 -0.408096229192216 -0.041774065792848418 0 -0.39623470511153608 -0.025963857497087049 0 -0.38508067896206599 -0.034521976476563757 0 -0.408096229192216 -0.041774065792848418 0 -0.40957518668696669 -0.02787070406271033 0 -0.39623470511153608 -0.025963857497087049 0 -0.408096229192216 -0.041774065792848418 0 -0.39623470511153608 -0.025963857497087049 0 -0.408096229192216 -0.041774065792848418 0 -0.38508067896206599 -0.034521976476563757 0 -0.408096229192216 -0.041774065792848418 0 -0.38508067896206599 -0.034521976476563757 0 -0.39107074025388872 -0.053067169118431103 0 -0.40513710620380122 -0.058433087681254832 0 -0.39107074025388872 -0.053067169118431103 0 -0.38662261239017098 -0.071425815352603561 0 -0.408096229192216 -0.041774065792848418 0 -0.40513710620380122 -0.058433087681254832 0 -0.39107074025388872 -0.053067169118431103 0 -0.39107074025388872 -0.053067169118431103 0 -0.38035717589407753 -0.060249091979146643 0 -0.38662261239017098 -0.071425815352603561 0 -0.39107074025388872 -0.053067169118431103 0 -0.3808306105197472 -0.049289185588094843 0 -0.38035717589407753 -0.060249091979146643 0 -0.3717516547221249 -0.055143498931134752 0 -0.37538418909087368 -0.041961775602815207 0 -0.3808306105197472 -0.049289185588094843 0 -0.3717516547221249 -0.055143498931134752 0 -0.3808306105197472 -0.049289185588094843 0 -0.38035717589407753 -0.060249091979146643 0 -0.37049303423304619 -0.069314959240704979 0 -0.38662261239017098 -0.071425815352603561 0 -0.37533615985446972 -0.085998386151636338 0 -0.37049303423304619 -0.069314959240704979 0 -0.38035717589407753 -0.060249091979146643 0 -0.38662261239017098 -0.071425815352603561 0 -0.38662261239017098 -0.071425815352603561 0 -0.37533615985446972 -0.085998386151636338 0 -0.39007818796005261 -0.091366199944214729 0 -0.38662261239017098 -0.071425815352603561 0 -0.39007818796005261 -0.091366199944214729 0 -0.38662261239017098 -0.071425815352603561 0 -0.39007818796005261 -0.091366199944214729 0 -0.40797423651970732 -0.074689891277297096 0 -0.39007818796005261 -0.091366199944214729 0 -0.40797423651970732 -0.074689891277297096 0 -0.41362044185378988 -0.093608684945321791 0 -0.40513710620380122 -0.058433087681254832 0 -0.38662261239017098 -0.071425815352603561 0 -0.40797423651970732 -0.074689891277297096 0 -0.3807844080387533 -0.1225397416406788 0 -0.37676736140647682 -0.1060024183628151 0 -0.39353376352993319 -0.11130658453582599 0 -0.39752996891173409 -0.13436667123012039 0 -0.3807844080387533 -0.1225397416406788 0 -0.39353376352993319 -0.11130658453582599 0 -0.3807844080387533 -0.1225397416406788 0 -0.39353376352993319 -0.11130658453582599 0 -0.37533615985446972 -0.085998386151636338 0 -0.39007818796005261 -0.091366199944214729 0 -0.37676736140647682 -0.1060024183628151 0 -0.39007818796005261 -0.091366199944214729 0 -0.37676736140647682 -0.1060024183628151 0 -0.39353376352993319 -0.11130658453582599 0 -0.39007818796005261 -0.091366199944214729 0 -0.39353376352993319 -0.11130658453582599 0 -0.39007818796005261 -0.091366199944214729 0 -0.39353376352993319 -0.11130658453582599 0 -0.41362044185378988 -0.093608684945321791 0 -0.39353376352993319 -0.11130658453582599 0 -0.41362044185378988 -0.093608684945321791 0 -0.39752996891173409 -0.13436667123012039 0 -0.41405905438178509 -0.1270067752700986 0 -0.39353376352993319 -0.11130658453582599 0 -0.39752996891173409 -0.13436667123012039 0 -0.39353376352993319 -0.11130658453582599 0 -0.41405905438178509 -0.1270067752700986 0 -0.39353376352993319 -0.11130658453582599 0 -0.41746307976687869 -0.1103122811473084 0 -0.41405905438178509 -0.1270067752700986 0 -0.41746307976687869 -0.1103122811473084 0 -0.43302108226327463 -0.1184365694613512 0 -0.39353376352993319 -0.11130658453582599 0 -0.41746307976687869 -0.1103122811473084 0 -0.41362044185378988 -0.093608684945321791 0 -0.41746307976687869 -0.1103122811473084 0 -0.43615179803986781 -0.094717503340713785 0 -0.43302108226327463 -0.1184365694613512 0 -0.41746307976687869 -0.1103122811473084 0 -0.43615179803986781 -0.094717503340713785 0 -0.41362044185378988 -0.093608684945321791 0 -0.43615179803986781 -0.094717503340713785 0 -0.43302108226327463 -0.1184365694613512 0 -0.42090167468493089 -0.058842425573833623 0 -0.40797423651970732 -0.074689891277297096 0 -0.43370712017764668 -0.075910785354818003 0 -0.42090167468493089 -0.058842425573833623 0 -0.40513710620380122 -0.058433087681254832 0 -0.40797423651970732 -0.074689891277297096 0 -0.40797423651970732 -0.074689891277297096 0 -0.41362044185378988 -0.093608684945321791 0 -0.43370712017764668 -0.075910785354818003 0 -0.41362044185378988 -0.093608684945321791 0 -0.43370712017764668 -0.075910785354818003 0 -0.43615179803986781 -0.094717503340713785 0 -0.41362044185378988 -0.093608684945321791 0 -0.43370712017764668 -0.075910785354818003 0 -0.43615179803986781 -0.094717503340713785 0 -0.43370712017764668 -0.075910785354818003 0 -0.4392825138164631 -0.070998437220076649 0 -0.42090167468493089 -0.058842425573833623 0 -0.43211006965404231 -0.061040311408641051 0 -0.43370712017764668 -0.075910785354818003 0 -0.42090167468493089 -0.058842425573833623 0 -0.43370712017764668 -0.075910785354818003 0 -0.43370712017764668 -0.075910785354818003 0 -0.4392825138164631 -0.070998437220076649 0 -0.43211006965404231 -0.061040311408641051 0 -0.43370712017764668 -0.075910785354818003 0 -0.4392825138164631 -0.070998437220076649 0 -0.45028011195633338 -0.082321143683936032 0 -0.45512166853254582 -0.05659155582995979 0 -0.45028011195633338 -0.082321143683936032 0 -0.45512166853254582 -0.05659155582995979 0 -0.45253366823845081 -0.059323156885646308 0 -0.4392825138164631 -0.070998437220076649 0 -0.45028011195633338 -0.082321143683936032 0 -0.45253366823845081 -0.059323156885646308 0 -0.4392825138164631 -0.070998437220076649 0 -0.45253366823845081 -0.059323156885646308 0 -0.43615179803986781 -0.094717503340713785 0 -0.4392825138164631 -0.070998437220076649 0 -0.43615179803986781 -0.094717503340713785 0 -0.4392825138164631 -0.070998437220076649 0 -0.45028011195633338 -0.082321143683936032 0 -0.45028011195633338 -0.082321143683936032 0 -0.46537108046659942 -0.1000451015197617 0 -0.47327518628293419 -0.085808164301664075 0 -0.45028011195633338 -0.082321143683936032 0 -0.46429211415422061 -0.0722568379586849 0 -0.47327518628293419 -0.085808164301664075 0 -0.45028011195633338 -0.082321143683936032 0 -0.46429211415422061 -0.0722568379586849 0 -0.45512166853254582 -0.05659155582995979 0 -0.46429211415422061 -0.0722568379586849 0 -0.47064913094799998 -0.061484184646820879 0 -0.45512166853254582 -0.05659155582995979 0 -0.44059699880391062 -0.13378031939188889 0 -0.47257843921570158 -0.12614142360048861 0 -0.445438555380122 -0.1080507315379125 0 -0.44059699880391062 -0.13378031939188889 0 -0.445438555380122 -0.1080507315379125 0 -0.44059699880391062 -0.13378031939188889 0 -0.43302108226327463 -0.1184365694613512 0 -0.445438555380122 -0.1080507315379125 0 -0.45028011195633338 -0.082321143683936032 0 -0.445438555380122 -0.1080507315379125 0 -0.43615179803986781 -0.094717503340713785 0 -0.45028011195633338 -0.082321143683936032 0 -0.445438555380122 -0.1080507315379125 0 -0.43615179803986781 -0.094717503340713785 0 -0.43302108226327463 -0.1184365694613512 0 -0.445438555380122 -0.1080507315379125 0 -0.45028011195633338 -0.082321143683936032 0 -0.445438555380122 -0.1080507315379125 0 -0.46537108046659942 -0.1000451015197617 0 -0.47257843921570158 -0.12614142360048861 0 -0.445438555380122 -0.1080507315379125 0 -0.46537108046659942 -0.1000451015197617 0 -0.47257843921570158 -0.12614142360048861 0 -0.46537108046659942 -0.1000451015197617 0 -0.48528310949790587 -0.097904044474807342 0 -0.46537108046659942 -0.1000451015197617 0 -0.48528310949790587 -0.097904044474807342 0 -0.47327518628293419 -0.085808164301664075 0 -0.48528310949790587 -0.097904044474807342 0 -0.5 -0.1145414477970923 0 -0.5 -0.085172088762370368 0 -0.47257843921570158 -0.12614142360048861 0 -0.48528310949790587 -0.097904044474807342 0 -0.5 -0.1145414477970923 0 -0.48617659336345159 -0.066376813463690343 0 -0.47064913094799998 -0.061484184646820879 0 -0.47826550204986401 -0.074297756327045925 0 -0.48617659336345159 -0.066376813463690343 0 -0.47064913094799998 -0.061484184646820879 0 -0.48617659336345159 -0.066376813463690343 0 -0.47064913094799998 -0.061484184646820879 0 -0.47229602725987668 -0.061048697777880682 0 -0.46429211415422061 -0.0722568379586849 0 -0.47826550204986401 -0.074297756327045925 0 -0.47064913094799998 -0.061484184646820879 0 -0.46429211415422061 -0.0722568379586849 0 -0.47826550204986401 -0.074297756327045925 0 -0.47327518628293419 -0.085808164301664075 0 -0.47826550204986401 -0.074297756327045925 0 -0.47327518628293419 -0.085808164301664075 0 -0.5 -0.085172088762370368 0 -0.48528310949790587 -0.097904044474807342 0 -0.47327518628293419 -0.085808164301664075 0 -0.5 -0.085172088762370368 0 -0.47826550204986401 -0.074297756327045925 0 -0.5 -0.085172088762370368 0 -0.48617659336345159 -0.066376813463690343 0 -0.5 -0.085172088762370368 0 -0.48617659336345159 -0.066376813463690343 0 -0.5 -0.055802729727648437 0 -0.5 -0.055802729727648437 0 -0.48762122391353779 -0.035997503665145709 0 -0.48372950294293082 -0.051020104266055057 0 -0.48617659336345159 -0.066376813463690343 0 -0.5 -0.055802729727648437 0 -0.48372950294293082 -0.051020104266055057 0 -0.5 -0.055802729727648437 0 -0.48762122391353779 -0.035997503665145709 0 -0.49999999999999911 -0.02643337069292662 0 -0.48762122391353779 -0.035997503665145709 0 -0.48008994685751671 -0.039040928114839002 0 -0.47780914345440739 -0.027714659082148499 0 -0.48762122391353779 -0.035997503665145709 0 -0.48008994685751671 -0.039040928114839002 0 -0.48372950294293082 -0.051020104266055057 0 -0.48008994685751671 -0.039040928114839002 0 -0.47634114502197938 -0.045846248850650792 0 -0.48372950294293082 -0.051020104266055057 0 -0.47634114502197938 -0.045846248850650792 0 -0.47081121807183901 -0.038090924271118987 0 -0.47023320360759402 -0.047803174268443452 0 -0.48008994685751671 -0.039040928114839002 0 -0.47634114502197938 -0.045846248850650792 0 -0.47081121807183901 -0.038090924271118987 0 -0.48008994685751671 -0.039040928114839002 0 -0.47081121807183901 -0.038090924271118987 0 -0.47780914345440739 -0.027714659082148499 0 -0.48617659336345159 -0.066376813463690343 0 -0.47984870919543221 -0.058508361037692053 0 -0.47229602725987668 -0.061048697777880682 0 -0.48617659336345159 -0.066376813463690343 0 -0.47984870919543221 -0.058508361037692053 0 -0.48372950294293082 -0.051020104266055057 0 -0.47634114502197938 -0.045846248850650792 0 -0.48372950294293082 -0.051020104266055057 0 -0.47684185363001708 -0.053276113332797408 0 -0.47984870919543221 -0.058508361037692053 0 -0.48372950294293082 -0.051020104266055057 0 -0.47684185363001708 -0.053276113332797408 0 -0.47684185363001708 -0.053276113332797408 0 -0.47023320360759402 -0.047803174268443452 0 -0.47229602725987668 -0.061048697777880682 0 -0.47634114502197938 -0.045846248850650792 0 -0.47684185363001708 -0.053276113332797408 0 -0.47023320360759402 -0.047803174268443452 0 -0.47984870919543221 -0.058508361037692053 0 -0.47684185363001708 -0.053276113332797408 0 -0.47229602725987668 -0.061048697777880682 0 -0.47064913094799998 -0.061484184646820879 0 -0.45512166853254582 -0.05659155582995979 0 -0.47064913094799998 -0.061484184646820879 0 -0.45512166853254582 -0.05659155582995979 0 -0.45763990657184339 -0.043208829458917838 0 -0.47064913094799998 -0.061484184646820879 0 -0.47229602725987668 -0.061048697777880682 0 -0.45763990657184339 -0.043208829458917838 0 -0.47023320360759402 -0.047803174268443452 0 -0.47229602725987668 -0.061048697777880682 0 -0.45763990657184339 -0.043208829458917838 0 -0.47229602725987668 -0.061048697777880682 0 -0.45763990657184339 -0.043208829458917838 0 -0.45512166853254582 -0.05659155582995979 0 -0.45763990657184339 -0.043208829458917838 0 -0.47081121807183901 -0.038090924271118987 0 -0.47023320360759402 -0.047803174268443452 0 -0.45763990657184339 -0.043208829458917838 0 -0.47081121807183901 -0.038090924271118987 0 -0.45763990657184339 -0.043208829458917838 0 -0.46121257003632909 -0.024222547457414811 0 -0.45763990657184339 -0.043208829458917838 0 -0.44498387559733471 -0.027803530141866779 0 -0.46121257003632909 -0.024222547457414811 0 -0.45763990657184339 -0.043208829458917838 0 -0.46121257003632909 -0.024222547457414811 0 -0.45763990657184339 -0.043208829458917838 0 -0.44174061666337439 -0.052375250665367822 0 -0.44498387559733471 -0.027803530141866779 0 -0.43372272698185188 -0.039037490771756979 0 -0.44174061666337439 -0.052375250665367822 0 -0.44498387559733471 -0.027803530141866779 0 -0.44174061666337439 -0.052375250665367822 0 -0.44498387559733471 -0.027803530141866779 0 -0.45763990657184339 -0.043208829458917838 0 -0.44498387559733471 -0.027803530141866779 0 -0.4392825138164631 -0.070998437220076649 0 -0.44174061666337439 -0.052375250665367822 0 -0.45512166853254582 -0.05659155582995979 0 -0.45763990657184339 -0.043208829458917838 0 -0.44174061666337439 -0.052375250665367822 0 -0.43211006965404231 -0.061040311408641051 0 -0.4392825138164631 -0.070998437220076649 0 -0.44174061666337439 -0.052375250665367822 0 -0.4392825138164631 -0.070998437220076649 0 -0.44174061666337439 -0.052375250665367822 0 -0.45253366823845081 -0.059323156885646308 0 -0.45512166853254582 -0.05659155582995979 0 -0.44174061666337439 -0.052375250665367822 0 -0.45253366823845081 -0.059323156885646308 0 -0.45512166853254582 -0.05659155582995979 0 -0.44174061666337439 -0.052375250665367822 0 -0.44712551044252702 -0.011577982336104201 0 -0.45148352588540908 -0.010368222224538219 0 -0.45288854002363282 -0.018414352212604269 0 -0.44712551044252702 -0.011577982336104201 0 -0.45148352588540908 -0.010368222224538219 0 -0.44927123380100681 -0.0039776744569574836 0 -0.45148352588540908 -0.010368222224538219 0 -0.44927123380100681 -0.0039776744569574836 0 -0.45657904667058657 -0.010143865328871571 0 -0.44712551044252702 -0.011577982336104201 0 -0.44927123380100681 -0.0039776744569574836 0 -0.44036951958425441 -0.0060607394341176471 0 -0.44927123380100681 -0.0039776744569574836 0 -0.44036951958425441 -0.0060607394341176471 0 -0.44355140429012652 0.00070104396701335463 0 -0.43509640494811103 -0.015768205232610851 0 -0.44712551044252702 -0.011577982336104201 0 -0.44036951958425441 -0.0060607394341176471 0 -0.43509640494811103 -0.015768205232610851 0 -0.44498387559733471 -0.027803530141866779 0 -0.43509640494811103 -0.015768205232610851 0 -0.44712551044252702 -0.011577982336104201 0 -0.44498387559733471 -0.027803530141866779 0 -0.44712551044252702 -0.011577982336104201 0 -0.44498387559733471 -0.027803530141866779 0 -0.45288854002363282 -0.018414352212604269 0 -0.44712551044252702 -0.011577982336104201 0 -0.44498387559733471 -0.027803530141866779 0 -0.44498387559733471 -0.027803530141866779 0 -0.45288854002363282 -0.018414352212604269 0 -0.46121257003632909 -0.024222547457414811 0 -0.45288854002363282 -0.018414352212604269 0 -0.46121257003632909 -0.024222547457414811 0 -0.45657904667058657 -0.010143865328871571 0 -0.46121257003632909 -0.024222547457414811 0 -0.46478523350081508 -0.0052362654559118902 0 -0.46121257003632909 -0.024222547457414811 0 -0.46478523350081508 -0.0052362654559118902 0 -0.47122063953413379 -0.015731958324863751 0 -0.46121257003632909 -0.024222547457414811 0 -0.45657904667058657 -0.010143865328871571 0 -0.46478523350081508 -0.0052362654559118902 0 -0.46478523350081508 -0.0052362654559118902 0 -0.46819750045274539 -0.0055130895215859781 0 -0.47122063953413379 -0.015731958324863751 0 -0.45148352588540908 -0.010368222224538219 0 -0.45288854002363282 -0.018414352212604269 0 -0.45657904667058657 -0.010143865328871571 0 -0.44927123380100681 -0.0039776744569574836 0 -0.46478523350081508 -0.0052362654559118902 0 -0.45470164481300412 0.003364737650824894 0 -0.44927123380100681 -0.0039776744569574836 0 -0.45657904667058657 -0.010143865328871571 0 -0.46478523350081508 -0.0052362654559118902 0 -0.44927123380100681 -0.0039776744569574836 0 -0.46478523350081508 -0.0052362654559118902 0 -0.46511473500648742 -0.003485188544012926 0 -0.45470164481300412 0.003364737650824894 0 -0.46478523350081508 -0.0052362654559118902 0 -0.46511473500648742 -0.003485188544012926 0 -0.45470164481300412 0.003364737650824894 0 -0.46819750045274539 -0.0055130895215859781 0 -0.46511473500648742 -0.003485188544012926 0 -0.46478523350081508 -0.0052362654559118902 0 -0.46819750045274539 -0.0055130895215859781 0 -0.46478523350081508 -0.0052362654559118902 0 -0.46819750045274539 -0.0055130895215859781 0 -0.46511473500648742 -0.003485188544012926 0 -0.46478523350081508 -0.0052362654559118902 0 -0.46511473500648742 -0.003485188544012926 0 -0.46819750045274539 -0.0055130895215859781 0 -0.46511473500648742 -0.003485188544012926 0 -0.47353820779566352 0.0059628458906641896 0 -0.46819750045274539 -0.0055130895215859781 0 -0.47122063953413379 -0.015731958324863751 0 -0.48409875022637211 -0.015973230107256691 0 -0.46819750045274539 -0.0055130895215859781 0 -0.48409875022637328 -0.0068030966264253411 0 -0.48409875022637211 -0.015973230107256691 0 -0.46819750045274539 -0.0055130895215859781 0 -0.48409875022637328 -0.0068030966264253411 0 -0.47353820779566352 0.0059628458906641896 0 -0.46819750045274539 -0.0055130895215859781 0 -0.48409875022637328 -0.0068030966264253411 0 -0.46819750045274539 -0.0055130895215859781 0 -0.48409875022637211 -0.015973230107256691 0 -0.48762122391353779 -0.035997503665145709 0 -0.48409875022637211 -0.015973230107256691 0 -0.47780914345440739 -0.027714659082148499 0 -0.47081121807183901 -0.038090924271118987 0 -0.46121257003632909 -0.024222547457414811 0 -0.47780914345440739 -0.027714659082148499 0 -0.46121257003632909 -0.024222547457414811 0 -0.47122063953413379 -0.015731958324863751 0 -0.47780914345440739 -0.027714659082148499 0 -0.47122063953413379 -0.015731958324863751 0 -0.48409875022637211 -0.015973230107256691 0 -0.47780914345440739 -0.027714659082148499 0 -0.48409875022637211 -0.015973230107256691 0 -0.49999999999999911 -0.02643337069292662 0 -0.48762122391353779 -0.035997503665145709 0 -0.48409875022637211 -0.015973230107256691 0 -0.49999999999999911 -0.02643337069292662 0 -0.48409875022637211 -0.015973230107256691 0 -0.49999999999999911 -0.02643337069292662 0 -0.50000000000000111 -0.0080931037312653893 0 -0.48409875022637328 -0.0068030966264253411 0 -0.50000000000000111 -0.0080931037312653893 0 -0.48409875022637328 -0.0068030966264253411 0 -0.50000000000000111 -0.0080931037312653893 0 -0.48833694211293083 0.0056280485202459072 0 -0.48409875022637328 -0.0068030966264253411 0 -0.48409875022637211 -0.015973230107256691 0 -0.50000000000000111 -0.0080931037312653893 0 -0.48833694211293083 0.0056280485202459072 0 -0.5 0.01737708383960801 0 -0.48404775254261589 0.019696513228647999 0 -0.50000000000000111 -0.0080931037312653893 0 -0.48833694211293083 0.0056280485202459072 0 -0.5 0.01737708383960801 0 -0.5 0.01737708383960801 0 -0.5 0.042847271410481391 0 -0.48846689618246902 0.032062739470290751 0 -0.5 0.01737708383960801 0 -0.48404775254261589 0.019696513228647999 0 -0.48846689618246902 0.032062739470290751 0 -0.48404775254261589 0.019696513228647999 0 -0.47721683682124749 0.034639689763025533 0 -0.46240866831316141 0.032624840559025488 0 -0.48404775254261589 0.019696513228647999 0 -0.46912494908928798 0.017826378083878061 0 -0.46240866831316141 0.032624840559025488 0 -0.48404775254261589 0.019696513228647999 0 -0.46240866831316141 0.032624840559025488 0 -0.48404775254261589 0.019696513228647999 0 -0.48846689618246902 0.032062739470290751 0 -0.47721683682124749 0.034639689763025533 0 -0.48404775254261589 0.019696513228647999 0 -0.46912494908928798 0.017826378083878061 0 -0.47353820779566352 0.0059628458906641896 0 -0.46511473500648742 -0.003485188544012926 0 -0.46912494908928798 0.017826378083878061 0 -0.47353820779566352 0.0059628458906641896 0 -0.48409875022637328 -0.0068030966264253411 0 -0.48833694211293083 0.0056280485202459072 0 -0.47353820779566352 0.0059628458906641896 0 -0.48833694211293083 0.0056280485202459072 0 -0.48404775254261589 0.019696513228647999 0 -0.47353820779566352 0.0059628458906641896 0 -0.48460220212459382 0.061419767543704817 0 -0.5 0.042847271410481391 0 -0.48106989154848162 0.04575313910969081 0 -0.48460220212459382 0.061419767543704817 0 -0.5 0.042847271410481391 0 -0.5 0.068317458981354662 0 -0.5 0.042847271410481391 0 -0.48846689618246902 0.032062739470290751 0 -0.48106989154848162 0.04575313910969081 0 -0.48846689618246902 0.032062739470290751 0 -0.47721683682124749 0.034639689763025533 0 -0.48106989154848162 0.04575313910969081 0 -0.47721683682124749 0.034639689763025533 0 -0.4676200430782026 0.043103712261803581 0 -0.46240866831316141 0.032624840559025488 0 -0.47721683682124749 0.034639689763025533 0 -0.48106989154848162 0.04575313910969081 0 -0.4676200430782026 0.043103712261803581 0 -0.48106989154848162 0.04575313910969081 0 -0.46705101020550488 0.061740945391249781 0 -0.4676200430782026 0.043103712261803581 0 -0.48460220212459382 0.061419767543704817 0 -0.48106989154848162 0.04575313910969081 0 -0.46705101020550488 0.061740945391249781 0 -0.46705101020550488 0.061740945391249781 0 -0.45752031988919989 0.049016475626807943 0 -0.45091911742197238 0.062133693283015733 0 -0.46705101020550488 0.061740945391249781 0 -0.45752031988919989 0.049016475626807943 0 -0.4676200430782026 0.043103712261803581 0 -0.45752031988919989 0.049016475626807943 0 -0.4676200430782026 0.043103712261803581 0 -0.46240866831316141 0.032624840559025488 0 -0.45752031988919989 0.049016475626807943 0 -0.46240866831316141 0.032624840559025488 0 -0.44076958408370642 0.045553167889402113 0 -0.46240866831316141 0.032624840559025488 0 -0.44076958408370642 0.045553167889402113 0 -0.44076958408370642 0.045553167889402113 0 -0.45612329295266252 0.021977085333576851 0 -0.44076958408370642 0.045553167889402113 0 -0.45612329295266252 0.021977085333576851 0 -0.44206223700595287 0.030797394879946621 0 -0.46240866831316141 0.032624840559025488 0 -0.44076958408370642 0.045553167889402113 0 -0.45612329295266252 0.021977085333576851 0 -0.44076958408370642 0.045553167889402113 0 -0.44206223700595287 0.030797394879946621 0 -0.43391797636371982 0.036544270138506953 0 -0.45752031988919989 0.049016475626807943 0 -0.44076958408370642 0.045553167889402113 0 -0.44689645570395958 0.053738397953295512 0 -0.44076958408370642 0.045553167889402113 0 -0.44689645570395958 0.053738397953295512 0 -0.44122997953775522 0.058959858250959167 0 -0.44689645570395958 0.053738397953295512 0 -0.44122997953775522 0.058959858250959167 0 -0.45091911742197238 0.062133693283015733 0 -0.45752031988919989 0.049016475626807943 0 -0.44689645570395958 0.053738397953295512 0 -0.45091911742197238 0.062133693283015733 0 -0.46511473500648742 -0.003485188544012926 0 -0.46912494908928798 0.017826378083878061 0 -0.46511473500648742 -0.003485188544012926 0 -0.46912494908928798 0.017826378083878061 0 -0.4617880240237302 0.0075047409774067434 0 -0.45821076718614029 0.012313036718937201 0 -0.45470164481300412 0.003364737650824894 0 -0.44820568895347862 0.013911776398670941 0 -0.45821076718614029 0.012313036718937201 0 -0.45470164481300412 0.003364737650824894 0 -0.4617880240237302 0.0075047409774067434 0 -0.46511473500648742 -0.003485188544012926 0 -0.45470164481300412 0.003364737650824894 0 -0.4617880240237302 0.0075047409774067434 0 -0.46912494908928798 0.017826378083878061 0 -0.45821076718614029 0.012313036718937201 0 -0.4617880240237302 0.0075047409774067434 0 -0.46912494908928798 0.017826378083878061 0 -0.45821076718614029 0.012313036718937201 0 -0.45612329295266252 0.021977085333576851 0 -0.46912494908928798 0.017826378083878061 0 -0.46240866831316141 0.032624840559025488 0 -0.45612329295266252 0.021977085333576851 0 -0.45821076718614029 0.012313036718937201 0 -0.45612329295266252 0.021977085333576851 0 -0.44820568895347862 0.013911776398670941 0 -0.45612329295266252 0.021977085333576851 0 -0.44422581770361869 0.022495689266775049 0 -0.44820568895347862 0.013911776398670941 0 -0.45612329295266252 0.021977085333576851 0 -0.44206223700595287 0.030797394879946621 0 -0.44422581770361869 0.022495689266775049 0 -0.44206223700595287 0.030797394879946621 0 -0.44422581770361869 0.022495689266775049 0 -0.43527451392605671 0.027416761771472151 0 -0.44422581770361869 0.022495689266775049 0 -0.44820568895347862 0.013911776398670941 0 -0.436800874239401 0.01939324882892246 0 -0.44422581770361869 0.022495689266775049 0 -0.436800874239401 0.01939324882892246 0 -0.43527451392605671 0.027416761771472151 0 -0.42520893429888851 -0.0037328803233539661 0 -0.44820568895347862 0.013911776398670941 0 -0.44355140429012652 0.00070104396701335463 0 -0.44820568895347862 0.013911776398670941 0 -0.43188254892544792 0.011377690752912371 0 -0.436800874239401 0.01939324882892246 0 -0.45470164481300412 0.003364737650824894 0 -0.44820568895347862 0.013911776398670941 0 -0.44355140429012652 0.00070104396701335463 0 -0.44927123380100681 -0.0039776744569574836 0 -0.45470164481300412 0.003364737650824894 0 -0.44355140429012652 0.00070104396701335463 0 -0.42520893429888851 -0.0037328803233539661 0 -0.43188254892544792 0.011377690752912371 0 -0.41095968892573598 0.01361172719677748 0 -0.42520893429888851 -0.0037328803233539661 0 -0.44820568895347862 0.013911776398670941 0 -0.43188254892544792 0.011377690752912371 0 -0.43188254892544792 0.011377690752912371 0 -0.41095968892573598 0.01361172719677748 0 -0.4244158016884032 0.0217643259547818 0 -0.42520893429888851 -0.0037328803233539661 0 -0.44820568895347862 0.013911776398670941 0 -0.42520893429888851 -0.0037328803233539661 0 -0.41003352224135392 -0.0018020111556050909 0 -0.41095968892573598 0.01361172719677748 0 -0.42520893429888851 -0.0037328803233539661 0 -0.41095968892573598 0.01361172719677748 0 -0.41003352224135392 -0.0018020111556050909 0 -0.41095968892573598 0.01361172719677748 0 -0.39927067890938228 0.002103023771928305 0 -0.41095968892573598 0.01361172719677748 0 -0.41841768433955989 0.032221957286796228 0 -0.40766099692647861 0.035841069600559862 0 -0.41095968892573598 0.01361172719677748 0 -0.4244158016884032 0.0217643259547818 0 -0.41841768433955989 0.032221957286796228 0 -0.4269593717156886 0.030199777884607391 0 -0.4244158016884032 0.0217643259547818 0 -0.43527451392605671 0.027416761771472151 0 -0.4269593717156886 0.030199777884607391 0 -0.4244158016884032 0.0217643259547818 0 -0.41841768433955989 0.032221957286796228 0 -0.4244158016884032 0.0217643259547818 0 -0.436800874239401 0.01939324882892246 0 -0.43527451392605671 0.027416761771472151 0 -0.43188254892544792 0.011377690752912371 0 -0.4244158016884032 0.0217643259547818 0 -0.436800874239401 0.01939324882892246 0 -0.4269593717156886 0.030199777884607391 0 -0.43527451392605671 0.027416761771472151 0 -0.43391797636371982 0.036544270138506953 0 -0.44206223700595287 0.030797394879946621 0 -0.43527451392605671 0.027416761771472151 0 -0.43391797636371982 0.036544270138506953 0 -0.43391797636371982 0.036544270138506953 0 -0.43227523051241817 0.046156425658146497 0 -0.42563723685540689 0.037478466231305567 0 -0.44076958408370642 0.045553167889402113 0 -0.43391797636371982 0.036544270138506953 0 -0.43227523051241817 0.046156425658146497 0 -0.43227523051241817 0.046156425658146497 0 -0.42563723685540689 0.037478466231305567 0 -0.41694463173494878 0.042777571284781053 0 -0.4269593717156886 0.030199777884607391 0 -0.43391797636371982 0.036544270138506953 0 -0.42563723685540689 0.037478466231305567 0 -0.4269593717156886 0.030199777884607391 0 -0.42563723685540689 0.037478466231305567 0 -0.41841768433955989 0.032221957286796228 0 -0.44076958408370642 0.045553167889402113 0 -0.41671819164251273 0.059922735054721309 0 -0.42891038311973623 0.063763328272079506 0 -0.44076958408370642 0.045553167889402113 0 -0.43227523051241817 0.046156425658146497 0 -0.41671819164251273 0.059922735054721309 0 -0.44076958408370642 0.045553167889402113 0 -0.44122997953775522 0.058959858250959167 0 -0.42891038311973623 0.063763328272079506 0 -0.44076958408370642 0.045553167889402113 0 -0.41671819164251273 0.059922735054721309 0 -0.44076958408370642 0.045553167889402113 0 -0.42891038311973623 0.063763328272079506 0 -0.43227523051241817 0.046156425658146497 0 -0.41580601981075488 0.049874417344062658 0 -0.40849277463964961 0.061950253888552638 0 -0.43227523051241817 0.046156425658146497 0 -0.40849277463964961 0.061950253888552638 0 -0.43227523051241817 0.046156425658146497 0 -0.41671819164251273 0.059922735054721309 0 -0.40849277463964961 0.061950253888552638 0 -0.41580601981075488 0.049874417344062658 0 -0.41694463173494878 0.042777571284781053 0 -0.40551144235600323 0.048613418544770477 0 -0.41580601981075488 0.049874417344062658 0 -0.40849277463964961 0.061950253888552638 0 -0.40551144235600323 0.048613418544770477 0 -0.43227523051241817 0.046156425658146497 0 -0.41580601981075488 0.049874417344062658 0 -0.41694463173494878 0.042777571284781053 0 -0.41841768433955989 0.032221957286796228 0 -0.41694463173494878 0.042777571284781053 0 -0.40766099692647861 0.035841069600559862 0 -0.42563723685540689 0.037478466231305567 0 -0.41841768433955989 0.032221957286796228 0 -0.41694463173494878 0.042777571284781053 0 -0.41694463173494878 0.042777571284781053 0 -0.40766099692647861 0.035841069600559862 0 -0.40551144235600323 0.048613418544770477 0 -0.40766099692647861 0.035841069600559862 0 -0.40551144235600323 0.048613418544770477 0 -0.39671044355258422 0.030956334716909381 0 -0.40551144235600323 0.048613418544770477 0 -0.38445725148729892 0.038327774016179983 0 -0.39671044355258422 0.030956334716909381 0 -0.40551144235600323 0.048613418544770477 0 -0.38445725148729892 0.038327774016179983 0 -0.40849277463964961 0.061950253888552638 0 -0.40551144235600323 0.048613418544770477 0 -0.38949806329978032 0.057348216110970851 0 -0.40551144235600323 0.048613418544770477 0 -0.38949806329978032 0.057348216110970851 0 -0.38445725148729892 0.038327774016179983 0 -0.38949806329978032 0.057348216110970851 0 -0.3774586993760255 0.051164376988766483 0 -0.38445725148729892 0.038327774016179983 0 -0.38949806329978032 0.057348216110970851 0 -0.3774586993760255 0.051164376988766483 0 -0.37530103599878267 0.062814081911788097 0 -0.38445725148729892 0.038327774016179983 0 -0.38775566881493939 0.028059671997325109 0 -0.39671044355258422 0.030956334716909381 0 -0.3774586993760255 0.051164376988766483 0 -0.38445725148729892 0.038327774016179983 0 -0.36944934700094922 0.043077376170056102 0 -0.38445725148729892 0.038327774016179983 0 -0.37812799064120189 0.024592197995840771 0 -0.36340306061859462 0.028042129487589471 0 -0.38445725148729892 0.038327774016179983 0 -0.37812799064120189 0.024592197995840771 0 -0.38775566881493939 0.028059671997325109 0 -0.37812799064120189 0.024592197995840771 0 -0.38775566881493939 0.028059671997325109 0 -0.39219242216213401 0.01903186010489728 0 -0.37812799064120189 0.024592197995840771 0 -0.38089274948469842 0.01099276458917668 0 -0.39219242216213401 0.01903186010489728 0 -0.38420971174839841 -0.0099357612311078043 0 -0.39219242216213401 0.01903186010489728 0 -0.38420971174839841 -0.0099357612311078043 0 -0.3690408733870596 0.010282761487076479 0 -0.38420971174839841 -0.0099357612311078043 0 -0.38089274948469842 0.01099276458917668 0 -0.3690408733870596 0.010282761487076479 0 -0.38420971174839841 -0.0099357612311078043 0 -0.38089274948469842 0.01099276458917668 0 -0.39219242216213401 0.01903186010489728 0 -0.37812799064120189 0.024592197995840771 0 -0.38089274948469842 0.01099276458917668 0 -0.3690408733870596 0.010282761487076479 0 -0.38420971174839841 -0.0099357612311078043 0 -0.39927067890938228 0.002103023771928305 0 -0.39219242216213401 0.01903186010489728 0 -0.41095968892573598 0.01361172719677748 0 -0.39927067890938228 0.002103023771928305 0 -0.39219242216213401 0.01903186010489728 0 -0.41095968892573598 0.01361172719677748 0 -0.40766099692647861 0.035841069600559862 0 -0.39671044355258422 0.030956334716909381 0 -0.41095968892573598 0.01361172719677748 0 -0.39671044355258422 0.030956334716909381 0 -0.41095968892573598 0.01361172719677748 0 -0.39671044355258422 0.030956334716909381 0 -0.39219242216213401 0.01903186010489728 0 -0.38775566881493939 0.028059671997325109 0 -0.39671044355258422 0.030956334716909381 0 -0.39219242216213401 0.01903186010489728 0 -0.39511781164987619 0.095187336865671671 0 -0.39807728238867018 0.1111084834063808 0 -0.38776892118884809 0.11128227587316469 0 -0.39511781164987619 0.095187336865671671 0 -0.39807728238867018 0.1111084834063808 0 -0.40756423227221861 0.096540986030569195 0 -0.39807728238867018 0.1111084834063808 0 -0.40780360584639141 0.10771782064124021 0 -0.40756423227221861 0.096540986030569195 0 -0.39807728238867018 0.1111084834063808 0 -0.40756423227221861 0.096540986030569195 0 -0.39807728238867018 0.1111084834063808 0 -0.40780360584639141 0.10771782064124021 0 -0.40918877911512641 0.1152437060658749 0 -0.39710829432009442 0.12318203209594961 0 -0.39807728238867018 0.1111084834063808 0 -0.40918877911512641 0.1152437060658749 0 -0.39710829432009442 0.12318203209594961 0 -0.41148269479450128 0.1215005589554346 0 -0.40918877911512641 0.1152437060658749 0 -0.39710829432009442 0.12318203209594961 0 -0.39807728238867018 0.1111084834063808 0 -0.38776892118884809 0.11128227587316469 0 -0.39710829432009442 0.12318203209594961 0 -0.38776892118884809 0.11128227587316469 0 -0.37595177658073797 0.1171092080353853 0 -0.38776892118884809 0.11128227587316469 0 -0.37595177658073797 0.1171092080353853 0 -0.38347925908948999 0.1010738123711027 0 -0.39710829432009442 0.12318203209594961 0 -0.37595177658073797 0.1171092080353853 0 -0.39710829432009442 0.12318203209594961 0 -0.37595177658073797 0.1171092080353853 0 -0.39017737324271412 0.1295715000920705 0 -0.39511781164987619 0.095187336865671671 0 -0.38776892118884809 0.11128227587316469 0 -0.38347925908948999 0.1010738123711027 0 -0.37595177658073797 0.1171092080353853 0 -0.38347925908948999 0.1010738123711027 0 -0.36808900657818422 0.10568269752800841 0 -0.38347925908948999 0.1010738123711027 0 -0.38471031876688089 0.077744082118958779 0 -0.37259314325706477 0.096140025606357343 0 -0.39511781164987619 0.095187336865671671 0 -0.38347925908948999 0.1010738123711027 0 -0.38471031876688089 0.077744082118958779 0 -0.38949806329978032 0.057348216110970851 0 -0.38471031876688089 0.077744082118958779 0 -0.37530103599878267 0.062814081911788097 0 -0.40849277463964961 0.061950253888552638 0 -0.39903926731701422 0.080645119873326648 0 -0.40770066013407569 0.076260849069691897 0 -0.40849277463964961 0.061950253888552638 0 -0.38471031876688089 0.077744082118958779 0 -0.39903926731701422 0.080645119873326648 0 -0.40849277463964961 0.061950253888552638 0 -0.38949806329978032 0.057348216110970851 0 -0.38471031876688089 0.077744082118958779 0 -0.40849277463964961 0.061950253888552638 0 -0.38471031876688089 0.077744082118958779 0 -0.39511781164987619 0.095187336865671671 0 -0.38471031876688089 0.077744082118958779 0 -0.39903926731701422 0.080645119873326648 0 -0.39903926731701422 0.080645119873326648 0 -0.4064342328751665 0.086913099923890097 0 -0.40770066013407569 0.076260849069691897 0 -0.39511781164987619 0.095187336865671671 0 -0.39903926731701422 0.080645119873326648 0 -0.4064342328751665 0.086913099923890097 0 -0.39511781164987619 0.095187336865671671 0 -0.4064342328751665 0.086913099923890097 0 -0.40756423227221861 0.096540986030569195 0 -0.4064342328751665 0.086913099923890097 0 -0.41705118215576659 0.081973488654757384 0 -0.40756423227221861 0.096540986030569195 0 -0.41705118215576659 0.081973488654757384 0 -0.40756423227221861 0.096540986030569195 0 -0.4064342328751665 0.086913099923890097 0 -0.41365761126653761 0.080448125512835908 0 -0.40770066013407569 0.076260849069691897 0 -0.4064342328751665 0.086913099923890097 0 -0.41365761126653761 0.080448125512835908 0 -0.41705118215576659 0.081973488654757384 0 -0.41365761126653761 0.080448125512835908 0 -0.41705118215576659 0.081973488654757384 0 -0.41572714465718319 0.07609432059276694 0 -0.41365761126653761 0.080448125512835908 0 -0.41705118215576659 0.081973488654757384 0 -0.41705118215576659 0.081973488654757384 0 -0.42259986153637769 0.096769993633421023 0 -0.40756423227221861 0.096540986030569195 0 -0.40849277463964961 0.061950253888552638 0 -0.41136726811295199 0.07049448085838271 0 -0.41463668545421378 0.066698355815951391 0 -0.40849277463964961 0.061950253888552638 0 -0.41136726811295199 0.07049448085838271 0 -0.40770066013407569 0.076260849069691897 0 -0.41671819164251273 0.059922735054721309 0 -0.40849277463964961 0.061950253888552638 0 -0.41463668545421378 0.066698355815951391 0 -0.41136726811295199 0.07049448085838271 0 -0.41506871550782948 0.071645947180247985 0 -0.41463668545421378 0.066698355815951391 0 -0.41136726811295199 0.07049448085838271 0 -0.40770066013407569 0.076260849069691897 0 -0.41258286916980202 0.075448719991145025 0 -0.41136726811295199 0.07049448085838271 0 -0.41258286916980202 0.075448719991145025 0 -0.41506871550782948 0.071645947180247985 0 -0.41365761126653761 0.080448125512835908 0 -0.41258286916980202 0.075448719991145025 0 -0.41572714465718319 0.07609432059276694 0 -0.41365761126653761 0.080448125512835908 0 -0.40770066013407569 0.076260849069691897 0 -0.41258286916980202 0.075448719991145025 0 -0.41705118215576659 0.081973488654757384 0 -0.41572714465718319 0.07609432059276694 0 -0.41998200337101282 0.07091548079976788 0 -0.41258286916980202 0.075448719991145025 0 -0.41572714465718319 0.07609432059276694 0 -0.41506871550782948 0.071645947180247985 0 -0.41572714465718319 0.07609432059276694 0 -0.41998200337101282 0.07091548079976788 0 -0.41506871550782948 0.071645947180247985 0 -0.41671819164251273 0.059922735054721309 0 -0.41998200337101282 0.07091548079976788 0 -0.41463668545421378 0.066698355815951391 0 -0.41671819164251273 0.059922735054721309 0 -0.41998200337101282 0.07091548079976788 0 -0.42891038311973623 0.063763328272079506 0 -0.41998200337101282 0.07091548079976788 0 -0.41506871550782948 0.071645947180247985 0 -0.41463668545421378 0.066698355815951391 0 -0.41705118215576659 0.081973488654757384 0 -0.42891038311973623 0.063763328272079506 0 -0.41705118215576659 0.081973488654757384 0 -0.41998200337101282 0.07091548079976788 0 -0.42891038311973623 0.063763328272079506 0 -0.41705118215576659 0.081973488654757384 0 -0.42891038311973623 0.063763328272079506 0 -0.43120099117392241 0.078221744345562116 0 -0.42891038311973623 0.063763328272079506 0 -0.43120099117392241 0.078221744345562116 0 -0.4408626695917533 0.072062292720520393 0 -0.44122997953775522 0.058959858250959167 0 -0.42891038311973623 0.063763328272079506 0 -0.4408626695917533 0.072062292720520393 0 -0.41705118215576659 0.081973488654757384 0 -0.43778838661682562 0.091294575021841753 0 -0.41705118215576659 0.081973488654757384 0 -0.42259986153637769 0.096769993633421023 0 -0.43778838661682562 0.091294575021841753 0 -0.41705118215576659 0.081973488654757384 0 -0.43120099117392241 0.078221744345562116 0 -0.43778838661682562 0.091294575021841753 0 -0.43120099117392241 0.078221744345562116 0 -0.4408626695917533 0.072062292720520393 0 -0.43778838661682562 0.091294575021841753 0 -0.42259986153637769 0.096769993633421023 0 -0.43049071601825151 0.1115420498734418 0 -0.43778838661682562 0.091294575021841753 0 -0.43049071601825151 0.1115420498734418 0 -0.44338575999556118 0.10521186445302221 0 -0.43778838661682562 0.091294575021841753 0 -0.42259986153637769 0.096769993633421023 0 -0.41638412960955029 0.10797810706213599 0 -0.43049071601825151 0.1115420498734418 0 -0.42259986153637769 0.096769993633421023 0 -0.41638412960955029 0.10797810706213599 0 -0.40756423227221861 0.096540986030569195 0 -0.41638412960955029 0.10797810706213599 0 -0.40780360584639141 0.10771782064124021 0 -0.40756423227221861 0.096540986030569195 0 -0.39710829432009442 0.12318203209594961 0 -0.41148269479450128 0.1215005589554346 0 -0.41826481205945087 0.12925485615651389 0 -0.41148269479450128 0.1215005589554346 0 -0.40918877911512641 0.1152437060658749 0 -0.42136889368333341 0.11832164150339999 0 -0.41638412960955029 0.10797810706213599 0 -0.40780360584639141 0.10771782064124021 0 -0.40918877911512641 0.1152437060658749 0 -0.41638412960955029 0.10797810706213599 0 -0.40918877911512641 0.1152437060658749 0 -0.42136889368333341 0.11832164150339999 0 -0.41148269479450128 0.1215005589554346 0 -0.42136889368333341 0.11832164150339999 0 -0.41826481205945087 0.12925485615651389 0 -0.42136889368333341 0.11832164150339999 0 -0.43049071601825151 0.1115420498734418 0 -0.43127080103842452 0.1227273662645478 0 -0.43049071601825151 0.1115420498734418 0 -0.43127080103842452 0.1227273662645478 0 -0.44680825363228011 0.11919060357230229 0 -0.42136889368333341 0.11832164150339999 0 -0.43127080103842452 0.1227273662645478 0 -0.41826481205945087 0.12925485615651389 0 -0.41638412960955029 0.10797810706213599 0 -0.42136889368333341 0.11832164150339999 0 -0.43049071601825151 0.1115420498734418 0 -0.43049071601825151 0.1115420498734418 0 -0.44680825363228011 0.11919060357230229 0 -0.44338575999556118 0.10521186445302221 0 -0.44680825363228011 0.11919060357230229 0 -0.44338575999556118 0.10521186445302221 0 -0.4585255910778836 0.1006156613889282 0 -0.44338575999556118 0.10521186445302221 0 -0.4585255910778836 0.1006156613889282 0 -0.43778838661682562 0.091294575021841753 0 -0.4585255910778836 0.1006156613889282 0 -0.43778838661682562 0.091294575021841753 0 -0.44680825363228011 0.11919060357230229 0 -0.4585255910778836 0.1006156613889282 0 -0.46899305759397719 0.1213504750887404 0 -0.45091911742197238 0.062133693283015733 0 -0.4408626695917533 0.072062292720520393 0 -0.45512715968030831 0.078000557149664085 0 -0.44122997953775522 0.058959858250959167 0 -0.45091911742197238 0.062133693283015733 0 -0.4408626695917533 0.072062292720520393 0 -0.4585255910778836 0.1006156613889282 0 -0.43778838661682562 0.091294575021841753 0 -0.45512715968030831 0.078000557149664085 0 -0.4408626695917533 0.072062292720520393 0 -0.43778838661682562 0.091294575021841753 0 -0.45512715968030831 0.078000557149664085 0 -0.4585255910778836 0.1006156613889282 0 -0.45512715968030831 0.078000557149664085 0 -0.47782449540026201 0.082607763955946101 0 -0.46705101020550488 0.061740945391249781 0 -0.45091911742197238 0.062133693283015733 0 -0.45512715968030831 0.078000557149664085 0 -0.46705101020550488 0.061740945391249781 0 -0.45512715968030831 0.078000557149664085 0 -0.47782449540026201 0.082607763955946101 0 -0.48460220212459382 0.061419767543704817 0 -0.46705101020550488 0.061740945391249781 0 -0.47782449540026201 0.082607763955946101 0 -0.47782449540026201 0.082607763955946101 0 -0.5 0.068317458981354662 0 -0.5 0.093787646552227877 0 -0.48460220212459382 0.061419767543704817 0 -0.47782449540026201 0.082607763955946101 0 -0.5 0.068317458981354662 0 -0.47926279553894158 0.1099367477560147 0 -0.46899305759397719 0.1213504750887404 0 -0.48684910201396531 0.12521683982626849 0 -0.4585255910778836 0.1006156613889282 0 -0.47926279553894158 0.1099367477560147 0 -0.46899305759397719 0.1213504750887404 0 -0.4585255910778836 0.1006156613889282 0 -0.47926279553894158 0.1099367477560147 0 -0.4585255910778836 0.1006156613889282 0 -0.47782449540026201 0.082607763955946101 0 -0.47926279553894158 0.1099367477560147 0 -0.47926279553894158 0.1099367477560147 0 -0.5 0.093787646552227877 0 -0.49999999999999972 0.11925783412310111 0 -0.47782449540026201 0.082607763955946101 0 -0.47926279553894158 0.1099367477560147 0 -0.5 0.093787646552227877 0 -0.47926279553894158 0.1099367477560147 0 -0.49999999999999972 0.11925783412310111 0 -0.48684910201396531 0.12521683982626849 0 -0.47926279553894158 0.1099367477560147 0 -0.49999999999999972 0.11925783412310111 0 -0.50000000000000022 0.13560216035771061 0 -0.47980710993293579 0.13551066697750069 0 -0.49152792437518339 0.1441592529390871 0 -0.50000000000000022 0.13560216035771061 0 -0.48684910201396531 0.12521683982626849 0 -0.47980710993293579 0.13551066697750069 0 -0.49999999999999972 0.11925783412310111 0 -0.50000000000000022 0.13560216035771061 0 -0.48684910201396531 0.12521683982626849 0 -0.50000000000000022 0.13560216035771061 0 -0.47980710993293579 0.13551066697750069 0 -0.46899305759397719 0.1213504750887404 0 -0.48684910201396531 0.12521683982626849 0 -0.47980710993293579 0.13551066697750069 0 -0.47980710993293579 0.13551066697750069 0 -0.45961421986587142 0.13541917359729089 0 -0.46899305759397719 0.1213504750887404 0 -0.47980710993293579 0.13551066697750069 0 -0.45961421986587142 0.13541917359729089 0 -0.47980710993293668 0.1469201237526683 0 -0.45961421986587198 0.14112390198487329 0 -0.47980710993293579 0.13551066697750069 0 -0.47980710993293668 0.1469201237526683 0 -0.45961421986587198 0.14112390198487329 0 -0.47980710993293579 0.13551066697750069 0 -0.47980710993293668 0.1469201237526683 0 -0.49152792437518339 0.1441592529390871 0 -0.50000000000000022 0.13560216035771061 0 -0.50000000000000133 0.15271634552046379 0 -0.49152792437518339 0.1441592529390871 0 -0.47980710993293668 0.1469201237526683 0 -0.50000000000000133 0.15271634552046379 0 -0.47980710993293668 0.1469201237526683 0 -0.50000000000000133 0.15271634552046379 0 -0.48202984770680141 0.1671357798951896 0 -0.47980710993293668 0.1469201237526683 0 -0.50000000000000133 0.15271634552046379 0 -0.49152792437518339 0.1441592529390871 0 -0.50000000000000133 0.15271634552046379 0 -0.5 0.18014380753198511 0 -0.48202984770680141 0.1671357798951896 0 -0.5 0.18014380753198511 0 -0.48202984770680141 0.1671357798951896 0 -0.47779073026006758 0.19385753853774559 0 -0.48202984770680141 0.1671357798951896 0 -0.4611868494947261 0.17371729961141341 0 -0.47779073026006758 0.19385753853774559 0 -0.47980710993293668 0.1469201237526683 0 -0.48202984770680141 0.1671357798951896 0 -0.46509064215115031 0.15796158546653771 0 -0.48202984770680141 0.1671357798951896 0 -0.46509064215115031 0.15796158546653771 0 -0.4611868494947261 0.17371729961141341 0 -0.46509064215115031 0.15796158546653771 0 -0.4611868494947261 0.17371729961141341 0 -0.44281518375541512 0.16091082208854399 0 -0.4611868494947261 0.17371729961141341 0 -0.44281518375541512 0.16091082208854399 0 -0.43539693394618328 0.19370937276029729 0 -0.4611868494947261 0.17371729961141341 0 -0.47779073026006758 0.19385753853774559 0 -0.45798080031737931 0.1935043336165907 0 -0.4611868494947261 0.17371729961141341 0 -0.45798080031737931 0.1935043336165907 0 -0.43539693394618328 0.19370937276029729 0 -0.44281518375541512 0.16091082208854399 0 -0.43942132979880699 0.13532768021707961 0 -0.45961421986587198 0.14112390198487329 0 -0.43942132979880699 0.13532768021707961 0 -0.45961421986587142 0.13541917359729089 0 -0.45961421986587198 0.14112390198487329 0 -0.43127080103842452 0.1227273662645478 0 -0.44680825363228011 0.11919060357230229 0 -0.43942132979880699 0.13532768021707961 0 -0.43942132979880699 0.13532768021707961 0 -0.45961421986587198 0.14112390198487329 0 -0.43942132979880699 0.13532768021707961 0 -0.45961421986587142 0.13541917359729089 0 -0.44680825363228011 0.11919060357230229 0 -0.43942132979880699 0.13532768021707961 0 -0.45961421986587142 0.13541917359729089 0 -0.47980710993293579 0.13551066697750069 0 -0.45961421986587142 0.13541917359729089 0 -0.45961421986587198 0.14112390198487329 0 -0.44680825363228011 0.11919060357230229 0 -0.46899305759397719 0.1213504750887404 0 -0.45961421986587142 0.13541917359729089 0 -0.47980710993293668 0.1469201237526683 0 -0.46509064215115031 0.15796158546653771 0 -0.45961421986587198 0.14112390198487329 0 -0.46509064215115031 0.15796158546653771 0 -0.44281518375541512 0.16091082208854399 0 -0.45961421986587198 0.14112390198487329 0 -0.47613898291937601 0.22419904103918389 0 -0.46582829988210578 0.24001973601313481 0 -0.479594200494944 0.25008489853901711 0 -0.5 0.23499873155502771 0 -0.47613898291937601 0.22419904103918389 0 -0.479594200494944 0.25008489853901711 0 -0.5 0.23499873155502771 0 -0.5 0.26242619356654923 0 -0.479594200494944 0.25008489853901711 0 -0.5 0.23499873155502771 0 -0.47613898291937601 0.22419904103918389 0 -0.5 0.2075712695435063 0 -0.47613898291937601 0.22419904103918389 0 -0.47779073026006758 0.19385753853774559 0 -0.45754868756853989 0.21273312355690641 0 -0.47613898291937601 0.22419904103918389 0 -0.5 0.2075712695435063 0 -0.47779073026006758 0.19385753853774559 0 -0.5 0.18014380753198511 0 -0.5 0.2075712695435063 0 -0.47779073026006758 0.19385753853774559 0 -0.47779073026006758 0.19385753853774559 0 -0.45798080031737931 0.1935043336165907 0 -0.45754868756853989 0.21273312355690641 0 -0.45798080031737931 0.1935043336165907 0 -0.45754868756853989 0.21273312355690641 0 -0.43539693394618328 0.19370937276029729 0 -0.45754868756853989 0.21273312355690641 0 -0.43439789587278271 0.21546175344786689 0 -0.43539693394618328 0.19370937276029729 0 -0.45754868756853989 0.21273312355690641 0 -0.43539693394618328 0.19370937276029729 0 -0.47613898291937601 0.22419904103918389 0 -0.45266955139888282 0.2293741951508087 0 -0.46582829988210578 0.24001973601313481 0 -0.47613898291937601 0.22419904103918389 0 -0.45754868756853989 0.21273312355690641 0 -0.45266955139888282 0.2293741951508087 0 -0.45754868756853989 0.21273312355690641 0 -0.45266955139888282 0.2293741951508087 0 -0.43439789587278271 0.21546175344786689 0 -0.45266955139888282 0.2293741951508087 0 -0.43146163668641829 0.23661328518302641 0 -0.43439789587278271 0.21546175344786689 0 -0.45266955139888282 0.2293741951508087 0 -0.4506418054640744 0.24721823166473411 0 -0.43146163668641829 0.23661328518302641 0 -0.4506418054640744 0.24721823166473411 0 -0.43146163668641829 0.23661328518302641 0 -0.43359658013915631 0.25753745833528707 0 -0.45266955139888282 0.2293741951508087 0 -0.4506418054640744 0.24721823166473411 0 -0.46582829988210578 0.24001973601313481 0 -0.4506418054640744 0.24721823166473411 0 -0.46582829988210578 0.24001973601313481 0 -0.46745749444193291 0.26049974581744118 0 -0.42098612729882562 0.2478470871103704 0 -0.40429704495881619 0.24593554743858101 0 -0.40933925751446831 0.25559905855917492 0 -0.41424987350221781 0.2374570362877898 0 -0.42098612729882562 0.2478470871103704 0 -0.40429704495881619 0.24593554743858101 0 -0.41424987350221781 0.2374570362877898 0 -0.40084777863074761 0.2346264178130433 0 -0.40429704495881619 0.24593554743858101 0 -0.42098612729882562 0.2478470871103704 0 -0.43146163668641829 0.23661328518302641 0 -0.43359658013915631 0.25753745833528707 0 -0.41424987350221781 0.2374570362877898 0 -0.42098612729882562 0.2478470871103704 0 -0.43146163668641829 0.23661328518302641 0 -0.43146163668641829 0.23661328518302641 0 -0.41365677993628103 0.222262843893928 0 -0.43439789587278271 0.21546175344786689 0 -0.41424987350221781 0.2374570362877898 0 -0.43146163668641829 0.23661328518302641 0 -0.41365677993628103 0.222262843893928 0 -0.41424987350221781 0.2374570362877898 0 -0.41365677993628103 0.222262843893928 0 -0.40084777863074761 0.2346264178130433 0 -0.41365677993628103 0.222262843893928 0 -0.41604315168809719 0.20042759702001531 0 -0.39955856249237148 0.2078301865004947 0 -0.41365677993628103 0.222262843893928 0 -0.43439789587278271 0.21546175344786689 0 -0.41604315168809719 0.20042759702001531 0 -0.43439789587278271 0.21546175344786689 0 -0.43539693394618328 0.19370937276029729 0 -0.41604315168809719 0.20042759702001531 0 -0.43539693394618328 0.19370937276029729 0 -0.41604315168809719 0.20042759702001531 0 -0.41324518032382662 0.17468562196368809 0 -0.41604315168809719 0.20042759702001531 0 -0.3990429361569639 0.19029306325147449 0 -0.41324518032382662 0.17468562196368809 0 -0.3990429361569639 0.19029306325147449 0 -0.39955856249237148 0.2078301865004947 0 -0.37496296954684699 0.2035444531688067 0 -0.41604315168809719 0.20042759702001531 0 -0.3990429361569639 0.19029306325147449 0 -0.39955856249237148 0.2078301865004947 0 -0.3990429361569639 0.19029306325147449 0 -0.38302819812415789 0.17960316216794309 0 -0.37496296954684699 0.2035444531688067 0 -0.38302819812415789 0.17960316216794309 0 -0.37496296954684699 0.2035444531688067 0 -0.39587592799136628 0.2218121921328691 0 -0.38188618215520598 0.22546531269088091 0 -0.37496296954684699 0.2035444531688067 0 -0.39955856249237148 0.2078301865004947 0 -0.39587592799136628 0.2218121921328691 0 -0.37496296954684699 0.2035444531688067 0 -0.41365677993628103 0.222262843893928 0 -0.39955856249237148 0.2078301865004947 0 -0.39587592799136628 0.2218121921328691 0 -0.41365677993628103 0.222262843893928 0 -0.39587592799136628 0.2218121921328691 0 -0.40084777863074761 0.2346264178130433 0 -0.39587592799136628 0.2218121921328691 0 -0.3899140711965513 0.23624686190127889 0 -0.40084777863074761 0.2346264178130433 0 -0.39587592799136628 0.2218121921328691 0 -0.38188618215520598 0.22546531269088091 0 -0.3899140711965513 0.23624686190127889 0 -0.3899140711965513 0.23624686190127889 0 -0.39404171160483009 0.24740168398811829 0 -0.37691875560060623 0.25192870288148289 0 -0.38188618215520598 0.22546531269088091 0 -0.3668977409695362 0.2274857441696703 0 -0.37691875560060623 0.25192870288148289 0 -0.38188618215520598 0.22546531269088091 0 -0.3899140711965513 0.23624686190127889 0 -0.37691875560060623 0.25192870288148289 0 -0.38188618215520598 0.22546531269088091 0 -0.37691875560060623 0.25192870288148289 0 -0.3899140711965513 0.23624686190127889 0 -0.39404171160483009 0.24740168398811829 0 -0.40084777863074761 0.2346264178130433 0 -0.39404171160483009 0.24740168398811829 0 -0.40429704495881619 0.24593554743858101 0 -0.40061322295905422 0.2564396341907208 0 -0.39404171160483009 0.24740168398811829 0 -0.40084777863074761 0.2346264178130433 0 -0.40429704495881619 0.24593554743858101 0 -0.40829312104160181 0.15003064315072639 0 -0.41871402819832337 0.1352338560536176 0 -0.42490033449127962 0.15065862558007989 0 -0.40829312104160181 0.15003064315072639 0 -0.41871402819832337 0.1352338560536176 0 -0.39800672659783992 0.13514003189015289 0 -0.41871402819832337 0.1352338560536176 0 -0.41826481205945087 0.12925485615651389 0 -0.39955324407733422 0.13054925995361211 0 -0.39710829432009442 0.12318203209594961 0 -0.41826481205945087 0.12925485615651389 0 -0.41871402819832337 0.1352338560536176 0 -0.39800672659783992 0.13514003189015289 0 -0.43942132979880699 0.13532768021707961 0 -0.41871402819832337 0.1352338560536176 0 -0.41826481205945087 0.12925485615651389 0 -0.43127080103842452 0.1227273662645478 0 -0.43942132979880699 0.13532768021707961 0 -0.41826481205945087 0.12925485615651389 0 -0.43942132979880699 0.13532768021707961 0 -0.41871402819832337 0.1352338560536176 0 -0.42490033449127962 0.15065862558007989 0 -0.43942132979880699 0.13532768021707961 0 -0.41826481205945087 0.12925485615651389 0 -0.43942132979880699 0.13532768021707961 0 -0.41871402819832337 0.1352338560536176 0 -0.44281518375541512 0.16091082208854399 0 -0.43942132979880699 0.13532768021707961 0 -0.42490033449127962 0.15065862558007989 0 -0.44281518375541512 0.16091082208854399 0 -0.43539693394618328 0.19370937276029729 0 -0.41324518032382662 0.17468562196368809 0 -0.44281518375541512 0.16091082208854399 0 -0.42490033449127962 0.15065862558007989 0 -0.41324518032382662 0.17468562196368809 0 -0.43539693394618328 0.19370937276029729 0 -0.41324518032382662 0.17468562196368809 0 -0.40829312104160181 0.15003064315072639 0 -0.42490033449127962 0.15065862558007989 0 -0.41324518032382662 0.17468562196368809 0 -0.40829312104160181 0.15003064315072639 0 -0.41324518032382662 0.17468562196368809 0 -0.39109342670146918 0.15566187116707969 0 -0.41324518032382662 0.17468562196368809 0 -0.38302819812415789 0.17960316216794309 0 -0.39109342670146918 0.15566187116707969 0 -0.41324518032382662 0.17468562196368809 0 -0.39109342670146918 0.15566187116707969 0 -0.3990429361569639 0.19029306325147449 0 -0.41324518032382662 0.17468562196368809 0 -0.38302819812415789 0.17960316216794309 0 -0.38302819812415789 0.17960316216794309 0 -0.37513556173163198 0.16074509046138169 0 -0.39109342670146918 0.15566187116707969 0 -0.38302819812415789 0.17960316216794309 0 -0.39109342670146918 0.15566187116707969 0 -0.37906363701232931 0.14533078293436849 0 -0.39109342670146918 0.15566187116707969 0 -0.39800672659783992 0.13514003189015289 0 -0.37513556173163198 0.16074509046138169 0 -0.37906363701232931 0.14533078293436849 0 -0.39109342670146918 0.15566187116707969 0 -0.37906363701232931 0.14533078293436849 0 -0.39109342670146918 0.15566187116707969 0 -0.39109342670146918 0.15566187116707969 0 -0.39800672659783992 0.13514003189015289 0 -0.40829312104160181 0.15003064315072639 0 -0.39109342670146918 0.15566187116707969 0 -0.39800672659783992 0.13514003189015289 0 -0.41871402819832337 0.1352338560536176 0 -0.39955324407733422 0.13054925995361211 0 -0.39800672659783992 0.13514003189015289 0 -0.39710829432009442 0.12318203209594961 0 -0.41826481205945087 0.12925485615651389 0 -0.39955324407733422 0.13054925995361211 0 -0.39955324407733422 0.13054925995361211 0 -0.39800672659783992 0.13514003189015289 0 -0.39710829432009442 0.12318203209594961 0 -0.39955324407733422 0.13054925995361211 0 -0.39017737324271412 0.1295715000920705 0 -0.39955324407733422 0.13054925995361211 0 -0.39800672659783992 0.13514003189015289 0 -0.39017737324271412 0.1295715000920705 0 -0.37595177658073797 0.1171092080353853 0 -0.3825202869605146 0.13506986329590501 0 -0.36703384732318928 0.13499969470165721 0 -0.37595177658073797 0.1171092080353853 0 -0.39017737324271412 0.1295715000920705 0 -0.3825202869605146 0.13506986329590501 0 -0.37906363701232931 0.14533078293436849 0 -0.39800672659783992 0.13514003189015289 0 -0.3825202869605146 0.13506986329590501 0 -0.39800672659783992 0.13514003189015289 0 -0.39017737324271412 0.1295715000920705 0 -0.3825202869605146 0.13506986329590501 0 -0.39800672659783992 0.13514003189015289 0 -0.3825202869605146 0.13506986329590501 0 -0.37906363701232931 0.14533078293436849 0 -0.3825202869605146 0.13506986329590501 0 -0.36703384732318928 0.13499969470165721 0 -0.3825202869605146 0.13506986329590501 0 -0.36703384732318928 0.13499969470165721 0 -0.37906363701232931 0.14533078293436849 0 -0.36703384732318928 0.13499969470165721 0 -0.36703384732318928 0.13499969470165721 0 -0.36111434173912771 0.13497287359911631 0 -0.36403173785677251 0.14433454155925141 0 -0.36703384732318928 0.13499969470165721 0 -0.36111434173912771 0.13497287359911631 0 -0.36703384732318928 0.13499969470165721 0 -0.36111434173912771 0.13497287359911631 0 -0.35208962717226722 0.1221657166407126 0 -0.36703384732318928 0.13499969470165721 0 -0.35208962717226722 0.1221657166407126 0 -0.36111434173912771 0.13497287359911631 0 -0.34643798306444429 0.1357314788669518 0 -0.35208962717226722 0.1221657166407126 0 -0.34643798306444429 0.1357314788669518 0 -0.33504226506606871 0.12647891151545751 0 -0.35208962717226722 0.1221657166407126 0 -0.36111434173912771 0.13497287359911631 0 -0.34643798306444429 0.1357314788669518 0 -0.35375879653624243 0.14649554007773499 0 -0.35375879653624243 0.14649554007773499 0 -0.36019407534334658 0.1576256125924505 0 -0.34713155889513397 0.16245420408645281 0 -0.35375879653624243 0.14649554007773499 0 -0.34713155889513397 0.16245420408645281 0 -0.34050034567943982 0.14917452346944221 0 -0.34643798306444429 0.1357314788669518 0 -0.35375879653624243 0.14649554007773499 0 -0.34050034567943982 0.14917452346944221 0 -0.35375879653624243 0.14649554007773499 0 -0.36403173785677251 0.14433454155925141 0 -0.36019407534334658 0.1576256125924505 0 -0.37513556173163198 0.16074509046138169 0 -0.36403173785677251 0.14433454155925141 0 -0.36019407534334658 0.1576256125924505 0 -0.37513556173163198 0.16074509046138169 0 -0.37906363701232931 0.14533078293436849 0 -0.36403173785677251 0.14433454155925141 0 -0.36111434173912771 0.13497287359911631 0 -0.35375879653624243 0.14649554007773499 0 -0.36403173785677251 0.14433454155925141 0 -0.37906363701232931 0.14533078293436849 0 -0.36703384732318928 0.13499969470165721 0 -0.36403173785677251 0.14433454155925141 0 -0.37513556173163198 0.16074509046138169 0 -0.36019407534334658 0.1576256125924505 0 -0.35830642804472013 0.17683211900565771 0 -0.38302819812415789 0.17960316216794309 0 -0.35830642804472013 0.17683211900565771 0 -0.36527196707159698 0.19123518597463529 0 -0.38302819812415789 0.17960316216794309 0 -0.37513556173163198 0.16074509046138169 0 -0.35830642804472013 0.17683211900565771 0 -0.35830642804472013 0.17683211900565771 0 -0.3421396285977874 0.18634346836832719 0 -0.35090124155155272 0.19575361142077541 0 -0.35830642804472013 0.17683211900565771 0 -0.3421396285977874 0.18634346836832719 0 -0.33789136486146498 0.17407064589201221 0 -0.36019407534334658 0.1576256125924505 0 -0.35830642804472013 0.17683211900565771 0 -0.34713155889513397 0.16245420408645281 0 -0.35830642804472013 0.17683211900565771 0 -0.34713155889513397 0.16245420408645281 0 -0.33789136486146498 0.17407064589201221 0 -0.34713155889513397 0.16245420408645281 0 -0.33131026885053022 0.16133707822874591 0 -0.34050034567943982 0.14917452346944221 0 -0.33131026885053022 0.16133707822874591 0 -0.33789136486146498 0.17407064589201221 0 -0.32091945251491538 0.17426012989991621 0 -0.34713155889513397 0.16245420408645281 0 -0.33131026885053022 0.16133707822874591 0 -0.33789136486146498 0.17407064589201221 0 -0.33789136486146498 0.17407064589201221 0 -0.32091945251491538 0.17426012989991621 0 -0.32949164419956561 0.18936971584378931 0 -0.3421396285977874 0.18634346836832719 0 -0.33789136486146498 0.17407064589201221 0 -0.32949164419956561 0.18936971584378931 0 -0.32091945251491538 0.17426012989991621 0 -0.32949164419956561 0.18936971584378931 0 -0.31123089439713109 0.1890085173865278 0 -0.33131026885053022 0.16133707822874591 0 -0.32091945251491538 0.17426012989991621 0 -0.31456405606354648 0.15912796812723851 0 -0.33131026885053022 0.16133707822874591 0 -0.31456405606354648 0.15912796812723851 0 -0.32760281546704711 0.14949001802220371 0 -0.31456405606354648 0.15912796812723851 0 -0.32760281546704711 0.14949001802220371 0 -0.31328898254608489 0.14237446196886039 0 -0.32760281546704711 0.14949001802220371 0 -0.31328898254608489 0.14237446196886039 0 -0.32451011349784958 0.1402714078207645 0 -0.32327837553649652 0.1310078661824306 0 -0.33504226506606871 0.12647891151545751 0 -0.31743191716009023 0.122423383713316 0 -0.31328898254608489 0.14237446196886039 0 -0.32327837553649652 0.1310078661824306 0 -0.31743191716009023 0.122423383713316 0 -0.32327837553649652 0.1310078661824306 0 -0.31743191716009023 0.122423383713316 0 -0.32327837553649652 0.1310078661824306 0 -0.32451011349784958 0.1402714078207645 0 -0.33387028044176992 0.13821328510956321 0 -0.31328898254608489 0.14237446196886039 0 -0.32327837553649652 0.1310078661824306 0 -0.32451011349784958 0.1402714078207645 0 -0.32327837553649652 0.1310078661824306 0 -0.33387028044176992 0.13821328510956321 0 -0.33504226506606871 0.12647891151545751 0 -0.34643798306444429 0.1357314788669518 0 -0.33387028044176992 0.13821328510956321 0 -0.33504226506606871 0.12647891151545751 0 -0.34643798306444429 0.1357314788669518 0 -0.33387028044176992 0.13821328510956321 0 -0.34050034567943982 0.14917452346944221 0 -0.33131026885053022 0.16133707822874591 0 -0.32760281546704711 0.14949001802220371 0 -0.34050034567943982 0.14917452346944221 0 -0.32760281546704711 0.14949001802220371 0 -0.32451011349784958 0.1402714078207645 0 -0.33387028044176992 0.13821328510956321 0 -0.32760281546704711 0.14949001802220371 0 -0.33387028044176992 0.13821328510956321 0 -0.34050034567943982 0.14917452346944221 0 -0.34591158260432447 0.24340611833448311 0 -0.35489165907990011 0.23706223028195589 0 -0.34551694905454378 0.22798907070835181 0 -0.34591158260432447 0.24340611833448311 0 -0.35489165907990011 0.23706223028195589 0 -0.3588325123922253 0.25142703517053389 0 -0.3668977409695362 0.2274857441696703 0 -0.3588325123922253 0.25142703517053389 0 -0.3668977409695362 0.2274857441696703 0 -0.37691875560060623 0.25192870288148289 0 -0.3588325123922253 0.25142703517053389 0 -0.35489165907990011 0.23706223028195589 0 -0.3668977409695362 0.2274857441696703 0 -0.3588325123922253 0.25142703517053389 0 -0.38188618215520598 0.22546531269088091 0 -0.3668977409695362 0.2274857441696703 0 -0.37496296954684699 0.2035444531688067 0 -0.3668977409695362 0.2274857441696703 0 -0.34551694905454378 0.22798907070835181 0 -0.3555977625154727 0.2118395894185266 0 -0.35489165907990011 0.23706223028195589 0 -0.3668977409695362 0.2274857441696703 0 -0.34551694905454378 0.22798907070835181 0 -0.34551694905454378 0.22798907070835181 0 -0.3555977625154727 0.2118395894185266 0 -0.34232708730632588 0.21562925151874829 0 -0.3555977625154727 0.2118395894185266 0 -0.33910318274425921 0.2026315815958302 0 -0.34232708730632588 0.21562925151874829 0 -0.3555977625154727 0.2118395894185266 0 -0.35090124155155272 0.19575361142077541 0 -0.33910318274425921 0.2026315815958302 0 -0.3668977409695362 0.2274857441696703 0 -0.37496296954684699 0.2035444531688067 0 -0.3668977409695362 0.2274857441696703 0 -0.3555977625154727 0.2118395894185266 0 -0.37496296954684699 0.2035444531688067 0 -0.3555977625154727 0.2118395894185266 0 -0.37496296954684699 0.2035444531688067 0 -0.36527196707159698 0.19123518597463529 0 -0.38302819812415789 0.17960316216794309 0 -0.37496296954684699 0.2035444531688067 0 -0.36527196707159698 0.19123518597463529 0 -0.35830642804472013 0.17683211900565771 0 -0.36527196707159698 0.19123518597463529 0 -0.35090124155155272 0.19575361142077541 0 -0.3421396285977874 0.18634346836832719 0 -0.35090124155155272 0.19575361142077541 0 -0.33910318274425921 0.2026315815958302 0 -0.3555977625154727 0.2118395894185266 0 -0.36527196707159698 0.19123518597463529 0 -0.35090124155155272 0.19575361142077541 0 -0.3421396285977874 0.18634346836832719 0 -0.33910318274425921 0.2026315815958302 0 -0.32949164419956561 0.18936971584378931 0 -0.33910318274425921 0.2026315815958302 0 -0.32949164419956561 0.18936971584378931 0 -0.32330005652195892 0.20257542226743719 0 -0.32949164419956561 0.18936971584378931 0 -0.32330005652195892 0.20257542226743719 0 -0.31123089439713109 0.1890085173865278 0 -0.32330005652195892 0.20257542226743719 0 -0.30937484847585228 0.2095372559190859 0 -0.31123089439713109 0.1890085173865278 0 -0.32040327978733468 0.21687395608915641 0 -0.3121660139531004 0.22717318622809551 0 -0.30937484847585228 0.2095372559190859 0 -0.32330005652195892 0.20257542226743719 0 -0.32040327978733468 0.21687395608915641 0 -0.33071813862734639 0.21254929057854999 0 -0.32330005652195892 0.20257542226743719 0 -0.32040327978733468 0.21687395608915641 0 -0.30937484847585228 0.2095372559190859 0 -0.32040327978733468 0.21687395608915641 0 -0.33071813862734639 0.21254929057854999 0 -0.32810450941189001 0.22661090420253571 0 -0.33071813862734639 0.21254929057854999 0 -0.34232708730632588 0.21562925151874829 0 -0.32810450941189001 0.22661090420253571 0 -0.33910318274425921 0.2026315815958302 0 -0.32330005652195892 0.20257542226743719 0 -0.33071813862734639 0.21254929057854999 0 -0.33910318274425921 0.2026315815958302 0 -0.33071813862734639 0.21254929057854999 0 -0.34232708730632588 0.21562925151874829 0 -0.34551694905454378 0.22798907070835181 0 -0.32810450941189001 0.22661090420253571 0 -0.33053589432349029 0.24282299213687519 0 -0.34551694905454378 0.22798907070835181 0 -0.34232708730632588 0.21562925151874829 0 -0.32810450941189001 0.22661090420253571 0 -0.32040327978733468 0.21687395608915641 0 -0.32810450941189001 0.22661090420253571 0 -0.3121660139531004 0.22717318622809551 0 -0.32810450941189001 0.22661090420253571 0 -0.31452089788036852 0.24224899629154689 0 -0.3121660139531004 0.22717318622809551 0 -0.32810450941189001 0.22661090420253571 0 -0.31452089788036852 0.24224899629154689 0 -0.33053589432349029 0.24282299213687519 0 -0.31452089788036852 0.24224899629154689 0 -0.33053589432349029 0.24282299213687519 0 -0.31906336706259042 0.25970407878681651 0 -0.34591158260432447 0.24340611833448311 0 -0.33053589432349029 0.24282299213687519 0 -0.34034330075986252 0.25851296510774863 0 -0.34591158260432447 0.24340611833448311 0 -0.34551694905454378 0.22798907070835181 0 -0.33053589432349029 0.24282299213687519 0 -0.28563461047447541 0.24537259983233231 0 -0.30099131788030109 0.23664615316408039 0 -0.28860572098582288 0.22889139727264829 0 -0.28563461047447541 0.24537259983233231 0 -0.28860572098582288 0.22889139727264829 0 -0.28563461047447541 0.24537259983233231 0 -0.30099131788030109 0.23664615316408039 0 -0.3010788137618729 0.25125887343920061 0 -0.28563461047447541 0.24537259983233231 0 -0.3010788137618729 0.25125887343920061 0 -0.31452089788036852 0.24224899629154689 0 -0.30099131788030109 0.23664615316408039 0 -0.3010788137618729 0.25125887343920061 0 -0.31452089788036852 0.24224899629154689 0 -0.30099131788030109 0.23664615316408039 0 -0.3121660139531004 0.22717318622809551 0 -0.3121660139531004 0.22717318622809551 0 -0.29997752206151029 0.22243301599569909 0 -0.30937484847585228 0.2095372559190859 0 -0.30099131788030109 0.23664615316408039 0 -0.3121660139531004 0.22717318622809551 0 -0.29997752206151029 0.22243301599569909 0 -0.28860572098582288 0.22889139727264829 0 -0.29157683149716918 0.2124101947129641 0 -0.27179424417702008 0.21572778934339881 0 -0.29997752206151029 0.22243301599569909 0 -0.28860572098582288 0.22889139727264829 0 -0.29157683149716918 0.2124101947129641 0 -0.28860572098582288 0.22889139727264829 0 -0.29157683149716918 0.2124101947129641 0 -0.30099131788030109 0.23664615316408039 0 -0.29997752206151029 0.22243301599569909 0 -0.28860572098582288 0.22889139727264829 0 -0.29157683149716918 0.2124101947129641 0 -0.29734540361246581 0.19962976908171459 0 -0.27840252394012449 0.20238001051086121 0 -0.29997752206151029 0.22243301599569909 0 -0.29157683149716918 0.2124101947129641 0 -0.30937484847585228 0.2095372559190859 0 -0.29157683149716918 0.2124101947129641 0 -0.30937484847585228 0.2095372559190859 0 -0.29734540361246581 0.19962976908171459 0 -0.30937484847585228 0.2095372559190859 0 -0.31123089439713109 0.1890085173865278 0 -0.29734540361246581 0.19962976908171459 0 -0.31123089439713109 0.1890085173865278 0 -0.29734540361246581 0.19962976908171459 0 -0.28566686727895929 0.18719422574704431 0 -0.29734540361246581 0.19962976908171459 0 -0.27840252394012449 0.20238001051086121 0 -0.28566686727895929 0.18719422574704431 0 -0.27840252394012449 0.20238001051086121 0 -0.26157415744736467 0.1981752351773394 0 -0.28566686727895929 0.18719422574704431 0 -0.26157415744736467 0.1981752351773394 0 -0.28566686727895929 0.18719422574704431 0 -0.26653062597874488 0.17727541519632919 0 -0.26157415744736467 0.1981752351773394 0 -0.25388056033531381 0.18498374321358579 0 -0.2414470506274336 0.1946036526885839 0 -0.26157415744736467 0.1981752351773394 0 -0.2505966372148451 0.21632181392181679 0 -0.24341011530889239 0.2065434883892904 0 -0.26157415744736467 0.1981752351773394 0 -0.2505966372148451 0.21632181392181679 0 -0.27179424417702008 0.21572778934339881 0 -0.27840252394012449 0.20238001051086121 0 -0.26157415744736467 0.1981752351773394 0 -0.27179424417702008 0.21572778934339881 0 -0.29157683149716918 0.2124101947129641 0 -0.27840252394012449 0.20238001051086121 0 -0.27179424417702008 0.21572778934339881 0 -0.28860572098582288 0.22889139727264829 0 -0.27179424417702008 0.21572778934339881 0 -0.25906115400159241 0.23524461637026409 0 -0.2505966372148451 0.21632181392181679 0 -0.27179424417702008 0.21572778934339881 0 -0.25906115400159241 0.23524461637026409 0 -0.25906115400159241 0.23524461637026409 0 -0.26752290159650233 0.25393734545331759 0 -0.25033001617331152 0.25641532190313909 0 -0.25906115400159241 0.23524461637026409 0 -0.25033001617331152 0.25641532190313909 0 -0.24130308794522479 0.24324196820880001 0 -0.28563461047447541 0.24537259983233231 0 -0.25906115400159241 0.23524461637026409 0 -0.28563461047447541 0.24537259983233231 0 -0.28860572098582288 0.22889139727264829 0 -0.25906115400159241 0.23524461637026409 0 -0.28563461047447541 0.24537259983233231 0 -0.25906115400159241 0.23524461637026409 0 -0.26752290159650233 0.25393734545331759 0 -0.29361141386929768 0.13824247907290779 0 -0.26979091057850502 0.15406157443249929 0 -0.29192849057166559 0.15588525388245761 0 -0.29361141386929768 0.13824247907290779 0 -0.26979091057850502 0.15406157443249929 0 -0.29361141386929768 0.13824247907290779 0 -0.27473841279180922 0.13192904534149999 0 -0.29533763782389122 0.11966681067585259 0 -0.31328898254608489 0.14237446196886039 0 -0.29361141386929768 0.13824247907290779 0 -0.31743191716009023 0.122423383713316 0 -0.29361141386929768 0.13824247907290779 0 -0.29533763782389122 0.11966681067585259 0 -0.31743191716009023 0.122423383713316 0 -0.29361141386929768 0.13824247907290779 0 -0.31743191716009023 0.122423383713316 0 -0.31328898254608489 0.14237446196886039 0 -0.29192849057166559 0.15588525388245761 0 -0.29361141386929768 0.13824247907290779 0 -0.31456405606354648 0.15912796812723851 0 -0.31328898254608489 0.14237446196886039 0 -0.29192849057166559 0.15588525388245761 0 -0.31456405606354648 0.15912796812723851 0 -0.29192849057166559 0.15588525388245761 0 -0.30102848671725418 0.17264685392118331 0 -0.32091945251491538 0.17426012989991621 0 -0.31456405606354648 0.15912796812723851 0 -0.30102848671725418 0.17264685392118331 0 -0.31123089439713109 0.1890085173865278 0 -0.30102848671725418 0.17264685392118331 0 -0.28566686727895929 0.18719422574704431 0 -0.32091945251491538 0.17426012989991621 0 -0.31123089439713109 0.1890085173865278 0 -0.30102848671725418 0.17264685392118331 0 -0.30102848671725418 0.17264685392118331 0 -0.28566686727895929 0.18719422574704431 0 -0.28274760063167681 0.17039613316672239 0 -0.29192849057166559 0.15588525388245761 0 -0.28274760063167681 0.17039613316672239 0 -0.26979091057850502 0.15406157443249929 0 -0.29192849057166559 0.15588525388245761 0 -0.30102848671725418 0.17264685392118331 0 -0.28274760063167681 0.17039613316672239 0 -0.28274760063167681 0.17039613316672239 0 -0.26653062597874488 0.17727541519632919 0 -0.26979091057850502 0.15406157443249929 0 -0.28566686727895929 0.18719422574704431 0 -0.28274760063167681 0.17039613316672239 0 -0.26653062597874488 0.17727541519632919 0 -0.26157415744736467 0.1981752351773394 0 -0.26653062597874488 0.17727541519632919 0 -0.25388056033531381 0.18498374321358579 0 -0.26653062597874488 0.17727541519632919 0 -0.25388056033531381 0.18498374321358579 0 -0.2459704072877123 0.16988066979209079 0 -0.26653062597874488 0.17727541519632919 0 -0.26979091057850502 0.15406157443249929 0 -0.2459704072877123 0.16988066979209079 0 -0.26979091057850502 0.15406157443249929 0 -0.2459704072877123 0.16988066979209079 0 -0.25443256115123242 0.1442297534304943 0 -0.26979091057850502 0.15406157443249929 0 -0.2459704072877123 0.16988066979209079 0 -0.25443256115123242 0.1442297534304943 0 -0.26979091057850502 0.15406157443249929 0 -0.27473841279180922 0.13192904534149999 0 -0.29361141386929768 0.13824247907290779 0 -0.26979091057850502 0.15406157443249929 0 -0.27473841279180922 0.13192904534149999 0 -0.25443256115123242 0.1442297534304943 0 -0.27473841279180922 0.13192904534149999 0 -0.25600860344789661 0.12337983474864821 0 -0.25443256115123242 0.1442297534304943 0 -0.25600860344789661 0.12337983474864821 0 -0.24186175119433001 0.13404024791631439 0 -0.25600860344789661 0.12337983474864821 0 -0.27922926002223741 0.1102564190719954 0 -0.2491670073101466 0.103385609527716 0 -0.27922926002223741 0.1102564190719954 0 -0.26197114113126729 0.090592871651188192 0 -0.2491670073101466 0.103385609527716 0 -0.2780856595985618 0.09385487750703006 0 -0.27922926002223741 0.1102564190719954 0 -0.26197114113126729 0.090592871651188192 0 -0.27473841279180922 0.13192904534149999 0 -0.25600860344789661 0.12337983474864821 0 -0.27922926002223741 0.1102564190719954 0 -0.27922926002223741 0.1102564190719954 0 -0.29533763782389122 0.11966681067585259 0 -0.30447891137449501 0.1034042025390316 0 -0.27473841279180922 0.13192904534149999 0 -0.27922926002223741 0.1102564190719954 0 -0.29533763782389122 0.11966681067585259 0 -0.2780856595985618 0.09385487750703006 0 -0.30447891137449501 0.1034042025390316 0 -0.29152590558889963 0.084385021364747195 0 -0.2780856595985618 0.09385487750703006 0 -0.27922926002223741 0.1102564190719954 0 -0.30447891137449501 0.1034042025390316 0 -0.30447891137449501 0.1034042025390316 0 -0.29152590558889963 0.084385021364747195 0 -0.30447891137449501 0.1034042025390316 0 -0.31743191716009023 0.122423383713316 0 -0.29533763782389122 0.11966681067585259 0 -0.30447891137449501 0.1034042025390316 0 -0.31743191716009023 0.122423383713316 0 -0.29957141885336569 0.062571999629325983 0 -0.30934993227918173 0.079348920972822923 0 -0.32425517041753188 0.057725501714150793 0 -0.29957141885336569 0.062571999629325983 0 -0.30934993227918173 0.079348920972822923 0 -0.29152590558889963 0.084385021364747195 0 -0.30447891137449501 0.1034042025390316 0 -0.30934993227918173 0.079348920972822923 0 -0.29152590558889963 0.084385021364747195 0 -0.2780856595985618 0.09385487750703006 0 -0.29152590558889963 0.084385021364747195 0 -0.27857289980330441 0.065365840190462807 0 -0.29152590558889963 0.084385021364747195 0 -0.27857289980330441 0.065365840190462807 0 -0.29957141885336569 0.062571999629325983 0 -0.29152590558889963 0.084385021364747195 0 -0.27857289980330441 0.065365840190462807 0 -0.2780856595985618 0.09385487750703006 0 -0.27857289980330441 0.065365840190462807 0 -0.2624837260878512 0.073845443838356978 0 -0.2780856595985618 0.09385487750703006 0 -0.26197114113126729 0.090592871651188192 0 -0.2624837260878512 0.073845443838356978 0 -0.26197114113126729 0.090592871651188192 0 -0.2624837260878512 0.073845443838356978 0 -0.2463867615235886 0.083861522240638725 0 -0.26197114113126729 0.090592871651188192 0 -0.2463867615235886 0.083861522240638725 0 -0.2491670073101466 0.103385609527716 0 -0.2624837260878512 0.073845443838356978 0 -0.24426600045267591 0.063050892424643734 0 -0.2463867615235886 0.083861522240638725 0 -0.26561989401770902 0.046346659016178439 0 -0.24039603329084949 0.042346998453257977 0 -0.24426600045267591 0.063050892424643734 0 -0.2624837260878512 0.073845443838356978 0 -0.26561989401770902 0.046346659016178439 0 -0.24426600045267591 0.063050892424643734 0 -0.26561989401770902 0.046346659016178439 0 -0.24617697237406069 0.022900951014264259 0 -0.24039603329084949 0.042346998453257977 0 -0.26561989401770902 0.046346659016178439 0 -0.27715267084703649 0.034118990836730992 0 -0.26797699307046519 0.019052116868461321 0 -0.26561989401770902 0.046346659016178439 0 -0.27715267084703649 0.034118990836730992 0 -0.28582329069014728 0.045759110656412513 0 -0.27857289980330441 0.065365840190462807 0 -0.26561989401770902 0.046346659016178439 0 -0.28582329069014728 0.045759110656412513 0 -0.27857289980330441 0.065365840190462807 0 -0.2624837260878512 0.073845443838356978 0 -0.26561989401770902 0.046346659016178439 0 -0.27857289980330441 0.065365840190462807 0 -0.26561989401770902 0.046346659016178439 0 -0.25292970563774841 0.0047829274478382649 0 -0.26797699307046519 0.019052116868461321 0 -0.24617697237406069 0.022900951014264259 0 -0.26826601167534331 -0.0030655646655694791 0 -0.25292970563774841 0.0047829274478382649 0 -0.26797699307046519 0.019052116868461321 0 -0.26561989401770902 0.046346659016178439 0 -0.26797699307046519 0.019052116868461321 0 -0.24617697237406069 0.022900951014264259 0 -0.26797699307046519 0.019052116868461321 0 -0.27888041515797929 0.0072797642280855836 0 -0.28919050560982451 0.025318076805871701 0 -0.27715267084703649 0.034118990836730992 0 -0.26797699307046519 0.019052116868461321 0 -0.28919050560982451 0.025318076805871701 0 -0.26826601167534331 -0.0030655646655694791 0 -0.26797699307046519 0.019052116868461321 0 -0.27888041515797929 0.0072797642280855836 0 -0.27888041515797929 0.0072797642280855836 0 -0.29345390246882092 0.0045770139971485491 0 -0.28919050560982451 0.025318076805871701 0 -0.28329998580232479 -0.0060286550507528281 0 -0.27888041515797929 0.0072797642280855836 0 -0.29345390246882092 0.0045770139971485491 0 -0.29345390246882092 0.0045770139971485491 0 -0.28919050560982451 0.025318076805871701 0 -0.30627382777953271 0.01879593060820374 0 -0.30627382777953271 0.01879593060820374 0 -0.30672283801367822 0.041521789260011238 0 -0.31521721676190778 0.028174888446707531 0 -0.28919050560982451 0.025318076805871701 0 -0.30627382777953271 0.01879593060820374 0 -0.30672283801367822 0.041521789260011238 0 -0.29345390246882092 0.0045770139971485491 0 -0.30627382777953271 0.01879593060820374 0 -0.30780530592239741 0.00057416170187308407 0 -0.29957141885336569 0.062571999629325983 0 -0.27857289980330441 0.065365840190462807 0 -0.28582329069014728 0.045759110656412513 0 -0.28919050560982451 0.025318076805871701 0 -0.28582329069014728 0.045759110656412513 0 -0.30672283801367822 0.041521789260011238 0 -0.27715267084703649 0.034118990836730992 0 -0.28919050560982451 0.025318076805871701 0 -0.28582329069014728 0.045759110656412513 0 -0.28919050560982451 0.025318076805871701 0 -0.30672283801367822 0.041521789260011238 0 -0.29957141885336569 0.062571999629325983 0 -0.28582329069014728 0.045759110656412513 0 -0.30672283801367822 0.041521789260011238 0 -0.29957141885336569 0.062571999629325983 0 -0.30672283801367822 0.041521789260011238 0 -0.32425517041753188 0.057725501714150793 0 -0.30672283801367822 0.041521789260011238 0 -0.32425517041753188 0.057725501714150793 0 -0.30672283801367822 0.041521789260011238 0 -0.32425517041753188 0.057725501714150793 0 -0.32337494008858508 0.035097446559141751 0 -0.30672283801367822 0.041521789260011238 0 -0.32337494008858508 0.035097446559141751 0 -0.31521721676190778 0.028174888446707531 0 -0.32425517041753188 0.057725501714150793 0 -0.32337494008858508 0.035097446559141751 0 -0.33305487871702483 0.045074323322292248 0 -0.34118921640927302 0.03399461301707371 0 -0.33305487871702483 0.045074323322292248 0 -0.34340018795270938 0.053479731998802772 0 -0.32337494008858508 0.035097446559141751 0 -0.34118921640927302 0.03399461301707371 0 -0.33305487871702483 0.045074323322292248 0 -0.32425517041753188 0.057725501714150793 0 -0.33305487871702483 0.045074323322292248 0 -0.34340018795270938 0.053479731998802772 0 -0.32425517041753188 0.057725501714150793 0 -0.34340018795270938 0.053479731998802772 0 -0.34178750282138559 0.073929214168290291 0 -0.30780530592239741 0.00057416170187308407 0 -0.32129467888118579 0.0074708404304083958 0 -0.32449726116583522 0.017284387359473401 0 -0.30780530592239741 0.00057416170187308407 0 -0.32449726116583522 0.017284387359473401 0 -0.30627382777953271 0.01879593060820374 0 -0.30780530592239741 0.00057416170187308407 0 -0.32449726116583522 0.017284387359473401 0 -0.32082955449403772 -0.0048523325184361109 0 -0.32129467888118579 0.0074708404304083958 0 -0.33625763912469558 0.003533673190869252 0 -0.32082955449403772 -0.0048523325184361109 0 -0.30780530592239741 0.00057416170187308407 0 -0.32129467888118579 0.0074708404304083958 0 -0.30627382777953271 0.01879593060820374 0 -0.32449726116583522 0.017284387359473401 0 -0.31521721676190778 0.028174888446707531 0 -0.32337494008858508 0.035097446559141751 0 -0.32449726116583522 0.017284387359473401 0 -0.31521721676190778 0.028174888446707531 0 -0.34118921640927302 0.03399461301707371 0 -0.32449726116583522 0.017284387359473401 0 -0.32337494008858508 0.035097446559141751 0 -0.34118921640927302 0.03399461301707371 0 -0.32449726116583522 0.017284387359473401 0 -0.34118921640927302 0.03399461301707371 0 -0.32449726116583522 0.017284387359473401 0 -0.34234886974989021 0.017756484958998949 0 -0.32129467888118579 0.0074708404304083958 0 -0.32449726116583522 0.017284387359473401 0 -0.34234886974989021 0.017756484958998949 0 -0.32129467888118579 0.0074708404304083958 0 -0.34234886974989021 0.017756484958998949 0 -0.34234886974989021 0.017756484958998949 0 -0.33625763912469558 0.003533673190869252 0 -0.3521011206947966 0.0053121624451801597 0 -0.32129467888118579 0.0074708404304083958 0 -0.34234886974989021 0.017756484958998949 0 -0.33625763912469558 0.003533673190869252 0 -0.3521011206947966 0.0053121624451801597 0 -0.35672348111258517 0.015348384594711261 0 -0.3690408733870596 0.010282761487076479 0 -0.34234886974989021 0.017756484958998949 0 -0.3521011206947966 0.0053121624451801597 0 -0.35672348111258517 0.015348384594711261 0 -0.34234886974989021 0.017756484958998949 0 -0.36340306061859462 0.028042129487589471 0 -0.34234886974989021 0.017756484958998949 0 -0.35672348111258517 0.015348384594711261 0 -0.36340306061859462 0.028042129487589471 0 -0.34118921640927302 0.03399461301707371 0 -0.34234886974989021 0.017756484958998949 0 -0.36340306061859462 0.028042129487589471 0 -0.35672348111258517 0.015348384594711261 0 -0.36340306061859462 0.028042129487589471 0 -0.3690408733870596 0.010282761487076479 0 -0.37812799064120189 0.024592197995840771 0 -0.36340306061859462 0.028042129487589471 0 -0.3690408733870596 0.010282761487076479 0 -0.36580579523411999 -0.0051106878210500899 0 -0.3521011206947966 0.0053121624451801597 0 -0.3690408733870596 0.010282761487076479 0 -0.34340018795270938 0.053479731998802772 0 -0.36286954346017258 0.055825462806466858 0 -0.35179166537718748 0.064002048385788046 0 -0.34340018795270938 0.053479731998802772 0 -0.35619905224608228 0.042812650587092473 0 -0.36286954346017258 0.055825462806466858 0 -0.34118921640927302 0.03399461301707371 0 -0.34340018795270938 0.053479731998802772 0 -0.35619905224608228 0.042812650587092473 0 -0.34118921640927302 0.03399461301707371 0 -0.36340306061859462 0.028042129487589471 0 -0.35619905224608228 0.042812650587092473 0 -0.38445725148729892 0.038327774016179983 0 -0.36340306061859462 0.028042129487589471 0 -0.38445725148729892 0.038327774016179983 0 -0.36340306061859462 0.028042129487589471 0 -0.36944934700094922 0.043077376170056102 0 -0.36340306061859462 0.028042129487589471 0 -0.35619905224608228 0.042812650587092473 0 -0.36944934700094922 0.043077376170056102 0 -0.3774586993760255 0.051164376988766483 0 -0.36944934700094922 0.043077376170056102 0 -0.36286954346017258 0.055825462806466858 0 -0.35619905224608228 0.042812650587092473 0 -0.36944934700094922 0.043077376170056102 0 -0.36286954346017258 0.055825462806466858 0 -0.3774586993760255 0.051164376988766483 0 -0.37530103599878267 0.062814081911788097 0 -0.36286954346017258 0.055825462806466858 0 -0.37530103599878267 0.062814081911788097 0 -0.36286954346017258 0.055825462806466858 0 -0.35910942727448242 0.072773784569592284 0 -0.38471031876688089 0.077744082118958779 0 -0.37530103599878267 0.062814081911788097 0 -0.35910942727448242 0.072773784569592284 0 -0.35910942727448242 0.072773784569592284 0 -0.35179166537718748 0.064002048385788046 0 -0.34178750282138559 0.073929214168290291 0 -0.34340018795270938 0.053479731998802772 0 -0.35179166537718748 0.064002048385788046 0 -0.34178750282138559 0.073929214168290291 0 -0.36286954346017258 0.055825462806466858 0 -0.35910942727448242 0.072773784569592284 0 -0.35179166537718748 0.064002048385788046 0 -0.34426649175986129 0.085493527484971993 0 -0.35931983522523919 0.090132926622429693 0 -0.34178750282138559 0.073929214168290291 0 -0.35910942727448242 0.072773784569592284 0 -0.35931983522523919 0.090132926622429693 0 -0.34178750282138559 0.073929214168290291 0 -0.35931983522523919 0.090132926622429693 0 -0.34178750282138559 0.073929214168290291 0 -0.3478566356029773 0.091657897418799622 0 -0.34426649175986129 0.085493527484971993 0 -0.35931983522523919 0.090132926622429693 0 -0.3478566356029773 0.091657897418799622 0 -0.35931983522523919 0.090132926622429693 0 -0.34867809683379408 0.097168331315019521 0 -0.35931983522523919 0.090132926622429693 0 -0.36092786289411238 0.093537910349364844 0 -0.34867809683379408 0.097168331315019521 0 -0.38471031876688089 0.077744082118958779 0 -0.35910942727448242 0.072773784569592284 0 -0.35931983522523919 0.090132926622429693 0 -0.38471031876688089 0.077744082118958779 0 -0.35931983522523919 0.090132926622429693 0 -0.36092786289411238 0.093537910349364844 0 -0.38471031876688089 0.077744082118958779 0 -0.36092786289411238 0.093537910349364844 0 -0.38471031876688089 0.077744082118958779 0 -0.36092786289411238 0.093537910349364844 0 -0.37259314325706477 0.096140025606357343 0 -0.37259314325706477 0.096140025606357343 0 -0.36808900657818422 0.10568269752800841 0 -0.3658261813712273 0.099249699623079654 0 -0.38347925908948999 0.1010738123711027 0 -0.37259314325706477 0.096140025606357343 0 -0.36808900657818422 0.10568269752800841 0 -0.36808900657818422 0.10568269752800841 0 -0.36139952851715701 0.10381460188997239 0 -0.3658261813712273 0.099249699623079654 0 -0.36808900657818422 0.10568269752800841 0 -0.36139952851715701 0.10381460188997239 0 -0.36283898193629011 0.11506281448133659 0 -0.36092786289411238 0.093537910349364844 0 -0.36139952851715701 0.10381460188997239 0 -0.3658261813712273 0.099249699623079654 0 -0.36092786289411238 0.093537910349364844 0 -0.37259314325706477 0.096140025606357343 0 -0.3658261813712273 0.099249699623079654 0 -0.36703384732318928 0.13499969470165721 0 -0.36283898193629011 0.11506281448133659 0 -0.35208962717226722 0.1221657166407126 0 -0.37595177658073797 0.1171092080353853 0 -0.36703384732318928 0.13499969470165721 0 -0.36283898193629011 0.11506281448133659 0 -0.37595177658073797 0.1171092080353853 0 -0.36808900657818422 0.10568269752800841 0 -0.36283898193629011 0.11506281448133659 0 -0.36283898193629011 0.11506281448133659 0 -0.35208962717226722 0.1221657166407126 0 -0.35247010544620538 0.1066049680922829 0 -0.35208962717226722 0.1221657166407126 0 -0.35247010544620538 0.1066049680922829 0 -0.33714540702134332 0.10933173857976999 0 -0.35208962717226722 0.1221657166407126 0 -0.33714540702134332 0.10933173857976999 0 -0.36092786289411238 0.093537910349364844 0 -0.34867809683379408 0.097168331315019521 0 -0.33714540702134332 0.10933173857976999 0 -0.36092786289411238 0.093537910349364844 0 -0.35247010544620538 0.1066049680922829 0 -0.33714540702134332 0.10933173857976999 0 -0.36092786289411238 0.093537910349364844 0 -0.33714540702134332 0.10933173857976999 0 -0.36092786289411238 0.093537910349364844 0 -0.36139952851715701 0.10381460188997239 0 -0.35247010544620538 0.1066049680922829 0 -0.36139952851715701 0.10381460188997239 0 -0.36283898193629011 0.11506281448133659 0 -0.35247010544620538 0.1066049680922829 0 -0.34867809683379408 0.097168331315019521 0 -0.34539050604627392 0.096209194447605742 0 -0.34085410579969261 0.1019360941533277 0 -0.3478566356029773 0.091657897418799622 0 -0.34539050604627392 0.096209194447605742 0 -0.33888367965327898 0.096024627259861967 0 -0.3478566356029773 0.091657897418799622 0 -0.34867809683379408 0.097168331315019521 0 -0.34539050604627392 0.096209194447605742 0 -0.33888367965327898 0.096024627259861967 0 -0.34085410579969261 0.1019360941533277 0 -0.33623141465632972 0.10222089836221419 0 -0.34539050604627392 0.096209194447605742 0 -0.33888367965327898 0.096024627259861967 0 -0.34085410579969261 0.1019360941533277 0 -0.34867809683379408 0.097168331315019521 0 -0.34085410579969261 0.1019360941533277 0 -0.33714540702134332 0.10933173857976999 0 -0.33714540702134332 0.10933173857976999 0 -0.33739976010745443 0.105323535896655 0 -0.3353681129524515 0.1078054124913074 0 -0.34085410579969261 0.1019360941533277 0 -0.33714540702134332 0.10933173857976999 0 -0.33739976010745443 0.105323535896655 0 -0.33714540702134332 0.10933173857976999 0 -0.3353681129524515 0.1078054124913074 0 -0.34085410579969261 0.1019360941533277 0 -0.33739976010745443 0.105323535896655 0 -0.33623141465632972 0.10222089836221419 0 -0.33739976010745443 0.105323535896655 0 -0.33623141465632972 0.10222089836221419 0 -0.3353681129524515 0.1078054124913074 0 -0.3353681129524515 0.1078054124913074 0 -0.3313892401395313 0.1004453680713507 0 -0.32128806759715561 0.1064589476153639 0 -0.33623141465632972 0.10222089836221419 0 -0.3353681129524515 0.1078054124913074 0 -0.3313892401395313 0.1004453680713507 0 -0.33888367965327898 0.096024627259861967 0 -0.3313892401395313 0.1004453680713507 0 -0.32691825516161588 0.088657879616859045 0 -0.33888367965327898 0.096024627259861967 0 -0.33623141465632972 0.10222089836221419 0 -0.3313892401395313 0.1004453680713507 0 -0.33504226506606871 0.12647891151545751 0 -0.35208962717226722 0.1221657166407126 0 -0.33714540702134332 0.10933173857976999 0 -0.33504226506606871 0.12647891151545751 0 -0.33714540702134332 0.10933173857976999 0 -0.31743191716009023 0.122423383713316 0 -0.33714540702134332 0.10933173857976999 0 -0.3353681129524515 0.1078054124913074 0 -0.31743191716009023 0.122423383713316 0 -0.3353681129524515 0.1078054124913074 0 -0.31743191716009023 0.122423383713316 0 -0.32128806759715561 0.1064589476153639 0 -0.30447891137449501 0.1034042025390316 0 -0.31743191716009023 0.122423383713316 0 -0.32128806759715561 0.1064589476153639 0 -0.33714540702134332 0.10933173857976999 0 -0.31743191716009023 0.122423383713316 0 -0.30447891137449501 0.1034042025390316 0 -0.32128806759715561 0.1064589476153639 0 -0.32691825516161588 0.088657879616859045 0 -0.3313892401395313 0.1004453680713507 0 -0.32128806759715561 0.1064589476153639 0 -0.32691825516161588 0.088657879616859045 0 -0.30447891137449501 0.1034042025390316 0 -0.30934993227918173 0.079348920972822923 0 -0.32691825516161588 0.088657879616859045 0 -0.30934993227918173 0.079348920972822923 0 -0.32425517041753188 0.057725501714150793 0 -0.32691825516161588 0.088657879616859045 0 -0.32425517041753188 0.057725501714150793 0 -0.34178750282138559 0.073929214168290291 0 -0.32425517041753188 0.057725501714150793 0 -0.32691825516161588 0.088657879616859045 0 -0.34178750282138559 0.073929214168290291 0 -0.34426649175986129 0.085493527484971993 0 -0.33888367965327898 0.096024627259861967 0 -0.32691825516161588 0.088657879616859045 0 -0.34426649175986129 0.085493527484971993 0 -0.32691825516161588 0.088657879616859045 0 -0.34178750282138559 0.073929214168290291 0 -0.3478566356029773 0.091657897418799622 0 -0.34426649175986129 0.085493527484971993 0 -0.33888367965327898 0.096024627259861967 0 -0.39624896755382849 0.4637734752658047 0 -0.40843398594452929 0.46338483867049451 0 -0.411915902597353 0.47914022855470351 0 -0.38567424117912208 0.47693448713781778 0 -0.39624896755382849 0.4637734752658047 0 -0.411915902597353 0.47914022855470351 0 -0.38239902344878218 0.5 0 -0.38567424117912208 0.47693448713781778 0 -0.411915902597353 0.47914022855470351 0 -0.38239902344878218 0.5 0 -0.38567424117912208 0.47693448713781778 0 -0.36903251233770917 0.48117520136837988 0 -0.38567424117912208 0.47693448713781778 0 -0.37135561636262798 0.46615877369790432 0 -0.36903251233770917 0.48117520136837988 0 -0.37713600204593661 0.45433385042942831 0 -0.38396211620733273 0.46240106730248148 0 -0.37135561636262798 0.46615877369790432 0 -0.38567424117912208 0.47693448713781778 0 -0.38396211620733273 0.46240106730248148 0 -0.37135561636262798 0.46615877369790432 0 -0.38396211620733273 0.46240106730248148 0 -0.38939575389514852 0.45080474998145248 0 -0.39624896755382849 0.4637734752658047 0 -0.37713600204593661 0.45433385042942831 0 -0.38396211620733273 0.46240106730248148 0 -0.38939575389514852 0.45080474998145248 0 -0.38567424117912208 0.47693448713781778 0 -0.38396211620733273 0.46240106730248148 0 -0.39624896755382849 0.4637734752658047 0 -0.37869458853582882 0.44368359276733033 0 -0.38534692978715679 0.44123232224723891 0 -0.37544843491033292 0.43162360578180209 0 -0.37713600204593661 0.45433385042942831 0 -0.37869458853582882 0.44368359276733033 0 -0.38939575389514852 0.45080474998145248 0 -0.37869458853582882 0.44368359276733033 0 -0.38939575389514852 0.45080474998145248 0 -0.38534692978715679 0.44123232224723891 0 -0.38939575389514852 0.45080474998145248 0 -0.39784894180731728 0.43881734045837051 0 -0.40256461994349152 0.45461921176519138 0 -0.38939575389514852 0.45080474998145248 0 -0.38534692978715679 0.44123232224723891 0 -0.39784894180731728 0.43881734045837051 0 -0.38939575389514852 0.45080474998145248 0 -0.39624896755382849 0.4637734752658047 0 -0.40256461994349152 0.45461921176519138 0 -0.39624896755382849 0.4637734752658047 0 -0.40256461994349152 0.45461921176519138 0 -0.40843398594452929 0.46338483867049451 0 -0.40256461994349152 0.45461921176519138 0 -0.40843398594452929 0.46338483867049451 0 -0.42015213954240521 0.45642453309545311 0 -0.40843398594452929 0.46338483867049451 0 -0.42015213954240521 0.45642453309545311 0 -0.411915902597353 0.47914022855470351 0 -0.39784894180731728 0.43881734045837051 0 -0.42015213954240521 0.45642453309545311 0 -0.39784894180731728 0.43881734045837051 0 -0.42015213954240521 0.45642453309545311 0 -0.40777273309412843 0.44050615683550709 0 -0.42015213954240521 0.45642453309545311 0 -0.41188421230148609 0.44208816039697008 0 -0.40777273309412843 0.44050615683550709 0 -0.39784894180731728 0.43881734045837051 0 -0.40256461994349152 0.45461921176519138 0 -0.42015213954240521 0.45642453309545311 0 -0.41188421230148609 0.44208816039697008 0 -0.42028485645197422 0.44165440013706608 0 -0.40485263262722521 0.42901598826331327 0 -0.42015213954240521 0.45642453309545311 0 -0.41188421230148609 0.44208816039697008 0 -0.42028485645197422 0.44165440013706608 0 -0.42015213954240521 0.45642453309545311 0 -0.43246221193259132 0.44057571605445828 0 -0.44315279783028899 0.45081890929480589 0 -0.42015213954240521 0.45642453309545311 0 -0.42028485645197422 0.44165440013706608 0 -0.43246221193259132 0.44057571605445828 0 -0.42015213954240521 0.45642453309545311 0 -0.43472041992834842 0.47063640399441331 0 -0.44315279783028899 0.45081890929480589 0 -0.42015213954240521 0.45642453309545311 0 -0.43472041992834842 0.47063640399441331 0 -0.411915902597353 0.47914022855470351 0 -0.43472041992834842 0.47063640399441331 0 -0.411915902597353 0.47914022855470351 0 -0.43293901212956848 0.5 0 -0.38239902344878218 0.5 0 -0.411915902597353 0.47914022855470351 0 -0.43293901212956848 0.5 0 -0.5 0.5 0 -0.46544224754212637 0.46679834902710371 0 -0.5 0.4304705919477716 0 -0.43293901212956848 0.5 0 -0.5 0.5 0 -0.46544224754212637 0.46679834902710371 0 -0.43472041992834842 0.47063640399441331 0 -0.43293901212956848 0.5 0 -0.46544224754212637 0.46679834902710371 0 -0.46544224754212637 0.46679834902710371 0 -0.46606893561735713 0.43480383619238172 0 -0.5 0.4304705919477716 0 -0.46544224754212637 0.46679834902710371 0 -0.44315279783028899 0.45081890929480589 0 -0.46606893561735713 0.43480383619238172 0 -0.43472041992834842 0.47063640399441331 0 -0.46544224754212637 0.46679834902710371 0 -0.44315279783028899 0.45081890929480589 0 -0.43246221193259132 0.44057571605445828 0 -0.44315279783028899 0.45081890929480589 0 -0.44195127537417062 0.42945342590756203 0 -0.44315279783028899 0.45081890929480589 0 -0.44195127537417062 0.42945342590756203 0 -0.46606893561735713 0.43480383619238172 0 -0.44195127537417062 0.42945342590756203 0 -0.44330664930809932 0.41305457773468618 0 -0.46202177221549268 0.41548774892531448 0 -0.44195127537417062 0.42945342590756203 0 -0.44330664930809932 0.41305457773468618 0 -0.43099029877271078 0.4197674840945137 0 -0.44330664930809932 0.41305457773468618 0 -0.44285872910246449 0.40152056827189542 0 -0.42789296036936503 0.40829628109542832 0 -0.44330664930809932 0.41305457773468618 0 -0.4552530439501144 0.40436929172917441 0 -0.44285872910246449 0.40152056827189542 0 -0.44330664930809932 0.41305457773468618 0 -0.46202177221549268 0.41548774892531448 0 -0.4552530439501144 0.40436929172917441 0 -0.44195127537417062 0.42945342590756203 0 -0.46202177221549268 0.41548774892531448 0 -0.46606893561735713 0.43480383619238172 0 -0.5 0.4304705919477716 0 -0.48221741275076468 0.41333404251096889 0 -0.5 0.37833884532029222 0 -0.46606893561735713 0.43480383619238172 0 -0.5 0.4304705919477716 0 -0.48221741275076468 0.41333404251096889 0 -0.46202177221549268 0.41548774892531448 0 -0.48221741275076468 0.41333404251096889 0 -0.47518143756273568 0.39576143237341949 0 -0.46202177221549268 0.41548774892531448 0 -0.46606893561735713 0.43480383619238172 0 -0.48221741275076468 0.41333404251096889 0 -0.48221741275076468 0.41333404251096889 0 -0.5 0.37833884532029222 0 -0.47518143756273568 0.39576143237341949 0 -0.47518143756273568 0.39576143237341949 0 -0.47608380889836349 0.37560774847035361 0 -0.46311722001210298 0.38253155499176678 0 -0.5 0.37833884532029222 0 -0.47518143756273568 0.39576143237341949 0 -0.47608380889836349 0.37560774847035361 0 -0.47608380889836349 0.37560774847035361 0 -0.46311722001210298 0.38253155499176678 0 -0.46013918491824612 0.37083416004850062 0 -0.47518143756273568 0.39576143237341949 0 -0.46311722001210298 0.38253155499176678 0 -0.45291411129507458 0.39208100169649018 0 -0.46311722001210298 0.38253155499176678 0 -0.45291411129507458 0.39208100169649018 0 -0.45181376495208581 0.3791303524524024 0 -0.46311722001210298 0.38253155499176678 0 -0.45181376495208581 0.3791303524524024 0 -0.46013918491824612 0.37083416004850062 0 -0.46202177221549268 0.41548774892531448 0 -0.47518143756273568 0.39576143237341949 0 -0.4552530439501144 0.40436929172917441 0 -0.47518143756273568 0.39576143237341949 0 -0.45291411129507458 0.39208100169649018 0 -0.47518143756273568 0.39576143237341949 0 -0.4552530439501144 0.40436929172917441 0 -0.45291411129507458 0.39208100169649018 0 -0.45291411129507458 0.39208100169649018 0 -0.44285872910246449 0.40152056827189542 0 -0.43064678502741333 0.38840057101956249 0 -0.4552530439501144 0.40436929172917441 0 -0.45291411129507458 0.39208100169649018 0 -0.44285872910246449 0.40152056827189542 0 -0.45291411129507458 0.39208100169649018 0 -0.43064678502741333 0.38840057101956249 0 -0.45291411129507458 0.39208100169649018 0 -0.43920416574370591 0.38330513117005022 0 -0.43064678502741333 0.38840057101956249 0 -0.45181376495208581 0.3791303524524024 0 -0.44553263708774038 0.38202083552227828 0 -0.44367191615552032 0.37566490655235318 0 -0.45291411129507458 0.39208100169649018 0 -0.45181376495208581 0.3791303524524024 0 -0.44553263708774038 0.38202083552227828 0 -0.45291411129507458 0.39208100169649018 0 -0.44553263708774038 0.38202083552227828 0 -0.43920416574370591 0.38330513117005022 0 -0.44553263708774038 0.38202083552227828 0 -0.43920416574370591 0.38330513117005022 0 -0.43952118037296611 0.3796957545690024 0 -0.44553263708774038 0.38202083552227828 0 -0.43952118037296611 0.3796957545690024 0 -0.44367191615552032 0.37566490655235318 0 -0.43952118037296611 0.3796957545690024 0 -0.44367191615552032 0.37566490655235318 0 -0.43760215769778449 0.37471641162139219 0 -0.43952118037296611 0.3796957545690024 0 -0.43069935008439658 0.37449436909486711 0 -0.43760215769778449 0.37471641162139219 0 -0.43952118037296611 0.3796957545690024 0 -0.40981622461698719 0.38005871483710901 0 -0.42260603422589621 0.37485045158590968 0 -0.43952118037296611 0.3796957545690024 0 -0.42260603422589621 0.37485045158590968 0 -0.43069935008439658 0.37449436909486711 0 -0.43952118037296611 0.3796957545690024 0 -0.40981622461698719 0.38005871483710901 0 -0.43952118037296611 0.3796957545690024 0 -0.43064678502741333 0.38840057101956249 0 -0.40981622461698719 0.38005871483710901 0 -0.43920416574370591 0.38330513117005022 0 -0.43952118037296611 0.3796957545690024 0 -0.43064678502741333 0.38840057101956249 0 -0.43920416574370591 0.38330513117005022 0 -0.43064678502741333 0.38840057101956249 0 -0.43064678502741333 0.38840057101956249 0 -0.41067289287057468 0.38509920809219261 0 -0.43064678502741333 0.38840057101956249 0 -0.41067289287057468 0.38509920809219261 0 -0.41567263775901248 0.39731683514681843 0 -0.43064678502741333 0.38840057101956249 0 -0.41067289287057468 0.38509920809219261 0 -0.40981622461698719 0.38005871483710901 0 -0.41067289287057468 0.38509920809219261 0 -0.40981622461698719 0.38005871483710901 0 -0.4130180146998832 0.39889751416173769 0 -0.41267046941501379 0.39685261561797092 0 -0.40272008855174268 0.39531400732324951 0 -0.41067289287057468 0.38509920809219261 0 -0.41267046941501379 0.39685261561797092 0 -0.40272008855174268 0.39531400732324951 0 -0.41067289287057468 0.38509920809219261 0 -0.41267046941501379 0.39685261561797092 0 -0.41267046941501379 0.39685261561797092 0 -0.40272008855174268 0.39531400732324951 0 -0.41067289287057468 0.38509920809219261 0 -0.41267046941501379 0.39685261561797092 0 -0.41567263775901248 0.39731683514681843 0 -0.4130180146998832 0.39889751416173769 0 -0.41267046941501379 0.39685261561797092 0 -0.41567263775901248 0.39731683514681843 0 -0.4130180146998832 0.39889751416173769 0 -0.41267046941501379 0.39685261561797092 0 -0.41267046941501379 0.39685261561797092 0 -0.41567263775901248 0.39731683514681843 0 -0.4130180146998832 0.39889751416173769 0 -0.41567263775901248 0.39731683514681843 0 -0.41567263775901248 0.39731683514681843 0 -0.41899267297302312 0.40591201909949981 0 -0.42789296036936503 0.40829628109542832 0 -0.4130180146998832 0.39889751416173769 0 -0.41567263775901248 0.39731683514681843 0 -0.41899267297302312 0.40591201909949981 0 -0.44285872910246449 0.40152056827189542 0 -0.41567263775901248 0.39731683514681843 0 -0.44285872910246449 0.40152056827189542 0 -0.43064678502741333 0.38840057101956249 0 -0.41567263775901248 0.39731683514681843 0 -0.44285872910246449 0.40152056827189542 0 -0.41567263775901248 0.39731683514681843 0 -0.42789296036936503 0.40829628109542832 0 -0.43064678502741333 0.38840057101956249 0 -0.41567263775901248 0.39731683514681843 0 -0.44330664930809932 0.41305457773468618 0 -0.43099029877271078 0.4197674840945137 0 -0.42789296036936503 0.40829628109542832 0 -0.43099029877271078 0.4197674840945137 0 -0.42789296036936503 0.40829628109542832 0 -0.41665143557592949 0.42027595714940169 0 -0.43246221193259132 0.44057571605445828 0 -0.44195127537417062 0.42945342590756203 0 -0.42740308055939108 0.42944662194936101 0 -0.44195127537417062 0.42945342590756203 0 -0.43099029877271078 0.4197674840945137 0 -0.42740308055939108 0.42944662194936101 0 -0.43099029877271078 0.4197674840945137 0 -0.42740308055939108 0.42944662194936101 0 -0.41665143557592949 0.42027595714940169 0 -0.42028485645197422 0.44165440013706608 0 -0.43246221193259132 0.44057571605445828 0 -0.42740308055939108 0.42944662194936101 0 -0.42028485645197422 0.44165440013706608 0 -0.42740308055939108 0.42944662194936101 0 -0.41665143557592949 0.42027595714940169 0 -0.42028485645197422 0.44165440013706608 0 -0.41665143557592949 0.42027595714940169 0 -0.40485263262722521 0.42901598826331327 0 -0.42028485645197422 0.44165440013706608 0 -0.41665143557592949 0.42027595714940169 0 -0.41188421230148609 0.44208816039697008 0 -0.40777273309412843 0.44050615683550709 0 -0.40485263262722521 0.42901598826331327 0 -0.40777273309412843 0.44050615683550709 0 -0.40485263262722521 0.42901598826331327 0 -0.41188421230148609 0.44208816039697008 0 -0.40485263262722521 0.42901598826331327 0 -0.4130180146998832 0.39889751416173769 0 -0.41665143557592949 0.42027595714940169 0 -0.39927762431366259 0.40707914532237027 0 -0.41665143557592949 0.42027595714940169 0 -0.39927762431366259 0.40707914532237027 0 -0.40485263262722521 0.42901598826331327 0 -0.4130180146998832 0.39889751416173769 0 -0.41665143557592949 0.42027595714940169 0 -0.4130180146998832 0.39889751416173769 0 -0.41899267297302312 0.40591201909949981 0 -0.41665143557592949 0.42027595714940169 0 -0.41899267297302312 0.40591201909949981 0 -0.42789296036936503 0.40829628109542832 0 -0.41665143557592949 0.42027595714940169 0 -0.39927762431366259 0.40707914532237027 0 -0.40485263262722521 0.42901598826331327 0 -0.39927762431366259 0.40707914532237027 0 -0.394562820515236 0.40988654631966681 0 -0.40485263262722521 0.42901598826331327 0 -0.394562820515236 0.40988654631966681 0 -0.40485263262722521 0.42901598826331327 0 -0.394562820515236 0.40988654631966681 0 -0.40485263262722521 0.42901598826331327 0 -0.3932025347555021 0.42473250571565979 0 -0.39927762431366259 0.40707914532237027 0 -0.394562820515236 0.40988654631966681 0 -0.39784894180731728 0.43881734045837051 0 -0.40777273309412843 0.44050615683550709 0 -0.40485263262722521 0.42901598826331327 0 -0.39784894180731728 0.43881734045837051 0 -0.40485263262722521 0.42901598826331327 0 -0.3932025347555021 0.42473250571565979 0 -0.39784894180731728 0.43881734045837051 0 -0.37544843491033292 0.43162360578180209 0 -0.37448484629322681 0.42037262524784269 0 -0.39784894180731728 0.43881734045837051 0 -0.3932025347555021 0.42473250571565979 0 -0.37448484629322681 0.42037262524784269 0 -0.38534692978715679 0.44123232224723891 0 -0.39784894180731728 0.43881734045837051 0 -0.37544843491033292 0.43162360578180209 0 -0.39784894180731728 0.43881734045837051 0 -0.37448484629322681 0.42037262524784269 0 -0.394562820515236 0.40988654631966681 0 -0.38012274711849853 0.39181982378941649 0 -0.37448484629322681 0.42037262524784269 0 -0.394562820515236 0.40988654631966681 0 -0.3932025347555021 0.42473250571565979 0 -0.37448484629322681 0.42037262524784269 0 -0.38012274711849853 0.39181982378941649 0 -0.37448484629322681 0.42037262524784269 0 -0.370978701148372 0.41760470946678402 0 -0.394562820515236 0.40988654631966681 0 -0.37448484629322681 0.42037262524784269 0 -0.38012274711849853 0.39181982378941649 0 -0.37448484629322681 0.42037262524784269 0 -0.38012274711849853 0.39181982378941649 0 -0.37837682885426449 0.39154985579922957 0 -0.370978701148372 0.41760470946678402 0 -0.394562820515236 0.40988654631966681 0 -0.38527302496394311 0.39261620136752162 0 -0.394562820515236 0.40988654631966681 0 -0.38527302496394311 0.39261620136752162 0 -0.38012274711849853 0.39181982378941649 0 -0.38527302496394311 0.39261620136752162 0 -0.38012274711849853 0.39181982378941649 0 -0.38012274711849853 0.39181982378941649 0 -0.37837682885426449 0.39154985579922957 0 -0.37837682885426449 0.39154985579922957 0 -0.375881747043396 0.38594637548922678 0 -0.37843616912644701 0.38637375019245668 0 -0.375881747043396 0.38594637548922678 0 -0.3786078068962781 0.38453934420800018 0 -0.37835644383645878 0.37975781914567852 0 -0.375881747043396 0.38594637548922678 0 -0.3786078068962781 0.38453934420800018 0 -0.37843616912644701 0.38637375019245668 0 -0.3786078068962781 0.38453934420800018 0 -0.38139064977801118 0.38539860886782767 0 -0.37835644383645878 0.37975781914567852 0 -0.38139064977801118 0.38539860886782767 0 -0.38221721718639923 0.38039594284777373 0 -0.38462632549596321 0.38343900595285052 0 -0.3786078068962781 0.38453934420800018 0 -0.37843616912644701 0.38637375019245668 0 -0.38139064977801118 0.38539860886782767 0 -0.38139064977801118 0.38539860886782767 0 -0.38221721718639923 0.38039594284777373 0 -0.38012274711849853 0.39181982378941649 0 -0.38139064977801118 0.38539860886782767 0 -0.38527302496394311 0.39261620136752162 0 -0.38012274711849853 0.39181982378941649 0 -0.38139064977801118 0.38539860886782767 0 -0.37837682885426449 0.39154985579922957 0 -0.37843616912644701 0.38637375019245668 0 -0.38139064977801118 0.38539860886782767 0 -0.38012274711849853 0.39181982378941649 0 -0.37837682885426449 0.39154985579922957 0 -0.38139064977801118 0.38539860886782767 0 -0.37835644383645878 0.37975781914567852 0 -0.37404469572120508 0.37174199394415741 0 -0.37835644383645878 0.37975781914567852 0 -0.38306738408933011 0.3769068912280002 0 -0.37404469572120508 0.37174199394415741 0 -0.38139064977801118 0.38539860886782767 0 -0.37835644383645878 0.37975781914567852 0 -0.38221721718639923 0.38039594284777373 0 -0.38139064977801118 0.38539860886782767 0 -0.37835644383645878 0.37975781914567852 0 -0.37835644383645878 0.37975781914567852 0 -0.38221721718639923 0.38039594284777373 0 -0.38306738408933011 0.3769068912280002 0 -0.37835644383645878 0.37975781914567852 0 -0.38221721718639923 0.38039594284777373 0 -0.38221721718639923 0.38039594284777373 0 -0.38306738408933011 0.3769068912280002 0 -0.38306738408933011 0.3769068912280002 0 -0.38777294700580239 0.38131421557680462 0 -0.39246455979437272 0.3802707321505796 0 -0.38221721718639923 0.38039594284777373 0 -0.38777294700580239 0.38131421557680462 0 -0.38221721718639923 0.38039594284777373 0 -0.38306738408933011 0.3769068912280002 0 -0.38777294700580239 0.38131421557680462 0 -0.38306738408933011 0.3769068912280002 0 -0.38777294700580239 0.38131421557680462 0 -0.38221721718639923 0.38039594284777373 0 -0.38777294700580239 0.38131421557680462 0 -0.38462632549596321 0.38343900595285052 0 -0.38777294700580239 0.38131421557680462 0 -0.39246455979437272 0.3802707321505796 0 -0.38777294700580239 0.38131421557680462 0 -0.39294709004123018 0.38216941815144279 0 -0.38527302496394311 0.39261620136752162 0 -0.3868086292136157 0.38653798639580028 0 -0.39427820812114001 0.38740717325643947 0 -0.38527302496394311 0.39261620136752162 0 -0.38139064977801118 0.38539860886782767 0 -0.3868086292136157 0.38653798639580028 0 -0.38527302496394311 0.39261620136752162 0 -0.38139064977801118 0.38539860886782767 0 -0.38139064977801118 0.38539860886782767 0 -0.38462632549596321 0.38343900595285052 0 -0.3868086292136157 0.38653798639580028 0 -0.38777294700580239 0.38131421557680462 0 -0.38462632549596321 0.38343900595285052 0 -0.3868086292136157 0.38653798639580028 0 -0.38777294700580239 0.38131421557680462 0 -0.3868086292136157 0.38653798639580028 0 -0.39427820812114001 0.38740717325643947 0 -0.40981622461698719 0.38005871483710901 0 -0.39246455979437272 0.3802707321505796 0 -0.39910462779736572 0.36978461754365788 0 -0.40981622461698719 0.38005871483710901 0 -0.39246455979437272 0.3802707321505796 0 -0.39294709004123018 0.38216941815144279 0 -0.41067289287057468 0.38509920809219261 0 -0.39427820812114001 0.38740717325643947 0 -0.39294709004123018 0.38216941815144279 0 -0.41067289287057468 0.38509920809219261 0 -0.39427820812114001 0.38740717325643947 0 -0.40272008855174268 0.39531400732324951 0 -0.41067289287057468 0.38509920809219261 0 -0.40981622461698719 0.38005871483710901 0 -0.39294709004123018 0.38216941815144279 0 -0.40981622461698719 0.38005871483710901 0 -0.39246455979437272 0.3802707321505796 0 -0.41067289287057468 0.38509920809219261 0 -0.39294709004123018 0.38216941815144279 0 -0.38777294700580239 0.38131421557680462 0 -0.39427820812114001 0.38740717325643947 0 -0.39294709004123018 0.38216941815144279 0 -0.39427820812114001 0.38740717325643947 0 -0.39294709004123018 0.38216941815144279 0 -0.38777294700580239 0.38131421557680462 0 -0.39427820812114001 0.38740717325643947 0 -0.38777294700580239 0.38131421557680462 0 -0.39246455979437272 0.3802707321505796 0 -0.39294709004123018 0.38216941815144279 0 -0.39246455979437272 0.3802707321505796 0 -0.39294709004123018 0.38216941815144279 0 -0.39427820812114001 0.38740717325643947 0 -0.40272008855174268 0.39531400732324951 0 -0.394562820515236 0.40988654631966681 0 -0.38527302496394311 0.39261620136752162 0 -0.39602452770545282 0.3942786856006486 0 -0.40272008855174268 0.39531400732324951 0 -0.39602452770545282 0.3942786856006486 0 -0.4130180146998832 0.39889751416173769 0 -0.39927762431366259 0.40707914532237027 0 -0.4130180146998832 0.39889751416173769 0 -0.39927762431366259 0.40707914532237027 0 -0.40272008855174268 0.39531400732324951 0 -0.39927762431366259 0.40707914532237027 0 -0.40272008855174268 0.39531400732324951 0 -0.39602452770545282 0.3942786856006486 0 -0.39927762431366259 0.40707914532237027 0 -0.394562820515236 0.40988654631966681 0 -0.39602452770545282 0.3942786856006486 0 -0.39927762431366259 0.40707914532237027 0 -0.39602452770545282 0.3942786856006486 0 -0.39427820812114001 0.38740717325643947 0 -0.40272008855174268 0.39531400732324951 0 -0.39602452770545282 0.3942786856006486 0 -0.38527302496394311 0.39261620136752162 0 -0.39602452770545282 0.3942786856006486 0 -0.38527302496394311 0.39261620136752162 0 -0.39427820812114001 0.38740717325643947 0 -0.39602452770545282 0.3942786856006486 0 -0.39427820812114001 0.38740717325643947 0 -0.39602452770545282 0.3942786856006486 0 -0.40357347946639438 0.34332744261694009 0 -0.40669485204169031 0.36169307872702461 0 -0.39786528118022152 0.35223727084232309 0 -0.40357347946639438 0.34332744261694009 0 -0.40669485204169031 0.36169307872702461 0 -0.39786528118022152 0.35223727084232309 0 -0.39183554450983871 0.35777511979097598 0 -0.39533495416656822 0.36108650846111662 0 -0.39786528118022152 0.35223727084232309 0 -0.39183554450983871 0.35777511979097598 0 -0.39232653140247392 0.3503076759224435 0 -0.39232653140247392 0.3503076759224435 0 -0.38989346804909097 0.342336609472085 0 -0.39197454220196232 0.34253640750557351 0 -0.39232653140247392 0.3503076759224435 0 -0.39590992640452188 0.34733889757366121 0 -0.39197454220196232 0.34253640750557351 0 -0.39590992640452188 0.34733889757366121 0 -0.39859261789220718 0.34603347843565613 0 -0.39702178451769138 0.34123030270970017 0 -0.39786528118022152 0.35223727084232309 0 -0.39232653140247392 0.3503076759224435 0 -0.39590992640452188 0.34733889757366121 0 -0.39786528118022152 0.35223727084232309 0 -0.39590992640452188 0.34733889757366121 0 -0.39859261789220718 0.34603347843565613 0 -0.39786528118022152 0.35223727084232309 0 -0.39859261789220718 0.34603347843565613 0 -0.40357347946639438 0.34332744261694009 0 -0.39786528118022152 0.35223727084232309 0 -0.39533495416656822 0.36108650846111662 0 -0.40669485204169031 0.36169307872702461 0 -0.39910462779736572 0.36978461754365788 0 -0.39533495416656822 0.36108650846111662 0 -0.40669485204169031 0.36169307872702461 0 -0.40981622461698719 0.38005871483710901 0 -0.39910462779736572 0.36978461754365788 0 -0.40669485204169031 0.36169307872702461 0 -0.39246455979437272 0.3802707321505796 0 -0.39315829936302987 0.36673955837967692 0 -0.38750478962262208 0.36075476138222101 0 -0.39246455979437272 0.3802707321505796 0 -0.39910462779736572 0.36978461754365788 0 -0.39315829936302987 0.36673955837967692 0 -0.39910462779736572 0.36978461754365788 0 -0.39533495416656822 0.36108650846111662 0 -0.39315829936302987 0.36673955837967692 0 -0.39533495416656822 0.36108650846111662 0 -0.39315829936302987 0.36673955837967692 0 -0.39195839691551471 0.36158898700349762 0 -0.39315829936302987 0.36673955837967692 0 -0.39195839691551471 0.36158898700349762 0 -0.38750478962262208 0.36075476138222101 0 -0.39183554450983871 0.35777511979097598 0 -0.39533495416656822 0.36108650846111662 0 -0.39195839691551471 0.36158898700349762 0 -0.38306738408933011 0.3769068912280002 0 -0.38750478962262208 0.36075476138222101 0 -0.39183554450983871 0.35777511979097598 0 -0.39195839691551471 0.36158898700349762 0 -0.38750478962262208 0.36075476138222101 0 -0.39246455979437272 0.3802707321505796 0 -0.38750478962262208 0.36075476138222101 0 -0.38306738408933011 0.3769068912280002 0 -0.38750478962262208 0.36075476138222101 0 -0.36211503048422972 0.35728249774997101 0 -0.38306738408933011 0.3769068912280002 0 -0.39246455979437272 0.3802707321505796 0 -0.38750478962262208 0.36075476138222101 0 -0.38750478962262208 0.36075476138222101 0 -0.38989346804909097 0.342336609472085 0 -0.37600424926665982 0.34980955361102789 0 -0.38989346804909097 0.342336609472085 0 -0.3655280724641099 0.33999735687201371 0 -0.38750478962262208 0.36075476138222101 0 -0.37600424926665982 0.34980955361102789 0 -0.38989346804909097 0.342336609472085 0 -0.38750478962262208 0.36075476138222101 0 -0.37600424926665982 0.34980955361102789 0 -0.36211503048422972 0.35728249774997101 0 -0.39232653140247392 0.3503076759224435 0 -0.38750478962262208 0.36075476138222101 0 -0.38989346804909097 0.342336609472085 0 -0.39183554450983871 0.35777511979097598 0 -0.39232653140247392 0.3503076759224435 0 -0.38750478962262208 0.36075476138222101 0 -0.38989346804909097 0.342336609472085 0 -0.3655280724641099 0.33999735687201371 0 -0.37905154290653648 0.32880414803681318 0 -0.38989346804909097 0.342336609472085 0 -0.3933862375077507 0.3246476936887327 0 -0.37905154290653648 0.32880414803681318 0 -0.38989346804909097 0.342336609472085 0 -0.3655280724641099 0.33999735687201371 0 -0.37905154290653648 0.32880414803681318 0 -0.38018506999957802 0.31475158847571028 0 -0.37208739600026541 0.31741811258508701 0 -0.37905154290653648 0.32880414803681318 0 -0.38018506999957802 0.31475158847571028 0 -0.3933862375077507 0.3246476936887327 0 -0.38018506999957802 0.31475158847571028 0 -0.3933862375077507 0.3246476936887327 0 -0.39759066686058991 0.32779949637668832 0 -0.39824974768693511 0.31223918404323381 0 -0.3933862375077507 0.3246476936887327 0 -0.39759066686058991 0.32779949637668832 0 -0.39824974768693511 0.31223918404323381 0 -0.3933862375077507 0.3246476936887327 0 -0.39759066686058991 0.32779949637668832 0 -0.39759066686058991 0.32779949637668832 0 -0.40803887813072448 0.32097744034131748 0 -0.39824974768693511 0.31223918404323381 0 -0.39759066686058991 0.32779949637668832 0 -0.40448685849903282 0.33296914807461009 0 -0.40803887813072448 0.32097744034131748 0 -0.38989346804909097 0.342336609472085 0 -0.3933862375077507 0.3246476936887327 0 -0.38989346804909097 0.342336609472085 0 -0.3933862375077507 0.3246476936887327 0 -0.39759066686058991 0.32779949637668832 0 -0.39759066686058991 0.32779949637668832 0 -0.39702178451769138 0.34123030270970017 0 -0.39197454220196232 0.34253640750557351 0 -0.38989346804909097 0.342336609472085 0 -0.39759066686058991 0.32779949637668832 0 -0.39197454220196232 0.34253640750557351 0 -0.39590992640452188 0.34733889757366121 0 -0.39702178451769138 0.34123030270970017 0 -0.39197454220196232 0.34253640750557351 0 -0.38989346804909097 0.342336609472085 0 -0.39197454220196232 0.34253640750557351 0 -0.39759066686058991 0.32779949637668832 0 -0.39702178451769138 0.34123030270970017 0 -0.39759066686058991 0.32779949637668832 0 -0.39702178451769138 0.34123030270970017 0 -0.4022164616703815 0.33738581505676118 0 -0.39759066686058991 0.32779949637668832 0 -0.40448685849903282 0.33296914807461009 0 -0.4022164616703815 0.33738581505676118 0 -0.39759066686058991 0.32779949637668832 0 -0.40448685849903282 0.33296914807461009 0 -0.40448685849903282 0.33296914807461009 0 -0.4022164616703815 0.33738581505676118 0 -0.41095593105131317 0.33893498303701741 0 -0.4022164616703815 0.33738581505676118 0 -0.40357347946639438 0.34332744261694009 0 -0.41095593105131317 0.33893498303701741 0 -0.39702178451769138 0.34123030270970017 0 -0.4022164616703815 0.33738581505676118 0 -0.40357347946639438 0.34332744261694009 0 -0.39859261789220718 0.34603347843565613 0 -0.39702178451769138 0.34123030270970017 0 -0.40357347946639438 0.34332744261694009 0 -0.41372811002926191 0.32942369715240022 0 -0.42236955615816829 0.31883289649405838 0 -0.42355678285168541 0.33909146249078359 0 -0.40448685849903282 0.33296914807461009 0 -0.41095593105131317 0.33893498303701741 0 -0.41372811002926191 0.32942369715240022 0 -0.41095593105131317 0.33893498303701741 0 -0.41372811002926191 0.32942369715240022 0 -0.42355678285168541 0.33909146249078359 0 -0.41095593105131317 0.33893498303701741 0 -0.42355678285168541 0.33909146249078359 0 -0.41387239419904298 0.35051844895007761 0 -0.40803887813072448 0.32097744034131748 0 -0.42236955615816829 0.31883289649405838 0 -0.41335743150140852 0.30425220160637279 0 -0.40448685849903282 0.33296914807461009 0 -0.41372811002926191 0.32942369715240022 0 -0.40803887813072448 0.32097744034131748 0 -0.41372811002926191 0.32942369715240022 0 -0.40803887813072448 0.32097744034131748 0 -0.42236955615816829 0.31883289649405838 0 -0.42236955615816829 0.31883289649405838 0 -0.44404174608093028 0.33396439630029962 0 -0.43177772655676733 0.30713428305382068 0 -0.42236955615816829 0.31883289649405838 0 -0.44404174608093028 0.33396439630029962 0 -0.42355678285168541 0.33909146249078359 0 -0.42900800304557601 0.35382462036196322 0 -0.44404174608093028 0.33396439630029962 0 -0.42236955615816829 0.31883289649405838 0 -0.42355678285168541 0.33909146249078359 0 -0.44404174608093028 0.33396439630029962 0 -0.42355678285168541 0.33909146249078359 0 -0.42900800304557601 0.35382462036196322 0 -0.41387239419904298 0.35051844895007761 0 -0.40357347946639438 0.34332744261694009 0 -0.41387239419904298 0.35051844895007761 0 -0.40669485204169031 0.36169307872702461 0 -0.42900800304557601 0.35382462036196322 0 -0.41387239419904298 0.35051844895007761 0 -0.41883806632444848 0.35967377672974021 0 -0.41387239419904298 0.35051844895007761 0 -0.40669485204169031 0.36169307872702461 0 -0.41883806632444848 0.35967377672974021 0 -0.40357347946639438 0.34332744261694009 0 -0.41095593105131317 0.33893498303701741 0 -0.41387239419904298 0.35051844895007761 0 -0.40981622461698719 0.38005871483710901 0 -0.40669485204169031 0.36169307872702461 0 -0.41598327436838972 0.3685464370352205 0 -0.40981622461698719 0.38005871483710901 0 -0.40669485204169031 0.36169307872702461 0 -0.40669485204169031 0.36169307872702461 0 -0.41883806632444848 0.35967377672974021 0 -0.41598327436838972 0.3685464370352205 0 -0.41883806632444848 0.35967377672974021 0 -0.41598327436838972 0.3685464370352205 0 -0.42470405151011509 0.36735765320961439 0 -0.41598327436838972 0.3685464370352205 0 -0.42260603422589621 0.37485045158590968 0 -0.42470405151011509 0.36735765320961439 0 -0.40981622461698719 0.38005871483710901 0 -0.41598327436838972 0.3685464370352205 0 -0.42260603422589621 0.37485045158590968 0 -0.42260603422589621 0.37485045158590968 0 -0.42470405151011509 0.36735765320961439 0 -0.43069935008439658 0.37449436909486711 0 -0.42900800304557601 0.35382462036196322 0 -0.41883806632444848 0.35967377672974021 0 -0.42470405151011509 0.36735765320961439 0 -0.42900800304557601 0.35382462036196322 0 -0.43597813725890577 0.36878358509825337 0 -0.44255508321473053 0.35712601830308571 0 -0.42900800304557601 0.35382462036196322 0 -0.42470405151011509 0.36735765320961439 0 -0.43597813725890577 0.36878358509825337 0 -0.42470405151011509 0.36735765320961439 0 -0.43069935008439658 0.37449436909486711 0 -0.43597813725890577 0.36878358509825337 0 -0.43069935008439658 0.37449436909486711 0 -0.43597813725890577 0.36878358509825337 0 -0.43760215769778449 0.37471641162139219 0 -0.44367191615552032 0.37566490655235318 0 -0.43597813725890577 0.36878358509825337 0 -0.43760215769778449 0.37471641162139219 0 -0.44367191615552032 0.37566490655235318 0 -0.43597813725890577 0.36878358509825337 0 -0.44848446930818742 0.36833480050529549 0 -0.43597813725890577 0.36878358509825337 0 -0.44848446930818742 0.36833480050529549 0 -0.44255508321473053 0.35712601830308571 0 -0.44848446930818742 0.36833480050529549 0 -0.44255508321473053 0.35712601830308571 0 -0.45535081011831963 0.35746898331275939 0 -0.45181376495208581 0.3791303524524024 0 -0.44367191615552032 0.37566490655235318 0 -0.44848446930818742 0.36833480050529549 0 -0.44255508321473053 0.35712601830308571 0 -0.45535081011831963 0.35746898331275939 0 -0.44404174608093028 0.33396439630029962 0 -0.42900800304557601 0.35382462036196322 0 -0.44255508321473053 0.35712601830308571 0 -0.44404174608093028 0.33396439630029962 0 -0.45535081011831963 0.35746898331275939 0 -0.46571393600369249 0.34909589610654079 0 -0.44404174608093028 0.33396439630029962 0 -0.45535081011831963 0.35746898331275939 0 -0.46571393600369249 0.34909589610654079 0 -0.46910674763540883 0.3636015899888525 0 -0.47608380889836349 0.37560774847035361 0 -0.46013918491824612 0.37083416004850062 0 -0.46910674763540883 0.3636015899888525 0 -0.45181376495208581 0.3791303524524024 0 -0.44848446930818742 0.36833480050529549 0 -0.46013918491824612 0.37083416004850062 0 -0.44848446930818742 0.36833480050529549 0 -0.45535081011831963 0.35746898331275939 0 -0.46013918491824612 0.37083416004850062 0 -0.45535081011831963 0.35746898331275939 0 -0.46013918491824612 0.37083416004850062 0 -0.46910674763540883 0.3636015899888525 0 -0.5 0.37833884532029222 0 -0.48738612592645458 0.36422739591278208 0 -0.5 0.33925394789948082 0 -0.47608380889836349 0.37560774847035361 0 -0.46910674763540883 0.3636015899888525 0 -0.48738612592645458 0.36422739591278208 0 -0.46571393600369249 0.34909589610654079 0 -0.46910674763540883 0.3636015899888525 0 -0.48738612592645458 0.36422739591278208 0 -0.46571393600369249 0.34909589610654079 0 -0.48738612592645458 0.36422739591278208 0 -0.46571393600369249 0.34909589610654079 0 -0.47972222335684539 0.3489647017753153 0 -0.48738612592645458 0.36422739591278208 0 -0.46571393600369249 0.34909589610654079 0 -0.47972222335684539 0.3489647017753153 0 -0.47307178329246358 0.33973795898148001 0 -0.47972222335684539 0.3489647017753153 0 -0.48738612592645458 0.36422739591278208 0 -0.5 0.33925394789948082 0 -0.5 0.37833884532029222 0 -0.47608380889836349 0.37560774847035361 0 -0.48738612592645458 0.36422739591278208 0 -0.48132692218978379 0.32794432743060231 0 -0.48293162102272219 0.30692395308588921 0 -0.5 0.3099465437412402 0 -0.5 0.33925394789948082 0 -0.48132692218978379 0.32794432743060231 0 -0.5 0.3099465437412402 0 -0.47972222335684539 0.3489647017753153 0 -0.5 0.33925394789948082 0 -0.48132692218978379 0.32794432743060231 0 -0.47972222335684539 0.3489647017753153 0 -0.47307178329246358 0.33973795898148001 0 -0.48132692218978379 0.32794432743060231 0 -0.47307178329246358 0.33973795898148001 0 -0.48132692218978379 0.32794432743060231 0 -0.46552405161953281 0.3329469106134616 0 -0.47972222335684539 0.3489647017753153 0 -0.48132692218978379 0.32794432743060231 0 -0.48132692218978379 0.32794432743060231 0 -0.4645786789901038 0.31639084862956768 0 -0.46552405161953281 0.3329469106134616 0 -0.48132692218978379 0.32794432743060231 0 -0.48293162102272219 0.30692395308588921 0 -0.48132692218978379 0.32794432743060231 0 -0.4645786789901038 0.31639084862956768 0 -0.48293162102272219 0.30692395308588921 0 -0.4645786789901038 0.31639084862956768 0 -0.46552405161953281 0.3329469106134616 0 -0.44404174608093028 0.33396439630029962 0 -0.46571393600369249 0.34909589610654079 0 -0.47307178329246358 0.33973795898148001 0 -0.46552405161953281 0.3329469106134616 0 -0.46571393600369249 0.34909589610654079 0 -0.44404174608093028 0.33396439630029962 0 -0.46571393600369249 0.34909589610654079 0 -0.46552405161953281 0.3329469106134616 0 -0.44404174608093028 0.33396439630029962 0 -0.4645786789901038 0.31639084862956768 0 -0.44404174608093028 0.33396439630029962 0 -0.45053509410381581 0.30379687887852569 0 -0.44404174608093028 0.33396439630029962 0 -0.45053509410381581 0.30379687887852569 0 -0.43177772655676733 0.30713428305382068 0 -0.45053509410381581 0.30379687887852569 0 -0.43730286746157537 0.29077915370143909 0 -0.43177772655676733 0.30713428305382068 0 -0.46409880193841291 0.28068297372510109 0 -0.44366128402116661 0.27546236870902602 0 -0.43730286746157537 0.29077915370143909 0 -0.45053509410381581 0.30379687887852569 0 -0.46409880193841291 0.28068297372510109 0 -0.43730286746157537 0.29077915370143909 0 -0.45053509410381581 0.30379687887852569 0 -0.46926485117171712 0.29867490252251971 0 -0.46409880193841291 0.28068297372510109 0 -0.4645786789901038 0.31639084862956768 0 -0.45053509410381581 0.30379687887852569 0 -0.46926485117171712 0.29867490252251971 0 -0.48293162102272219 0.30692395308588921 0 -0.46926485117171712 0.29867490252251971 0 -0.48453631985565943 0.285903578741176 0 -0.4645786789901038 0.31639084862956768 0 -0.48293162102272219 0.30692395308588921 0 -0.46926485117171712 0.29867490252251971 0 -0.48293162102272219 0.30692395308588921 0 -0.48453631985565943 0.285903578741176 0 -0.48453631985565943 0.285903578741176 0 -0.46409880193841291 0.28068297372510109 0 -0.46926485117171712 0.29867490252251971 0 -0.48453631985565943 0.285903578741176 0 -0.46409880193841291 0.28068297372510109 0 -0.48293162102272219 0.30692395308588921 0 -0.48453631985565943 0.285903578741176 0 -0.49249738551659161 0.28793717105365951 0 -0.49249738551659161 0.28793717105365951 0 -0.5 0.28985365557807058 0 -0.5 0.3099465437412402 0 -0.48453631985565943 0.285903578741176 0 -0.49249738551659161 0.28793717105365951 0 -0.49249738551659161 0.28793717105365951 0 -0.5 0.28985365557807058 0 -0.48293162102272219 0.30692395308588921 0 -0.49249738551659161 0.28793717105365951 0 -0.5 0.3099465437412402 0 -0.49249738551659161 0.28793717105365951 0 -0.5 0.3099465437412402 0 -0.5 0.26242619356654923 0 -0.48585182195901838 0.2686714688298068 0 -0.479594200494944 0.25008489853901711 0 -0.49249738551659161 0.28793717105365951 0 -0.5 0.28985365557807058 0 -0.5 0.26242619356654923 0 -0.49249738551659161 0.28793717105365951 0 -0.5 0.26242619356654923 0 -0.48585182195901838 0.2686714688298068 0 -0.49249738551659161 0.28793717105365951 0 -0.48585182195901838 0.2686714688298068 0 -0.48453631985565943 0.285903578741176 0 -0.48585182195901838 0.2686714688298068 0 -0.48453631985565943 0.285903578741176 0 -0.49249738551659161 0.28793717105365951 0 -0.48585182195901838 0.2686714688298068 0 -0.48453631985565943 0.285903578741176 0 -0.47576788223546429 0.27520915268238622 0 -0.46409880193841291 0.28068297372510109 0 -0.48585182195901838 0.2686714688298068 0 -0.47576788223546429 0.27520915268238622 0 -0.46745749444193291 0.26049974581744118 0 -0.48453631985565943 0.285903578741176 0 -0.48585182195901838 0.2686714688298068 0 -0.47576788223546429 0.27520915268238622 0 -0.47576788223546429 0.27520915268238622 0 -0.46745749444193291 0.26049974581744118 0 -0.46409880193841291 0.28068297372510109 0 -0.48585182195901838 0.2686714688298068 0 -0.479594200494944 0.25008489853901711 0 -0.46745749444193291 0.26049974581744118 0 -0.48585182195901838 0.2686714688298068 0 -0.479594200494944 0.25008489853901711 0 -0.46582829988210578 0.24001973601313481 0 -0.479594200494944 0.25008489853901711 0 -0.46745749444193291 0.26049974581744118 0 -0.4506418054640744 0.24721823166473411 0 -0.46745749444193291 0.26049974581744118 0 -0.44983974998318171 0.26121771517182601 0 -0.46745749444193291 0.26049974581744118 0 -0.46409880193841291 0.28068297372510109 0 -0.44983974998318171 0.26121771517182601 0 -0.46409880193841291 0.28068297372510109 0 -0.44366128402116661 0.27546236870902602 0 -0.46409880193841291 0.28068297372510109 0 -0.44366128402116661 0.27546236870902602 0 -0.44983974998318171 0.26121771517182601 0 -0.44366128402116661 0.27546236870902602 0 -0.44983974998318171 0.26121771517182601 0 -0.43359658013915631 0.25753745833528707 0 -0.4506418054640744 0.24721823166473411 0 -0.44983974998318171 0.26121771517182601 0 -0.43359658013915631 0.25753745833528707 0 -0.43359658013915631 0.25753745833528707 0 -0.41738683330834858 0.26123668559502777 0 -0.42322376610392021 0.27024176369295078 0 -0.42098612729882562 0.2478470871103704 0 -0.43359658013915631 0.25753745833528707 0 -0.41738683330834858 0.26123668559502777 0 -0.42098612729882562 0.2478470871103704 0 -0.41738683330834858 0.26123668559502777 0 -0.40933925751446831 0.25559905855917492 0 -0.41738683330834858 0.26123668559502777 0 -0.40933925751446831 0.25559905855917492 0 -0.40543820093913802 0.26361126724112632 0 -0.41173706785458353 0.27258347863125743 0 -0.40543820093913802 0.26361126724112632 0 -0.40217351472620949 0.28014506947545292 0 -0.41173706785458353 0.27258347863125743 0 -0.41248816608714228 0.28475753593168079 0 -0.40217351472620949 0.28014506947545292 0 -0.41738683330834858 0.26123668559502777 0 -0.41173706785458353 0.27258347863125743 0 -0.40543820093913802 0.26361126724112632 0 -0.41738683330834858 0.26123668559502777 0 -0.41173706785458353 0.27258347863125743 0 -0.42322376610392021 0.27024176369295078 0 -0.41173706785458353 0.27258347863125743 0 -0.42322376610392021 0.27024176369295078 0 -0.41248816608714228 0.28475753593168079 0 -0.44366128402116661 0.27546236870902602 0 -0.42322376610392021 0.27024176369295078 0 -0.44366128402116661 0.27546236870902602 0 -0.43359658013915631 0.25753745833528707 0 -0.42322376610392021 0.27024176369295078 0 -0.44366128402116661 0.27546236870902602 0 -0.42322376610392021 0.27024176369295078 0 -0.43730286746157537 0.29077915370143909 0 -0.42322376610392021 0.27024176369295078 0 -0.43730286746157537 0.29077915370143909 0 -0.42305966403470607 0.29118017134222868 0 -0.43730286746157537 0.29077915370143909 0 -0.42305966403470607 0.29118017134222868 0 -0.43177772655676733 0.30713428305382068 0 -0.42305966403470607 0.29118017134222868 0 -0.43177772655676733 0.30713428305382068 0 -0.41335743150140852 0.30425220160637279 0 -0.42236955615816829 0.31883289649405838 0 -0.43177772655676733 0.30713428305382068 0 -0.41335743150140852 0.30425220160637279 0 -0.40803887813072448 0.32097744034131748 0 -0.41335743150140852 0.30425220160637279 0 -0.39824974768693511 0.31223918404323381 0 -0.41335743150140852 0.30425220160637279 0 -0.41248816608714228 0.28475753593168079 0 -0.39890882851328141 0.29667887170977952 0 -0.42322376610392021 0.27024176369295078 0 -0.42305966403470607 0.29118017134222868 0 -0.41248816608714228 0.28475753593168079 0 -0.42305966403470607 0.29118017134222868 0 -0.41335743150140852 0.30425220160637279 0 -0.41248816608714228 0.28475753593168079 0 -0.39890882851328141 0.29667887170977952 0 -0.39976102573616801 0.27655925295025008 0 -0.39890882851328141 0.29667887170977952 0 -0.40217351472620949 0.28014506947545292 0 -0.41248816608714228 0.28475753593168079 0 -0.39890882851328141 0.29667887170977952 0 -0.40217351472620949 0.28014506947545292 0 -0.39890882851328141 0.29667887170977952 0 -0.39431944805656333 0.28224670442696997 0 -0.39976102573616801 0.27655925295025008 0 -0.39890882851328141 0.29667887170977952 0 -0.40217351472620949 0.28014506947545292 0 -0.39976102573616801 0.27655925295025008 0 -0.39890882851328141 0.29667887170977952 0 -0.39431944805656333 0.28224670442696997 0 -0.3887659465467303 0.28782961796278939 0 -0.39431944805656333 0.28224670442696997 0 -0.3887659465467303 0.28782961796278939 0 -0.38943445927787762 0.27585610053158971 0 -0.3933862375077507 0.3246476936887327 0 -0.39890882851328141 0.29667887170977952 0 -0.3933862375077507 0.3246476936887327 0 -0.39890882851328141 0.29667887170977952 0 -0.39824974768693511 0.31223918404323381 0 -0.38018506999957802 0.31475158847571028 0 -0.3933862375077507 0.3246476936887327 0 -0.39890882851328141 0.29667887170977952 0 -0.41335743150140852 0.30425220160637279 0 -0.39890882851328141 0.29667887170977952 0 -0.39824974768693511 0.31223918404323381 0 -0.39890882851328141 0.29667887170977952 0 -0.39824974768693511 0.31223918404323381 0 -0.38018506999957802 0.31475158847571028 0 -0.39890882851328141 0.29667887170977952 0 -0.38281079976502141 0.29802304224799742 0 -0.38018506999957802 0.31475158847571028 0 -0.38281079976502141 0.29802304224799742 0 -0.36698390249140578 0.30485548326268702 0 -0.38281079976502141 0.29802304224799742 0 -0.37998928742540827 0.28899126741542969 0 -0.36698390249140578 0.30485548326268702 0 -0.39890882851328141 0.29667887170977952 0 -0.38281079976502141 0.29802304224799742 0 -0.3887659465467303 0.28782961796278939 0 -0.3887659465467303 0.28782961796278939 0 -0.37998928742540827 0.28899126741542969 0 -0.38943445927787762 0.27585610053158971 0 -0.38281079976502141 0.29802304224799742 0 -0.3887659465467303 0.28782961796278939 0 -0.37998928742540827 0.28899126741542969 0 -0.37998928742540827 0.28899126741542969 0 -0.38943445927787762 0.27585610053158971 0 -0.37195132904600642 0.27839209307208512 0 -0.38943445927787762 0.27585610053158971 0 -0.38530611393340353 0.26710011996369443 0 -0.37195132904600642 0.27839209307208512 0 -0.38530611393340353 0.26710011996369443 0 -0.37691875560060623 0.25192870288148289 0 -0.37195132904600642 0.27839209307208512 0 -0.38943445927787762 0.27585610053158971 0 -0.38530611393340353 0.26710011996369443 0 -0.39382771171130282 0.26846331528333989 0 -0.39404171160483009 0.24740168398811829 0 -0.37691875560060623 0.25192870288148289 0 -0.39014150316183938 0.25826669126147128 0 -0.38530611393340353 0.26710011996369443 0 -0.39014150316183938 0.25826669126147128 0 -0.39382771171130282 0.26846331528333989 0 -0.38530611393340353 0.26710011996369443 0 -0.37691875560060623 0.25192870288148289 0 -0.39014150316183938 0.25826669126147128 0 -0.40061322295905422 0.2564396341907208 0 -0.40543820093913802 0.26361126724112632 0 -0.39976102573616801 0.27655925295025008 0 -0.39014150316183938 0.25826669126147128 0 -0.40061322295905422 0.2564396341907208 0 -0.39382771171130282 0.26846331528333989 0 -0.39404171160483009 0.24740168398811829 0 -0.39014150316183938 0.25826669126147128 0 -0.40061322295905422 0.2564396341907208 0 -0.40429704495881619 0.24593554743858101 0 -0.40933925751446831 0.25559905855917492 0 -0.40061322295905422 0.2564396341907208 0 -0.40933925751446831 0.25559905855917492 0 -0.40061322295905422 0.2564396341907208 0 -0.40543820093913802 0.26361126724112632 0 -0.40061322295905422 0.2564396341907208 0 -0.39976102573616801 0.27655925295025008 0 -0.40543820093913802 0.26361126724112632 0 -0.40217351472620949 0.28014506947545292 0 -0.40543820093913802 0.26361126724112632 0 -0.40217351472620949 0.28014506947545292 0 -0.39976102573616801 0.27655925295025008 0 -0.40061322295905422 0.2564396341907208 0 -0.39976102573616801 0.27655925295025008 0 -0.39382771171130282 0.26846331528333989 0 -0.39976102573616801 0.27655925295025008 0 -0.39433566119547792 0.27578134329803738 0 -0.39382771171130282 0.26846331528333989 0 -0.39431944805656333 0.28224670442696997 0 -0.39976102573616801 0.27655925295025008 0 -0.39433566119547792 0.27578134329803738 0 -0.39431944805656333 0.28224670442696997 0 -0.38943445927787762 0.27585610053158971 0 -0.39433566119547792 0.27578134329803738 0 -0.38943445927787762 0.27585610053158971 0 -0.39433566119547792 0.27578134329803738 0 -0.39382771171130282 0.26846331528333989 0 -0.35076728381491451 0.27536832617139739 0 -0.3588325123922253 0.25142703517053389 0 -0.36289454468773702 0.26612456682558028 0 -0.35076728381491451 0.27536832617139739 0 -0.3588325123922253 0.25142703517053389 0 -0.34034330075986252 0.25851296510774863 0 -0.34591158260432447 0.24340611833448311 0 -0.3588325123922253 0.25142703517053389 0 -0.34034330075986252 0.25851296510774863 0 -0.35076728381491451 0.27536832617139739 0 -0.3588325123922253 0.25142703517053389 0 -0.37691875560060623 0.25192870288148289 0 -0.3588325123922253 0.25142703517053389 0 -0.36289454468773702 0.26612456682558028 0 -0.37691875560060623 0.25192870288148289 0 -0.37195132904600642 0.27839209307208512 0 -0.37691875560060623 0.25192870288148289 0 -0.37195132904600642 0.27839209307208512 0 -0.36289454468773702 0.26612456682558028 0 -0.35076728381491451 0.27536832617139739 0 -0.37195132904600642 0.27839209307208512 0 -0.36031176804710507 0.28813498456340941 0 -0.35076728381491451 0.27536832617139739 0 -0.37195132904600642 0.27839209307208512 0 -0.36289454468773702 0.26612456682558028 0 -0.37998928742540827 0.28899126741542969 0 -0.37195132904600642 0.27839209307208512 0 -0.36698390249140578 0.30485548326268702 0 -0.37195132904600642 0.27839209307208512 0 -0.36698390249140578 0.30485548326268702 0 -0.37195132904600642 0.27839209307208512 0 -0.36031176804710507 0.28813498456340941 0 -0.36698390249140578 0.30485548326268702 0 -0.38018506999957802 0.31475158847571028 0 -0.36698390249140578 0.30485548326268702 0 -0.36698390249140578 0.30485548326268702 0 -0.36568182256162779 0.31179216342541249 0 -0.37208739600026541 0.31741811258508701 0 -0.38018506999957802 0.31475158847571028 0 -0.36698390249140578 0.30485548326268702 0 -0.37208739600026541 0.31741811258508701 0 -0.36698390249140578 0.30485548326268702 0 -0.36568182256162779 0.31179216342541249 0 -0.35647691338130111 0.30647376924470471 0 -0.36568182256162779 0.31179216342541249 0 -0.35647691338130111 0.30647376924470471 0 -0.35796659529134389 0.31384443475576912 0 -0.36698390249140578 0.30485548326268702 0 -0.36568182256162779 0.31179216342541249 0 -0.35647691338130111 0.30647376924470471 0 -0.34808839122423352 0.30234819669411578 0 -0.34764765765615591 0.29036028704645239 0 -0.36698390249140578 0.30485548326268702 0 -0.35647691338130111 0.30647376924470471 0 -0.34764765765615591 0.29036028704645239 0 -0.36698390249140578 0.30485548326268702 0 -0.34764765765615591 0.29036028704645239 0 -0.35647691338130111 0.30647376924470471 0 -0.34705818717275139 0.31117219174019672 0 -0.35796659529134389 0.31384443475576912 0 -0.34808839122423352 0.30234819669411578 0 -0.34764765765615591 0.29036028704645239 0 -0.34117080668672572 0.30138653874510968 0 -0.35647691338130111 0.30647376924470471 0 -0.34808839122423352 0.30234819669411578 0 -0.34705818717275139 0.31117219174019672 0 -0.34808839122423352 0.30234819669411578 0 -0.34705818717275139 0.31117219174019672 0 -0.34117080668672572 0.30138653874510968 0 -0.36031176804710507 0.28813498456340941 0 -0.36698390249140578 0.30485548326268702 0 -0.34764765765615591 0.29036028704645239 0 -0.35076728381491451 0.27536832617139739 0 -0.36031176804710507 0.28813498456340941 0 -0.34764765765615591 0.29036028704645239 0 -0.34764765765615591 0.29036028704645239 0 -0.32831141282090692 0.27586509083021632 0 -0.34764765765615591 0.29036028704645239 0 -0.33064190899676749 0.29628523474191881 0 -0.32831141282090692 0.27586509083021632 0 -0.34764765765615591 0.29036028704645239 0 -0.33064190899676749 0.29628523474191881 0 -0.34117080668672572 0.30138653874510968 0 -0.34705818717275139 0.31117219174019672 0 -0.34117080668672572 0.30138653874510968 0 -0.33315965857871199 0.31152620580314733 0 -0.33064190899676749 0.29628523474191881 0 -0.33315965857871199 0.31152620580314733 0 -0.3220885354259459 0.30564173218663943 0 -0.33064190899676749 0.29628523474191881 0 -0.34117080668672572 0.30138653874510968 0 -0.33315965857871199 0.31152620580314733 0 -0.33315965857871199 0.31152620580314733 0 -0.3220885354259459 0.30564173218663943 0 -0.32167493594376678 0.31940549631574738 0 -0.33064190899676749 0.29628523474191881 0 -0.3220885354259459 0.30564173218663943 0 -0.3153037650232437 0.29283740115477169 0 -0.3220885354259459 0.30564173218663943 0 -0.3153037650232437 0.29283740115477169 0 -0.3096624085872397 0.30815432291761108 0 -0.3220885354259459 0.30564173218663943 0 -0.3096624085872397 0.30815432291761108 0 -0.32167493594376678 0.31940549631574738 0 -0.3153037650232437 0.29283740115477169 0 -0.31370272866634802 0.27777305110483852 0 -0.32831141282090692 0.27586509083021632 0 -0.33064190899676749 0.29628523474191881 0 -0.3153037650232437 0.29283740115477169 0 -0.32831141282090692 0.27586509083021632 0 -0.31370272866634802 0.27777305110483852 0 -0.32831141282090692 0.27586509083021632 0 -0.31906336706259042 0.25970407878681651 0 -0.35076728381491451 0.27536832617139739 0 -0.32831141282090692 0.27586509083021632 0 -0.34034330075986252 0.25851296510774863 0 -0.35076728381491451 0.27536832617139739 0 -0.34764765765615591 0.29036028704645239 0 -0.32831141282090692 0.27586509083021632 0 -0.32831141282090692 0.27586509083021632 0 -0.34034330075986252 0.25851296510774863 0 -0.31906336706259042 0.25970407878681651 0 -0.33053589432349029 0.24282299213687519 0 -0.34034330075986252 0.25851296510774863 0 -0.31906336706259042 0.25970407878681651 0 -0.31452089788036852 0.24224899629154689 0 -0.31906336706259042 0.25970407878681651 0 -0.3010788137618729 0.25125887343920061 0 -0.31906336706259042 0.25970407878681651 0 -0.3010788137618729 0.25125887343920061 0 -0.30028304566696229 0.2707838808831452 0 -0.31370272866634802 0.27777305110483852 0 -0.31906336706259042 0.25970407878681651 0 -0.30028304566696229 0.2707838808831452 0 -0.31370272866634802 0.27777305110483852 0 -0.30028304566696229 0.2707838808831452 0 -0.29896979030103737 0.28504159468671331 0 -0.30028304566696229 0.2707838808831452 0 -0.28129895528893462 0.26942313954432928 0 -0.28682977230894968 0.28097121640870132 0 -0.30028304566696229 0.2707838808831452 0 -0.28682977230894968 0.28097121640870132 0 -0.29896979030103737 0.28504159468671331 0 -0.28563461047447541 0.24537259983233231 0 -0.28129895528893462 0.26942313954432928 0 -0.28563461047447541 0.24537259983233231 0 -0.3010788137618729 0.25125887343920061 0 -0.28129895528893462 0.26942313954432928 0 -0.3010788137618729 0.25125887343920061 0 -0.30028304566696229 0.2707838808831452 0 -0.28129895528893462 0.26942313954432928 0 -0.28129895528893462 0.26942313954432928 0 -0.26752290159650233 0.25393734545331759 0 -0.26013204832093573 0.2682068819780335 0 -0.28563461047447541 0.24537259983233231 0 -0.28129895528893462 0.26942313954432928 0 -0.26752290159650233 0.25393734545331759 0 -0.28129895528893462 0.26942313954432928 0 -0.26013204832093573 0.2682068819780335 0 -0.26866513869819691 0.28166372996154299 0 -0.26013204832093573 0.2682068819780335 0 -0.25466209325549749 0.28218351269590991 0 -0.26866513869819691 0.28166372996154299 0 -0.25177056057750891 0.28626023331739758 0 -0.25466209325549749 0.28218351269590991 0 -0.24744173631526911 0.27217612506867039 0 -0.26013204832093573 0.2682068819780335 0 -0.25466209325549749 0.28218351269590991 0 -0.24744173631526911 0.27217612506867039 0 -0.26013204832093573 0.2682068819780335 0 -0.25033001617331152 0.25641532190313909 0 -0.24744173631526911 0.27217612506867039 0 -0.26752290159650233 0.25393734545331759 0 -0.26013204832093573 0.2682068819780335 0 -0.25033001617331152 0.25641532190313909 0 -0.25264221040760643 0.30482824728555391 0 -0.27278604156839631 0.29622475472010518 0 -0.2702692965222242 0.29503143633311701 0 -0.25264221040760643 0.30482824728555391 0 -0.27278604156839631 0.29622475472010518 0 -0.25264221040760643 0.30482824728555391 0 -0.25546593087480662 0.29847631760901899 0 -0.2702692965222242 0.29503143633311701 0 -0.25177056057750891 0.28626023331739758 0 -0.2702692965222242 0.29503143633311701 0 -0.25546593087480662 0.29847631760901899 0 -0.25177056057750891 0.28626023331739758 0 -0.2702692965222242 0.29503143633311701 0 -0.25177056057750891 0.28626023331739758 0 -0.25466209325549749 0.28218351269590991 0 -0.2702692965222242 0.29503143633311701 0 -0.25177056057750891 0.28626023331739758 0 -0.25466209325549749 0.28218351269590991 0 -0.25466209325549749 0.28218351269590991 0 -0.2702692965222242 0.29503143633311701 0 -0.26866513869819691 0.28166372996154299 0 -0.25546593087480662 0.29847631760901899 0 -0.2702692965222242 0.29503143633311701 0 -0.28129895528893462 0.26942313954432928 0 -0.26866513869819691 0.28166372996154299 0 -0.2767744434369166 0.29452129595151821 0 -0.28129895528893462 0.26942313954432928 0 -0.2767744434369166 0.29452129595151821 0 -0.2702692965222242 0.29503143633311701 0 -0.26866513869819691 0.28166372996154299 0 -0.2767744434369166 0.29452129595151821 0 -0.27278604156839631 0.29622475472010518 0 -0.2702692965222242 0.29503143633311701 0 -0.2767744434369166 0.29452129595151821 0 -0.27278604156839631 0.29622475472010518 0 -0.2702692965222242 0.29503143633311701 0 -0.27278604156839631 0.29622475472010518 0 -0.2767744434369166 0.29452129595151821 0 -0.27278604156839631 0.29622475472010518 0 -0.2767744434369166 0.29452129595151821 0 -0.27617746883870559 0.29783280497768833 0 -0.2702692965222242 0.29503143633311701 0 -0.2767744434369166 0.29452129595151821 0 -0.2767744434369166 0.29452129595151821 0 -0.27617746883870559 0.29783280497768833 0 -0.2767744434369166 0.29452129595151821 0 -0.28127291271749122 0.29259998581431618 0 -0.27617746883870559 0.29783280497768833 0 -0.27148769548105139 0.32384769212892539 0 -0.25264221040760643 0.30482824728555391 0 -0.27278604156839631 0.29622475472010518 0 -0.27148769548105139 0.32384769212892539 0 -0.27278604156839631 0.29622475472010518 0 -0.27617746883870559 0.29783280497768833 0 -0.27148769548105139 0.32384769212892539 0 -0.27617746883870559 0.29783280497768833 0 -0.28314548316761529 0.31251911015184691 0 -0.27148769548105139 0.32384769212892539 0 -0.27278604156839631 0.29622475472010518 0 -0.27617746883870559 0.29783280497768833 0 -0.27617746883870559 0.29783280497768833 0 -0.2989262023912363 0.30861915064671758 0 -0.27617746883870559 0.29783280497768833 0 -0.290941632508529 0.29687526070669429 0 -0.2989262023912363 0.30861915064671758 0 -0.27617746883870559 0.29783280497768833 0 -0.2989262023912363 0.30861915064671758 0 -0.28314548316761529 0.31251911015184691 0 -0.28682977230894968 0.28097121640870132 0 -0.28127291271749122 0.29259998581431618 0 -0.29896979030103737 0.28504159468671331 0 -0.28127291271749122 0.29259998581431618 0 -0.29896979030103737 0.28504159468671331 0 -0.290941632508529 0.29687526070669429 0 -0.28127291271749122 0.29259998581431618 0 -0.29896979030103737 0.28504159468671331 0 -0.28129895528893462 0.26942313954432928 0 -0.28682977230894968 0.28097121640870132 0 -0.2767744434369166 0.29452129595151821 0 -0.2767744434369166 0.29452129595151821 0 -0.290941632508529 0.29687526070669429 0 -0.28127291271749122 0.29259998581431618 0 -0.2767744434369166 0.29452129595151821 0 -0.27617746883870559 0.29783280497768833 0 -0.290941632508529 0.29687526070669429 0 -0.28682977230894968 0.28097121640870132 0 -0.2767744434369166 0.29452129595151821 0 -0.28127291271749122 0.29259998581431618 0 -0.3153037650232437 0.29283740115477169 0 -0.31370272866634802 0.27777305110483852 0 -0.29896979030103737 0.28504159468671331 0 -0.3153037650232437 0.29283740115477169 0 -0.29896979030103737 0.28504159468671331 0 -0.30276075976225719 0.29830554602250159 0 -0.290941632508529 0.29687526070669429 0 -0.29896979030103737 0.28504159468671331 0 -0.30276075976225719 0.29830554602250159 0 -0.2989262023912363 0.30861915064671758 0 -0.3096624085872397 0.30815432291761108 0 -0.32167493594376678 0.31940549631574738 0 -0.2989262023912363 0.30861915064671758 0 -0.30276075976225719 0.29830554602250159 0 -0.3096624085872397 0.30815432291761108 0 -0.290941632508529 0.29687526070669429 0 -0.2989262023912363 0.30861915064671758 0 -0.30276075976225719 0.29830554602250159 0 -0.3153037650232437 0.29283740115477169 0 -0.30276075976225719 0.29830554602250159 0 -0.3096624085872397 0.30815432291761108 0 -0.2989262023912363 0.30861915064671758 0 -0.32167493594376678 0.31940549631574738 0 -0.2989262023912363 0.30861915064671758 0 -0.30238586853083649 0.33393525276169939 0 -0.32167493594376678 0.31940549631574738 0 -0.30238586853083649 0.33393525276169939 0 -0.32177427270498271 0.33579667851682082 0 -0.30238586853083649 0.33393525276169939 0 -0.2821816438103536 0.34345644887436438 0 -0.31004576105436349 0.35158551001194838 0 -0.30238586853083649 0.33393525276169939 0 -0.31004576105436349 0.35158551001194838 0 -0.32177427270498271 0.33579667851682082 0 -0.30238586853083649 0.33393525276169939 0 -0.2821816438103536 0.34345644887436438 0 -0.28753405783837038 0.3255203520797979 0 -0.2989262023912363 0.30861915064671758 0 -0.30238586853083649 0.33393525276169939 0 -0.28753405783837038 0.3255203520797979 0 -0.2989262023912363 0.30861915064671758 0 -0.28314548316761529 0.31251911015184691 0 -0.28753405783837038 0.3255203520797979 0 -0.28314548316761529 0.31251911015184691 0 -0.28753405783837038 0.3255203520797979 0 -0.27148769548105139 0.32384769212892539 0 -0.2821816438103536 0.34345644887436438 0 -0.27148769548105139 0.32384769212892539 0 -0.26581102644249172 0.34804721166020308 0 -0.2821816438103536 0.34345644887436438 0 -0.28753405783837038 0.3255203520797979 0 -0.27148769548105139 0.32384769212892539 0 -0.27148769548105139 0.32384769212892539 0 -0.25515744368489901 0.33853897984233872 0 -0.26581102644249172 0.34804721166020308 0 -0.27148769548105139 0.32384769212892539 0 -0.25515744368489901 0.33853897984233872 0 -0.2435562906113645 0.32718618808503641 0 -0.25515744368489901 0.33853897984233872 0 -0.25179576997544889 0.34996389288771018 0 -0.24495517035526729 0.34207166035551612 0 -0.25264221040760643 0.30482824728555391 0 -0.27148769548105139 0.32384769212892539 0 -0.2435562906113645 0.32718618808503641 0 -0.26935535388858378 0.36174169316625998 0 -0.2534912742602915 0.37863190589553852 0 -0.24210508140161441 0.35723766167140852 0 -0.26935535388858378 0.36174169316625998 0 -0.24210508140161441 0.35723766167140852 0 -0.25179576997544889 0.34996389288771018 0 -0.26581102644249172 0.34804721166020308 0 -0.26935535388858378 0.36174169316625998 0 -0.25179576997544889 0.34996389288771018 0 -0.26935535388858378 0.36174169316625998 0 -0.24210508140161441 0.35723766167140852 0 -0.25515744368489901 0.33853897984233872 0 -0.25179576997544889 0.34996389288771018 0 -0.26581102644249172 0.34804721166020308 0 -0.2821816438103536 0.34345644887436438 0 -0.26581102644249172 0.34804721166020308 0 -0.26935535388858378 0.36174169316625998 0 -0.26935535388858378 0.36174169316625998 0 -0.29660562637555282 0.36624572466111349 0 -0.28394504730260062 0.3861448152958219 0 -0.26935535388858378 0.36174169316625998 0 -0.29660562637555282 0.36624572466111349 0 -0.2821816438103536 0.34345644887436438 0 -0.29660562637555282 0.36624572466111349 0 -0.31004576105436349 0.35158551001194838 0 -0.2821816438103536 0.34345644887436438 0 -0.26935535388858378 0.36174169316625998 0 -0.29660562637555282 0.36624572466111349 0 -0.29660562637555282 0.36624572466111349 0 -0.32385589886252159 0.37074975615596678 0 -0.29660562637555282 0.36624572466111349 0 -0.31004576105436349 0.35158551001194838 0 -0.32385589886252159 0.37074975615596678 0 -0.29660562637555282 0.36624572466111349 0 -0.32385589886252159 0.37074975615596678 0 -0.31807009640684542 0.38764897908933238 0 -0.32385589886252159 0.37074975615596678 0 -0.32827175760014832 0.35122341916607641 0 -0.34452017849974481 0.36032704687370359 0 -0.32385589886252159 0.37074975615596678 0 -0.34452017849974481 0.36032704687370359 0 -0.35110617134949068 0.37525378765082029 0 -0.32385589886252159 0.37074975615596678 0 -0.35110617134949068 0.37525378765082029 0 -0.32827175760014832 0.35122341916607641 0 -0.34116267687912888 0.33765810427194209 0 -0.34452017849974481 0.36032704687370359 0 -0.31004576105436349 0.35158551001194838 0 -0.32827175760014832 0.35122341916607641 0 -0.32177427270498271 0.33579667851682082 0 -0.31004576105436349 0.35158551001194838 0 -0.32385589886252159 0.37074975615596678 0 -0.32827175760014832 0.35122341916607641 0 -0.30238586853083649 0.33393525276169939 0 -0.32177427270498271 0.33579667851682082 0 -0.32167493594376678 0.31940549631574738 0 -0.3096624085872397 0.30815432291761108 0 -0.32167493594376678 0.31940549631574738 0 -0.32167493594376678 0.31940549631574738 0 -0.33612108515745992 0.32625515933744609 0 -0.34116267687912888 0.33765810427194209 0 -0.33315965857871199 0.31152620580314733 0 -0.32167493594376678 0.31940549631574738 0 -0.33612108515745992 0.32625515933744609 0 -0.32167493594376678 0.31940549631574738 0 -0.33612108515745992 0.32625515933744609 0 -0.33612108515745992 0.32625515933744609 0 -0.3405238414719492 0.31756480230831963 0 -0.34577933250751131 0.32246695373408168 0 -0.34705818717275139 0.31117219174019672 0 -0.33315965857871199 0.31152620580314733 0 -0.3405238414719492 0.31756480230831963 0 -0.33315965857871199 0.31152620580314733 0 -0.33612108515745992 0.32625515933744609 0 -0.3405238414719492 0.31756480230831963 0 -0.32177427270498271 0.33579667851682082 0 -0.34116267687912888 0.33765810427194209 0 -0.32177427270498271 0.33579667851682082 0 -0.32167493594376678 0.31940549631574738 0 -0.34116267687912888 0.33765810427194209 0 -0.32167493594376678 0.31940549631574738 0 -0.34116267687912888 0.33765810427194209 0 -0.32827175760014832 0.35122341916607641 0 -0.32177427270498271 0.33579667851682082 0 -0.34116267687912888 0.33765810427194209 0 -0.33612108515745992 0.32625515933744609 0 -0.34116267687912888 0.33765810427194209 0 -0.35056723437115273 0.33310482235914551 0 -0.33612108515745992 0.32625515933744609 0 -0.35056723437115273 0.33310482235914551 0 -0.34116267687912888 0.33765810427194209 0 -0.3655280724641099 0.33999735687201371 0 -0.34116267687912888 0.33765810427194209 0 -0.35056723437115273 0.33310482235914551 0 -0.3655280724641099 0.33999735687201371 0 -0.35056723437115273 0.33310482235914551 0 -0.3655280724641099 0.33999735687201371 0 -0.35983400984850661 0.32855041785659861 0 -0.34705818717275139 0.31117219174019672 0 -0.3405238414719492 0.31756480230831963 0 -0.34577933250751131 0.32246695373408168 0 -0.34705818717275139 0.31117219174019672 0 -0.34577933250751131 0.32246695373408168 0 -0.35439915608891609 0.32131850594514799 0 -0.35056723437115273 0.33310482235914551 0 -0.34577933250751131 0.32246695373408168 0 -0.35439915608891609 0.32131850594514799 0 -0.33612108515745992 0.32625515933744609 0 -0.35056723437115273 0.33310482235914551 0 -0.34577933250751131 0.32246695373408168 0 -0.35056723437115273 0.33310482235914551 0 -0.35439915608891609 0.32131850594514799 0 -0.35983400984850661 0.32855041785659861 0 -0.35439915608891609 0.32131850594514799 0 -0.36326282315959169 0.31987172759376459 0 -0.35983400984850661 0.32855041785659861 0 -0.35439915608891609 0.32131850594514799 0 -0.35796659529134389 0.31384443475576912 0 -0.36326282315959169 0.31987172759376459 0 -0.34705818717275139 0.31117219174019672 0 -0.35439915608891609 0.32131850594514799 0 -0.35796659529134389 0.31384443475576912 0 -0.36568182256162779 0.31179216342541249 0 -0.35796659529134389 0.31384443475576912 0 -0.36326282315959169 0.31987172759376459 0 -0.36568182256162779 0.31179216342541249 0 -0.36326282315959169 0.31987172759376459 0 -0.37208739600026541 0.31741811258508701 0 -0.36326282315959169 0.31987172759376459 0 -0.36832477591938573 0.32741945831981439 0 -0.35983400984850661 0.32855041785659861 0 -0.37905154290653648 0.32880414803681318 0 -0.36832477591938573 0.32741945831981439 0 -0.37208739600026541 0.31741811258508701 0 -0.36326282315959169 0.31987172759376459 0 -0.36832477591938573 0.32741945831981439 0 -0.37208739600026541 0.31741811258508701 0 -0.36832477591938573 0.32741945831981439 0 -0.3655280724641099 0.33999735687201371 0 -0.35983400984850661 0.32855041785659861 0 -0.37905154290653648 0.32880414803681318 0 -0.36832477591938573 0.32741945831981439 0 -0.3655280724641099 0.33999735687201371 0 -0.37600424926665982 0.34980955361102789 0 -0.3655280724641099 0.33999735687201371 0 -0.36211503048422972 0.35728249774997101 0 -0.38306738408933011 0.3769068912280002 0 -0.36211503048422972 0.35728249774997101 0 -0.38306738408933011 0.3769068912280002 0 -0.36211503048422972 0.35728249774997101 0 -0.37404469572120508 0.37174199394415741 0 -0.37835644383645878 0.37975781914567852 0 -0.37404469572120508 0.37174199394415741 0 -0.36197133767344991 0.36955202472207122 0 -0.37835644383645878 0.37975781914567852 0 -0.36197133767344991 0.36955202472207122 0 -0.35110617134949068 0.37525378765082029 0 -0.36211503048422972 0.35728249774997101 0 -0.37404469572120508 0.37174199394415741 0 -0.36197133767344991 0.36955202472207122 0 -0.36211503048422972 0.35728249774997101 0 -0.36197133767344991 0.36955202472207122 0 -0.34452017849974481 0.36032704687370359 0 -0.36197133767344991 0.36955202472207122 0 -0.34452017849974481 0.36032704687370359 0 -0.35110617134949068 0.37525378765082029 0 -0.34116267687912888 0.33765810427194209 0 -0.36211503048422972 0.35728249774997101 0 -0.34452017849974481 0.36032704687370359 0 -0.34116267687912888 0.33765810427194209 0 -0.3655280724641099 0.33999735687201371 0 -0.36211503048422972 0.35728249774997101 0 -0.34116267687912888 0.33765810427194209 0 -0.36211503048422972 0.35728249774997101 0 -0.35070863215199649 0.39763495446524227 0 -0.35795166140182311 0.38839155135890652 0 -0.36514944750805411 0.39930291459990691 0 -0.35070863215199649 0.39763495446524227 0 -0.35165310231582447 0.38623448028616181 0 -0.35795166140182311 0.38839155135890652 0 -0.35070863215199649 0.39763495446524227 0 -0.36514944750805411 0.39930291459990691 0 -0.35852673421015752 0.40777454147043352 0 -0.35070863215199649 0.39763495446524227 0 -0.35852673421015752 0.40777454147043352 0 -0.34570571071554562 0.40979218129833778 0 -0.35070863215199649 0.39763495446524227 0 -0.35165310231582447 0.38623448028616181 0 -0.34335692725943739 0.38916533866865488 0 -0.35110617134949068 0.37525378765082029 0 -0.35165310231582447 0.38623448028616181 0 -0.34335692725943739 0.38916533866865488 0 -0.35110617134949068 0.37525378765082029 0 -0.3551421194163743 0.38072676928718457 0 -0.35165310231582447 0.38623448028616181 0 -0.3551421194163743 0.38072676928718457 0 -0.35165310231582447 0.38623448028616181 0 -0.35795166140182311 0.38839155135890652 0 -0.3551421194163743 0.38072676928718457 0 -0.35795166140182311 0.38839155135890652 0 -0.36872255284489802 0.38542164212793262 0 -0.37837682885426449 0.39154985579922957 0 -0.35795166140182311 0.38839155135890652 0 -0.36872255284489802 0.38542164212793262 0 -0.37835644383645878 0.37975781914567852 0 -0.35110617134949068 0.37525378765082029 0 -0.3551421194163743 0.38072676928718457 0 -0.37837682885426449 0.39154985579922957 0 -0.35795166140182311 0.38839155135890652 0 -0.37835644383645878 0.37975781914567852 0 -0.3551421194163743 0.38072676928718457 0 -0.37835644383645878 0.37975781914567852 0 -0.35110617134949068 0.37525378765082029 0 -0.37835644383645878 0.37975781914567852 0 -0.3551421194163743 0.38072676928718457 0 -0.36872255284489802 0.38542164212793262 0 -0.375881747043396 0.38594637548922678 0 -0.37835644383645878 0.37975781914567852 0 -0.36872255284489802 0.38542164212793262 0 -0.37837682885426449 0.39154985579922957 0 -0.375881747043396 0.38594637548922678 0 -0.36872255284489802 0.38542164212793262 0 -0.37837682885426449 0.39154985579922957 0 -0.36514944750805411 0.39930291459990691 0 -0.370978701148372 0.41760470946678402 0 -0.37837682885426449 0.39154985579922957 0 -0.35795166140182311 0.38839155135890652 0 -0.36514944750805411 0.39930291459990691 0 -0.37837682885426449 0.39154985579922957 0 -0.370978701148372 0.41760470946678402 0 -0.36514944750805411 0.39930291459990691 0 -0.370978701148372 0.41760470946678402 0 -0.35852673421015752 0.40777454147043352 0 -0.370978701148372 0.41760470946678402 0 -0.35287332590606452 0.42286669900534152 0 -0.35852673421015752 0.40777454147043352 0 -0.37448484629322681 0.42037262524784269 0 -0.370978701148372 0.41760470946678402 0 -0.37415608606881767 0.42203761115411509 0 -0.370978701148372 0.41760470946678402 0 -0.37415608606881767 0.42203761115411509 0 -0.36881737200666359 0.425216515690369 0 -0.37448484629322681 0.42037262524784269 0 -0.37415608606881767 0.42203761115411509 0 -0.37448484629322681 0.42037262524784269 0 -0.370978701148372 0.41760470946678402 0 -0.370978701148372 0.41760470946678402 0 -0.36881737200666359 0.425216515690369 0 -0.370978701148372 0.41760470946678402 0 -0.35852673421015752 0.40777454147043352 0 -0.370978701148372 0.41760470946678402 0 -0.36881737200666359 0.425216515690369 0 -0.35287332590606452 0.42286669900534152 0 -0.37544843491033292 0.43162360578180209 0 -0.36881737200666359 0.425216515690369 0 -0.36201050672191021 0.44918905117223951 0 -0.36881737200666359 0.425216515690369 0 -0.36201050672191021 0.44918905117223951 0 -0.36881737200666359 0.425216515690369 0 -0.34734186250229288 0.43800397607633379 0 -0.36201050672191021 0.44918905117223951 0 -0.37544843491033292 0.43162360578180209 0 -0.37448484629322681 0.42037262524784269 0 -0.37415608606881767 0.42203761115411509 0 -0.37544843491033292 0.43162360578180209 0 -0.37415608606881767 0.42203761115411509 0 -0.36881737200666359 0.425216515690369 0 -0.37415608606881767 0.42203761115411509 0 -0.36881737200666359 0.425216515690369 0 -0.36881737200666359 0.425216515690369 0 -0.34734186250229288 0.43800397607633379 0 -0.36881737200666359 0.425216515690369 0 -0.35287332590606452 0.42286669900534152 0 -0.34734186250229288 0.43800397607633379 0 -0.35287332590606452 0.42286669900534152 0 -0.33762431217114919 0.43133050122631311 0 -0.34734186250229288 0.43800397607633379 0 -0.35287332590606452 0.42286669900534152 0 -0.34570571071554562 0.40979218129833778 0 -0.33505425870616351 0.41935455792355758 0 -0.35287332590606452 0.42286669900534152 0 -0.35852673421015752 0.40777454147043352 0 -0.34570571071554562 0.40979218129833778 0 -0.34570571071554562 0.40979218129833778 0 -0.33505425870616351 0.41935455792355758 0 -0.33309915476604618 0.39945953116033489 0 -0.33505425870616351 0.41935455792355758 0 -0.3213846161094337 0.40947472033992482 0 -0.33309915476604618 0.39945953116033489 0 -0.33762431217114919 0.43133050122631311 0 -0.33114904453356858 0.44177981345096401 0 -0.34734186250229288 0.43800397607633379 0 -0.35287332590606452 0.42286669900534152 0 -0.33505425870616351 0.41935455792355758 0 -0.33762431217114919 0.43133050122631311 0 -0.33505425870616351 0.41935455792355758 0 -0.33762431217114919 0.43133050122631311 0 -0.32542379056417881 0.42774225784264469 0 -0.33762431217114919 0.43133050122631311 0 -0.32542379056417881 0.42774225784264469 0 -0.33114904453356858 0.44177981345096401 0 -0.32542379056417881 0.42774225784264469 0 -0.3101690951690903 0.42037095184163692 0 -0.31637140870371883 0.44213136639090089 0 -0.3101690951690903 0.42037095184163692 0 -0.31637140870371883 0.44213136639090089 0 -0.32542379056417881 0.42774225784264469 0 -0.31637140870371883 0.44213136639090089 0 -0.33114904453356858 0.44177981345096401 0 -0.32542379056417881 0.42774225784264469 0 -0.3213846161094337 0.40947472033992482 0 -0.3101690951690903 0.42037095184163692 0 -0.33505425870616351 0.41935455792355758 0 -0.32542379056417881 0.42774225784264469 0 -0.3213846161094337 0.40947472033992482 0 -0.3213846161094337 0.40947472033992482 0 -0.33309915476604618 0.39945953116033489 0 -0.31807009640684542 0.38764897908933238 0 -0.3213846161094337 0.40947472033992482 0 -0.31807009640684542 0.38764897908933238 0 -0.30396678163445873 0.39861053729237389 0 -0.33309915476604618 0.39945953116033489 0 -0.3308464011158388 0.38603377396263661 0 -0.31807009640684542 0.38764897908933238 0 -0.35070863215199649 0.39763495446524227 0 -0.34570571071554562 0.40979218129833778 0 -0.33309915476604618 0.39945953116033489 0 -0.35070863215199649 0.39763495446524227 0 -0.33309915476604618 0.39945953116033489 0 -0.34335692725943739 0.38916533866865488 0 -0.33309915476604618 0.39945953116033489 0 -0.34335692725943739 0.38916533866865488 0 -0.3308464011158388 0.38603377396263661 0 -0.35110617134949068 0.37525378765082029 0 -0.34335692725943739 0.38916533866865488 0 -0.3308464011158388 0.38603377396263661 0 -0.32385589886252159 0.37074975615596678 0 -0.35110617134949068 0.37525378765082029 0 -0.3308464011158388 0.38603377396263661 0 -0.32385589886252159 0.37074975615596678 0 -0.3308464011158388 0.38603377396263661 0 -0.31807009640684542 0.38764897908933238 0 -0.29660562637555282 0.36624572466111349 0 -0.30396678163445873 0.39861053729237389 0 -0.28394504730260062 0.3861448152958219 0 -0.29660562637555282 0.36624572466111349 0 -0.31807009640684542 0.38764897908933238 0 -0.30396678163445873 0.39861053729237389 0 -0.30396678163445873 0.39861053729237389 0 -0.28394504730260062 0.3861448152958219 0 -0.28931839545930571 0.40910352081393841 0 -0.28394504730260062 0.3861448152958219 0 -0.26487746711897131 0.40002615011966708 0 -0.2534912742602915 0.37863190589553852 0 -0.26935535388858378 0.36174169316625998 0 -0.28394504730260062 0.3861448152958219 0 -0.2534912742602915 0.37863190589553852 0 -0.28394504730260062 0.3861448152958219 0 -0.26487746711897131 0.40002615011966708 0 -0.28931839545930571 0.40910352081393841 0 -0.26487746711897131 0.40002615011966708 0 -0.2534912742602915 0.37863190589553852 0 -0.24716992600347901 0.40275553701657391 0 -0.26487746711897131 0.40002615011966708 0 -0.2534912742602915 0.37863190589553852 0 -0.25916706753152702 0.42850937245610432 0 -0.25711004665928022 0.4166616131391726 0 -0.27626365997765112 0.4214203943437958 0 -0.25916706753152702 0.42850937245610432 0 -0.25041584890975738 0.42506171517622082 0 -0.2496239743592801 0.43598833783917218 0 -0.25916706753152702 0.42850937245610432 0 -0.26242180775166629 0.44341480178216008 0 -0.2496239743592801 0.43598833783917218 0 -0.25916706753152702 0.42850937245610432 0 -0.25041584890975738 0.42506171517622082 0 -0.25711004665928022 0.4166616131391726 0 -0.25041584890975738 0.42506171517622082 0 -0.25711004665928022 0.4166616131391726 0 -0.2465799578199307 0.41790335815071261 0 -0.26487746711897131 0.40002615011966708 0 -0.25711004665928022 0.4166616131391726 0 -0.24716992600347901 0.40275553701657391 0 -0.25711004665928022 0.4166616131391726 0 -0.2465799578199307 0.41790335815071261 0 -0.24716992600347901 0.40275553701657391 0 -0.26487746711897131 0.40002615011966708 0 -0.27626365997765112 0.4214203943437958 0 -0.26487746711897131 0.40002615011966708 0 -0.25711004665928022 0.4166616131391726 0 -0.27626365997765112 0.4214203943437958 0 -0.26487746711897131 0.40002615011966708 0 -0.27626365997765112 0.4214203943437958 0 -0.28931839545930571 0.40910352081393841 0 -0.27626365997765112 0.4214203943437958 0 -0.2876498528363276 0.44281463856792641 0 -0.26242180775166629 0.44341480178216008 0 -0.25916706753152702 0.42850937245610432 0 -0.27626365997765112 0.4214203943437958 0 -0.26242180775166629 0.44341480178216008 0 -0.27626365997765112 0.4214203943437958 0 -0.2876498528363276 0.44281463856792641 0 -0.27626365997765112 0.4214203943437958 0 -0.2966883215530623 0.42804827599033468 0 -0.2876498528363276 0.44281463856792641 0 -0.27626365997765112 0.4214203943437958 0 -0.2966883215530623 0.42804827599033468 0 -0.28931839545930571 0.40910352081393841 0 -0.3213846161094337 0.40947472033992482 0 -0.30396678163445873 0.39861053729237389 0 -0.3101690951690903 0.42037095184163692 0 -0.2966883215530623 0.42804827599033468 0 -0.28931839545930571 0.40910352081393841 0 -0.3101690951690903 0.42037095184163692 0 -0.30396678163445873 0.39861053729237389 0 -0.3101690951690903 0.42037095184163692 0 -0.30396678163445873 0.39861053729237389 0 -0.28931839545930571 0.40910352081393841 0 -0.3101690951690903 0.42037095184163692 0 -0.2966883215530623 0.42804827599033468 0 -0.3101690951690903 0.42037095184163692 0 -0.31637140870371883 0.44213136639090089 0 -0.30740693399101893 0.45448832435115039 0 -0.2876498528363276 0.44281463856792641 0 -0.31637140870371883 0.44213136639090089 0 -0.2876498528363276 0.44281463856792641 0 -0.31637140870371883 0.44213136639090089 0 -0.2966883215530623 0.42804827599033468 0 -0.2876498528363276 0.44281463856792641 0 -0.31637140870371883 0.44213136639090089 0 -0.30740693399101893 0.45448832435115039 0 -0.30390279529871 0.46919453256740679 0 -0.31485207838370338 0.46697622036342118 0 -0.30740693399101893 0.45448832435115039 0 -0.29483593153315119 0.45631702031762239 0 -0.30390279529871 0.46919453256740679 0 -0.29483593153315119 0.45631702031762239 0 -0.28798440534465991 0.47068328958912581 0 -0.30390279529871 0.46919453256740679 0 -0.29483593153315119 0.45631702031762239 0 -0.28071467729489791 0.45637301508873951 0 -0.28798440534465991 0.47068328958912581 0 -0.30740693399101893 0.45448832435115039 0 -0.29483593153315119 0.45631702031762239 0 -0.2876498528363276 0.44281463856792641 0 -0.29483593153315119 0.45631702031762239 0 -0.2876498528363276 0.44281463856792641 0 -0.29483593153315119 0.45631702031762239 0 -0.2876498528363276 0.44281463856792641 0 -0.28071467729489791 0.45637301508873951 0 -0.2876498528363276 0.44281463856792641 0 -0.28071467729489791 0.45637301508873951 0 -0.26242180775166629 0.44341480178216008 0 -0.2876498528363276 0.44281463856792641 0 -0.26242180775166629 0.44341480178216008 0 -0.27068138900868127 0.46863532518686452 0 -0.28071467729489791 0.45637301508873951 0 -0.28798440534465991 0.47068328958912581 0 -0.27068138900868127 0.46863532518686452 0 -0.28071467729489791 0.45637301508873951 0 -0.26242180775166629 0.44341480178216008 0 -0.25297636418451092 0.46844195956186491 0 -0.26242180775166629 0.44341480178216008 0 -0.24688500471158811 0.45474851305260172 0 -0.27068138900868127 0.46863532518686452 0 -0.25297636418451092 0.46844195956186491 0 -0.26242180775166629 0.44341480178216008 0 -0.25150954377655987 0.5 0 -0.25536146233150581 0.48708676278121471 0 -0.27240521762990477 0.5 0 -0.27068138900868127 0.46863532518686452 0 -0.25297636418451092 0.46844195956186491 0 -0.25536146233150581 0.48708676278121471 0 -0.27068138900868127 0.46863532518686452 0 -0.25536146233150581 0.48708676278121471 0 -0.27802051884367301 0.49194383881884168 0 -0.27068138900868127 0.46863532518686452 0 -0.27802051884367301 0.49194383881884168 0 -0.28798440534465991 0.47068328958912581 0 -0.25536146233150581 0.48708676278121471 0 -0.27802051884367301 0.49194383881884168 0 -0.27240521762990477 0.5 0 -0.27802051884367301 0.49194383881884168 0 -0.29330089148324978 0.49999999999999989 0 -0.25536146233150581 0.48708676278121471 0 -0.27240521762990477 0.5 0 -0.27802051884367301 0.49194383881884168 0 -0.27802051884367301 0.49194383881884168 0 -0.30067957535584022 0.4968009148564691 0 -0.27802051884367301 0.49194383881884168 0 -0.2983607034822085 0.48206597074249108 0 -0.30067957535584022 0.4968009148564691 0 -0.27802051884367301 0.49194383881884168 0 -0.29330089148324978 0.49999999999999989 0 -0.30067957535584022 0.4968009148564691 0 -0.27802051884367301 0.49194383881884168 0 -0.28798440534465991 0.47068328958912581 0 -0.2983607034822085 0.48206597074249108 0 -0.28798440534465991 0.47068328958912581 0 -0.30390279529871 0.46919453256740679 0 -0.2983607034822085 0.48206597074249108 0 -0.30390279529871 0.46919453256740679 0 -0.2983607034822085 0.48206597074249108 0 -0.31250189199560841 0.47907787310975652 0 -0.30390279529871 0.46919453256740679 0 -0.31250189199560841 0.47907787310975652 0 -0.31485207838370338 0.46697622036342118 0 -0.2983607034822085 0.48206597074249108 0 -0.30067957535584022 0.4968009148564691 0 -0.31250189199560841 0.47907787310975652 0 -0.29330089148324978 0.49999999999999989 0 -0.30067957535584022 0.4968009148564691 0 -0.3156038323559226 0.49999999999999939 0 -0.29330089148324978 0.49999999999999989 0 -0.30067957535584022 0.4968009148564691 0 -0.30067957535584022 0.4968009148564691 0 -0.3156038323559226 0.49999999999999939 0 -0.30067957535584022 0.4968009148564691 0 -0.32794160839650022 0.48498125075529069 0 -0.38239902344878218 0.5 0 -0.3156038323559226 0.49999999999999939 0 -0.35053003926085391 0.4896211593520654 0 -0.3156038323559226 0.49999999999999939 0 -0.32794160839650022 0.48498125075529069 0 -0.35053003926085391 0.4896211593520654 0 -0.30067957535584022 0.4968009148564691 0 -0.3156038323559226 0.49999999999999939 0 -0.32794160839650022 0.48498125075529069 0 -0.30067957535584022 0.4968009148564691 0 -0.32794160839650022 0.48498125075529069 0 -0.31250189199560841 0.47907787310975652 0 -0.32531028952032248 0.47349284966477612 0 -0.33738886019173181 0.45984289455054878 0 -0.35520364143715932 0.47316158665411068 0 -0.32794160839650022 0.48498125075529069 0 -0.35520364143715932 0.47316158665411068 0 -0.32794160839650022 0.48498125075529069 0 -0.32531028952032248 0.47349284966477612 0 -0.35520364143715932 0.47316158665411068 0 -0.32794160839650022 0.48498125075529069 0 -0.32531028952032248 0.47349284966477612 0 -0.31250189199560841 0.47907787310975652 0 -0.32531028952032248 0.47349284966477612 0 -0.31250189199560841 0.47907787310975652 0 -0.31485207838370338 0.46697622036342118 0 -0.32531028952032248 0.47349284966477612 0 -0.32084084911202232 0.45781210802783801 0 -0.32531028952032248 0.47349284966477612 0 -0.32084084911202232 0.45781210802783801 0 -0.33738886019173181 0.45984289455054878 0 -0.32531028952032248 0.47349284966477612 0 -0.31485207838370338 0.46697622036342118 0 -0.32084084911202232 0.45781210802783801 0 -0.30740693399101893 0.45448832435115039 0 -0.31485207838370338 0.46697622036342118 0 -0.32084084911202232 0.45781210802783801 0 -0.32084084911202232 0.45781210802783801 0 -0.31637140870371883 0.44213136639090089 0 -0.32084084911202232 0.45781210802783801 0 -0.31637140870371883 0.44213136639090089 0 -0.33114904453356858 0.44177981345096401 0 -0.30740693399101893 0.45448832435115039 0 -0.32084084911202232 0.45781210802783801 0 -0.31637140870371883 0.44213136639090089 0 -0.31637140870371883 0.44213136639090089 0 -0.33114904453356858 0.44177981345096401 0 -0.33114904453356858 0.44177981345096401 0 -0.34734186250229288 0.43800397607633379 0 -0.34777628664520832 0.45174337486921251 0 -0.33114904453356858 0.44177981345096401 0 -0.33738886019173181 0.45984289455054878 0 -0.34777628664520832 0.45174337486921251 0 -0.32084084911202232 0.45781210802783801 0 -0.33114904453356858 0.44177981345096401 0 -0.33738886019173181 0.45984289455054878 0 -0.36201050672191021 0.44918905117223951 0 -0.35520364143715932 0.47316158665411068 0 -0.34777628664520832 0.45174337486921251 0 -0.36201050672191021 0.44918905117223951 0 -0.35520364143715932 0.47316158665411068 0 -0.33738886019173181 0.45984289455054878 0 -0.34777628664520832 0.45174337486921251 0 -0.35520364143715932 0.47316158665411068 0 -0.34734186250229288 0.43800397607633379 0 -0.34777628664520832 0.45174337486921251 0 -0.36201050672191021 0.44918905117223951 0 -0.37713600204593661 0.45433385042942831 0 -0.37869458853582882 0.44368359276733033 0 -0.36201050672191021 0.44918905117223951 0 -0.37869458853582882 0.44368359276733033 0 -0.37544843491033292 0.43162360578180209 0 -0.36201050672191021 0.44918905117223951 0 -0.37713600204593661 0.45433385042942831 0 -0.36201050672191021 0.44918905117223951 0 -0.37135561636262798 0.46615877369790432 0 -0.36201050672191021 0.44918905117223951 0 -0.37135561636262798 0.46615877369790432 0 -0.35520364143715932 0.47316158665411068 0 -0.37135561636262798 0.46615877369790432 0 -0.36903251233770917 0.48117520136837988 0 -0.35520364143715932 0.47316158665411068 0 -0.37135561636262798 0.46615877369790432 0 -0.35520364143715932 0.47316158665411068 0 -0.38239902344878218 0.5 0 -0.36903251233770917 0.48117520136837988 0 -0.35053003926085391 0.4896211593520654 0 -0.32794160839650022 0.48498125075529069 0 -0.35053003926085391 0.4896211593520654 0 -0.35520364143715932 0.47316158665411068 0 -0.36903251233770917 0.48117520136837988 0 -0.35053003926085391 0.4896211593520654 0 -0.35520364143715932 0.47316158665411068 0 -0.35053003926085391 0.4896211593520654 0 -0.35520364143715932 0.47316158665411068 0 -0.14539419856996019 0.47889722085621123 0 -0.1416472701671638 0.46114068532180241 0 -0.15701720564975361 0.47225968750125019 0 -0.14539419856996019 0.47889722085621123 0 -0.15701720564975361 0.47225968750125019 0 -0.15962164000563631 0.48604437339741741 0 -0.14539419856996019 0.47889722085621123 0 -0.1470068335709305 0.5 0 -0.15962164000563631 0.48604437339741741 0 -0.1470068335709305 0.5 0 -0.12759413471959649 0.48050782004634279 0 -0.1180146717961308 0.5 0 -0.14539419856996019 0.47889722085621123 0 -0.1470068335709305 0.5 0 -0.12759413471959649 0.48050782004634279 0 -0.14539419856996019 0.47889722085621123 0 -0.12759413471959649 0.48050782004634279 0 -0.1416472701671638 0.46114068532180241 0 -0.1416472701671638 0.46114068532180241 0 -0.1139116018964431 0.46415145338435548 0 -0.13603937458480511 0.44642137986053848 0 -0.1416472701671638 0.46114068532180241 0 -0.124592693477486 0.45411183847552838 0 -0.1416472701671638 0.46114068532180241 0 -0.124592693477486 0.45411183847552838 0 -0.1139116018964431 0.46415145338435548 0 -0.12759413471959649 0.48050782004634279 0 -0.1416472701671638 0.46114068532180241 0 -0.1139116018964431 0.46415145338435548 0 -0.13603937458480511 0.44642137986053848 0 -0.13412949418985129 0.43221794818236858 0 -0.12303719105788261 0.43652431012537302 0 -0.13603937458480511 0.44642137986053848 0 -0.1416472701671638 0.46114068532180241 0 -0.161327971605355 0.44581977614450191 0 -0.13603937458480511 0.44642137986053848 0 -0.161327971605355 0.44581977614450191 0 -0.14893748563828951 0.43095319142160282 0 -0.13603937458480511 0.44642137986053848 0 -0.161327971605355 0.44581977614450191 0 -0.1416472701671638 0.46114068532180241 0 -0.1693829384378846 0.4581299172592504 0 -0.15701720564975361 0.47225968750125019 0 -0.1416472701671638 0.46114068532180241 0 -0.1693829384378846 0.4581299172592504 0 -0.1416472701671638 0.46114068532180241 0 -0.1693829384378846 0.4581299172592504 0 -0.161327971605355 0.44581977614450191 0 -0.1693829384378846 0.4581299172592504 0 -0.17269096689180721 0.47906495862962589 0 -0.1693829384378846 0.4581299172592504 0 -0.161327971605355 0.44581977614450191 0 -0.1752912837770208 0.45260804454121178 0 -0.161327971605355 0.44581977614450191 0 -0.17430126603256271 0.43703243398368602 0 -0.16500241387698941 0.43350664445400261 0 -0.161327971605355 0.44581977614450191 0 -0.18661656862590489 0.4452181724284654 0 -0.17430126603256271 0.43703243398368602 0 -0.161327971605355 0.44581977614450191 0 -0.1752912837770208 0.45260804454121178 0 -0.18661656862590489 0.4452181724284654 0 -0.161327971605355 0.44581977614450191 0 -0.18661656862590489 0.4452181724284654 0 -0.1752912837770208 0.45260804454121178 0 -0.18661656862590489 0.4452181724284654 0 -0.1897735020382593 0.45591647653497169 0 -0.18661656862590489 0.4452181724284654 0 -0.18437788607156491 0.43271401502767631 0 -0.17430126603256271 0.43703243398368602 0 -0.1693829384378846 0.4581299172592504 0 -0.18139933071591069 0.46789557220985728 0 -0.17269096689180721 0.47906495862962589 0 -0.1693829384378846 0.4581299172592504 0 -0.1897735020382593 0.45591647653497169 0 -0.1693829384378846 0.4581299172592504 0 -0.1752912837770208 0.45260804454121178 0 -0.1897735020382593 0.45591647653497169 0 -0.1693829384378846 0.4581299172592504 0 -0.18139933071591069 0.46789557220985728 0 -0.1897735020382593 0.45591647653497169 0 -0.18139933071591069 0.46789557220985728 0 -0.17269096689180721 0.47906495862962589 0 -0.18936568733968731 0.48550097392233238 0 -0.17269096689180721 0.47906495862962589 0 -0.15701720564975361 0.47225968750125019 0 -0.15962164000563631 0.48604437339741741 0 -0.1693829384378846 0.4581299172592504 0 -0.17269096689180721 0.47906495862962589 0 -0.15701720564975361 0.47225968750125019 0 -0.17269096689180721 0.47906495862962589 0 -0.15962164000563631 0.48604437339741741 0 -0.1759989953457301 0.50000000000000133 0 -0.1470068335709305 0.5 0 -0.15962164000563631 0.48604437339741741 0 -0.1759989953457301 0.50000000000000133 0 -0.17269096689180721 0.47906495862962589 0 -0.1759989953457301 0.50000000000000133 0 -0.18936568733968731 0.48550097392233238 0 -0.17269096689180721 0.47906495862962589 0 -0.1759989953457301 0.50000000000000133 0 -0.18936568733968731 0.48550097392233238 0 -0.21146066058229429 0.47767641808772732 0 -0.20330643263447251 0.5 0 -0.1759989953457301 0.50000000000000133 0 -0.18936568733968731 0.48550097392233238 0 -0.20330643263447251 0.5 0 -0.18936568733968731 0.48550097392233238 0 -0.19612179351869199 0.47026338018725439 0 -0.21146066058229429 0.47767641808772732 0 -0.18139933071591069 0.46789557220985728 0 -0.18936568733968731 0.48550097392233238 0 -0.19612179351869199 0.47026338018725439 0 -0.21146066058229429 0.47767641808772732 0 -0.20330643263447251 0.5 0 -0.21952084223982971 0.48997652620782872 0 -0.20330643263447251 0.5 0 -0.23061386992321489 0.49999999999999972 0 -0.21952084223982971 0.48997652620782872 0 -0.23061386992321489 0.49999999999999972 0 -0.21952084223982971 0.48997652620782872 0 -0.23270240581933849 0.4822296867435879 0 -0.23061386992321489 0.49999999999999972 0 -0.23270240581933849 0.4822296867435879 0 -0.23270240581933849 0.4822296867435879 0 -0.23494808424317021 0.46312232586998969 0 -0.21928025980717161 0.46406663106441909 0 -0.23270240581933849 0.4822296867435879 0 -0.23494808424317021 0.46312232586998969 0 -0.21146066058229429 0.47767641808772732 0 -0.23270240581933849 0.4822296867435879 0 -0.21928025980717161 0.46406663106441909 0 -0.21146066058229429 0.47767641808772732 0 -0.23270240581933849 0.4822296867435879 0 -0.21146066058229429 0.47767641808772732 0 -0.21952084223982971 0.48997652620782872 0 -0.23270240581933849 0.4822296867435879 0 -0.25297636418451092 0.46844195956186491 0 -0.23270240581933849 0.4822296867435879 0 -0.23494808424317021 0.46312232586998969 0 -0.25297636418451092 0.46844195956186491 0 -0.25536146233150581 0.48708676278121471 0 -0.23270240581933849 0.4822296867435879 0 -0.23061386992321489 0.49999999999999972 0 -0.23270240581933849 0.4822296867435879 0 -0.24212250228757831 0.49229794886092398 0 -0.25536146233150581 0.48708676278121471 0 -0.23270240581933849 0.4822296867435879 0 -0.24212250228757831 0.49229794886092398 0 -0.25150954377655987 0.5 0 -0.23061386992321489 0.49999999999999972 0 -0.24212250228757831 0.49229794886092398 0 -0.25536146233150581 0.48708676278121471 0 -0.23270240581933849 0.4822296867435879 0 -0.25150954377655987 0.5 0 -0.25536146233150581 0.48708676278121471 0 -0.24212250228757831 0.49229794886092398 0 -0.26242180775166629 0.44341480178216008 0 -0.2371937626670049 0.44401496499639181 0 -0.2496239743592801 0.43598833783917218 0 -0.26242180775166629 0.44341480178216008 0 -0.2371937626670049 0.44401496499639181 0 -0.26242180775166629 0.44341480178216008 0 -0.2371937626670049 0.44401496499639181 0 -0.24688500471158811 0.45474851305260172 0 -0.25297636418451092 0.46844195956186491 0 -0.24688500471158811 0.45474851305260172 0 -0.23494808424317021 0.46312232586998969 0 -0.2371937626670049 0.44401496499639181 0 -0.24688500471158811 0.45474851305260172 0 -0.23494808424317021 0.46312232586998969 0 -0.2371937626670049 0.44401496499639181 0 -0.23494808424317021 0.46312232586998969 0 -0.23494808424317021 0.46312232586998969 0 -0.22583181809095029 0.4539551226608074 0 -0.21928025980717161 0.46406663106441909 0 -0.2371937626670049 0.44401496499639181 0 -0.23494808424317021 0.46312232586998969 0 -0.22583181809095029 0.4539551226608074 0 -0.22583181809095029 0.4539551226608074 0 -0.21928025980717161 0.46406663106441909 0 -0.21190516564645481 0.44461656871242872 0 -0.2371937626670049 0.44401496499639181 0 -0.21190516564645481 0.44461656871242872 0 -0.22141565818497649 0.43407240660632651 0 -0.2371937626670049 0.44401496499639181 0 -0.21190516564645481 0.44461656871242872 0 -0.2371937626670049 0.44401496499639181 0 -0.22583181809095029 0.4539551226608074 0 -0.21190516564645481 0.44461656871242872 0 -0.21146066058229429 0.47767641808772732 0 -0.21928025980717161 0.46406663106441909 0 -0.20479661355704329 0.45801713305560549 0 -0.19612179351869199 0.47026338018725439 0 -0.21146066058229429 0.47767641808772732 0 -0.20479661355704329 0.45801713305560549 0 -0.21928025980717161 0.46406663106441909 0 -0.21190516564645481 0.44461656871242872 0 -0.20479661355704329 0.45801713305560549 0 -0.19612179351869199 0.47026338018725439 0 -0.20479661355704329 0.45801713305560549 0 -0.1897735020382593 0.45591647653497169 0 -0.18139933071591069 0.46789557220985728 0 -0.19612179351869199 0.47026338018725439 0 -0.1897735020382593 0.45591647653497169 0 -0.18661656862590489 0.4452181724284654 0 -0.20479661355704329 0.45801713305560549 0 -0.1897735020382593 0.45591647653497169 0 -0.18661656862590489 0.4452181724284654 0 -0.21190516564645481 0.44461656871242872 0 -0.19574245798596099 0.42949823362790251 0 -0.18661656862590489 0.4452181724284654 0 -0.21190516564645481 0.44461656871242872 0 -0.20479661355704329 0.45801713305560549 0 -0.18661656862590489 0.4452181724284654 0 -0.21190516564645481 0.44461656871242872 0 -0.18661656862590489 0.4452181724284654 0 -0.19574245798596099 0.42949823362790251 0 -0.18437788607156491 0.43271401502767631 0 -0.19574245798596099 0.42949823362790251 0 -0.19419290350665219 0.41643083193278951 0 -0.18405693856064981 0.42154113633474433 0 -0.19574245798596099 0.42949823362790251 0 -0.18405693856064981 0.42154113633474433 0 -0.18437788607156491 0.43271401502767631 0 -0.19574245798596099 0.42949823362790251 0 -0.20230762459424961 0.42178732542241582 0 -0.20942097817331079 0.4291596304674577 0 -0.19574245798596099 0.42949823362790251 0 -0.19419290350665219 0.41643083193278951 0 -0.20230762459424961 0.42178732542241582 0 -0.19419290350665219 0.41643083193278951 0 -0.19683522417983651 0.40285975325444412 0 -0.18272649685871639 0.40778330413433872 0 -0.19419290350665219 0.41643083193278951 0 -0.20230762459424961 0.42178732542241582 0 -0.20348867886050001 0.41511523882289147 0 -0.19419290350665219 0.41643083193278951 0 -0.20348867886050001 0.41511523882289147 0 -0.19683522417983651 0.40285975325444412 0 -0.20348867886050001 0.41511523882289147 0 -0.2156065646346455 0.41621172747081919 0 -0.19683522417983651 0.40285975325444412 0 -0.2156065646346455 0.41621172747081919 0 -0.19683522417983651 0.40285975325444412 0 -0.2156065646346455 0.41621172747081919 0 -0.20993595805377491 0.40111826056625471 0 -0.19683522417983651 0.40285975325444412 0 -0.20348867886050001 0.41511523882289147 0 -0.20999777435063161 0.42067059539854729 0 -0.2156065646346455 0.41621172747081919 0 -0.20230762459424961 0.42178732542241582 0 -0.20348867886050001 0.41511523882289147 0 -0.20999777435063161 0.42067059539854729 0 -0.20999777435063161 0.42067059539854729 0 -0.2156065646346455 0.41621172747081919 0 -0.21825632741979539 0.4261283590242233 0 -0.21190516564645481 0.44461656871242872 0 -0.19574245798596099 0.42949823362790251 0 -0.20942097817331079 0.4291596304674577 0 -0.20230762459424961 0.42178732542241582 0 -0.20999777435063161 0.42067059539854729 0 -0.20942097817331079 0.4291596304674577 0 -0.20999777435063161 0.42067059539854729 0 -0.20942097817331079 0.4291596304674577 0 -0.21825632741979539 0.4261283590242233 0 -0.21190516564645481 0.44461656871242872 0 -0.20942097817331079 0.4291596304674577 0 -0.22141565818497649 0.43407240660632651 0 -0.20942097817331079 0.4291596304674577 0 -0.21825632741979539 0.4261283590242233 0 -0.22141565818497649 0.43407240660632651 0 -0.2371937626670049 0.44401496499639181 0 -0.22141565818497649 0.43407240660632651 0 -0.23497194339778391 0.42998623859633989 0 -0.2156065646346455 0.41621172747081919 0 -0.23497194339778391 0.42998623859633989 0 -0.2156065646346455 0.41621172747081919 0 -0.21825632741979539 0.4261283590242233 0 -0.23497194339778391 0.42998623859633989 0 -0.21825632741979539 0.4261283590242233 0 -0.22141565818497649 0.43407240660632651 0 -0.23497194339778391 0.42998623859633989 0 -0.23408429973772049 0.42306918654920478 0 -0.22813061467174611 0.41910435666930151 0 -0.23497194339778391 0.42998623859633989 0 -0.2156065646346455 0.41621172747081919 0 -0.22813061467174611 0.41910435666930151 0 -0.23497194339778391 0.42998623859633989 0 -0.2156065646346455 0.41621172747081919 0 -0.2252203767130061 0.40842778393324708 0 -0.22053181233972 0.3959078435955698 0 -0.2156065646346455 0.41621172747081919 0 -0.2252203767130061 0.40842778393324708 0 -0.22813061467174611 0.41910435666930151 0 -0.2252203767130061 0.40842778393324708 0 -0.23103747721863721 0.4117821553941835 0 -0.2330526095807727 0.40247464851108039 0 -0.23103747721863721 0.4117821553941835 0 -0.23857402362958349 0.41290627343017638 0 -0.2330526095807727 0.40247464851108039 0 -0.2252203767130061 0.40842778393324708 0 -0.23103747721863721 0.4117821553941835 0 -0.22813061467174611 0.41910435666930151 0 -0.23103747721863721 0.4117821553941835 0 -0.22813061467174611 0.41910435666930151 0 -0.2338411313447257 0.4178877380565803 0 -0.23408429973772049 0.42306918654920478 0 -0.22813061467174611 0.41910435666930151 0 -0.2338411313447257 0.4178877380565803 0 -0.2338411313447257 0.4178877380565803 0 -0.23857402362958349 0.41290627343017638 0 -0.2393935095366263 0.42529841287459752 0 -0.23857402362958349 0.41290627343017638 0 -0.2465799578199307 0.41790335815071261 0 -0.2393935095366263 0.42529841287459752 0 -0.23103747721863721 0.4117821553941835 0 -0.2338411313447257 0.4178877380565803 0 -0.23857402362958349 0.41290627343017638 0 -0.23857402362958349 0.41290627343017638 0 -0.2465799578199307 0.41790335815071261 0 -0.24716992600347901 0.40275553701657391 0 -0.2371937626670049 0.44401496499639181 0 -0.2496239743592801 0.43598833783917218 0 -0.2393935095366263 0.42529841287459752 0 -0.25041584890975738 0.42506171517622082 0 -0.2465799578199307 0.41790335815071261 0 -0.2393935095366263 0.42529841287459752 0 -0.2371937626670049 0.44401496499639181 0 -0.2393935095366263 0.42529841287459752 0 -0.25041584890975738 0.42506171517622082 0 -0.2496239743592801 0.43598833783917218 0 -0.2393935095366263 0.42529841287459752 0 -0.2371937626670049 0.44401496499639181 0 -0.23497194339778391 0.42998623859633989 0 -0.2393935095366263 0.42529841287459752 0 -0.23408429973772049 0.42306918654920478 0 -0.23497194339778391 0.42998623859633989 0 -0.2393935095366263 0.42529841287459752 0 -0.23408429973772049 0.42306918654920478 0 -0.2338411313447257 0.4178877380565803 0 -0.2393935095366263 0.42529841287459752 0 -0.2534912742602915 0.37863190589553852 0 -0.235700057070685 0.38680910338834762 0 -0.2374271561054522 0.37071654130413811 0 -0.2534912742602915 0.37863190589553852 0 -0.235700057070685 0.38680910338834762 0 -0.24716992600347901 0.40275553701657391 0 -0.235700057070685 0.38680910338834762 0 -0.24716992600347901 0.40275553701657391 0 -0.2330526095807727 0.40247464851108039 0 -0.23857402362958349 0.41290627343017638 0 -0.24716992600347901 0.40275553701657391 0 -0.2330526095807727 0.40247464851108039 0 -0.235700057070685 0.38680910338834762 0 -0.2330526095807727 0.40247464851108039 0 -0.22053181233972 0.3959078435955698 0 -0.2252203767130061 0.40842778393324708 0 -0.2330526095807727 0.40247464851108039 0 -0.22053181233972 0.3959078435955698 0 -0.22053181233972 0.3959078435955698 0 -0.22545706004479499 0.37560395972032051 0 -0.235700057070685 0.38680910338834762 0 -0.22053181233972 0.3959078435955698 0 -0.22545706004479499 0.37560395972032051 0 -0.235700057070685 0.38680910338834762 0 -0.22545706004479499 0.37560395972032051 0 -0.2374271561054522 0.37071654130413811 0 -0.22053181233972 0.3959078435955698 0 -0.22545706004479499 0.37560395972032051 0 -0.20655093895115731 0.38469077344997787 0 -0.22545706004479499 0.37560395972032051 0 -0.20655093895115731 0.38469077344997787 0 -0.21242880461513869 0.36688865926608538 0 -0.22053181233972 0.3959078435955698 0 -0.20655093895115731 0.38469077344997787 0 -0.20993595805377491 0.40111826056625471 0 -0.20655093895115731 0.38469077344997787 0 -0.20993595805377491 0.40111826056625471 0 -0.19683522417983651 0.40285975325444412 0 -0.2156065646346455 0.41621172747081919 0 -0.22053181233972 0.3959078435955698 0 -0.20993595805377491 0.40111826056625471 0 -0.2156065646346455 0.41621172747081919 0 -0.22053181233972 0.3959078435955698 0 -0.18241921864772129 0.38403745988165477 0 -0.19405764499252809 0.36762864906557002 0 -0.20655093895115731 0.38469077344997787 0 -0.19683522417983651 0.40285975325444412 0 -0.18241921864772129 0.38403745988165477 0 -0.20655093895115731 0.38469077344997787 0 -0.18241921864772129 0.38403745988165477 0 -0.19405764499252809 0.36762864906557002 0 -0.18241921864772129 0.38403745988165477 0 -0.17806388372502671 0.38950777903806999 0 -0.15929254327021691 0.37615580482169603 0 -0.18241921864772129 0.38403745988165477 0 -0.15929254327021691 0.37615580482169603 0 -0.1758059141295408 0.36818531075265493 0 -0.15929254327021691 0.37615580482169603 0 -0.15793856304805531 0.39650094508959649 0 -0.16672541562308099 0.39107449431207431 0 -0.17806388372502671 0.38950777903806999 0 -0.15929254327021691 0.37615580482169603 0 -0.17806388372502671 0.38950777903806999 0 -0.15929254327021691 0.37615580482169603 0 -0.16672541562308099 0.39107449431207431 0 -0.15793856304805531 0.39650094508959649 0 -0.16249195638706571 0.40996654043567632 0 -0.1486734091706475 0.41172069749819568 0 -0.15793856304805531 0.39650094508959649 0 -0.17160667244902511 0.40213344829893449 0 -0.16249195638706571 0.40996654043567632 0 -0.15793856304805531 0.39650094508959649 0 -0.16672541562308099 0.39107449431207431 0 -0.17160667244902511 0.40213344829893449 0 -0.19683522417983651 0.40285975325444412 0 -0.18241921864772129 0.38403745988165477 0 -0.17806388372502671 0.38950777903806999 0 -0.17806388372502671 0.38950777903806999 0 -0.17160667244902511 0.40213344829893449 0 -0.18272649685871639 0.40778330413433872 0 -0.19683522417983651 0.40285975325444412 0 -0.17806388372502671 0.38950777903806999 0 -0.18272649685871639 0.40778330413433872 0 -0.19683522417983651 0.40285975325444412 0 -0.17806388372502671 0.38950777903806999 0 -0.17806388372502671 0.38950777903806999 0 -0.16672541562308099 0.39107449431207431 0 -0.17160667244902511 0.40213344829893449 0 -0.19419290350665219 0.41643083193278951 0 -0.18272649685871639 0.40778330413433872 0 -0.18405693856064981 0.42154113633474433 0 -0.18272649685871639 0.40778330413433872 0 -0.18405693856064981 0.42154113633474433 0 -0.17290802863691579 0.41616477908455929 0 -0.18405693856064981 0.42154113633474433 0 -0.17290802863691579 0.41616477908455929 0 -0.17418148998299909 0.42790356186378381 0 -0.17160667244902511 0.40213344829893449 0 -0.18272649685871639 0.40778330413433872 0 -0.17290802863691579 0.41616477908455929 0 -0.18405693856064981 0.42154113633474433 0 -0.18437788607156491 0.43271401502767631 0 -0.17418148998299909 0.42790356186378381 0 -0.18437788607156491 0.43271401502767631 0 -0.17418148998299909 0.42790356186378381 0 -0.17430126603256271 0.43703243398368602 0 -0.16500241387698941 0.43350664445400261 0 -0.16133310863068481 0.42331283220709531 0 -0.14893748563828951 0.43095319142160282 0 -0.161327971605355 0.44581977614450191 0 -0.16500241387698941 0.43350664445400261 0 -0.14893748563828951 0.43095319142160282 0 -0.17418148998299909 0.42790356186378381 0 -0.17430126603256271 0.43703243398368602 0 -0.16500241387698941 0.43350664445400261 0 -0.17290802863691579 0.41616477908455929 0 -0.17418148998299909 0.42790356186378381 0 -0.16133310863068481 0.42331283220709531 0 -0.17418148998299909 0.42790356186378381 0 -0.16500241387698941 0.43350664445400261 0 -0.16133310863068481 0.42331283220709531 0 -0.17160667244902511 0.40213344829893449 0 -0.17290802863691579 0.41616477908455929 0 -0.16249195638706571 0.40996654043567632 0 -0.17290802863691579 0.41616477908455929 0 -0.16133310863068481 0.42331283220709531 0 -0.16249195638706571 0.40996654043567632 0 -0.16133310863068481 0.42331283220709531 0 -0.16249195638706571 0.40996654043567632 0 -0.1486734091706475 0.41172069749819568 0 -0.1486734091706475 0.41172069749819568 0 -0.14893748563828951 0.43095319142160282 0 -0.13691692263789179 0.42097324979108042 0 -0.16133310863068481 0.42331283220709531 0 -0.1486734091706475 0.41172069749819568 0 -0.14893748563828951 0.43095319142160282 0 -0.13603937458480511 0.44642137986053848 0 -0.14893748563828951 0.43095319142160282 0 -0.13412949418985129 0.43221794818236858 0 -0.14893748563828951 0.43095319142160282 0 -0.13412949418985129 0.43221794818236858 0 -0.13691692263789179 0.42097324979108042 0 -0.13412949418985129 0.43221794818236858 0 -0.13691692263789179 0.42097324979108042 0 -0.12367544176092039 0.42326883690065081 0 -0.13412949418985129 0.43221794818236858 0 -0.12303719105788261 0.43652431012537302 0 -0.12367544176092039 0.42326883690065081 0 -0.13691692263789179 0.42097324979108042 0 -0.12814825479501649 0.40523118854628548 0 -0.12367544176092039 0.42326883690065081 0 -0.1486734091706475 0.41172069749819568 0 -0.13691692263789179 0.42097324979108042 0 -0.12814825479501649 0.40523118854628548 0 -0.12814825479501649 0.40523118854628548 0 -0.1345080934322771 0.38806363407020622 0 -0.1210460299630589 0.39112187385447378 0 -0.12814825479501649 0.40523118854628548 0 -0.1345080934322771 0.38806363407020622 0 -0.14513201166661191 0.39701596424322622 0 -0.1345080934322771 0.38806363407020622 0 -0.1242426459709489 0.37845193548536898 0 -0.1210460299630589 0.39112187385447378 0 -0.13934581399870921 0.37612969017655951 0 -0.1345080934322771 0.38806363407020622 0 -0.1242426459709489 0.37845193548536898 0 -0.13934581399870921 0.37612969017655951 0 -0.1345080934322771 0.38806363407020622 0 -0.1472434050831741 0.3867732076802568 0 -0.15929254327021691 0.37615580482169603 0 -0.13934581399870921 0.37612969017655951 0 -0.1472434050831741 0.3867732076802568 0 -0.15929254327021691 0.37615580482169603 0 -0.15793856304805531 0.39650094508959649 0 -0.1472434050831741 0.3867732076802568 0 -0.1345080934322771 0.38806363407020622 0 -0.1472434050831741 0.3867732076802568 0 -0.14513201166661191 0.39701596424322622 0 -0.1486734091706475 0.41172069749819568 0 -0.12814825479501649 0.40523118854628548 0 -0.14513201166661191 0.39701596424322622 0 -0.15793856304805531 0.39650094508959649 0 -0.1472434050831741 0.3867732076802568 0 -0.14513201166661191 0.39701596424322622 0 -0.15793856304805531 0.39650094508959649 0 -0.1486734091706475 0.41172069749819568 0 -0.14513201166661191 0.39701596424322622 0 -0.15374902393558201 0.34706583296595273 0 -0.13147933473931819 0.35657728607065298 0 -0.15374902393558201 0.34706583296595273 0 -0.14052120281540731 0.36280383060532201 0 -0.13147933473931819 0.35657728607065298 0 -0.15374902393558201 0.34706583296595273 0 -0.15474766345108201 0.3611542269911111 0 -0.14052120281540731 0.36280383060532201 0 -0.15929254327021691 0.37615580482169603 0 -0.13934581399870921 0.37612969017655951 0 -0.14052120281540731 0.36280383060532201 0 -0.15929254327021691 0.37615580482169603 0 -0.15474766345108201 0.3611542269911111 0 -0.14052120281540731 0.36280383060532201 0 -0.15929254327021691 0.37615580482169603 0 -0.14052120281540731 0.36280383060532201 0 -0.14052120281540731 0.36280383060532201 0 -0.12895972861348759 0.36801029630265142 0 -0.13147933473931819 0.35657728607065298 0 -0.13934581399870921 0.37612969017655951 0 -0.14052120281540731 0.36280383060532201 0 -0.12895972861348759 0.36801029630265142 0 -0.13934581399870921 0.37612969017655951 0 -0.12895972861348759 0.36801029630265142 0 -0.1242426459709489 0.37845193548536898 0 -0.15374902393558201 0.34706583296595273 0 -0.13147933473931819 0.35657728607065298 0 -0.13164190166387879 0.33354106440722819 0 -0.13164190166387879 0.33354106440722819 0 -0.1347698881094273 0.31104537233907559 0 -0.1093258858638162 0.32207641327674702 0 -0.13164190166387879 0.33354106440722819 0 -0.15704274902292339 0.32138031014367879 0 -0.1347698881094273 0.31104537233907559 0 -0.15374902393558201 0.34706583296595273 0 -0.13164190166387879 0.33354106440722819 0 -0.15704274902292339 0.32138031014367879 0 -0.15374902393558201 0.34706583296595273 0 -0.17601871313184569 0.33755437986125242 0 -0.15374902393558201 0.34706583296595273 0 -0.17601871313184569 0.33755437986125242 0 -0.1724260517977278 0.34572083944451659 0 -0.15374902393558201 0.34706583296595273 0 -0.15704274902292339 0.32138031014367879 0 -0.17601871313184569 0.33755437986125242 0 -0.15704274902292339 0.32138031014367879 0 -0.18059346347182789 0.31589983920406461 0 -0.17601871313184569 0.33755437986125242 0 -0.15704274902292339 0.32138031014367879 0 -0.18059346347182789 0.31589983920406461 0 -0.18059346347182789 0.31589983920406461 0 -0.17601871313184569 0.33755437986125242 0 -0.19828840232810849 0.32804292675654978 0 -0.17601871313184569 0.33755437986125242 0 -0.18906106156752939 0.34847033884699818 0 -0.19225054800047439 0.33982601273022089 0 -0.17601871313184569 0.33755437986125242 0 -0.19828840232810849 0.32804292675654978 0 -0.17601871313184569 0.33755437986125242 0 -0.1724260517977278 0.34572083944451659 0 -0.18906106156752939 0.34847033884699818 0 -0.1793587814952515 0.35660996946608142 0 -0.1724260517977278 0.34572083944451659 0 -0.18906106156752939 0.34847033884699818 0 -0.1793587814952515 0.35660996946608142 0 -0.19405764499252809 0.36762864906557002 0 -0.18906106156752939 0.34847033884699818 0 -0.1724260517977278 0.34572083944451659 0 -0.18906106156752939 0.34847033884699818 0 -0.1793587814952515 0.35660996946608142 0 -0.1724260517977278 0.34572083944451659 0 -0.1654278837831219 0.35859143957147382 0 -0.15374902393558201 0.34706583296595273 0 -0.1724260517977278 0.34572083944451659 0 -0.1654278837831219 0.35859143957147382 0 -0.15374902393558201 0.34706583296595273 0 -0.15474766345108201 0.3611542269911111 0 -0.1654278837831219 0.35859143957147382 0 -0.15929254327021691 0.37615580482169603 0 -0.1654278837831219 0.35859143957147382 0 -0.1758059141295408 0.36818531075265493 0 -0.15929254327021691 0.37615580482169603 0 -0.15474766345108201 0.3611542269911111 0 -0.1654278837831219 0.35859143957147382 0 -0.1793587814952515 0.35660996946608142 0 -0.1758059141295408 0.36818531075265493 0 -0.19405764499252809 0.36762864906557002 0 -0.18241921864772129 0.38403745988165477 0 -0.1758059141295408 0.36818531075265493 0 -0.19405764499252809 0.36762864906557002 0 -0.1793587814952515 0.35660996946608142 0 -0.1654278837831219 0.35859143957147382 0 -0.1758059141295408 0.36818531075265493 0 -0.19405764499252809 0.36762864906557002 0 -0.2056960713373305 0.35121983824948211 0 -0.18906106156752939 0.34847033884699818 0 -0.2056960713373305 0.35121983824948211 0 -0.2012923633457574 0.34159879951405719 0 -0.19405764499252809 0.36762864906557002 0 -0.18906106156752939 0.34847033884699818 0 -0.2056960713373305 0.35121983824948211 0 -0.18906106156752939 0.34847033884699818 0 -0.2056960713373305 0.35121983824948211 0 -0.2056960713373305 0.35121983824948211 0 -0.21242880461513869 0.36688865926608538 0 -0.230382307749878 0.35530007584507312 0 -0.2056960713373305 0.35121983824948211 0 -0.230382307749878 0.35530007584507312 0 -0.20655093895115731 0.38469077344997787 0 -0.19405764499252809 0.36762864906557002 0 -0.21242880461513869 0.36688865926608538 0 -0.19405764499252809 0.36762864906557002 0 -0.2056960713373305 0.35121983824948211 0 -0.21242880461513869 0.36688865926608538 0 -0.22545706004479499 0.37560395972032051 0 -0.230382307749878 0.35530007584507312 0 -0.22545706004479499 0.37560395972032051 0 -0.21242880461513869 0.36688865926608538 0 -0.230382307749878 0.35530007584507312 0 -0.22545706004479499 0.37560395972032051 0 -0.230382307749878 0.35530007584507312 0 -0.2374271561054522 0.37071654130413811 0 -0.2056960713373305 0.35121983824948211 0 -0.22227307153441711 0.34489391122745011 0 -0.230382307749878 0.35530007584507312 0 -0.230382307749878 0.35530007584507312 0 -0.2339166817583811 0.34072994176499932 0 -0.22227307153441711 0.34489391122745011 0 -0.230382307749878 0.35530007584507312 0 -0.2339166817583811 0.34072994176499932 0 -0.230382307749878 0.35530007584507312 0 -0.240349665746243 0.353939299197496 0 -0.24210508140161441 0.35723766167140852 0 -0.230382307749878 0.35530007584507312 0 -0.24210508140161441 0.35723766167140852 0 -0.240349665746243 0.353939299197496 0 -0.24210508140161441 0.35723766167140852 0 -0.230382307749878 0.35530007584507312 0 -0.240349665746243 0.353939299197496 0 -0.2339166817583811 0.34072994176499932 0 -0.240349665746243 0.353939299197496 0 -0.24495517035526729 0.34207166035551612 0 -0.2339166817583811 0.34072994176499932 0 -0.25179576997544889 0.34996389288771018 0 -0.240349665746243 0.353939299197496 0 -0.24495517035526729 0.34207166035551612 0 -0.25179576997544889 0.34996389288771018 0 -0.240349665746243 0.353939299197496 0 -0.24210508140161441 0.35723766167140852 0 -0.2534912742602915 0.37863190589553852 0 -0.24210508140161441 0.35723766167140852 0 -0.2374271561054522 0.37071654130413811 0 -0.2534912742602915 0.37863190589553852 0 -0.24210508140161441 0.35723766167140852 0 -0.230382307749878 0.35530007584507312 0 -0.24210508140161441 0.35723766167140852 0 -0.2374271561054522 0.37071654130413811 0 -0.25264221040760643 0.30482824728555391 0 -0.2435562906113645 0.32718618808503641 0 -0.23249837924681521 0.31343173985099948 0 -0.25515744368489901 0.33853897984233872 0 -0.2435562906113645 0.32718618808503641 0 -0.24495517035526729 0.34207166035551612 0 -0.2435562906113645 0.32718618808503641 0 -0.24495517035526729 0.34207166035551612 0 -0.2339166817583811 0.34072994176499932 0 -0.2435562906113645 0.32718618808503641 0 -0.2339166817583811 0.34072994176499932 0 -0.21909722529207459 0.33232578905024202 0 -0.22227307153441711 0.34489391122745011 0 -0.2339166817583811 0.34072994176499932 0 -0.21909722529207459 0.33232578905024202 0 -0.21909722529207459 0.33232578905024202 0 -0.23249837924681521 0.31343173985099948 0 -0.21539339078746261 0.3207373333037763 0 -0.21909722529207459 0.33232578905024202 0 -0.23249837924681521 0.31343173985099948 0 -0.23249837924681521 0.31343173985099948 0 -0.21539339078746261 0.3207373333037763 0 -0.22240337157406059 0.3061702835746859 0 -0.23249837924681521 0.31343173985099948 0 -0.21539339078746261 0.3207373333037763 0 -0.2435562906113645 0.32718618808503641 0 -0.21909722529207459 0.33232578905024202 0 -0.23249837924681521 0.31343173985099948 0 -0.21539339078746261 0.3207373333037763 0 -0.20764468905729019 0.3339665824206588 0 -0.19828840232810849 0.32804292675654978 0 -0.21539339078746261 0.3207373333037763 0 -0.19828840232810849 0.32804292675654978 0 -0.204144177920732 0.31041936826444849 0 -0.21539339078746261 0.3207373333037763 0 -0.19828840232810849 0.32804292675654978 0 -0.2056960713373305 0.35121983824948211 0 -0.20764468905729019 0.3339665824206588 0 -0.2012923633457574 0.34159879951405719 0 -0.2056960713373305 0.35121983824948211 0 -0.21909722529207459 0.33232578905024202 0 -0.20764468905729019 0.3339665824206588 0 -0.2056960713373305 0.35121983824948211 0 -0.22227307153441711 0.34489391122745011 0 -0.21909722529207459 0.33232578905024202 0 -0.2056960713373305 0.35121983824948211 0 -0.21909722529207459 0.33232578905024202 0 -0.21909722529207459 0.33232578905024202 0 -0.21539339078746261 0.3207373333037763 0 -0.20764468905729019 0.3339665824206588 0 -0.17601871313184569 0.33755437986125242 0 -0.19699724598104121 0.33192879448577411 0 -0.19828840232810849 0.32804292675654978 0 -0.17601871313184569 0.33755437986125242 0 -0.19699724598104121 0.33192879448577411 0 -0.19225054800047439 0.33982601273022089 0 -0.2012923633457574 0.34159879951405719 0 -0.1970653071160984 0.3373448363359513 0 -0.19225054800047439 0.33982601273022089 0 -0.1970653071160984 0.3373448363359513 0 -0.19699724598104121 0.33192879448577411 0 -0.19225054800047439 0.33982601273022089 0 -0.20764468905729019 0.3339665824206588 0 -0.2012923633457574 0.34159879951405719 0 -0.20025760156565939 0.33457638790259869 0 -0.2012923633457574 0.34159879951405719 0 -0.1970653071160984 0.3373448363359513 0 -0.20025760156565939 0.33457638790259869 0 -0.20764468905729019 0.3339665824206588 0 -0.20025760156565939 0.33457638790259869 0 -0.19828840232810849 0.32804292675654978 0 -0.1970653071160984 0.3373448363359513 0 -0.20025760156565939 0.33457638790259869 0 -0.19699724598104121 0.33192879448577411 0 -0.20025760156565939 0.33457638790259869 0 -0.19699724598104121 0.33192879448577411 0 -0.19828840232810849 0.32804292675654978 0 -0.19699724598104121 0.33192879448577411 0 -0.19828840232810849 0.32804292675654978 0 -0.18906106156752939 0.34847033884699818 0 -0.2012923633457574 0.34159879951405719 0 -0.19225054800047439 0.33982601273022089 0 -0.18059346347182789 0.31589983920406461 0 -0.19828840232810849 0.32804292675654978 0 -0.204144177920732 0.31041936826444849 0 -0.18059346347182789 0.31589983920406461 0 -0.204144177920732 0.31041936826444849 0 -0.19828840232810849 0.32804292675654978 0 -0.204144177920732 0.31041936826444849 0 -0.18059346347182789 0.31589983920406461 0 -0.19847001342578979 0.29669686295190401 0 -0.204144177920732 0.31041936826444849 0 -0.18059346347182789 0.31589983920406461 0 -0.19847001342578979 0.29669686295190401 0 -0.1856578926006511 0.28898329046373711 0 -0.21110189484626299 0.27795224952606779 0 -0.1856578926006511 0.28898329046373711 0 -0.19847001342578979 0.29669686295190401 0 -0.21110189484626299 0.27795224952606779 0 -0.1856578926006511 0.28898329046373711 0 -0.19847001342578979 0.29669686295190401 0 -0.2108526382894759 0.29022956730120197 0 -0.21110189484626299 0.27795224952606779 0 -0.2108526382894759 0.29022956730120197 0 -0.204144177920732 0.31041936826444849 0 -0.21539339078746261 0.3207373333037763 0 -0.204144177920732 0.31041936826444849 0 -0.22240337157406059 0.3061702835746859 0 -0.204144177920732 0.31041936826444849 0 -0.22240337157406059 0.3061702835746859 0 -0.2108526382894759 0.29022956730120197 0 -0.204144177920732 0.31041936826444849 0 -0.22240337157406059 0.3061702835746859 0 -0.19847001342578979 0.29669686295190401 0 -0.2108526382894759 0.29022956730120197 0 -0.204144177920732 0.31041936826444849 0 -0.23249837924681521 0.31343173985099948 0 -0.22240337157406059 0.3061702835746859 0 -0.2406625652273888 0.30192119888492119 0 -0.22240337157406059 0.3061702835746859 0 -0.2406625652273888 0.30192119888492119 0 -0.22240337157406059 0.3061702835746859 0 -0.2287934386060477 0.29227341643699262 0 -0.2406625652273888 0.30192119888492119 0 -0.2108526382894759 0.29022956730120197 0 -0.2287934386060477 0.29227341643699262 0 -0.21756109865822079 0.27003976633795568 0 -0.2108526382894759 0.29022956730120197 0 -0.22240337157406059 0.3061702835746859 0 -0.2287934386060477 0.29227341643699262 0 -0.25177056057750891 0.28626023331739758 0 -0.2406625652273888 0.30192119888492119 0 -0.25177056057750891 0.28626023331739758 0 -0.234665829617865 0.27814999982767619 0 -0.25177056057750891 0.28626023331739758 0 -0.2287934386060477 0.29227341643699262 0 -0.2406625652273888 0.30192119888492119 0 -0.25177056057750891 0.28626023331739758 0 -0.2287934386060477 0.29227341643699262 0 -0.234665829617865 0.27814999982767619 0 -0.25546593087480662 0.29847631760901899 0 -0.25177056057750891 0.28626023331739758 0 -0.2406625652273888 0.30192119888492119 0 -0.25264221040760643 0.30482824728555391 0 -0.23249837924681521 0.31343173985099948 0 -0.2406625652273888 0.30192119888492119 0 -0.25546593087480662 0.29847631760901899 0 -0.2406625652273888 0.30192119888492119 0 -0.25264221040760643 0.30482824728555391 0 -0.23249837924681521 0.31343173985099948 0 -0.25264221040760643 0.30482824728555391 0 -0.25546593087480662 0.29847631760901899 0 -0.2406625652273888 0.30192119888492119 0 -0.23249837924681521 0.31343173985099948 0 -0.2406625652273888 0.30192119888492119 0 -0.25033001617331152 0.25641532190313909 0 -0.23617375082500519 0.26095106372120958 0 -0.24744173631526911 0.27217612506867039 0 -0.25033001617331152 0.25641532190313909 0 -0.23617375082500519 0.26095106372120958 0 -0.24130308794522479 0.24324196820880001 0 -0.25177056057750891 0.28626023331739758 0 -0.234665829617865 0.27814999982767619 0 -0.24744173631526911 0.27217612506867039 0 -0.23617375082500519 0.26095106372120958 0 -0.234665829617865 0.27814999982767619 0 -0.24744173631526911 0.27217612506867039 0 -0.2287934386060477 0.29227341643699262 0 -0.234665829617865 0.27814999982767619 0 -0.21756109865822079 0.27003976633795568 0 -0.23617375082500519 0.26095106372120958 0 -0.234665829617865 0.27814999982767619 0 -0.21756109865822079 0.27003976633795568 0 -0.234665829617865 0.27814999982767619 0 -0.21756109865822079 0.27003976633795568 0 -0.23617375082500519 0.26095106372120958 0 -0.22502439809346519 0.24757819962307551 0 -0.24130308794522479 0.24324196820880001 0 -0.23617375082500519 0.26095106372120958 0 -0.21756109865822079 0.27003976633795568 0 -0.22502439809346519 0.24757819962307551 0 -0.21756109865822079 0.27003976633795568 0 -0.22502439809346519 0.24757819962307551 0 -0.21289198869676379 0.25601766455805841 0 -0.21756109865822079 0.27003976633795568 0 -0.22502439809346519 0.24757819962307551 0 -0.21289198869676379 0.25601766455805841 0 -0.21756109865822079 0.27003976633795568 0 -0.1990804831782379 0.26127715516739541 0 -0.21289198869676379 0.25601766455805841 0 -0.1990804831782379 0.26127715516739541 0 -0.20029537139010559 0.24762759881773311 0 -0.2108526382894759 0.29022956730120197 0 -0.21110189484626299 0.27795224952606779 0 -0.21756109865822079 0.27003976633795568 0 -0.21756109865822079 0.27003976633795568 0 -0.206250799076973 0.27050400371818129 0 -0.1990804831782379 0.26127715516739541 0 -0.2108526382894759 0.29022956730120197 0 -0.21756109865822079 0.27003976633795568 0 -0.21756109865822079 0.27003976633795568 0 -0.1990804831782379 0.26127715516739541 0 -0.21110189484626299 0.27795224952606779 0 -0.21756109865822079 0.27003976633795568 0 -0.206250799076973 0.27050400371818129 0 -0.21110189484626299 0.27795224952606779 0 -0.206250799076973 0.27050400371818129 0 -0.1972597196251705 0.27274684384130621 0 -0.21110189484626299 0.27795224952606779 0 -0.1972597196251705 0.27274684384130621 0 -0.1856578926006511 0.28898329046373711 0 -0.1972597196251705 0.27274684384130621 0 -0.18567172510652391 0.26568723906962122 0 -0.1856578926006511 0.28898329046373711 0 -0.206250799076973 0.27050400371818129 0 -0.1972597196251705 0.27274684384130621 0 -0.1990804831782379 0.26127715516739541 0 -0.1972597196251705 0.27274684384130621 0 -0.1990804831782379 0.26127715516739541 0 -0.18567172510652391 0.26568723906962122 0 -0.1990804831782379 0.26127715516739541 0 -0.1805998676982549 0.25251454399683498 0 -0.18567172510652391 0.26568723906962122 0 -0.1990804831782379 0.26127715516739541 0 -0.1805998676982549 0.25251454399683498 0 -0.1990804831782379 0.26127715516739541 0 -0.18772802136184311 0.25309093618394701 0 -0.1805998676982549 0.25251454399683498 0 -0.1990804831782379 0.26127715516739541 0 -0.18772802136184311 0.25309093618394701 0 -0.20029537139010559 0.24762759881773311 0 -0.1805998676982549 0.25251454399683498 0 -0.16836481527225519 0.25908704722013948 0 -0.1717344288474367 0.2421330695617302 0 -0.1805998676982549 0.25251454399683498 0 -0.17693819885933429 0.26235660700959867 0 -0.18567172510652391 0.26568723906962122 0 -0.17693819885933429 0.26235660700959867 0 -0.16836481527225519 0.25908704722013948 0 -0.1731163873603031 0.27213759775179902 0 -0.1805998676982549 0.25251454399683498 0 -0.17693819885933429 0.26235660700959867 0 -0.16836481527225519 0.25908704722013948 0 -0.16836481527225519 0.25908704722013948 0 -0.15609873085153131 0.26617310900244978 0 -0.1591792031642684 0.2476046069207602 0 -0.1731163873603031 0.27213759775179902 0 -0.15917670809459961 0.28218231664712362 0 -0.15609873085153131 0.26617310900244978 0 -0.16836481527225519 0.25908704722013948 0 -0.1731163873603031 0.27213759775179902 0 -0.15609873085153131 0.26617310900244978 0 -0.1731163873603031 0.27213759775179902 0 -0.1856578926006511 0.28898329046373711 0 -0.15917670809459961 0.28218231664712362 0 -0.1731163873603031 0.27213759775179902 0 -0.18567172510652391 0.26568723906962122 0 -0.1856578926006511 0.28898329046373711 0 -0.17693819885933429 0.26235660700959867 0 -0.1731163873603031 0.27213759775179902 0 -0.18567172510652391 0.26568723906962122 0 -0.1856578926006511 0.28898329046373711 0 -0.16021389035503919 0.30001433140140638 0 -0.18059346347182789 0.31589983920406461 0 -0.1856578926006511 0.28898329046373711 0 -0.16021389035503919 0.30001433140140638 0 -0.15704274902292339 0.32138031014367879 0 -0.18059346347182789 0.31589983920406461 0 -0.16021389035503919 0.30001433140140638 0 -0.1856578926006511 0.28898329046373711 0 -0.16021389035503919 0.30001433140140638 0 -0.15917670809459961 0.28218231664712362 0 -0.15917670809459961 0.28218231664712362 0 -0.14032360996277871 0.29149979799984921 0 -0.14190049816330641 0.27339176756430911 0 -0.16021389035503919 0.30001433140140638 0 -0.15917670809459961 0.28218231664712362 0 -0.14032360996277871 0.29149979799984921 0 -0.16021389035503919 0.30001433140140638 0 -0.1347698881094273 0.31104537233907559 0 -0.16021389035503919 0.30001433140140638 0 -0.1347698881094273 0.31104537233907559 0 -0.14032360996277871 0.29149979799984921 0 -0.15704274902292339 0.32138031014367879 0 -0.16021389035503919 0.30001433140140638 0 -0.1347698881094273 0.31104537233907559 0 -0.1347698881094273 0.31104537233907559 0 -0.14032360996277871 0.29149979799984921 0 -0.1244425443746464 0.2973283345628665 0 -0.14032360996277871 0.29149979799984921 0 -0.12523952090694671 0.28124203354019039 0 -0.1244425443746464 0.2973283345628665 0 -0.14032360996277871 0.29149979799984921 0 -0.12523952090694671 0.28124203354019039 0 -0.14190049816330641 0.27339176756430911 0 -0.12523952090694671 0.28124203354019039 0 -0.12667135421699269 0.26451278509076948 0 -0.14190049816330641 0.27339176756430911 0 -0.12667135421699269 0.26451278509076948 0 -0.14389306494698961 0.25474056310547188 0 -0.14190049816330641 0.27339176756430911 0 -0.12667135421699269 0.26451278509076948 0 -0.14389306494698961 0.25474056310547188 0 -0.1310170349368219 0.24235299882390191 0 -0.14389306494698961 0.25474056310547188 0 -0.14190049816330641 0.27339176756430911 0 -0.15609873085153131 0.26617310900244978 0 -0.14389306494698961 0.25474056310547188 0 -0.15609873085153131 0.26617310900244978 0 -0.1591792031642684 0.2476046069207602 0 -0.15917670809459961 0.28218231664712362 0 -0.14190049816330641 0.27339176756430911 0 -0.15609873085153131 0.26617310900244978 0 -0.11093670454382799 0.27079953731384931 0 -0.1094131749061399 0.28902597301030769 0 -0.092635147360904141 0.27373565935493299 0 -0.098806227800824681 0.26027902515901952 0 -0.11093670454382799 0.27079953731384931 0 -0.092635147360904141 0.27373565935493299 0 -0.098806227800824681 0.26027902515901952 0 -0.11093670454382799 0.27079953731384931 0 -0.1119401698023982 0.24855085732980811 0 -0.12667135421699269 0.26451278509076948 0 -0.1310170349368219 0.24235299882390191 0 -0.1119401698023982 0.24855085732980811 0 -0.12667135421699269 0.26451278509076948 0 -0.11093670454382799 0.27079953731384931 0 -0.1119401698023982 0.24855085732980811 0 -0.12523952090694671 0.28124203354019039 0 -0.12667135421699269 0.26451278509076948 0 -0.11093670454382799 0.27079953731384931 0 -0.12523952090694671 0.28124203354019039 0 -0.11093670454382799 0.27079953731384931 0 -0.1094131749061399 0.28902597301030769 0 -0.12523952090694671 0.28124203354019039 0 -0.1094131749061399 0.28902597301030769 0 -0.1244425443746464 0.2973283345628665 0 -0.1094131749061399 0.28902597301030769 0 -0.1093695303849785 0.3055511931435273 0 -0.1347698881094273 0.31104537233907559 0 -0.1244425443746464 0.2973283345628665 0 -0.1093695303849785 0.3055511931435273 0 -0.1094131749061399 0.28902597301030769 0 -0.1244425443746464 0.2973283345628665 0 -0.1093695303849785 0.3055511931435273 0 -0.1093695303849785 0.3055511931435273 0 -0.087755458079249948 0.29321392805158958 0 -0.090353806381975987 0.3137636386894922 0 -0.1094131749061399 0.28902597301030769 0 -0.1093695303849785 0.3055511931435273 0 -0.087755458079249948 0.29321392805158958 0 -0.1094131749061399 0.28902597301030769 0 -0.087755458079249948 0.29321392805158958 0 -0.092635147360904141 0.27373565935493299 0 -0.087755458079249948 0.29321392805158958 0 -0.067507220714865396 0.30535847723150089 0 -0.068049342818173736 0.27283518783945881 0 -0.087755458079249948 0.29321392805158958 0 -0.067507220714865396 0.30535847723150089 0 -0.090353806381975987 0.3137636386894922 0 -0.087755458079249948 0.29321392805158958 0 -0.068049342818173736 0.27283518783945881 0 -0.068049342818173736 0.27283518783945881 0 -0.080849976017208627 0.25626030475537348 0 -0.04834322755709753 0.25245644762732788 0 -0.087755458079249948 0.29321392805158958 0 -0.068049342818173736 0.27283518783945881 0 -0.092635147360904141 0.27373565935493299 0 -0.068049342818173736 0.27283518783945881 0 -0.092635147360904141 0.27373565935493299 0 -0.080849976017208627 0.25626030475537348 0 -0.098806227800824681 0.26027902515901952 0 -0.080849976017208627 0.25626030475537348 0 -0.091072849878388817 0.23809470459148119 0 -0.098806227800824681 0.26027902515901952 0 -0.092635147360904141 0.27373565935493299 0 -0.080849976017208627 0.25626030475537348 0 -0.068049342818173736 0.27283518783945881 0 -0.04834322755709753 0.25245644762732788 0 -0.068049342818173736 0.27283518783945881 0 -0.04834322755709753 0.25245644762732788 0 -0.04230850256050795 0.27934059192316418 0 -0.04834322755709753 0.25245644762732788 0 -0.04230850256050795 0.27934059192316418 0 -0.029023528420285018 0.25670572621559468 0 -0.029023528420285018 0.25670572621559468 0 -0.01602887842569841 0.27222898710188442 0 -0.009799921262099871 0.2474248970103998 0 -0.04230850256050795 0.27934059192316418 0 -0.029023528420285018 0.25670572621559468 0 -0.01602887842569841 0.27222898710188442 0 -0.01602887842569841 0.27222898710188442 0 -0.009799921262099871 0.2474248970103998 0 0.0079648258068575686 0.25840069158400442 0 -0.01602887842569841 0.27222898710188442 0 -0.0054379161255957292 0.29828942782533779 0 0.0083530130892651155 0.28019951981350838 0 -0.04230850256050795 0.27934059192316418 0 -0.01602887842569841 0.27222898710188442 0 -0.025957616131227889 0.29421142596612671 0 -0.01602887842569841 0.27222898710188442 0 -0.0054379161255957292 0.29828942782533779 0 -0.025957616131227889 0.29421142596612671 0 -0.0054379161255957292 0.29828942782533779 0 -0.025957616131227889 0.29421142596612671 0 -0.023996363220892492 0.31170453661180209 0 -0.025957616131227889 0.29421142596612671 0 -0.023996363220892492 0.31170453661180209 0 -0.04225843114155084 0.30791773271973288 0 -0.067507220714865396 0.30535847723150089 0 -0.068049342818173736 0.27283518783945881 0 -0.04230850256050795 0.27934059192316418 0 -0.04230850256050795 0.27934059192316418 0 -0.025957616131227889 0.29421142596612671 0 -0.04225843114155084 0.30791773271973288 0 -0.067507220714865396 0.30535847723150089 0 -0.04230850256050795 0.27934059192316418 0 -0.04225843114155084 0.30791773271973288 0 -0.067507220714865396 0.30535847723150089 0 -0.04225843114155084 0.30791773271973288 0 -0.056436700628790547 0.32452146321563241 0 -0.056436700628790547 0.32452146321563241 0 -0.03602421535669649 0.32951593154062248 0 -0.054487128665954898 0.34585131196528868 0 -0.023996363220892492 0.31170453661180209 0 -0.04225843114155084 0.30791773271973288 0 -0.03602421535669649 0.32951593154062248 0 -0.04225843114155084 0.30791773271973288 0 -0.056436700628790547 0.32452146321563241 0 -0.03602421535669649 0.32951593154062248 0 -0.023996363220892492 0.31170453661180209 0 -0.03602421535669649 0.32951593154062248 0 -0.01030363734939152 0.3285881650071909 0 -0.03602421535669649 0.32951593154062248 0 -0.01030363734939152 0.3285881650071909 0 -0.027067750067024731 0.35773876130956062 0 -0.0054379161255957292 0.29828942782533779 0 -0.023996363220892492 0.31170453661180209 0 -0.01030363734939152 0.3285881650071909 0 -0.027067750067024731 0.35773876130956062 0 0.00035162853190547072 0.36962621065383261 0 -0.01030363734939152 0.3285881650071909 0 -0.027067750067024731 0.35773876130956062 0 0.003069831527376202 0.34702578253211941 0 -0.027067750067024731 0.35773876130956062 0 0.003069831527376202 0.34702578253211941 0 0.00035162853190547072 0.36962621065383261 0 -0.027067750067024731 0.35773876130956062 0 -0.02415916418197812 0.38589454005671597 0 0.00035162853190547072 0.36962621065383261 0 -0.027067750067024731 0.35773876130956062 0 -0.054487128665954898 0.34585131196528868 0 -0.060528593877294833 0.36789694731045902 0 -0.027067750067024731 0.35773876130956062 0 -0.060528593877294833 0.36789694731045902 0 -0.043411775808828927 0.38214737260578119 0 -0.027067750067024731 0.35773876130956062 0 -0.054487128665954898 0.34585131196528868 0 -0.03602421535669649 0.32951593154062248 0 -0.027067750067024731 0.35773876130956062 0 -0.054487128665954898 0.34585131196528868 0 -0.060528593877294833 0.36789694731045902 0 -0.082952652950192024 0.36601252729225731 0 -0.074522462155378083 0.35481776634759837 0 -0.060528593877294833 0.36789694731045902 0 -0.082952652950192024 0.36601252729225731 0 -0.080037793108916733 0.37667028387299217 0 -0.082952652950192024 0.36601252729225731 0 -0.074522462155378083 0.35481776634759837 0 -0.093852588707847268 0.35829764993937357 0 -0.082952652950192024 0.36601252729225731 0 -0.09050519815891879 0.37407746647979129 0 -0.080037793108916733 0.37667028387299217 0 -0.082952652950192024 0.36601252729225731 0 -0.09050519815891879 0.37407746647979129 0 -0.093852588707847268 0.35829764993937357 0 -0.074522462155378083 0.35481776634759837 0 -0.081906507264885159 0.33396386262101679 0 -0.093852588707847268 0.35829764993937357 0 -0.054487128665954898 0.34585131196528868 0 -0.074522462155378083 0.35481776634759837 0 -0.081906507264885159 0.33396386262101679 0 -0.054487128665954898 0.34585131196528868 0 -0.060528593877294833 0.36789694731045902 0 -0.074522462155378083 0.35481776634759837 0 -0.056436700628790547 0.32452146321563241 0 -0.054487128665954898 0.34585131196528868 0 -0.081906507264885159 0.33396386262101679 0 -0.054487128665954898 0.34585131196528868 0 -0.081906507264885159 0.33396386262101679 0 -0.067507220714865396 0.30535847723150089 0 -0.056436700628790547 0.32452146321563241 0 -0.081906507264885159 0.33396386262101679 0 -0.067507220714865396 0.30535847723150089 0 -0.090353806381975987 0.3137636386894922 0 -0.081906507264885159 0.33396386262101679 0 -0.081906507264885159 0.33396386262101679 0 -0.1093258858638162 0.32207641327674702 0 -0.10926776570343311 0.34408257622604937 0 -0.1093258858638162 0.32207641327674702 0 -0.10926776570343311 0.34408257622604937 0 -0.1093695303849785 0.3055511931435273 0 -0.1093258858638162 0.32207641327674702 0 -0.090353806381975987 0.3137636386894922 0 -0.081906507264885159 0.33396386262101679 0 -0.1093258858638162 0.32207641327674702 0 -0.081906507264885159 0.33396386262101679 0 -0.1093258858638162 0.32207641327674702 0 -0.1093695303849785 0.3055511931435273 0 -0.090353806381975987 0.3137636386894922 0 -0.1093258858638162 0.32207641327674702 0 -0.1347698881094273 0.31104537233907559 0 -0.1093695303849785 0.3055511931435273 0 -0.1093258858638162 0.32207641327674702 0 -0.1347698881094273 0.31104537233907559 0 -0.1093258858638162 0.32207641327674702 0 -0.13164190166387879 0.33354106440722819 0 -0.1093258858638162 0.32207641327674702 0 -0.10926776570343311 0.34408257622604937 0 -0.13147933473931819 0.35657728607065298 0 -0.13164190166387879 0.33354106440722819 0 -0.10926776570343311 0.34408257622604937 0 -0.13147933473931819 0.35657728607065298 0 -0.10920964554305369 0.36608873917535167 0 -0.10926776570343311 0.34408257622604937 0 -0.12895972861348759 0.36801029630265142 0 -0.13147933473931819 0.35657728607065298 0 -0.10920964554305369 0.36608873917535167 0 -0.12895972861348759 0.36801029630265142 0 -0.10920964554305369 0.36608873917535167 0 -0.1242426459709489 0.37845193548536898 0 -0.13147933473931819 0.35657728607065298 0 -0.10920964554305369 0.36608873917535167 0 -0.10920964554305369 0.36608873917535167 0 -0.1091654112891059 0.38283725111658251 0 -0.09050519815891879 0.37407746647979129 0 -0.10920964554305369 0.36608873917535167 0 -0.09050519815891879 0.37407746647979129 0 -0.10920964554305369 0.36608873917535167 0 -0.09710206487386705 0.38427974373735863 0 -0.09050519815891879 0.37407746647979129 0 -0.10920964554305369 0.36608873917535167 0 -0.093852588707847268 0.35829764993937357 0 -0.081906507264885159 0.33396386262101679 0 -0.093852588707847268 0.35829764993937357 0 -0.10926776570343311 0.34408257622604937 0 -0.10920964554305369 0.36608873917535167 0 -0.10926776570343311 0.34408257622604937 0 -0.10920964554305369 0.36608873917535167 0 -0.093852588707847268 0.35829764993937357 0 -0.10926776570343311 0.34408257622604937 0 -0.10912117703516259 0.39958576305781329 0 -0.096087852013681085 0.4074497124966488 0 -0.089936085973025742 0.39457124707273661 0 -0.10912117703516259 0.39958576305781329 0 -0.09710206487386705 0.38427974373735863 0 -0.089936085973025742 0.39457124707273661 0 -0.10912117703516259 0.39958576305781329 0 -0.1091654112891059 0.38283725111658251 0 -0.10920964554305369 0.36608873917535167 0 -0.09710206487386705 0.38427974373735863 0 -0.1091654112891059 0.38283725111658251 0 -0.10912117703516259 0.39958576305781329 0 -0.09710206487386705 0.38427974373735863 0 -0.1091654112891059 0.38283725111658251 0 -0.10920964554305369 0.36608873917535167 0 -0.1091654112891059 0.38283725111658251 0 -0.1242426459709489 0.37845193548536898 0 -0.1091654112891059 0.38283725111658251 0 -0.1242426459709489 0.37845193548536898 0 -0.1210460299630589 0.39112187385447378 0 -0.10912117703516259 0.39958576305781329 0 -0.1091654112891059 0.38283725111658251 0 -0.1210460299630589 0.39112187385447378 0 -0.12814825479501649 0.40523118854628548 0 -0.10912117703516259 0.39958576305781329 0 -0.1210460299630589 0.39112187385447378 0 -0.12814825479501649 0.40523118854628548 0 -0.10912117703516259 0.39958576305781329 0 -0.1109282212912801 0.41503014290293488 0 -0.12814825479501649 0.40523118854628548 0 -0.1109282212912801 0.41503014290293488 0 -0.12367544176092039 0.42326883690065081 0 -0.1109282212912801 0.41503014290293488 0 -0.12367544176092039 0.42326883690065081 0 -0.1098252185051008 0.43169649454610809 0 -0.12303719105788261 0.43652431012537302 0 -0.12367544176092039 0.42326883690065081 0 -0.1098252185051008 0.43169649454610809 0 -0.1109282212912801 0.41503014290293488 0 -0.1098252185051008 0.43169649454610809 0 -0.098047935068890174 0.42396412914033688 0 -0.1098252185051008 0.43169649454610809 0 -0.098047935068890174 0.42396412914033688 0 -0.091153474232822509 0.44213770657991952 0 -0.1109282212912801 0.41503014290293488 0 -0.098047935068890174 0.42396412914033688 0 -0.096087852013681085 0.4074497124966488 0 -0.10912117703516259 0.39958576305781329 0 -0.1109282212912801 0.41503014290293488 0 -0.096087852013681085 0.4074497124966488 0 -0.098047935068890174 0.42396412914033688 0 -0.096087852013681085 0.4074497124966488 0 -0.080389722281774004 0.424319369395872 0 -0.096087852013681085 0.4074497124966488 0 -0.080389722281774004 0.424319369395872 0 -0.076792437711480366 0.40453752426077078 0 -0.098047935068890174 0.42396412914033688 0 -0.080389722281774004 0.424319369395872 0 -0.091153474232822509 0.44213770657991952 0 -0.080389722281774004 0.424319369395872 0 -0.060755041212743978 0.41498923350478317 0 -0.051083515440337207 0.43847116901583899 0 -0.080389722281774004 0.424319369395872 0 -0.076792437711480366 0.40453752426077078 0 -0.060755041212743978 0.41498923350478317 0 -0.07529261685481585 0.39085499464637269 0 -0.076792437711480366 0.40453752426077078 0 -0.060287605011180252 0.3921766772875348 0 -0.076792437711480366 0.40453752426077078 0 -0.060287605011180252 0.3921766772875348 0 -0.060755041212743978 0.41498923350478317 0 -0.096087852013681085 0.4074497124966488 0 -0.076792437711480366 0.40453752426077078 0 -0.089936085973025742 0.39457124707273661 0 -0.07529261685481585 0.39085499464637269 0 -0.076792437711480366 0.40453752426077078 0 -0.089936085973025742 0.39457124707273661 0 -0.09050519815891879 0.37407746647979129 0 -0.09710206487386705 0.38427974373735863 0 -0.086574751793908833 0.38409074716185032 0 -0.09710206487386705 0.38427974373735863 0 -0.089936085973025742 0.39457124707273661 0 -0.086574751793908833 0.38409074716185032 0 -0.07529261685481585 0.39085499464637269 0 -0.089936085973025742 0.39457124707273661 0 -0.086574751793908833 0.38409074716185032 0 -0.07529261685481585 0.39085499464637269 0 -0.086574751793908833 0.38409074716185032 0 -0.080037793108916733 0.37667028387299217 0 -0.09050519815891879 0.37407746647979129 0 -0.086574751793908833 0.38409074716185032 0 -0.080037793108916733 0.37667028387299217 0 -0.060528593877294833 0.36789694731045902 0 -0.080037793108916733 0.37667028387299217 0 -0.060287605011180252 0.3921766772875348 0 -0.07529261685481585 0.39085499464637269 0 -0.080037793108916733 0.37667028387299217 0 -0.060287605011180252 0.3921766772875348 0 -0.080037793108916733 0.37667028387299217 0 -0.060287605011180252 0.3921766772875348 0 -0.060528593877294833 0.36789694731045902 0 -0.060287605011180252 0.3921766772875348 0 -0.043411775808828927 0.38214737260578119 0 -0.060287605011180252 0.3921766772875348 0 -0.043411775808828927 0.38214737260578119 0 -0.04053741691344373 0.40768307070207738 0 -0.060287605011180252 0.3921766772875348 0 -0.04053741691344373 0.40768307070207738 0 -0.060755041212743978 0.41498923350478317 0 -0.060287605011180252 0.3921766772875348 0 -0.04053741691344373 0.40768307070207738 0 -0.043411775808828927 0.38214737260578119 0 -0.02415916418197812 0.38589454005671597 0 -0.04053741691344373 0.40768307070207738 0 -0.027067750067024731 0.35773876130956062 0 -0.043411775808828927 0.38214737260578119 0 -0.02415916418197812 0.38589454005671597 0 -0.02415916418197812 0.38589454005671597 0 -0.020394125392230549 0.40519572673787613 0 -0.04053741691344373 0.40768307070207738 0 -0.02415916418197812 0.38589454005671597 0 -0.020394125392230549 0.40519572673787613 0 -0.0029937504932070129 0.39995148280272708 0 -0.02415916418197812 0.38589454005671597 0 -0.0029937504932070129 0.39995148280272708 0 0.00035162853190547072 0.36962621065383261 0 -0.020787228815707218 0.42318946411662001 0 -0.0010370407179707271 0.43869585753116258 0 -0.0019427938786046809 0.41929486330128912 0 -0.020787228815707218 0.42318946411662001 0 -0.0010370407179707271 0.43869585753116258 0 -0.020394125392230549 0.40519572673787613 0 -0.0019427938786046809 0.41929486330128912 0 -0.020787228815707218 0.42318946411662001 0 -0.020394125392230549 0.40519572673787613 0 -0.0029937504932070129 0.39995148280272708 0 -0.0019427938786046809 0.41929486330128912 0 -0.020394125392230549 0.40519572673787613 0 -0.020787228815707218 0.42318946411662001 0 -0.04053741691344373 0.40768307070207738 0 -0.020787228815707218 0.42318946411662001 0 -0.04053741691344373 0.40768307070207738 0 -0.020787228815707218 0.42318946411662001 0 -0.025632843798373581 0.44795982990732891 0 -0.0010370407179707271 0.43869585753116258 0 -0.020787228815707218 0.42318946411662001 0 -0.051083515440337207 0.43847116901583899 0 -0.025632843798373581 0.44795982990732891 0 -0.020787228815707218 0.42318946411662001 0 -0.04053741691344373 0.40768307070207738 0 -0.051083515440337207 0.43847116901583899 0 -0.04053741691344373 0.40768307070207738 0 -0.060755041212743978 0.41498923350478317 0 -0.051083515440337207 0.43847116901583899 0 -0.051083515440337207 0.43847116901583899 0 -0.042963486792849663 0.45704237573864942 0 -0.068175031674735515 0.45120941492953148 0 -0.042963486792849663 0.45704237573864942 0 -0.058440265355001603 0.47017298950946179 0 -0.068175031674735515 0.45120941492953148 0 -0.042963486792849663 0.45704237573864942 0 -0.03070459708428102 0.47318375757201492 0 -0.058440265355001603 0.47017298950946179 0 -0.042963486792849663 0.45704237573864942 0 -0.025632843798373581 0.44795982990732891 0 -0.03070459708428102 0.47318375757201492 0 -0.051083515440337207 0.43847116901583899 0 -0.042963486792849663 0.45704237573864942 0 -0.025632843798373581 0.44795982990732891 0 -0.025632843798373581 0.44795982990732891 0 -0.0072211939390956978 0.45717635546968771 0 -0.03070459708428102 0.47318375757201492 0 -0.025632843798373581 0.44795982990732891 0 -0.0072211939390956978 0.45717635546968771 0 -0.0010370407179707271 0.43869585753116258 0 -0.0020460246969311591 0.5 0 -0.0029689288135605579 0.47619452563456799 0 -0.016647340357398899 0.48771508350366638 0 -0.0072211939390956978 0.45717635546968771 0 -0.0029689288135605579 0.47619452563456799 0 -0.03070459708428102 0.47318375757201492 0 -0.0029689288135605579 0.47619452563456799 0 -0.03070459708428102 0.47318375757201492 0 -0.0029689288135605579 0.47619452563456799 0 -0.03070459708428102 0.47318375757201492 0 -0.016647340357398899 0.48771508350366638 0 -0.03070459708428102 0.47318375757201492 0 -0.031038186471731181 0.5 0 -0.016647340357398899 0.48771508350366638 0 -0.0020460246969311591 0.5 0 -0.031038186471731181 0.5 0 -0.016647340357398899 0.48771508350366638 0 -0.03070459708428102 0.47318375757201492 0 -0.031038186471731181 0.5 0 -0.045534267359131117 0.48640947516639133 0 -0.031038186471731181 0.5 0 -0.045534267359131117 0.48640947516639133 0 -0.060030348246531078 0.5 0 -0.03070459708428102 0.47318375757201492 0 -0.058440265355001603 0.47017298950946179 0 -0.03070459708428102 0.47318375757201492 0 -0.045534267359131117 0.48640947516639133 0 -0.058440265355001603 0.47017298950946179 0 -0.045534267359131117 0.48640947516639133 0 -0.058440265355001603 0.47017298950946179 0 -0.073509777060710615 0.48434833181102499 0 -0.045534267359131117 0.48640947516639133 0 -0.060030348246531078 0.5 0 -0.073509777060710615 0.48434833181102499 0 -0.060030348246531078 0.5 0 -0.089022510021331103 0.5 0 -0.073509777060710615 0.48434833181102499 0 -0.089022510021331103 0.5 0 -0.073509777060710615 0.48434833181102499 0 -0.1018553377565465 0.48234530474338821 0 -0.073509777060710615 0.48434833181102499 0 -0.086175933625722331 0.46716222144690872 0 -0.1018553377565465 0.48234530474338821 0 -0.058440265355001603 0.47017298950946179 0 -0.073509777060710615 0.48434833181102499 0 -0.086175933625722331 0.46716222144690872 0 -0.058440265355001603 0.47017298950946179 0 -0.086175933625722331 0.46716222144690872 0 -0.058440265355001603 0.47017298950946179 0 -0.068175031674735515 0.45120941492953148 0 -0.086175933625722331 0.46716222144690872 0 -0.080389722281774004 0.424319369395872 0 -0.051083515440337207 0.43847116901583899 0 -0.068175031674735515 0.45120941492953148 0 -0.080389722281774004 0.424319369395872 0 -0.068175031674735515 0.45120941492953148 0 -0.091153474232822509 0.44213770657991952 0 -0.068175031674735515 0.45120941492953148 0 -0.091153474232822509 0.44213770657991952 0 -0.086175933625722331 0.46716222144690872 0 -0.086175933625722331 0.46716222144690872 0 -0.1107507775642551 0.44702298357657522 0 -0.1139116018964431 0.46415145338435548 0 -0.086175933625722331 0.46716222144690872 0 -0.1139116018964431 0.46415145338435548 0 -0.091153474232822509 0.44213770657991952 0 -0.086175933625722331 0.46716222144690872 0 -0.1107507775642551 0.44702298357657522 0 -0.1098252185051008 0.43169649454610809 0 -0.091153474232822509 0.44213770657991952 0 -0.1107507775642551 0.44702298357657522 0 -0.13603937458480511 0.44642137986053848 0 -0.12303719105788261 0.43652431012537302 0 -0.1107507775642551 0.44702298357657522 0 -0.13603937458480511 0.44642137986053848 0 -0.1107507775642551 0.44702298357657522 0 -0.124592693477486 0.45411183847552838 0 -0.13603937458480511 0.44642137986053848 0 -0.1107507775642551 0.44702298357657522 0 -0.12303719105788261 0.43652431012537302 0 -0.1098252185051008 0.43169649454610809 0 -0.1107507775642551 0.44702298357657522 0 -0.1107507775642551 0.44702298357657522 0 -0.124592693477486 0.45411183847552838 0 -0.1139116018964431 0.46415145338435548 0 -0.12759413471959649 0.48050782004634279 0 -0.1139116018964431 0.46415145338435548 0 -0.1018553377565465 0.48234530474338821 0 -0.12759413471959649 0.48050782004634279 0 -0.1180146717961308 0.5 0 -0.1018553377565465 0.48234530474338821 0 -0.089022510021331103 0.5 0 -0.1180146717961308 0.5 0 -0.1018553377565465 0.48234530474338821 0 -0.086175933625722331 0.46716222144690872 0 -0.1139116018964431 0.46415145338435548 0 -0.1018553377565465 0.48234530474338821 0 -0.16218846400421269 0.079337101756281225 0 -0.1700728820139682 0.10394440031983899 0 -0.15578849018364871 0.094954487095615728 0 -0.16218846400421269 0.079337101756281225 0 -0.18265419617794559 0.088767717385577122 0 -0.1700728820139682 0.10394440031983899 0 -0.16218846400421269 0.079337101756281225 0 -0.15959190096474549 0.064060222412300596 0 -0.18515524749897991 0.066945116695965118 0 -0.16218846400421269 0.079337101756281225 0 -0.15959190096474549 0.064060222412300596 0 -0.14977509336019751 0.075338565111585293 0 -0.16218846400421269 0.079337101756281225 0 -0.18515524749897991 0.066945116695965118 0 -0.16218846400421269 0.079337101756281225 0 -0.18515524749897991 0.066945116695965118 0 -0.18265419617794559 0.088767717385577122 0 -0.18265419617794559 0.088767717385577122 0 -0.1700728820139682 0.10394440031983899 0 -0.1902008285898461 0.1035308480083458 0 -0.1830669370972651 0.120971490017811 0 -0.1700728820139682 0.10394440031983899 0 -0.1902008285898461 0.1035308480083458 0 -0.1700728820139682 0.10394440031983899 0 -0.16131509094375829 0.12878218317120221 0 -0.1700728820139682 0.10394440031983899 0 -0.14923196972005409 0.1074992819277175 0 -0.16131509094375829 0.12878218317120221 0 -0.1830669370972651 0.120971490017811 0 -0.1700728820139682 0.10394440031983899 0 -0.16131509094375829 0.12878218317120221 0 -0.1700728820139682 0.10394440031983899 0 -0.15578849018364871 0.094954487095615728 0 -0.14923196972005409 0.1074992819277175 0 -0.15578849018364871 0.094954487095615728 0 -0.14923196972005409 0.1074992819277175 0 -0.1392216805094455 0.091729086816597333 0 -0.14923196972005409 0.1074992819277175 0 -0.13820930873266021 0.12201498359912891 0 -0.16131509094375829 0.12878218317120221 0 -0.14923196972005409 0.1074992819277175 0 -0.13820930873266021 0.12201498359912891 0 -0.1331919406334521 0.1086211583464148 0 -0.13820930873266021 0.12201498359912891 0 -0.1331919406334521 0.1086211583464148 0 -0.1231906534491346 0.1208008384468378 0 -0.1331919406334521 0.1086211583464148 0 -0.1392216805094455 0.091729086816597333 0 -0.11625489701467839 0.1041210718769134 0 -0.1392216805094455 0.091729086816597333 0 -0.1206714813652479 0.093922943389134511 0 -0.11625489701467839 0.1041210718769134 0 -0.14923196972005409 0.1074992819277175 0 -0.1331919406334521 0.1086211583464148 0 -0.1392216805094455 0.091729086816597333 0 -0.1392216805094455 0.091729086816597333 0 -0.11625489701467839 0.1041210718769134 0 -0.1284641513095198 0.08660070329691201 0 -0.1392216805094455 0.091729086816597333 0 -0.1206714813652479 0.093922943389134511 0 -0.12543248285412409 0.08125561565569947 0 -0.1308052575172827 0.083617522936868138 0 -0.13480532837612191 0.072634213887123655 0 -0.1284641513095198 0.08660070329691201 0 -0.12543248285412409 0.08125561565569947 0 -0.1308052575172827 0.083617522936868138 0 -0.1284641513095198 0.08660070329691201 0 -0.1308052575172827 0.083617522936868138 0 -0.13588453229720859 0.085705135162359336 0 -0.13588453229720859 0.085705135162359336 0 -0.14251468009570981 0.085322722390635722 0 -0.13480532837612191 0.072634213887123655 0 -0.1308052575172827 0.083617522936868138 0 -0.13588453229720859 0.085705135162359336 0 -0.13480532837612191 0.072634213887123655 0 -0.14251468009570981 0.085322722390635722 0 -0.13480532837612191 0.072634213887123655 0 -0.1284641513095198 0.08660070329691201 0 -0.13588453229720859 0.085705135162359336 0 -0.1392216805094455 0.091729086816597333 0 -0.13588453229720859 0.085705135162359336 0 -0.1392216805094455 0.091729086816597333 0 -0.14251468009570981 0.085322722390635722 0 -0.16218846400421269 0.079337101756281225 0 -0.15578849018364871 0.094954487095615728 0 -0.1392216805094455 0.091729086816597333 0 -0.16218846400421269 0.079337101756281225 0 -0.1392216805094455 0.091729086816597333 0 -0.14251468009570981 0.085322722390635722 0 -0.16218846400421269 0.079337101756281225 0 -0.14251468009570981 0.085322722390635722 0 -0.14977509336019751 0.075338565111585293 0 -0.16218846400421269 0.079337101756281225 0 -0.1392216805094455 0.091729086816597333 0 -0.15959190096474549 0.064060222412300596 0 -0.13480532837612191 0.072634213887123655 0 -0.15959190096474549 0.064060222412300596 0 -0.14977509336019751 0.075338565111585293 0 -0.13480532837612191 0.072634213887123655 0 -0.15959190096474549 0.064060222412300596 0 -0.13480532837612191 0.072634213887123655 0 -0.1430240854601377 0.056279061609299283 0 -0.14251468009570981 0.085322722390635722 0 -0.14977509336019751 0.075338565111585293 0 -0.13480532837612191 0.072634213887123655 0 -0.13480532837612191 0.072634213887123655 0 -0.12472160534016449 0.056037824185028742 0 -0.13480532837612191 0.072634213887123655 0 -0.1213669484055644 0.069736198241788394 0 -0.12472160534016449 0.056037824185028742 0 -0.1358664893539025 0.044636645662651672 0 -0.1430240854601377 0.056279061609299283 0 -0.12472160534016449 0.056037824185028742 0 -0.13480532837612191 0.072634213887123655 0 -0.1430240854601377 0.056279061609299283 0 -0.12472160534016449 0.056037824185028742 0 -0.1358664893539025 0.044636645662651672 0 -0.11463788230420489 0.039441434482935148 0 -0.12472160534016449 0.056037824185028742 0 -0.1358664893539025 0.044636645662651672 0 -0.14205596009501181 0.028042145553283961 0 -0.11463788230420489 0.039441434482935148 0 -0.14205596009501181 0.028042145553283961 0 -0.11463788230420489 0.039441434482935148 0 -0.1358664893539025 0.044636645662651672 0 -0.15489291356999391 0.043382762482711189 0 -0.14205596009501181 0.028042145553283961 0 -0.1358664893539025 0.044636645662651672 0 -0.15489291356999391 0.043382762482711189 0 -0.1430240854601377 0.056279061609299283 0 -0.15959190096474549 0.064060222412300596 0 -0.15489291356999391 0.043382762482711189 0 -0.1430240854601377 0.056279061609299283 0 -0.14573804686938699 0.010337812259593061 0 -0.12145368885386749 0.0090400545648379113 0 -0.12284776380783489 0.02513941123346761 0 -0.1392861910412849 -0.0081554484471183623 0 -0.14573804686938699 0.010337812259593061 0 -0.12145368885386749 0.0090400545648379113 0 -0.14205596009501181 0.028042145553283961 0 -0.14573804686938699 0.010337812259593061 0 -0.12284776380783489 0.02513941123346761 0 -0.14205596009501181 0.028042145553283961 0 -0.12284776380783489 0.02513941123346761 0 -0.11463788230420489 0.039441434482935148 0 -0.15489291356999391 0.043382762482711189 0 -0.14205596009501181 0.028042145553283961 0 -0.16947403788581861 0.016642856623632369 0 -0.14205596009501181 0.028042145553283961 0 -0.16947403788581861 0.016642856623632369 0 -0.14205596009501181 0.028042145553283961 0 -0.14573804686938699 0.010337812259593061 0 -0.16947403788581861 0.016642856623632369 0 -0.16835351915437599 -0.0059665003200060447 0 -0.14573804686938699 0.010337812259593061 0 -0.16947403788581861 0.016642856623632369 0 -0.16835351915437599 -0.0059665003200060447 0 -0.16947403788581861 0.016642856623632369 0 -0.19689211567662521 0.0052435676939808374 0 -0.16947403788581861 0.016642856623632369 0 -0.19689211567662521 0.0052435676939808374 0 -0.15959190096474549 0.064060222412300596 0 -0.15489291356999391 0.043382762482711189 0 -0.17474246393130841 0.044511692993498581 0 -0.15489291356999391 0.043382762482711189 0 -0.16947403788581861 0.016642856623632369 0 -0.17474246393130841 0.044511692993498581 0 -0.16947403788581861 0.016642856623632369 0 -0.17474246393130841 0.044511692993498581 0 -0.19792490445079969 0.038515570141352193 0 -0.18515524749897991 0.066945116695965118 0 -0.17474246393130841 0.044511692993498581 0 -0.19792490445079969 0.038515570141352193 0 -0.15959190096474549 0.064060222412300596 0 -0.18515524749897991 0.066945116695965118 0 -0.17474246393130841 0.044511692993498581 0 -0.18515524749897991 0.066945116695965118 0 -0.19792490445079969 0.038515570141352193 0 -0.20649214533965829 0.064716046621700274 0 -0.19792490445079969 0.038515570141352193 0 -0.22210026396847379 0.026106355866846741 0 -0.2238170356413281 0.053330133944356713 0 -0.19792490445079969 0.038515570141352193 0 -0.2238170356413281 0.053330133944356713 0 -0.20649214533965829 0.064716046621700274 0 -0.22431019346743189 -0.0061557212356707254 0 -0.19689211567662521 0.0052435676939808374 0 -0.22210026396847379 0.026106355866846741 0 -0.19792490445079969 0.038515570141352193 0 -0.19689211567662521 0.0052435676939808374 0 -0.22210026396847379 0.026106355866846741 0 -0.16947403788581861 0.016642856623632369 0 -0.19792490445079969 0.038515570141352193 0 -0.19689211567662521 0.0052435676939808374 0 -0.22431019346743189 -0.0061557212356707254 0 -0.22210026396847379 0.026106355866846741 0 -0.24617697237406069 0.022900951014264259 0 -0.22210026396847379 0.026106355866846741 0 -0.24617697237406069 0.022900951014264259 0 -0.24039603329084949 0.042346998453257977 0 -0.22431019346743189 -0.0061557212356707254 0 -0.25292970563774841 0.0047829274478382649 0 -0.24617697237406069 0.022900951014264259 0 -0.22210026396847379 0.026106355866846741 0 -0.2238170356413281 0.053330133944356713 0 -0.24039603329084949 0.042346998453257977 0 -0.2238170356413281 0.053330133944356713 0 -0.24039603329084949 0.042346998453257977 0 -0.24426600045267591 0.063050892424643734 0 -0.24426600045267591 0.063050892424643734 0 -0.2463867615235886 0.083861522240638725 0 -0.226179662925274 0.075432076671511181 0 -0.2463867615235886 0.083861522240638725 0 -0.226179662925274 0.075432076671511181 0 -0.2323791021061298 0.096620535681284966 0 -0.226179662925274 0.075432076671511181 0 -0.20520286540892091 0.090397876285451498 0 -0.2323791021061298 0.096620535681284966 0 -0.2238170356413281 0.053330133944356713 0 -0.24426600045267591 0.063050892424643734 0 -0.226179662925274 0.075432076671511181 0 -0.2238170356413281 0.053330133944356713 0 -0.226179662925274 0.075432076671511181 0 -0.20649214533965829 0.064716046621700274 0 -0.226179662925274 0.075432076671511181 0 -0.20649214533965829 0.064716046621700274 0 -0.20520286540892091 0.090397876285451498 0 -0.18515524749897991 0.066945116695965118 0 -0.18265419617794559 0.088767717385577122 0 -0.20520286540892091 0.090397876285451498 0 -0.18515524749897991 0.066945116695965118 0 -0.20649214533965829 0.064716046621700274 0 -0.20520286540892091 0.090397876285451498 0 -0.1830669370972651 0.120971490017811 0 -0.1902008285898461 0.1035308480083458 0 -0.20360381079618051 0.11807322724171219 0 -0.20520286540892091 0.090397876285451498 0 -0.1902008285898461 0.1035308480083458 0 -0.20360381079618051 0.11807322724171219 0 -0.18265419617794559 0.088767717385577122 0 -0.20520286540892091 0.090397876285451498 0 -0.1902008285898461 0.1035308480083458 0 -0.20520286540892091 0.090397876285451498 0 -0.20360381079618051 0.11807322724171219 0 -0.21993962549138549 0.1100262048636657 0 -0.20360381079618051 0.11807322724171219 0 -0.21993962549138549 0.1100262048636657 0 -0.2235809135913443 0.1318664257239042 0 -0.21993962549138549 0.1100262048636657 0 -0.23711444304099591 0.1164897487841438 0 -0.2235809135913443 0.1318664257239042 0 -0.21993962549138549 0.1100262048636657 0 -0.2323791021061298 0.096620535681284966 0 -0.23711444304099591 0.1164897487841438 0 -0.20520286540892091 0.090397876285451498 0 -0.21993962549138549 0.1100262048636657 0 -0.2323791021061298 0.096620535681284966 0 -0.2323791021061298 0.096620535681284966 0 -0.2491670073101466 0.103385609527716 0 -0.23711444304099591 0.1164897487841438 0 -0.2463867615235886 0.083861522240638725 0 -0.2323791021061298 0.096620535681284966 0 -0.2491670073101466 0.103385609527716 0 -0.25600860344789661 0.12337983474864821 0 -0.23711444304099591 0.1164897487841438 0 -0.24186175119433001 0.13404024791631439 0 -0.25600860344789661 0.12337983474864821 0 -0.2491670073101466 0.103385609527716 0 -0.23711444304099591 0.1164897487841438 0 -0.24186175119433001 0.13404024791631439 0 -0.2235809135913443 0.1318664257239042 0 -0.23822528160714149 0.15208714835191289 0 -0.23711444304099591 0.1164897487841438 0 -0.24186175119433001 0.13404024791631439 0 -0.2235809135913443 0.1318664257239042 0 -0.23822528160714149 0.15208714835191289 0 -0.2096692876959437 0.1525980875754632 0 -0.2235809135913443 0.1318664257239042 0 -0.23822528160714149 0.15208714835191289 0 -0.2096692876959437 0.1525980875754632 0 -0.23822528160714149 0.15208714835191289 0 -0.22713030037583479 0.16099872693545161 0 -0.2096692876959437 0.1525980875754632 0 -0.25443256115123242 0.1442297534304943 0 -0.24186175119433001 0.13404024791631439 0 -0.23822528160714149 0.15208714835191289 0 -0.25443256115123242 0.1442297534304943 0 -0.23822528160714149 0.15208714835191289 0 -0.2459704072877123 0.16988066979209079 0 -0.23822528160714149 0.15208714835191289 0 -0.2459704072877123 0.16988066979209079 0 -0.23827890047293879 0.16942106096766299 0 -0.23822528160714149 0.15208714835191289 0 -0.23827890047293879 0.16942106096766299 0 -0.22713030037583479 0.16099872693545161 0 -0.25388056033531381 0.18498374321358579 0 -0.2459704072877123 0.16988066979209079 0 -0.2414470506274336 0.1946036526885839 0 -0.2459704072877123 0.16988066979209079 0 -0.22214990399691961 0.18569976515168221 0 -0.2414470506274336 0.1946036526885839 0 -0.2459704072877123 0.16988066979209079 0 -0.23827890047293879 0.16942106096766299 0 -0.22634945145772181 0.17747789000936659 0 -0.2459704072877123 0.16988066979209079 0 -0.22214990399691961 0.18569976515168221 0 -0.2459704072877123 0.16988066979209079 0 -0.22634945145772181 0.17747789000936659 0 -0.22214990399691961 0.18569976515168221 0 -0.23827890047293879 0.16942106096766299 0 -0.22234773172731531 0.16988861084676729 0 -0.2106179043565117 0.17963501174388541 0 -0.23827890047293879 0.16942106096766299 0 -0.2106179043565117 0.17963501174388541 0 -0.23827890047293879 0.16942106096766299 0 -0.22634945145772181 0.17747789000936659 0 -0.2106179043565117 0.17963501174388541 0 -0.22634945145772181 0.17747789000936659 0 -0.22214990399691961 0.18569976515168221 0 -0.2106179043565117 0.17963501174388541 0 -0.22634945145772181 0.17747789000936659 0 -0.22214990399691961 0.18569976515168221 0 -0.23827890047293879 0.16942106096766299 0 -0.22234773172731531 0.16988861084676729 0 -0.22713030037583479 0.16099872693545161 0 -0.22234773172731531 0.16988861084676729 0 -0.22713030037583479 0.16099872693545161 0 -0.2096692876959437 0.1525980875754632 0 -0.22234773172731531 0.16988861084676729 0 -0.19782917728673899 0.1680252265608215 0 -0.22234773172731531 0.16988861084676729 0 -0.19782917728673899 0.1680252265608215 0 -0.2096692876959437 0.1525980875754632 0 -0.22234773172731531 0.16988861084676729 0 -0.2106179043565117 0.17963501174388541 0 -0.19782917728673899 0.1680252265608215 0 -0.22214990399691961 0.18569976515168221 0 -0.2106179043565117 0.17963501174388541 0 -0.20833879059699381 0.19487166707283129 0 -0.2106179043565117 0.17963501174388541 0 -0.1829569082400847 0.18984896252010769 0 -0.184951619641474 0.17522891603165561 0 -0.2106179043565117 0.17963501174388541 0 -0.1829569082400847 0.18984896252010769 0 -0.2106179043565117 0.17963501174388541 0 -0.19782917728673899 0.1680252265608215 0 -0.184951619641474 0.17522891603165561 0 -0.19782917728673899 0.1680252265608215 0 -0.2096692876959437 0.1525980875754632 0 -0.1811132937847458 0.1531090267990135 0 -0.2096692876959437 0.1525980875754632 0 -0.1811132937847458 0.1531090267990135 0 -0.19469887056749041 0.13679604177454441 0 -0.2096692876959437 0.1525980875754632 0 -0.1811132937847458 0.1531090267990135 0 -0.1830669370972651 0.120971490017811 0 -0.20360381079618051 0.11807322724171219 0 -0.19469887056749041 0.13679604177454441 0 -0.20360381079618051 0.11807322724171219 0 -0.19469887056749041 0.13679604177454441 0 -0.20847573128727009 0.13566656384343101 0 -0.2235809135913443 0.1318664257239042 0 -0.20847573128727009 0.13566656384343101 0 -0.2096692876959437 0.1525980875754632 0 -0.20360381079618051 0.11807322724171219 0 -0.2235809135913443 0.1318664257239042 0 -0.20847573128727009 0.13566656384343101 0 -0.19469887056749041 0.13679604177454441 0 -0.20847573128727009 0.13566656384343101 0 -0.2096692876959437 0.1525980875754632 0 -0.22502439809346519 0.24757819962307551 0 -0.24130308794522479 0.24324196820880001 0 -0.23248769752870951 0.22511663290819531 0 -0.22502439809346519 0.24757819962307551 0 -0.23248769752870951 0.22511663290819531 0 -0.22502439809346519 0.24757819962307551 0 -0.23248769752870951 0.22511663290819531 0 -0.21393160990165139 0.23468671073193709 0 -0.25906115400159241 0.23524461637026409 0 -0.24130308794522479 0.24324196820880001 0 -0.23248769752870951 0.22511663290819531 0 -0.2505966372148451 0.21632181392181679 0 -0.23248769752870951 0.22511663290819531 0 -0.23541524089866561 0.2163058902486627 0 -0.2505966372148451 0.21632181392181679 0 -0.25906115400159241 0.23524461637026409 0 -0.23248769752870951 0.22511663290819531 0 -0.25906115400159241 0.23524461637026409 0 -0.23248769752870951 0.22511663290819531 0 -0.23248769752870951 0.22511663290819531 0 -0.20698195106950279 0.21539558745104351 0 -0.23248769752870951 0.22511663290819531 0 -0.23541524089866561 0.2163058902486627 0 -0.23248769752870951 0.22511663290819531 0 -0.22364993610749589 0.21215078551386329 0 -0.20698195106950279 0.21539558745104351 0 -0.22364993610749589 0.21215078551386329 0 -0.22879886350738729 0.20338814066005001 0 -0.21456592753321219 0.2005476763013633 0 -0.22364993610749589 0.21215078551386329 0 -0.22879886350738729 0.20338814066005001 0 -0.23541524089866561 0.2163058902486627 0 -0.23248769752870951 0.22511663290819531 0 -0.22364993610749589 0.21215078551386329 0 -0.23541524089866561 0.2163058902486627 0 -0.2505966372148451 0.21632181392181679 0 -0.23541524089866561 0.2163058902486627 0 -0.24341011530889239 0.2065434883892904 0 -0.22879886350738729 0.20338814066005001 0 -0.23541524089866561 0.2163058902486627 0 -0.24341011530889239 0.2065434883892904 0 -0.26157415744736467 0.1981752351773394 0 -0.24341011530889239 0.2065434883892904 0 -0.2414470506274336 0.1946036526885839 0 -0.22879886350738729 0.20338814066005001 0 -0.24341011530889239 0.2065434883892904 0 -0.2414470506274336 0.1946036526885839 0 -0.22214990399691961 0.18569976515168221 0 -0.22879886350738729 0.20338814066005001 0 -0.2414470506274336 0.1946036526885839 0 -0.22214990399691961 0.18569976515168221 0 -0.22879886350738729 0.20338814066005001 0 -0.21456592753321219 0.2005476763013633 0 -0.22214990399691961 0.18569976515168221 0 -0.20833879059699381 0.19487166707283129 0 -0.22214990399691961 0.18569976515168221 0 -0.21456592753321219 0.2005476763013633 0 -0.20833879059699381 0.19487166707283129 0 -0.22214990399691961 0.18569976515168221 0 -0.21456592753321219 0.2005476763013633 0 -0.21456592753321219 0.2005476763013633 0 -0.20833879059699381 0.19487166707283129 0 -0.2022671397292195 0.2028572998320495 0 -0.2106179043565117 0.17963501174388541 0 -0.20833879059699381 0.19487166707283129 0 -0.19813580070529779 0.19496030946007101 0 -0.19813580070529779 0.19496030946007101 0 -0.18649826060367941 0.20758860613148131 0 -0.1829569082400847 0.18984896252010769 0 -0.2106179043565117 0.17963501174388541 0 -0.19813580070529779 0.19496030946007101 0 -0.1829569082400847 0.18984896252010769 0 -0.19813580070529779 0.19496030946007101 0 -0.2022671397292195 0.2028572998320495 0 -0.18649826060367941 0.20758860613148131 0 -0.20833879059699381 0.19487166707283129 0 -0.19813580070529779 0.19496030946007101 0 -0.2022671397292195 0.2028572998320495 0 -0.20698195106950279 0.21539558745104351 0 -0.18649826060367941 0.20758860613148131 0 -0.20698195106950279 0.21539558745104351 0 -0.1929811601242144 0.2208849638533896 0 -0.18649826060367941 0.20758860613148131 0 -0.2022671397292195 0.2028572998320495 0 -0.20698195106950279 0.21539558745104351 0 -0.18649826060367941 0.20758860613148131 0 -0.22364993610749589 0.21215078551386329 0 -0.21456592753321219 0.2005476763013633 0 -0.20698195106950279 0.21539558745104351 0 -0.21456592753321219 0.2005476763013633 0 -0.20698195106950279 0.21539558745104351 0 -0.21456592753321219 0.2005476763013633 0 -0.2022671397292195 0.2028572998320495 0 -0.20698195106950279 0.21539558745104351 0 -0.20698195106950279 0.21539558745104351 0 -0.19735498621567399 0.2342432618174958 0 -0.21393160990165139 0.23468671073193709 0 -0.23248769752870951 0.22511663290819531 0 -0.20698195106950279 0.21539558745104351 0 -0.21393160990165139 0.23468671073193709 0 -0.1929811601242144 0.2208849638533896 0 -0.19735498621567399 0.2342432618174958 0 -0.18108944260799939 0.22631240001353661 0 -0.20698195106950279 0.21539558745104351 0 -0.19735498621567399 0.2342432618174958 0 -0.20698195106950279 0.21539558745104351 0 -0.1929811601242144 0.2208849638533896 0 -0.19735498621567399 0.2342432618174958 0 -0.18772802136184311 0.25309093618394701 0 -0.19735498621567399 0.2342432618174958 0 -0.1837692519907525 0.2411118679200395 0 -0.18772802136184311 0.25309093618394701 0 -0.19735498621567399 0.2342432618174958 0 -0.18772802136184311 0.25309093618394701 0 -0.19735498621567399 0.2342432618174958 0 -0.20029537139010559 0.24762759881773311 0 -0.21289198869676379 0.25601766455805841 0 -0.20029537139010559 0.24762759881773311 0 -0.21393160990165139 0.23468671073193709 0 -0.21289198869676379 0.25601766455805841 0 -0.22502439809346519 0.24757819962307551 0 -0.21393160990165139 0.23468671073193709 0 -0.19735498621567399 0.2342432618174958 0 -0.20029537139010559 0.24762759881773311 0 -0.21393160990165139 0.23468671073193709 0 -0.1591792031642684 0.2476046069207602 0 -0.16463700725927849 0.2293056116648019 0 -0.15006491661746971 0.2346697662831943 0 -0.1591792031642684 0.2476046069207602 0 -0.1717344288474367 0.2421330695617302 0 -0.16463700725927849 0.2293056116648019 0 -0.16836481527225519 0.25908704722013948 0 -0.1591792031642684 0.2476046069207602 0 -0.1717344288474367 0.2421330695617302 0 -0.1805998676982549 0.25251454399683498 0 -0.1717344288474367 0.2421330695617302 0 -0.1837692519907525 0.2411118679200395 0 -0.1717344288474367 0.2421330695617302 0 -0.1837692519907525 0.2411118679200395 0 -0.18108944260799939 0.22631240001353661 0 -0.18772802136184311 0.25309093618394701 0 -0.1805998676982549 0.25251454399683498 0 -0.1837692519907525 0.2411118679200395 0 -0.19735498621567399 0.2342432618174958 0 -0.1837692519907525 0.2411118679200395 0 -0.18108944260799939 0.22631240001353661 0 -0.1717344288474367 0.2421330695617302 0 -0.18108944260799939 0.22631240001353661 0 -0.16463700725927849 0.2293056116648019 0 -0.18108944260799939 0.22631240001353661 0 -0.16463700725927849 0.2293056116648019 0 -0.17097295530289239 0.21153134791814751 0 -0.16463700725927849 0.2293056116648019 0 -0.17097295530289239 0.21153134791814751 0 -0.1561550793714172 0.21924996655926979 0 -0.16463700725927849 0.2293056116648019 0 -0.1561550793714172 0.21924996655926979 0 -0.15006491661746971 0.2346697662831943 0 -0.17097295530289239 0.21153134791814751 0 -0.15529591212365779 0.20006291329633011 0 -0.1561550793714172 0.21924996655926979 0 -0.1929811601242144 0.2208849638533896 0 -0.18108944260799939 0.22631240001353661 0 -0.18649826060367941 0.20758860613148131 0 -0.18108944260799939 0.22631240001353661 0 -0.17097295530289239 0.21153134791814751 0 -0.18649826060367941 0.20758860613148131 0 -0.17097295530289239 0.21153134791814751 0 -0.18649826060367941 0.20758860613148131 0 -0.1829569082400847 0.18984896252010769 0 -0.17097295530289239 0.21153134791814751 0 -0.1829569082400847 0.18984896252010769 0 -0.15529591212365779 0.20006291329633011 0 -0.1829569082400847 0.18984896252010769 0 -0.15529591212365779 0.20006291329633011 0 -0.1829569082400847 0.18984896252010769 0 -0.15529591212365779 0.20006291329633011 0 -0.16834329459753539 0.1820959289142291 0 -0.15529591212365779 0.20006291329633011 0 -0.16834329459753539 0.1820959289142291 0 -0.15352325840073061 0.18490126361352641 0 -0.15529591212365779 0.20006291329633011 0 -0.13948548721668991 0.1886829935063141 0 -0.13021229332140871 0.20408991855460909 0 -0.15529591212365779 0.20006291329633011 0 -0.13948548721668991 0.1886829935063141 0 -0.15352325840073061 0.18490126361352641 0 -0.13948548721668991 0.1886829935063141 0 -0.13021229332140871 0.20408991855460909 0 -0.122524490487573 0.18817296699181019 0 -0.13021229332140871 0.20408991855460909 0 -0.1398046055537876 0.2206801936338752 0 -0.11543103049856041 0.22419277018831371 0 -0.15529591212365779 0.20006291329633011 0 -0.1561550793714172 0.21924996655926979 0 -0.1398046055537876 0.2206801936338752 0 -0.15529591212365779 0.20006291329633011 0 -0.13021229332140871 0.20408991855460909 0 -0.1398046055537876 0.2206801936338752 0 -0.1561550793714172 0.21924996655926979 0 -0.1398046055537876 0.2206801936338752 0 -0.15006491661746971 0.2346697662831943 0 -0.1398046055537876 0.2206801936338752 0 -0.1310170349368219 0.24235299882390191 0 -0.11543103049856041 0.22419277018831371 0 -0.1398046055537876 0.2206801936338752 0 -0.1310170349368219 0.24235299882390191 0 -0.15006491661746971 0.2346697662831943 0 -0.14389306494698961 0.25474056310547188 0 -0.1310170349368219 0.24235299882390191 0 -0.15006491661746971 0.2346697662831943 0 -0.14389306494698961 0.25474056310547188 0 -0.1591792031642684 0.2476046069207602 0 -0.15006491661746971 0.2346697662831943 0 -0.16667912954232991 0.14463642879351971 0 -0.16131509094375829 0.12878218317120221 0 -0.15255729987354791 0.15361996602256531 0 -0.1811132937847458 0.1531090267990135 0 -0.15255729987354791 0.15361996602256531 0 -0.16667912954232991 0.14463642879351971 0 -0.1811132937847458 0.1531090267990135 0 -0.15255729987354791 0.15361996602256531 0 -0.16131509094375829 0.12878218317120221 0 -0.15255729987354791 0.15361996602256531 0 -0.16667912954232991 0.14463642879351971 0 -0.16131509094375829 0.12878218317120221 0 -0.17944937259664939 0.13782752301928089 0 -0.1830669370972651 0.120971490017811 0 -0.16131509094375829 0.12878218317120221 0 -0.17944937259664939 0.13782752301928089 0 -0.1830669370972651 0.120971490017811 0 -0.19469887056749041 0.13679604177454441 0 -0.17944937259664939 0.13782752301928089 0 -0.19469887056749041 0.13679604177454441 0 -0.17944937259664939 0.13782752301928089 0 -0.1811132937847458 0.1531090267990135 0 -0.16667912954232991 0.14463642879351971 0 -0.17944937259664939 0.13782752301928089 0 -0.1811132937847458 0.1531090267990135 0 -0.19782917728673899 0.1680252265608215 0 -0.1811132937847458 0.1531090267990135 0 -0.1733106228461628 0.16616184227487579 0 -0.19782917728673899 0.1680252265608215 0 -0.1733106228461628 0.16616184227487579 0 -0.19782917728673899 0.1680252265608215 0 -0.1733106228461628 0.16616184227487579 0 -0.184951619641474 0.17522891603165561 0 -0.1733106228461628 0.16616184227487579 0 -0.184951619641474 0.17522891603165561 0 -0.16834329459753539 0.1820959289142291 0 -0.1829569082400847 0.18984896252010769 0 -0.184951619641474 0.17522891603165561 0 -0.16834329459753539 0.1820959289142291 0 -0.1733106228461628 0.16616184227487579 0 -0.16834329459753539 0.1820959289142291 0 -0.16032633133117191 0.17476994425217809 0 -0.16834329459753539 0.1820959289142291 0 -0.16032633133117191 0.17476994425217809 0 -0.15352325840073061 0.18490126361352641 0 -0.1733106228461628 0.16616184227487579 0 -0.1487920684055864 0.16429845798893161 0 -0.1733106228461628 0.16616184227487579 0 -0.1487920684055864 0.16429845798893161 0 -0.15255729987354791 0.15361996602256531 0 -0.1733106228461628 0.16616184227487579 0 -0.16032633133117191 0.17476994425217809 0 -0.1487920684055864 0.16429845798893161 0 -0.1811132937847458 0.1531090267990135 0 -0.1733106228461628 0.16616184227487579 0 -0.15255729987354791 0.15361996602256531 0 -0.1487920684055864 0.16429845798893161 0 -0.15255729987354791 0.15361996602256531 0 -0.1487920684055864 0.16429845798893161 0 -0.13092148044422131 0.15400708575702199 0 -0.15255729987354791 0.15361996602256531 0 -0.1487920684055864 0.16429845798893161 0 -0.144775036730736 0.17569107510517909 0 -0.13224941054351849 0.1748580153417145 0 -0.16032633133117191 0.17476994425217809 0 -0.1487920684055864 0.16429845798893161 0 -0.144775036730736 0.17569107510517909 0 -0.1487920684055864 0.16429845798893161 0 -0.144775036730736 0.17569107510517909 0 -0.16032633133117191 0.17476994425217809 0 -0.15352325840073061 0.18490126361352641 0 -0.144775036730736 0.17569107510517909 0 -0.13948548721668991 0.1886829935063141 0 -0.15352325840073061 0.18490126361352641 0 -0.144775036730736 0.17569107510517909 0 -0.13948548721668991 0.1886829935063141 0 -0.13224941054351849 0.1748580153417145 0 -0.122524490487573 0.18817296699181019 0 -0.13948548721668991 0.1886829935063141 0 -0.144775036730736 0.17569107510517909 0 -0.13224941054351849 0.1748580153417145 0 -0.1487920684055864 0.16429845798893161 0 -0.1261721179223127 0.16257936560191519 0 -0.13092148044422131 0.15400708575702199 0 -0.1487920684055864 0.16429845798893161 0 -0.13224941054351849 0.1748580153417145 0 -0.1261721179223127 0.16257936560191519 0 -0.1487920684055864 0.16429845798893161 0 -0.1261721179223127 0.16257936560191519 0 -0.13092148044422131 0.15400708575702199 0 -0.13933601538130541 0.1460794104114205 0 -0.1296376939498059 0.13799947725190301 0 -0.13092148044422131 0.15400708575702199 0 -0.1296376939498059 0.13799947725190301 0 -0.1156649658641614 0.15115620991630729 0 -0.13933601538130541 0.1460794104114205 0 -0.14422758725764631 0.13869111261419181 0 -0.1296376939498059 0.13799947725190301 0 -0.13092148044422131 0.15400708575702199 0 -0.15255729987354791 0.15361996602256531 0 -0.13092148044422131 0.15400708575702199 0 -0.13933601538130541 0.1460794104114205 0 -0.15255729987354791 0.15361996602256531 0 -0.13933601538130541 0.1460794104114205 0 -0.15255729987354791 0.15361996602256531 0 -0.14422758725764631 0.13869111261419181 0 -0.13820930873266021 0.12201498359912891 0 -0.16131509094375829 0.12878218317120221 0 -0.14422758725764631 0.13869111261419181 0 -0.16131509094375829 0.12878218317120221 0 -0.15255729987354791 0.15361996602256531 0 -0.14422758725764631 0.13869111261419181 0 -0.13820930873266021 0.12201498359912891 0 -0.1296376939498059 0.13799947725190301 0 -0.1231906534491346 0.1208008384468378 0 -0.13820930873266021 0.12201498359912891 0 -0.14422758725764631 0.13869111261419181 0 -0.1296376939498059 0.13799947725190301 0 -0.1296376939498059 0.13799947725190301 0 -0.1137463376310975 0.13343775018506401 0 -0.1231906534491346 0.1208008384468378 0 -0.1137463376310975 0.13343775018506401 0 -0.1231906534491346 0.1208008384468378 0 -0.10815257070323719 0.120795258331353 0 -0.1137463376310975 0.13343775018506401 0 -0.09451722615795749 0.13958998497752101 0 -0.10815257070323719 0.120795258331353 0 -0.09451722615795749 0.13958998497752101 0 -0.093288113519911231 0.11651305693722951 0 -0.10815257070323719 0.120795258331353 0 -0.09451722615795749 0.13958998497752101 0 -0.1156649658641614 0.15115620991630729 0 -0.1035521674390389 0.1608602732149004 0 -0.1137463376310975 0.13343775018506401 0 -0.09451722615795749 0.13958998497752101 0 -0.1156649658641614 0.15115620991630729 0 -0.1296376939498059 0.13799947725190301 0 -0.1137463376310975 0.13343775018506401 0 -0.1156649658641614 0.15115620991630729 0 -0.1261721179223127 0.16257936560191519 0 -0.13092148044422131 0.15400708575702199 0 -0.1156649658641614 0.15115620991630729 0 -0.13224941054351849 0.1748580153417145 0 -0.1261721179223127 0.16257936560191519 0 -0.1141953235465173 0.1737236836795189 0 -0.1261721179223127 0.16257936560191519 0 -0.1035521674390389 0.1608602732149004 0 -0.1261721179223127 0.16257936560191519 0 -0.1156649658641614 0.15115620991630729 0 -0.1035521674390389 0.1608602732149004 0 -0.1261721179223127 0.16257936560191519 0 -0.1141953235465173 0.1737236836795189 0 -0.1035521674390389 0.1608602732149004 0 -0.13224941054351849 0.1748580153417145 0 -0.1141953235465173 0.1737236836795189 0 -0.122524490487573 0.18817296699181019 0 -0.1141953235465173 0.1737236836795189 0 -0.1097279475788402 0.18721875058244519 0 -0.122524490487573 0.18817296699181019 0 -0.1141953235465173 0.1737236836795189 0 -0.1097279475788402 0.18721875058244519 0 -0.094271762960722802 0.1844450184090457 0 -0.1141953235465173 0.1737236836795189 0 -0.094271762960722802 0.1844450184090457 0 -0.1035521674390389 0.1608602732149004 0 -0.094271762960722802 0.1844450184090457 0 -0.1035521674390389 0.1608602732149004 0 -0.081048973643214894 0.16562370462672929 0 -0.094271762960722802 0.1844450184090457 0 -0.081048973643214894 0.16562370462672929 0 -0.068950846583348005 0.18554833475710869 0 -0.068950846583348005 0.18554833475710869 0 -0.058152696556864572 0.1634226809074843 0 -0.081048973643214894 0.16562370462672929 0 -0.068950846583348005 0.18554833475710869 0 -0.058152696556864572 0.1634226809074843 0 -0.081048973643214894 0.16562370462672929 0 -0.070278954582711592 0.1477676879134284 0 -0.058152696556864572 0.1634226809074843 0 -0.070278954582711592 0.1477676879134284 0 -0.070321330025144069 0.1289050419975456 0 -0.047354546530376983 0.1412970270578619 0 -0.09451722615795749 0.13958998497752101 0 -0.070321330025144069 0.1289050419975456 0 -0.093288113519911231 0.11651305693722951 0 -0.09451722615795749 0.13958998497752101 0 -0.070278954582711592 0.1477676879134284 0 -0.070321330025144069 0.1289050419975456 0 -0.09451722615795749 0.13958998497752101 0 -0.081048973643214894 0.16562370462672929 0 -0.070278954582711592 0.1477676879134284 0 -0.09451722615795749 0.13958998497752101 0 -0.1035521674390389 0.1608602732149004 0 -0.081048973643214894 0.16562370462672929 0 -0.098806227800824681 0.26027902515901952 0 -0.1119401698023982 0.24855085732980811 0 -0.091072849878388817 0.23809470459148119 0 -0.1119401698023982 0.24855085732980811 0 -0.11543103049856041 0.22419277018831371 0 -0.091072849878388817 0.23809470459148119 0 -0.1310170349368219 0.24235299882390191 0 -0.1119401698023982 0.24855085732980811 0 -0.11543103049856041 0.22419277018831371 0 -0.11543103049856041 0.22419277018831371 0 -0.09455560632090973 0.21681154205327491 0 -0.091072849878388817 0.23809470459148119 0 -0.11543103049856041 0.22419277018831371 0 -0.09455560632090973 0.21681154205327491 0 -0.1092999812604398 0.20161430844517231 0 -0.09455560632090973 0.21681154205327491 0 -0.1092999812604398 0.20161430844517231 0 -0.083157221416504945 0.2008028314328639 0 -0.13021229332140871 0.20408991855460909 0 -0.11543103049856041 0.22419277018831371 0 -0.1092999812604398 0.20161430844517231 0 -0.13021229332140871 0.20408991855460909 0 -0.122524490487573 0.18817296699181019 0 -0.1092999812604398 0.20161430844517231 0 -0.1097279475788402 0.18721875058244519 0 -0.122524490487573 0.18817296699181019 0 -0.1092999812604398 0.20161430844517231 0 -0.094271762960722802 0.1844450184090457 0 -0.1092999812604398 0.20161430844517231 0 -0.083157221416504945 0.2008028314328639 0 -0.1097279475788402 0.18721875058244519 0 -0.094271762960722802 0.1844450184090457 0 -0.1092999812604398 0.20161430844517231 0 -0.094271762960722802 0.1844450184090457 0 -0.068950846583348005 0.18554833475710869 0 -0.083157221416504945 0.2008028314328639 0 -0.068950846583348005 0.18554833475710869 0 -0.083157221416504945 0.2008028314328639 0 -0.060616393691027268 0.20157168646341661 0 -0.083157221416504945 0.2008028314328639 0 -0.07435959726780543 0.22020431293588039 0 -0.060616393691027268 0.20157168646341661 0 -0.09455560632090973 0.21681154205327491 0 -0.083157221416504945 0.2008028314328639 0 -0.07435959726780543 0.22020431293588039 0 -0.080849976017208627 0.25626030475537348 0 -0.04834322755709753 0.25245644762732788 0 -0.06888019303736985 0.23785063241861759 0 -0.09455560632090973 0.21681154205327491 0 -0.07435959726780543 0.22020431293588039 0 -0.091072849878388817 0.23809470459148119 0 -0.07435959726780543 0.22020431293588039 0 -0.06888019303736985 0.23785063241861759 0 -0.049775314466348787 0.2222373921830253 0 -0.07435959726780543 0.22020431293588039 0 -0.06888019303736985 0.23785063241861759 0 -0.091072849878388817 0.23809470459148119 0 -0.080849976017208627 0.25626030475537348 0 -0.06888019303736985 0.23785063241861759 0 -0.091072849878388817 0.23809470459148119 0 -0.04834322755709753 0.25245644762732788 0 -0.029023528420285018 0.25670572621559468 0 -0.028637112296021328 0.23207770741519701 0 -0.04834322755709753 0.25245644762732788 0 -0.049775314466348787 0.2222373921830253 0 -0.028637112296021328 0.23207770741519701 0 -0.04834322755709753 0.25245644762732788 0 -0.028637112296021328 0.23207770741519701 0 -0.04834322755709753 0.25245644762732788 0 -0.06888019303736985 0.23785063241861759 0 -0.049775314466348787 0.2222373921830253 0 -0.049775314466348787 0.2222373921830253 0 -0.026326027500835888 0.2089259545027482 0 -0.028637112296021328 0.23207770741519701 0 -0.049775314466348787 0.2222373921830253 0 -0.042381795156216123 0.20038665042972631 0 -0.026326027500835888 0.2089259545027482 0 -0.049775314466348787 0.2222373921830253 0 -0.060616393691027268 0.20157168646341661 0 -0.042381795156216123 0.20038665042972631 0 -0.07435959726780543 0.22020431293588039 0 -0.049775314466348787 0.2222373921830253 0 -0.060616393691027268 0.20157168646341661 0 -0.060616393691027268 0.20157168646341661 0 -0.042381795156216123 0.20038665042972631 0 -0.04507358725594033 0.18025059704189511 0 -0.068950846583348005 0.18554833475710869 0 -0.060616393691027268 0.20157168646341661 0 -0.04507358725594033 0.18025059704189511 0 -0.042381795156216123 0.20038665042972631 0 -0.029743992037044462 0.1891707975738203 0 -0.04507358725594033 0.18025059704189511 0 -0.042381795156216123 0.20038665042972631 0 -0.029743992037044462 0.1891707975738203 0 -0.026326027500835888 0.2089259545027482 0 -0.029743992037044462 0.1891707975738203 0 -0.012052909465521931 0.19860341673844889 0 -0.026326027500835888 0.2089259545027482 0 -0.012052909465521931 0.19860341673844889 0 -0.00123170423358764 0.2074095332365862 0 0.0020903727636386979 0.1931712092312004 0 -0.012052909465521931 0.19860341673844889 0 -0.008700869348635603 0.21163979453651219 0 -0.00123170423358764 0.2074095332365862 0 -0.0048059101388961689 0.226787632269843 0 0.0043916685432209427 0.21683797682976561 0 -0.00123170423358764 0.2074095332365862 0 -0.008700869348635603 0.21163979453651219 0 -0.0048059101388961689 0.226787632269843 0 -0.012052909465521931 0.19860341673844889 0 -0.00123170423358764 0.2074095332365862 0 -0.008700869348635603 0.21163979453651219 0 -0.008700869348635603 0.21163979453651219 0 -0.026326027500835888 0.2089259545027482 0 -0.028637112296021328 0.23207770741519701 0 -0.012052909465521931 0.19860341673844889 0 -0.008700869348635603 0.21163979453651219 0 -0.026326027500835888 0.2089259545027482 0 -0.008700869348635603 0.21163979453651219 0 -0.028637112296021328 0.23207770741519701 0 -0.008700869348635603 0.21163979453651219 0 -0.028637112296021328 0.23207770741519701 0 -0.0048059101388961689 0.226787632269843 0 -0.008700869348635603 0.21163979453651219 0 -0.0048059101388961689 0.226787632269843 0 -0.0048059101388961689 0.226787632269843 0 -0.009799921262099871 0.2474248970103998 0 0.01010111039693592 0.2391136420981142 0 -0.028637112296021328 0.23207770741519701 0 -0.0048059101388961689 0.226787632269843 0 -0.009799921262099871 0.2474248970103998 0 -0.029023528420285018 0.25670572621559468 0 -0.028637112296021328 0.23207770741519701 0 -0.009799921262099871 0.2474248970103998 0 -0.040288079881212087 0.1504393939718707 0 -0.0374040055523161 0.16046234084150909 0 -0.026546908118773499 0.14223498567566059 0 -0.040288079881212087 0.1504393939718707 0 -0.036474418338268408 0.1413341093476673 0 -0.047354546530376983 0.1412970270578619 0 -0.040288079881212087 0.1504393939718707 0 -0.036474418338268408 0.1413341093476673 0 -0.026546908118773499 0.14223498567566059 0 -0.036474418338268408 0.1413341093476673 0 -0.035730210288360598 0.13263151737852349 0 -0.026546908118773499 0.14223498567566059 0 -0.047354546530376983 0.1412970270578619 0 -0.035466778765847508 0.1169387217965233 0 -0.052433912976198593 0.1232966103015134 0 -0.047354546530376983 0.1412970270578619 0 -0.035466778765847508 0.1169387217965233 0 -0.035730210288360598 0.13263151737852349 0 -0.047354546530376983 0.1412970270578619 0 -0.035466778765847508 0.1169387217965233 0 -0.036474418338268408 0.1413341093476673 0 -0.035730210288360598 0.13263151737852349 0 -0.047354546530376983 0.1412970270578619 0 -0.070321330025144069 0.1289050419975456 0 -0.047354546530376983 0.1412970270578619 0 -0.052433912976198593 0.1232966103015134 0 -0.070321330025144069 0.1289050419975456 0 -0.047354546530376983 0.1412970270578619 0 -0.040288079881212087 0.1504393939718707 0 -0.047354546530376983 0.1412970270578619 0 -0.058152696556864572 0.1634226809074843 0 -0.047354546530376983 0.1412970270578619 0 -0.058152696556864572 0.1634226809074843 0 -0.070278954582711592 0.1477676879134284 0 -0.047354546530376983 0.1412970270578619 0 -0.058152696556864572 0.1634226809074843 0 -0.058152696556864572 0.1634226809074843 0 -0.04507358725594033 0.18025059704189511 0 -0.0374040055523161 0.16046234084150909 0 -0.068950846583348005 0.18554833475710869 0 -0.058152696556864572 0.1634226809074843 0 -0.04507358725594033 0.18025059704189511 0 -0.029743992037044462 0.1891707975738203 0 -0.04507358725594033 0.18025059704189511 0 -0.019299908792147699 0.17041920120705481 0 -0.040288079881212087 0.1504393939718707 0 -0.058152696556864572 0.1634226809074843 0 -0.0374040055523161 0.16046234084150909 0 -0.04507358725594033 0.18025059704189511 0 -0.0374040055523161 0.16046234084150909 0 -0.019299908792147699 0.17041920120705481 0 -0.0374040055523161 0.16046234084150909 0 -0.019299908792147699 0.17041920120705481 0 -0.026546908118773499 0.14223498567566059 0 -0.019299908792147699 0.17041920120705481 0 -0.026546908118773499 0.14223498567566059 0 -0.012052909465521931 0.19860341673844889 0 -0.019299908792147699 0.17041920120705481 0 -0.029743992037044462 0.1891707975738203 0 -0.012052909465521931 0.19860341673844889 0 -0.019299908792147699 0.17041920120705481 0 -0.012052909465521931 0.19860341673844889 0 -0.019299908792147699 0.17041920120705481 0 0.0020903727636386979 0.1931712092312004 0 -0.019299908792147699 0.17041920120705481 0 0.01182911347958392 0.17778243551760839 0 0.0020903727636386979 0.1931712092312004 0 -0.019299908792147699 0.17041920120705481 0 -0.0008599030197884496 0.1583962096517057 0 -0.026546908118773499 0.14223498567566059 0 -0.019299908792147699 0.17041920120705481 0 -0.0008599030197884496 0.1583962096517057 0 0.01182911347958392 0.17778243551760839 0 -0.0008599030197884496 0.1583962096517057 0 -0.026546908118773499 0.14223498567566059 0 -0.0067810657334562187 0.13898726920299651 0 -0.026546908118773499 0.14223498567566059 0 -0.0067810657334562187 0.13898726920299651 0 -0.019716437338543859 0.1248601778377889 0 -0.035730210288360598 0.13263151737852349 0 -0.026546908118773499 0.14223498567566059 0 -0.019716437338543859 0.1248601778377889 0 -0.0067810657334562187 0.13898726920299651 0 -0.019716437338543859 0.1248601778377889 0 0.001698333101076085 0.1252187099559969 0 -0.0063682858240813323 0.1104795305900077 0 -0.019716437338543859 0.1248601778377889 0 0.001698333101076085 0.1252187099559969 0 -0.0063682858240813323 0.1104795305900077 0 -0.002368520125105951 0.094040152576106123 0 -0.01616411115540823 0.097541573249443042 0 -0.0063682858240813323 0.1104795305900077 0 -0.01616411115540823 0.097541573249443042 0 -0.027989002556390519 0.10519488029363019 0 -0.0063682858240813323 0.1104795305900077 0 -0.027989002556390519 0.10519488029363019 0 -0.01616411115540823 0.097541573249443042 0 -0.027989002556390519 0.10519488029363019 0 -0.02957240120839336 0.091832031008479531 0 -0.027989002556390519 0.10519488029363019 0 -0.019716437338543859 0.1248601778377889 0 -0.035466778765847508 0.1169387217965233 0 -0.0063682858240813323 0.1104795305900077 0 -0.027989002556390519 0.10519488029363019 0 -0.019716437338543859 0.1248601778377889 0 -0.035730210288360598 0.13263151737852349 0 -0.019716437338543859 0.1248601778377889 0 -0.035466778765847508 0.1169387217965233 0 -0.0070368550151780314 0.077174118983777282 0 -0.01663200453810295 0.0856764023692419 0 -0.017195373465547861 0.069252889714422589 0 -0.0063920482879075303 0.064623364534727196 0 -0.017195373465547861 0.069252889714422589 0 -0.011180231104791249 0.057882599911388763 0 -0.0063920482879075303 0.064623364534727196 0 0.00012756872033514 0.061153454134376568 0 0.0030277117529624868 0.069691812760878366 0 -0.0063920482879075303 0.064623364534727196 0 -0.0070368550151780314 0.077174118983777282 0 0.0030277117529624868 0.069691812760878366 0 -0.0063920482879075303 0.064623364534727196 0 -0.0070368550151780314 0.077174118983777282 0 -0.017195373465547861 0.069252889714422589 0 -0.002368520125105951 0.094040152576106123 0 -0.0070368550151780314 0.077174118983777282 0 0.0053599725690053586 0.080027800662599832 0 -0.002368520125105951 0.094040152576106123 0 -0.0070368550151780314 0.077174118983777282 0 -0.01663200453810295 0.0856764023692419 0 -0.002368520125105951 0.094040152576106123 0 -0.01616411115540823 0.097541573249443042 0 -0.01663200453810295 0.0856764023692419 0 -0.026869683512406071 0.079910826934288207 0 -0.01663200453810295 0.0856764023692419 0 -0.017195373465547861 0.069252889714422589 0 -0.01616411115540823 0.097541573249443042 0 -0.02957240120839336 0.091832031008479531 0 -0.01663200453810295 0.0856764023692419 0 -0.02957240120839336 0.091832031008479531 0 -0.026869683512406071 0.079910826934288207 0 -0.01663200453810295 0.0856764023692419 0 -0.026869683512406071 0.079910826934288207 0 -0.017195373465547861 0.069252889714422589 0 -0.033487624702841411 0.063697768588813541 0 -0.017195373465547861 0.069252889714422589 0 -0.033487624702841411 0.063697768588813541 0 -0.019553147206988961 0.056488413185534922 0 -0.033487624702841411 0.063697768588813541 0 -0.040374979517963192 0.082278505658303691 0 -0.047823034542735322 0.067086541661690563 0 -0.026869683512406071 0.079910826934288207 0 -0.033487624702841411 0.063697768588813541 0 -0.040374979517963192 0.082278505658303691 0 -0.02957240120839336 0.091832031008479531 0 -0.040374979517963192 0.082278505658303691 0 -0.049609719288699741 0.099910229997252631 0 -0.02957240120839336 0.091832031008479531 0 -0.026869683512406071 0.079910826934288207 0 -0.040374979517963192 0.082278505658303691 0 -0.05773854173145189 0.085418981700192922 0 -0.049609719288699741 0.099910229997252631 0 -0.067593593696406162 0.095514515997786598 0 -0.040374979517963192 0.082278505658303691 0 -0.05773854173145189 0.085418981700192922 0 -0.047823034542735322 0.067086541661690563 0 -0.040374979517963192 0.082278505658303691 0 -0.05773854173145189 0.085418981700192922 0 -0.049609719288699741 0.099910229997252631 0 -0.05773854173145189 0.085418981700192922 0 -0.047823034542735322 0.067086541661690563 0 -0.063361911129218532 0.070636874727569937 0 -0.035466778765847508 0.1169387217965233 0 -0.052433912976198593 0.1232966103015134 0 -0.047194096343827617 0.112291369833104 0 -0.027989002556390519 0.10519488029363019 0 -0.035466778765847508 0.1169387217965233 0 -0.047194096343827617 0.112291369833104 0 -0.027989002556390519 0.10519488029363019 0 -0.049609719288699741 0.099910229997252631 0 -0.027989002556390519 0.10519488029363019 0 -0.02957240120839336 0.091832031008479531 0 -0.049609719288699741 0.099910229997252631 0 -0.027989002556390519 0.10519488029363019 0 -0.049609719288699741 0.099910229997252631 0 -0.047194096343827617 0.112291369833104 0 -0.049609719288699741 0.099910229997252631 0 -0.061139439870151663 0.10448702151013731 0 -0.047194096343827617 0.112291369833104 0 -0.049609719288699741 0.099910229997252631 0 -0.067593593696406162 0.095514515997786598 0 -0.049609719288699741 0.099910229997252631 0 -0.061139439870151663 0.10448702151013731 0 -0.067593593696406162 0.095514515997786598 0 -0.052433912976198593 0.1232966103015134 0 -0.047194096343827617 0.112291369833104 0 -0.06420299970627974 0.11377493170651511 0 -0.070321330025144069 0.1289050419975456 0 -0.052433912976198593 0.1232966103015134 0 -0.06420299970627974 0.11377493170651511 0 -0.061139439870151663 0.10448702151013731 0 -0.047194096343827617 0.112291369833104 0 -0.06420299970627974 0.11377493170651511 0 -0.070321330025144069 0.1289050419975456 0 -0.06420299970627974 0.11377493170651511 0 -0.077382696738746995 0.1109988322490513 0 -0.06420299970627974 0.11377493170651511 0 -0.077382696738746995 0.1109988322490513 0 -0.071337253288801361 0.1041298001380636 0 -0.077382696738746995 0.1109988322490513 0 -0.093288113519911231 0.11651305693722951 0 -0.087034683778817887 0.1015955843566707 0 -0.070321330025144069 0.1289050419975456 0 -0.093288113519911231 0.11651305693722951 0 -0.070321330025144069 0.1289050419975456 0 -0.077382696738746995 0.1109988322490513 0 -0.093288113519911231 0.11651305693722951 0 -0.093510195708489507 0.096633741396419073 0 -0.087034683778817887 0.1015955843566707 0 -0.085508973155584214 0.095525817401885427 0 -0.093510195708489507 0.096633741396419073 0 -0.087034683778817887 0.1015955843566707 0 -0.096373906182648419 0.1026015503083461 0 -0.093288113519911231 0.11651305693722951 0 -0.087034683778817887 0.1015955843566707 0 -0.096373906182648419 0.1026015503083461 0 -0.077382696738746995 0.1109988322490513 0 -0.087034683778817887 0.1015955843566707 0 -0.078111800113527752 0.10107457835828321 0 -0.087034683778817887 0.1015955843566707 0 -0.08240170263231332 0.098346617766206734 0 -0.078111800113527752 0.10107457835828321 0 -0.085508973155584214 0.095525817401885427 0 -0.07962978648419583 0.096986834092817414 0 -0.074447411207372124 0.093512786969081885 0 -0.08240170263231332 0.098346617766206734 0 -0.07962978648419583 0.096986834092817414 0 -0.078111800113527752 0.10107457835828321 0 -0.087034683778817887 0.1015955843566707 0 -0.08240170263231332 0.098346617766206734 0 -0.085508973155584214 0.095525817401885427 0 -0.08240170263231332 0.098346617766206734 0 -0.085508973155584214 0.095525817401885427 0 -0.07962978648419583 0.096986834092817414 0 -0.078111800113527752 0.10107457835828321 0 -0.074447411207372124 0.093512786969081885 0 -0.072589026636212473 0.097897897631034111 0 -0.071337253288801361 0.1041298001380636 0 -0.067593593696406162 0.095514515997786598 0 -0.07962978648419583 0.096986834092817414 0 -0.078111800113527752 0.10107457835828321 0 -0.074447411207372124 0.093512786969081885 0 -0.078111800113527752 0.10107457835828321 0 -0.072589026636212473 0.097897897631034111 0 -0.074447411207372124 0.093512786969081885 0 -0.078111800113527752 0.10107457835828321 0 -0.072589026636212473 0.097897897631034111 0 -0.071337253288801361 0.1041298001380636 0 -0.072589026636212473 0.097897897631034111 0 -0.071230436021008897 0.094625579700875165 0 -0.074447411207372124 0.093512786969081885 0 -0.072589026636212473 0.097897897631034111 0 -0.071230436021008897 0.094625579700875165 0 -0.067593593696406162 0.095514515997786598 0 -0.071230436021008897 0.094625579700875165 0 -0.074447411207372124 0.093512786969081885 0 -0.077382696738746995 0.1109988322490513 0 -0.078111800113527752 0.10107457835828321 0 -0.071337253288801361 0.1041298001380636 0 -0.061139439870151663 0.10448702151013731 0 -0.06420299970627974 0.11377493170651511 0 -0.071337253288801361 0.1041298001380636 0 -0.061139439870151663 0.10448702151013731 0 -0.071337253288801361 0.1041298001380636 0 -0.067593593696406162 0.095514515997786598 0 -0.071230436021008897 0.094625579700875165 0 -0.067593593696406162 0.095514515997786598 0 -0.05773854173145189 0.085418981700192922 0 -0.071230436021008897 0.094625579700875165 0 -0.067593593696406162 0.095514515997786598 0 -0.05773854173145189 0.085418981700192922 0 -0.074447411207372124 0.093512786969081885 0 -0.063361911129218532 0.070636874727569937 0 -0.074447411207372124 0.093512786969081885 0 -0.063361911129218532 0.070636874727569937 0 -0.074447411207372124 0.093512786969081885 0 -0.063361911129218532 0.070636874727569937 0 -0.079909514969075557 0.076741959031863635 0 -0.05773854173145189 0.085418981700192922 0 -0.071230436021008897 0.094625579700875165 0 -0.074447411207372124 0.093512786969081885 0 -0.063361911129218532 0.070636874727569937 0 -0.077513299220808934 0.064550114300332723 0 -0.069452974107109613 0.052660644817096702 0 -0.063361911129218532 0.070636874727569937 0 -0.077513299220808934 0.064550114300332723 0 -0.079909514969075557 0.076741959031863635 0 -0.077513299220808934 0.064550114300332723 0 -0.085647967691139165 0.062765396577345825 0 -0.085171275977712152 0.069503069479959476 0 -0.077513299220808934 0.064550114300332723 0 -0.085171275977712152 0.069503069479959476 0 -0.079909514969075557 0.076741959031863635 0 -0.085171275977712152 0.069503069479959476 0 -0.079909514969075557 0.076741959031863635 0 -0.090382969134940649 0.0752876237128869 0 -0.079909514969075557 0.076741959031863635 0 -0.090382969134940649 0.0752876237128869 0 -0.089221553584053995 0.081301527885930994 0 -0.090382969134940649 0.0752876237128869 0 -0.092402628872596426 0.068170253777368239 0 -0.097917055510802875 0.073328246062671978 0 -0.085171275977712152 0.069503069479959476 0 -0.090382969134940649 0.0752876237128869 0 -0.092402628872596426 0.068170253777368239 0 -0.085647967691139165 0.062765396577345825 0 -0.092402628872596426 0.068170253777368239 0 -0.094484205810736188 0.058148701089362168 0 -0.085647967691139165 0.062765396577345825 0 -0.085171275977712152 0.069503069479959476 0 -0.092402628872596426 0.068170253777368239 0 -0.074447411207372124 0.093512786969081885 0 -0.083033612149070651 0.085505581719956092 0 -0.094566716930289521 0.086553262608431325 0 -0.074447411207372124 0.093512786969081885 0 -0.094566716930289521 0.086553262608431325 0 -0.074447411207372124 0.093512786969081885 0 -0.096863079746015629 0.088360312922930118 0 -0.094566716930289521 0.086553262608431325 0 -0.074447411207372124 0.093512786969081885 0 -0.079909514969075557 0.076741959031863635 0 -0.083033612149070651 0.085505581719956092 0 -0.074447411207372124 0.093512786969081885 0 -0.096863079746015629 0.088360312922930118 0 -0.085508973155584214 0.095525817401885427 0 -0.074447411207372124 0.093512786969081885 0 -0.096863079746015629 0.088360312922930118 0 -0.079909514969075557 0.076741959031863635 0 -0.083033612149070651 0.085505581719956092 0 -0.089221553584053995 0.081301527885930994 0 -0.083033612149070651 0.085505581719956092 0 -0.089221553584053995 0.081301527885930994 0 -0.094566716930289521 0.086553262608431325 0 -0.090382969134940649 0.0752876237128869 0 -0.089221553584053995 0.081301527885930994 0 -0.095213679000047874 0.079026480275093153 0 -0.089221553584053995 0.081301527885930994 0 -0.094566716930289521 0.086553262608431325 0 -0.095213679000047874 0.079026480275093153 0 -0.093510195708489507 0.096633741396419073 0 -0.085508973155584214 0.095525817401885427 0 -0.096863079746015629 0.088360312922930118 0 -0.096863079746015629 0.088360312922930118 0 -0.1191372922131296 0.082915931731810485 0 -0.096863079746015629 0.088360312922930118 0 -0.1105736787709783 0.092751120886723784 0 -0.1191372922131296 0.082915931731810485 0 -0.094566716930289521 0.086553262608431325 0 -0.1146860226532057 0.079593738247777462 0 -0.093510195708489507 0.096633741396419073 0 -0.096863079746015629 0.088360312922930118 0 -0.1017703356793814 0.095085441992263015 0 -0.096863079746015629 0.088360312922930118 0 -0.094566716930289521 0.086553262608431325 0 -0.1146860226532057 0.079593738247777462 0 -0.094566716930289521 0.086553262608431325 0 -0.10289721473441291 0.078066773812932699 0 -0.1146860226532057 0.079593738247777462 0 -0.094566716930289521 0.086553262608431325 0 -0.095213679000047874 0.079026480275093153 0 -0.10289721473441291 0.078066773812932699 0 -0.096863079746015629 0.088360312922930118 0 -0.1105736787709783 0.092751120886723784 0 -0.1017703356793814 0.095085441992263015 0 -0.092402628872596426 0.068170253777368239 0 -0.1011262302992417 0.066011733753459534 0 -0.097917055510802875 0.073328246062671978 0 -0.092402628872596426 0.068170253777368239 0 -0.1011262302992417 0.066011733753459534 0 -0.094484205810736188 0.058148701089362168 0 -0.1011262302992417 0.066011733753459534 0 -0.097917055510802875 0.073328246062671978 0 -0.1047374505705421 0.071676743897376771 0 -0.090382969134940649 0.0752876237128869 0 -0.095213679000047874 0.079026480275093153 0 -0.097917055510802875 0.073328246062671978 0 -0.095213679000047874 0.079026480275093153 0 -0.097917055510802875 0.073328246062671978 0 -0.10289721473441291 0.078066773812932699 0 -0.10289721473441291 0.078066773812932699 0 -0.1097463620228373 0.073974376228841537 0 -0.1146860226532057 0.079593738247777462 0 -0.097917055510802875 0.073328246062671978 0 -0.10289721473441291 0.078066773812932699 0 -0.1047374505705421 0.071676743897376771 0 -0.10289721473441291 0.078066773812932699 0 -0.1047374505705421 0.071676743897376771 0 -0.1097463620228373 0.073974376228841537 0 -0.1047374505705421 0.071676743897376771 0 -0.1120003902854159 0.067002589628978107 0 -0.1097463620228373 0.073974376228841537 0 -0.1011262302992417 0.066011733753459534 0 -0.1047374505705421 0.071676743897376771 0 -0.1120003902854159 0.067002589628978107 0 -0.1011262302992417 0.066011733753459534 0 -0.1120003902854159 0.067002589628978107 0 -0.1075609697341509 0.055265941019872103 0 -0.12543248285412409 0.08125561565569947 0 -0.13480532837612191 0.072634213887123655 0 -0.1146860226532057 0.079593738247777462 0 -0.13480532837612191 0.072634213887123655 0 -0.1146860226532057 0.079593738247777462 0 -0.13480532837612191 0.072634213887123655 0 -0.1213669484055644 0.069736198241788394 0 -0.1146860226532057 0.079593738247777462 0 -0.1120003902854159 0.067002589628978107 0 -0.1144499308417558 0.072576725586846372 0 -0.1213669484055644 0.069736198241788394 0 -0.1144499308417558 0.072576725586846372 0 -0.1213669484055644 0.069736198241788394 0 -0.1146860226532057 0.079593738247777462 0 -0.1120003902854159 0.067002589628978107 0 -0.1144499308417558 0.072576725586846372 0 -0.1097463620228373 0.073974376228841537 0 -0.1144499308417558 0.072576725586846372 0 -0.1097463620228373 0.073974376228841537 0 -0.1146860226532057 0.079593738247777462 0 -0.1120003902854159 0.067002589628978107 0 -0.1213669484055644 0.069736198241788394 0 -0.12472160534016449 0.056037824185028742 0 -0.096863079746015629 0.088360312922930118 0 -0.1146860226532057 0.079593738247777462 0 -0.1191372922131296 0.082915931731810485 0 -0.1105736787709783 0.092751120886723784 0 -0.1191372922131296 0.082915931731810485 0 -0.1206714813652479 0.093922943389134511 0 -0.12543248285412409 0.08125561565569947 0 -0.1146860226532057 0.079593738247777462 0 -0.1191372922131296 0.082915931731810485 0 -0.1284641513095198 0.08660070329691201 0 -0.12543248285412409 0.08125561565569947 0 -0.1191372922131296 0.082915931731810485 0 -0.1284641513095198 0.08660070329691201 0 -0.1191372922131296 0.082915931731810485 0 -0.1206714813652479 0.093922943389134511 0 -0.1105736787709783 0.092751120886723784 0 -0.11625489701467839 0.1041210718769134 0 -0.1017703356793814 0.095085441992263015 0 -0.1105736787709783 0.092751120886723784 0 -0.1206714813652479 0.093922943389134511 0 -0.11625489701467839 0.1041210718769134 0 -0.11625489701467839 0.1041210718769134 0 -0.1231906534491346 0.1208008384468378 0 -0.10815257070323719 0.120795258331353 0 -0.1331919406334521 0.1086211583464148 0 -0.11625489701467839 0.1041210718769134 0 -0.1231906534491346 0.1208008384468378 0 -0.093288113519911231 0.11651305693722951 0 -0.11625489701467839 0.1041210718769134 0 -0.10815257070323719 0.120795258331353 0 -0.093288113519911231 0.11651305693722951 0 -0.11625489701467839 0.1041210718769134 0 -0.093288113519911231 0.11651305693722951 0 -0.11625489701467839 0.1041210718769134 0 -0.096373906182648419 0.1026015503083461 0 -0.11625489701467839 0.1041210718769134 0 -0.096373906182648419 0.1026015503083461 0 -0.1017703356793814 0.095085441992263015 0 -0.093510195708489507 0.096633741396419073 0 -0.096373906182648419 0.1026015503083461 0 -0.1017703356793814 0.095085441992263015 0 -0.10637158694234509 0.02583627508606387 0 -0.098105291580482909 0.012231115689194039 0 -0.12145368885386749 0.0090400545648379113 0 -0.10637158694234509 0.02583627508606387 0 -0.09308893880875721 0.035140662270612313 0 -0.086299154477092743 0.025399842376097631 0 -0.10637158694234509 0.02583627508606387 0 -0.098105291580482909 0.012231115689194039 0 -0.086299154477092743 0.025399842376097631 0 -0.10637158694234509 0.02583627508606387 0 -0.098105291580482909 0.012231115689194039 0 -0.11180778605765 -0.01001731941111479 0 -0.098105291580482909 0.012231115689194039 0 -0.12145368885386749 0.0090400545648379113 0 -0.10637158694234509 0.02583627508606387 0 -0.12284776380783489 0.02513941123346761 0 -0.11463788230420489 0.039441434482935148 0 -0.10637158694234509 0.02583627508606387 0 -0.12145368885386749 0.0090400545648379113 0 -0.12284776380783489 0.02513941123346761 0 -0.10637158694234509 0.02583627508606387 0 -0.11463788230420489 0.039441434482935148 0 -0.11463788230420489 0.039441434482935148 0 -0.12472160534016449 0.056037824185028742 0 -0.1120003902854159 0.067002589628978107 0 -0.12472160534016449 0.056037824185028742 0 -0.1075609697341509 0.055265941019872103 0 -0.11463788230420489 0.039441434482935148 0 -0.12472160534016449 0.056037824185028742 0 -0.1075609697341509 0.055265941019872103 0 -0.11463788230420489 0.039441434482935148 0 -0.1075609697341509 0.055265941019872103 0 -0.097937529159068004 0.046384742186018367 0 -0.1075609697341509 0.055265941019872103 0 -0.094484205810736188 0.058148701089362168 0 -0.097937529159068004 0.046384742186018367 0 -0.1011262302992417 0.066011733753459534 0 -0.1075609697341509 0.055265941019872103 0 -0.094484205810736188 0.058148701089362168 0 -0.10637158694234509 0.02583627508606387 0 -0.11463788230420489 0.039441434482935148 0 -0.097937529159068004 0.046384742186018367 0 -0.11463788230420489 0.039441434482935148 0 -0.097937529159068004 0.046384742186018367 0 -0.10637158694234509 0.02583627508606387 0 -0.097937529159068004 0.046384742186018367 0 -0.09308893880875721 0.035140662270612313 0 -0.09308893880875721 0.035140662270612313 0 -0.08174748465652304 0.042941789434269392 0 -0.086299154477092743 0.025399842376097631 0 -0.097937529159068004 0.046384742186018367 0 -0.09308893880875721 0.035140662270612313 0 -0.08174748465652304 0.042941789434269392 0 -0.08174748465652304 0.042941789434269392 0 -0.068248094408608795 0.027425311271618069 0 -0.086299154477092743 0.025399842376097631 0 -0.097937529159068004 0.046384742186018367 0 -0.08174748465652304 0.042941789434269392 0 -0.08123717601393099 0.053328049889101177 0 -0.097937529159068004 0.046384742186018367 0 -0.08123717601393099 0.053328049889101177 0 -0.094484205810736188 0.058148701089362168 0 -0.097937529159068004 0.046384742186018367 0 -0.08123717601393099 0.053328049889101177 0 -0.085647967691139165 0.062765396577345825 0 -0.094484205810736188 0.058148701089362168 0 -0.08123717601393099 0.053328049889101177 0 -0.077513299220808934 0.064550114300332723 0 -0.085647967691139165 0.062765396577345825 0 -0.08123717601393099 0.053328049889101177 0 -0.077513299220808934 0.064550114300332723 0 -0.08123717601393099 0.053328049889101177 0 -0.069452974107109613 0.052660644817096702 0 -0.08174748465652304 0.042941789434269392 0 -0.08123717601393099 0.053328049889101177 0 -0.069452974107109613 0.052660644817096702 0 -0.08174748465652304 0.042941789434269392 0 -0.069452974107109613 0.052660644817096702 0 -0.065282985765283991 0.040648015353994552 0 -0.08174748465652304 0.042941789434269392 0 -0.065282985765283991 0.040648015353994552 0 -0.068248094408608795 0.027425311271618069 0 -0.08174748465652304 0.042941789434269392 0 -0.068248094408608795 0.027425311271618069 0 -0.065282985765283991 0.040648015353994552 0 -0.068248094408608795 0.027425311271618069 0 -0.054689964603114059 0.03245136876093057 0 -0.068248094408608795 0.027425311271618069 0 -0.075905730733606944 0.017813447868647969 0 -0.086299154477092743 0.025399842376097631 0 -0.068248094408608795 0.027425311271618069 0 -0.066955427654055918 0.013633468571486781 0 -0.054748704160694543 0.011908833108966741 0 -0.068248094408608795 0.027425311271618069 0 -0.075905730733606944 0.017813447868647969 0 -0.066955427654055918 0.013633468571486781 0 -0.075905730733606944 0.017813447868647969 0 -0.086299154477092743 0.025399842376097631 0 -0.083590003319053433 0.0099279846914634828 0 -0.098105291580482909 0.012231115689194039 0 -0.086299154477092743 0.025399842376097631 0 -0.083590003319053433 0.0099279846914634828 0 -0.084329381074014942 -0.01187919037511123 0 -0.098105291580482909 0.012231115689194039 0 -0.083590003319053433 0.0099279846914634828 0 -0.084329381074014942 -0.01187919037511123 0 -0.083590003319053433 0.0099279846914634828 0 -0.073014270551344823 0.0043363067053087904 0 -0.075905730733606944 0.017813447868647969 0 -0.083590003319053433 0.0099279846914634828 0 -0.073014270551344823 0.0043363067053087904 0 -0.075905730733606944 0.017813447868647969 0 -0.073014270551344823 0.0043363067053087904 0 -0.066955427654055918 0.013633468571486781 0 -0.066556129952062879 -0.0037734491924631889 0 -0.073014270551344823 0.0043363067053087904 0 -0.062564150237299734 0.0049450427097121183 0 -0.073014270551344823 0.0043363067053087904 0 -0.066955427654055918 0.013633468571486781 0 -0.062564150237299734 0.0049450427097121183 0 -0.056021871807275081 -0.002528343663117944 0 -0.062564150237299734 0.0049450427097121183 0 -0.053646010029512407 0.0026794717754690862 0 -0.040988405250437468 -0.003304879352412598 0 -0.056627159412129077 0.01769173197582085 0 -0.040988405250437468 -0.003304879352412598 0 -0.054748704160694543 0.011908833108966741 0 -0.056627159412129077 0.01769173197582085 0 -0.062564150237299734 0.0049450427097121183 0 -0.053646010029512407 0.0026794717754690862 0 -0.054748704160694543 0.011908833108966741 0 -0.040988405250437468 -0.003304879352412598 0 -0.054748704160694543 0.011908833108966741 0 -0.040988405250437468 -0.003304879352412598 0 -0.053646010029512407 0.0026794717754690862 0 -0.054748704160694543 0.011908833108966741 0 -0.066955427654055918 0.013633468571486781 0 -0.062564150237299734 0.0049450427097121183 0 -0.054748704160694543 0.011908833108966741 0 -0.068248094408608795 0.027425311271618069 0 -0.054748704160694543 0.011908833108966741 0 -0.068248094408608795 0.027425311271618069 0 -0.056627159412129077 0.01769173197582085 0 -0.05285594025548291 0.024660779861788881 0 -0.068248094408608795 0.027425311271618069 0 -0.054748704160694543 0.011908833108966741 0 -0.056627159412129077 0.01769173197582085 0 -0.068248094408608795 0.027425311271618069 0 -0.05285594025548291 0.024660779861788881 0 -0.054689964603114059 0.03245136876093057 0 -0.05285594025548291 0.024660779861788881 0 -0.041190910972910437 0.024885050244546101 0 -0.054689964603114059 0.03245136876093057 0 -0.056627159412129077 0.01769173197582085 0 -0.05285594025548291 0.024660779861788881 0 -0.046084801895505123 0.01893608078503051 0 -0.056627159412129077 0.01769173197582085 0 -0.046084801895505123 0.01893608078503051 0 -0.042685229873420071 0.011450179039513579 0 -0.041190910972910437 0.024885050244546101 0 -0.032693678997408437 0.02476723827986476 0 -0.034324815593140698 0.041321107345067658 0 -0.05285594025548291 0.024660779861788881 0 -0.046084801895505123 0.01893608078503051 0 -0.041190910972910437 0.024885050244546101 0 -0.032693678997408437 0.02476723827986476 0 -0.038743432828183953 0.01765038351272331 0 -0.031062542401675951 0.0082133692146618472 0 -0.032693678997408437 0.02476723827986476 0 -0.031062542401675951 0.0082133692146618472 0 -0.046084801895505123 0.01893608078503051 0 -0.041190910972910437 0.024885050244546101 0 -0.038743432828183953 0.01765038351272331 0 -0.046084801895505123 0.01893608078503051 0 -0.038743432828183953 0.01765038351272331 0 -0.042685229873420071 0.011450179039513579 0 -0.041190910972910437 0.024885050244546101 0 -0.032693678997408437 0.02476723827986476 0 -0.038743432828183953 0.01765038351272331 0 -0.038743432828183953 0.01765038351272331 0 -0.042685229873420071 0.011450179039513579 0 -0.031062542401675951 0.0082133692146618472 0 -0.040988405250437468 -0.003304879352412598 0 -0.056627159412129077 0.01769173197582085 0 -0.042685229873420071 0.011450179039513579 0 -0.040988405250437468 -0.003304879352412598 0 -0.042685229873420071 0.011450179039513579 0 -0.031062542401675951 0.0082133692146618472 0 -0.040988405250437468 -0.003304879352412598 0 -0.031062542401675951 0.0082133692146618472 0 -0.047823034542735322 0.067086541661690563 0 -0.063361911129218532 0.070636874727569937 0 -0.052276411051064467 0.047760962486058003 0 -0.063361911129218532 0.070636874727569937 0 -0.052276411051064467 0.047760962486058003 0 -0.063361911129218532 0.070636874727569937 0 -0.069452974107109613 0.052660644817096702 0 -0.052276411051064467 0.047760962486058003 0 -0.069452974107109613 0.052660644817096702 0 -0.065282985765283991 0.040648015353994552 0 -0.052276411051064467 0.047760962486058003 0 -0.041190910972910437 0.024885050244546101 0 -0.052276411051064467 0.047760962486058003 0 -0.054689964603114059 0.03245136876093057 0 -0.065282985765283991 0.040648015353994552 0 -0.052276411051064467 0.047760962486058003 0 -0.054689964603114059 0.03245136876093057 0 -0.041190910972910437 0.024885050244546101 0 -0.052276411051064467 0.047760962486058003 0 -0.034324815593140698 0.041321107345067658 0 -0.032693678997408437 0.02476723827986476 0 -0.034324815593140698 0.041321107345067658 0 -0.041190910972910437 0.024885050244546101 0 -0.052276411051064467 0.047760962486058003 0 -0.047823034542735322 0.067086541661690563 0 -0.052276411051064467 0.047760962486058003 0 -0.039261179428665617 0.053541176789955312 0 -0.052276411051064467 0.047760962486058003 0 -0.034324815593140698 0.041321107345067658 0 -0.039261179428665617 0.053541176789955312 0 -0.034324815593140698 0.041321107345067658 0 -0.039261179428665617 0.053541176789955312 0 -0.027518891863132659 0.049469543829646807 0 -0.033487624702841411 0.063697768588813541 0 -0.039261179428665617 0.053541176789955312 0 -0.027518891863132659 0.049469543829646807 0 -0.033487624702841411 0.063697768588813541 0 -0.047823034542735322 0.067086541661690563 0 -0.039261179428665617 0.053541176789955312 0 -0.017195373465547861 0.069252889714422589 0 -0.019553147206988961 0.056488413185534922 0 -0.011180231104791249 0.057882599911388763 0 -0.033487624702841411 0.063697768588813541 0 -0.019553147206988961 0.056488413185534922 0 -0.033487624702841411 0.063697768588813541 0 -0.019553147206988961 0.056488413185534922 0 -0.027518891863132659 0.049469543829646807 0 -0.019553147206988961 0.056488413185534922 0 -0.027518891863132659 0.049469543829646807 0 -0.017794592715208099 0.047681859549837197 0 -0.032693678997408437 0.02476723827986476 0 -0.034324815593140698 0.041321107345067658 0 -0.025968181189854101 0.033282476210971371 0 -0.027518891863132659 0.049469543829646807 0 -0.017794592715208099 0.047681859549837197 0 -0.021052278768723749 0.041764557235759378 0 -0.017794592715208099 0.047681859549837197 0 -0.021052278768723749 0.041764557235759378 0 -0.01346300716545523 0.041960331762192729 0 -0.021052278768723749 0.041764557235759378 0 -0.017334345279967332 0.035133139464673391 0 -0.01346300716545523 0.041960331762192729 0 -0.034324815593140698 0.041321107345067658 0 -0.027518891863132659 0.049469543829646807 0 -0.021052278768723749 0.041764557235759378 0 -0.034324815593140698 0.041321107345067658 0 -0.021052278768723749 0.041764557235759378 0 -0.025968181189854101 0.033282476210971371 0 -0.021052278768723749 0.041764557235759378 0 -0.025968181189854101 0.033282476210971371 0 -0.017334345279967332 0.035133139464673391 0 -0.017334345279967332 0.035133139464673391 0 -0.0068474904122585237 0.036313192084321481 0 -0.01346300716545523 0.041960331762192729 0 -0.0050691775862217268 0.038376795971709149 0 -0.0068474904122585237 0.036313192084321481 0 -0.0050691775862217268 0.038376795971709149 0 -0.0056186697111351262 0.049279057782258801 0 0.0012593163952478741 0.04572055719875677 0 -0.0050691775862217268 0.038376795971709149 0 -0.0068474904122585237 0.036313192084321481 0 -0.0073856385717399192 0.048726451736052133 0 -0.0068474904122585237 0.036313192084321481 0 -0.0073856385717399192 0.048726451736052133 0 -0.0050691775862217268 0.038376795971709149 0 -0.0056186697111351262 0.049279057782258801 0 -0.0073856385717399192 0.048726451736052133 0 -0.0050691775862217268 0.038376795971709149 0 -0.0056186697111351262 0.049279057782258801 0 -0.0050691775862217268 0.038376795971709149 0 0.0012593163952478741 0.04572055719875677 0 -0.0068474904122585237 0.036313192084321481 0 -0.01346300716545523 0.041960331762192729 0 -0.0073856385717399192 0.048726451736052133 0 -0.017794592715208099 0.047681859549837197 0 -0.01346300716545523 0.041960331762192729 0 -0.0073856385717399192 0.048726451736052133 0 -0.019553147206988961 0.056488413185534922 0 -0.0056186697111351262 0.049279057782258801 0 -0.019553147206988961 0.056488413185534922 0 -0.017794592715208099 0.047681859549837197 0 -0.0073856385717399192 0.048726451736052133 0 -0.019553147206988961 0.056488413185534922 0 -0.0056186697111351262 0.049279057782258801 0 -0.0073856385717399192 0.048726451736052133 0 -0.019553147206988961 0.056488413185534922 0 -0.0056186697111351262 0.049279057782258801 0 -0.011180231104791249 0.057882599911388763 0 -0.0056186697111351262 0.049279057782258801 0 0.00087580725956136875 0.054105927963747233 0 0.0012593163952478741 0.04572055719875677 0 -0.0056186697111351262 0.049279057782258801 0 0.0012593163952478741 0.04572055719875677 0 -0.0063920482879075303 0.064623364534727196 0 -0.0056186697111351262 0.049279057782258801 0 -0.0063920482879075303 0.064623364534727196 0 -0.0056186697111351262 0.049279057782258801 0 0.00012756872033514 0.061153454134376568 0 -0.0063920482879075303 0.064623364534727196 0 -0.0056186697111351262 0.049279057782258801 0 -0.011180231104791249 0.057882599911388763 0 -0.0056186697111351262 0.049279057782258801 0 0.00012756872033514 0.061153454134376568 0 0.00087580725956136875 0.054105927963747233 0 -0.017394953615642701 -0.0052781137896157704 0 -0.031062542401675951 0.0082133692146618472 0 -0.005638957041230689 0.0084364108149788987 0 -0.031062542401675951 0.0082133692146618472 0 -0.01895501640696701 0.022263280649491492 0 -0.005638957041230689 0.0084364108149788987 0 -0.031062542401675951 0.0082133692146618472 0 -0.01895501640696701 0.022263280649491492 0 -0.032693678997408437 0.02476723827986476 0 -0.031062542401675951 0.0082133692146618472 0 -0.01895501640696701 0.022263280649491492 0 -0.032693678997408437 0.02476723827986476 0 -0.025968181189854101 0.033282476210971371 0 -0.01895501640696701 0.022263280649491492 0 -0.025968181189854101 0.033282476210971371 0 -0.017334345279967332 0.035133139464673391 0 -0.01895501640696701 0.022263280649491492 0 -0.0050691775862217268 0.038376795971709149 0 -0.0035788031155632172 0.0088068495823422216 0 0.0078772599272926187 0.033618863586815748 0 -0.0068474904122585237 0.036313192084321481 0 -0.01895501640696701 0.022263280649491492 0 -0.005638957041230689 0.0084364108149788987 0 -0.0050691775862217268 0.038376795971709149 0 -0.0035788031155632172 0.0088068495823422216 0 -0.0068474904122585237 0.036313192084321481 0 -0.005638957041230689 0.0084364108149788987 0 -0.0068474904122585237 0.036313192084321481 0 -0.005638957041230689 0.0084364108149788987 0 -0.0035788031155632172 0.0088068495823422216 0 -0.0050691775862217268 0.038376795971709149 0 -0.0068474904122585237 0.036313192084321481 0 -0.0035788031155632172 0.0088068495823422216 0 -0.017334345279967332 0.035133139464673391 0 -0.0068474904122585237 0.036313192084321481 0 -0.01895501640696701 0.022263280649491492 0 -0.0068474904122585237 0.036313192084321481 0 -0.01895501640696701 0.022263280649491492 0 -0.0035788031155632172 0.0088068495823422216 0 0.01289822691960347 0.020145044067811309 0 0.017498307405520871 0.003689520573570085 0 -0.0035788031155632172 0.0088068495823422216 0 0.01289822691960347 0.020145044067811309 0 0.0078772599272926187 0.033618863586815748 0 0.01289822691960347 0.020145044067811309 0 0.0078772599272926187 0.033618863586815748 0 0.021578465450306231 0.035207930006693339 0 0.026511490888931011 0.024774619217864339 0 0.021578465450306231 0.035207930006693339 0 0.041897614505364132 0.02469530281462911 0 0.01289822691960347 0.020145044067811309 0 0.026511490888931011 0.024774619217864339 0 0.017498307405520871 0.003689520573570085 0 0.01289822691960347 0.020145044067811309 0 0.026511490888931011 0.024774619217864339 0 0.021578465450306231 0.035207930006693339 0 0.017498307405520871 0.003689520573570085 0 0.037455570287724643 0.0086422466309158119 0 0.036772556779789092 -0.009653954259329885 0 0.026511490888931011 0.024774619217864339 0 0.017498307405520871 0.003689520573570085 0 0.037455570287724643 0.0086422466309158119 0 0.0077350136337984866 0.060270642739598548 0 0.0012593163952478741 0.04572055719875677 0 0.019621295179138989 0.067028310392484178 0 0.0012593163952478741 0.04572055719875677 0 0.019621295179138989 0.067028310392484178 0 0.0012593163952478741 0.04572055719875677 0 0.015875864182402721 0.050075955487371523 0 0.017597544005800519 0.056492194087130472 0 0.0012593163952478741 0.04572055719875677 0 0.017597544005800519 0.056492194087130472 0 0.019621295179138989 0.067028310392484178 0 0.0077350136337984866 0.060270642739598548 0 0.00012756872033514 0.061153454134376568 0 0.0057864763264800856 0.064770976780513245 0 0.0077350136337984866 0.060270642739598548 0 0.00012756872033514 0.061153454134376568 0 0.00087580725956136875 0.054105927963747233 0 0.0077350136337984866 0.060270642739598548 0 0.00087580725956136875 0.054105927963747233 0 0.0012593163952478741 0.04572055719875677 0 0.0012593163952478741 0.04572055719875677 0 0.021578465450306231 0.035207930006693339 0 0.018647313225795041 0.044026508663143608 0 0.0012593163952478741 0.04572055719875677 0 0.021578465450306231 0.035207930006693339 0 0.0012593163952478741 0.04572055719875677 0 0.018647313225795041 0.044026508663143608 0 0.015875864182402721 0.050075955487371523 0 0.0012593163952478741 0.04572055719875677 0 0.0078772599272926187 0.033618863586815748 0 0.021578465450306231 0.035207930006693339 0 -0.0050691775862217268 0.038376795971709149 0 0.0012593163952478741 0.04572055719875677 0 0.0078772599272926187 0.033618863586815748 0 0.021578465450306231 0.035207930006693339 0 0.026865550878921559 0.045379622470309869 0 0.032598585397336212 0.037084726488291378 0 0.021578465450306231 0.035207930006693339 0 0.026865550878921559 0.045379622470309869 0 0.018647313225795041 0.044026508663143608 0 0.018647313225795041 0.044026508663143608 0 0.015875864182402721 0.050075955487371523 0 0.022971466801816769 0.052601343649359929 0 0.026865550878921559 0.045379622470309869 0 0.018647313225795041 0.044026508663143608 0 0.022971466801816769 0.052601343649359929 0 0.015875864182402721 0.050075955487371523 0 0.022971466801816769 0.052601343649359929 0 0.017597544005800519 0.056492194087130472 0 0.026865550878921559 0.045379622470309869 0 0.022971466801816769 0.052601343649359929 0 0.031841718155068401 0.054951898459558168 0 0.025256650540416099 0.061209300882732527 0 0.031841718155068401 0.054951898459558168 0 0.034009414093471871 0.063478230137505601 0 0.022971466801816769 0.052601343649359929 0 0.025256650540416099 0.061209300882732527 0 0.031841718155068401 0.054951898459558168 0 0.022971466801816769 0.052601343649359929 0 0.025256650540416099 0.061209300882732527 0 0.017597544005800519 0.056492194087130472 0 0.025256650540416099 0.061209300882732527 0 0.017597544005800519 0.056492194087130472 0 0.019621295179138989 0.067028310392484178 0 0.046326443777149229 0.058497110725385867 0 0.031841718155068401 0.054951898459558168 0 0.034009414093471871 0.063478230137505601 0 0.026865550878921559 0.045379622470309869 0 0.031841718155068401 0.054951898459558168 0 0.040052710754752932 0.043056050661533223 0 0.046326443777149229 0.058497110725385867 0 0.031841718155068401 0.054951898459558168 0 0.040052710754752932 0.043056050661533223 0 0.046326443777149229 0.058497110725385867 0 0.040052710754752932 0.043056050661533223 0 0.052238227038430188 0.045355545776911088 0 0.040052710754752932 0.043056050661533223 0 0.049601089603590387 0.035549974868828618 0 0.041897614505364132 0.02469530281462911 0 0.021578465450306231 0.035207930006693339 0 0.032598585397336212 0.037084726488291378 0 0.041897614505364132 0.02469530281462911 0 0.040052710754752932 0.043056050661533223 0 0.032598585397336212 0.037084726488291378 0 0.041897614505364132 0.02469530281462911 0 0.026865550878921559 0.045379622470309869 0 0.040052710754752932 0.043056050661533223 0 0.032598585397336212 0.037084726488291378 0 0.055708314617019548 0.029371749981810399 0 0.064679327085063062 0.026690592170479709 0 0.063991744347142679 0.037907636400974623 0 0.049601089603590387 0.035549974868828618 0 0.055708314617019548 0.029371749981810399 0 0.063991744347142679 0.037907636400974623 0 0.049601089603590387 0.035549974868828618 0 0.052238227038430188 0.045355545776911088 0 0.063991744347142679 0.037907636400974623 0 0.052238227038430188 0.045355545776911088 0 0.06121914670951574 0.051766956227833102 0 0.063991744347142679 0.037907636400974623 0 0.040052710754752932 0.043056050661533223 0 0.049601089603590387 0.035549974868828618 0 0.052238227038430188 0.045355545776911088 0 0.046326443777149229 0.058497110725385867 0 0.052238227038430188 0.045355545776911088 0 0.06121914670951574 0.051766956227833102 0 0.046326443777149229 0.058497110725385867 0 0.06121914670951574 0.051766956227833102 0 0.060635629698455172 0.062455632829137762 0 0.037455570287724643 0.0086422466309158119 0 0.051714549557673253 0.0036585163983099841 0 0.036772556779789092 -0.009653954259329885 0 0.026511490888931011 0.024774619217864339 0 0.037455570287724643 0.0086422466309158119 0 0.054356695905739508 0.019161789111868929 0 0.026511490888931011 0.024774619217864339 0 0.041897614505364132 0.02469530281462911 0 0.054356695905739508 0.019161789111868929 0 0.026511490888931011 0.024774619217864339 0 0.054356695905739508 0.019161789111868929 0 0.021578465450306231 0.035207930006693339 0 0.041897614505364132 0.02469530281462911 0 0.041897614505364132 0.02469530281462911 0 0.054356695905739508 0.019161789111868929 0 0.055708314617019548 0.029371749981810399 0 0.049601089603590387 0.035549974868828618 0 0.041897614505364132 0.02469530281462911 0 0.055708314617019548 0.029371749981810399 0 0.054356695905739508 0.019161789111868929 0 0.055708314617019548 0.029371749981810399 0 0.064679327085063062 0.026690592170479709 0 0.037455570287724643 0.0086422466309158119 0 0.054356695905739508 0.019161789111868929 0 0.051714549557673253 0.0036585163983099841 0 0.054356695905739508 0.019161789111868929 0 0.051714549557673253 0.0036585163983099841 0 0.065558420840272469 0.0076149292995786764 0 0.051714549557673253 0.0036585163983099841 0 0.065558420840272469 0.0076149292995786764 0 0.065205363816759107 -0.003033070089499003 0 0.065558420840272469 0.0076149292995786764 0 0.074313593998642458 0.0047384520713399381 0 0.065205363816759107 -0.003033070089499003 0 0.054356695905739508 0.019161789111868929 0 0.065558420840272469 0.0076149292995786764 0 0.082201900922548019 0.01354895900587353 0 0.065558420840272469 0.0076149292995786764 0 0.074313593998642458 0.0047384520713399381 0 0.082201900922548019 0.01354895900587353 0 0.074313593998642458 0.0047384520713399381 0 0.084078622079250126 0.0031954465041538322 0 0.082201900922548019 0.01354895900587353 0 0.074313593998642458 0.0047384520713399381 0 0.084078622079250126 0.0031954465041538322 0 0.077997013933224543 -0.0029127428828892511 0 0.084078622079250126 0.0031954465041538322 0 0.082201900922548019 0.01354895900587353 0 0.09274923451769547 0.0029019504056667931 0 0.082201900922548019 0.01354895900587353 0 0.09274923451769547 0.0029019504056667931 0 0.097073329751466916 0.0053620146198471294 0 0.088329220248379137 0.02285532918819547 0 0.079989425554380239 0.031254558099103033 0 0.089723168251410551 0.032761342514400403 0 0.088329220248379137 0.02285532918819547 0 0.089723168251410551 0.032761342514400403 0 0.099022467338433756 0.031244203595417869 0 0.082201900922548019 0.01354895900587353 0 0.088329220248379137 0.02285532918819547 0 0.097153103946625075 0.01720088989014212 0 0.082201900922548019 0.01354895900587353 0 0.081406778263137025 0.02143605089368298 0 0.074417239897855647 0.01838378972401751 0 0.082201900922548019 0.01354895900587353 0 0.088329220248379137 0.02285532918819547 0 0.081406778263137025 0.02143605089368298 0 0.088329220248379137 0.02285532918819547 0 0.081406778263137025 0.02143605089368298 0 0.079989425554380239 0.031254558099103033 0 0.081406778263137025 0.02143605089368298 0 0.074417239897855647 0.01838378972401751 0 0.079989425554380239 0.031254558099103033 0 0.054356695905739508 0.019161789111868929 0 0.082201900922548019 0.01354895900587353 0 0.074417239897855647 0.01838378972401751 0 0.07306347704596225 0.0317861703999157 0 0.079989425554380239 0.031254558099103033 0 0.074417239897855647 0.01838378972401751 0 0.064679327085063062 0.026690592170479709 0 0.07306347704596225 0.0317861703999157 0 0.054356695905739508 0.019161789111868929 0 0.074417239897855647 0.01838378972401751 0 0.064679327085063062 0.026690592170479709 0 0.054356695905739508 0.019161789111868929 0 0.082201900922548019 0.01354895900587353 0 0.074417239897855647 0.01838378972401751 0 0.074417239897855647 0.01838378972401751 0 0.079989425554380239 0.031254558099103033 0 0.064679327085063062 0.026690592170479709 0 0.063991744347142679 0.037907636400974623 0 0.07306347704596225 0.0317861703999157 0 0.06121914670951574 0.051766956227833102 0 0.063991744347142679 0.037907636400974623 0 0.073605374426125969 0.048980882402902499 0 0.075340651162221217 0.040454785584232128 0 0.073605374426125969 0.048980882402902499 0 0.079079038473435309 0.045629191837757287 0 0.063991744347142679 0.037907636400974623 0 0.075340651162221217 0.040454785584232128 0 0.073605374426125969 0.048980882402902499 0 0.063991744347142679 0.037907636400974623 0 0.075340651162221217 0.040454785584232128 0 0.07306347704596225 0.0317861703999157 0 0.075340651162221217 0.040454785584232128 0 0.07306347704596225 0.0317861703999157 0 0.083800238232902696 0.040056864829258451 0 0.06121914670951574 0.051766956227833102 0 0.060635629698455172 0.062455632829137762 0 0.069292875799595782 0.057386497576816242 0 0.060635629698455172 0.062455632829137762 0 0.069292875799595782 0.057386497576816242 0 0.070939323455590203 0.067174184982829219 0 0.06121914670951574 0.051766956227833102 0 0.069292875799595782 0.057386497576816242 0 0.073605374426125969 0.048980882402902499 0 0.069292875799595782 0.057386497576816242 0 0.077797013383973046 0.058890596928013891 0 0.070939323455590203 0.067174184982829219 0 0.069292875799595782 0.057386497576816242 0 0.073605374426125969 0.048980882402902499 0 0.077797013383973046 0.058890596928013891 0 0.093183236567949759 0.061729939934499413 0 0.083800238232902696 0.040056864829258451 0 0.090862233435064013 0.045989711617342853 0 0.093183236567949759 0.061729939934499413 0 0.083800238232902696 0.040056864829258451 0 0.083569890072491368 0.053024234534636103 0 0.093183236567949759 0.061729939934499413 0 0.083800238232902696 0.040056864829258451 0 0.077797013383973046 0.058890596928013891 0 0.085454535460643369 0.061585094417928553 0 0.083569890072491368 0.053024234534636103 0 0.077797013383973046 0.058890596928013891 0 0.085454535460643369 0.061585094417928553 0 0.081386077458957873 0.066248428785959684 0 0.073605374426125969 0.048980882402902499 0 0.083569890072491368 0.053024234534636103 0 0.079079038473435309 0.045629191837757287 0 0.073605374426125969 0.048980882402902499 0 0.077797013383973046 0.058890596928013891 0 0.083569890072491368 0.053024234534636103 0 0.085454535460643369 0.061585094417928553 0 0.083569890072491368 0.053024234534636103 0 0.093183236567949759 0.061729939934499413 0 0.07306347704596225 0.0317861703999157 0 0.079989425554380239 0.031254558099103033 0 0.083800238232902696 0.040056864829258451 0 0.079989425554380239 0.031254558099103033 0 0.090862233435064013 0.045989711617342853 0 0.079989425554380239 0.031254558099103033 0 0.083800238232902696 0.040056864829258451 0 0.079989425554380239 0.031254558099103033 0 0.083800238232902696 0.040056864829258451 0 0.090862233435064013 0.045989711617342853 0 0.075340651162221217 0.040454785584232128 0 0.079079038473435309 0.045629191837757287 0 0.083800238232902696 0.040056864829258451 0 0.083569890072491368 0.053024234534636103 0 0.079079038473435309 0.045629191837757287 0 0.083800238232902696 0.040056864829258451 0 0.079989425554380239 0.031254558099103033 0 0.090862233435064013 0.045989711617342853 0 0.089723168251410551 0.032761342514400403 0 0.090862233435064013 0.045989711617342853 0 0.089723168251410551 0.032761342514400403 0 0.099022467338433756 0.031244203595417869 0 0.1010457148863631 0.061023297578040009 0 0.099022467338433756 0.031244203595417869 0 0.1080405687592767 0.046140991045890978 0 0.1010457148863631 0.061023297578040009 0 0.099022467338433756 0.031244203595417869 0 0.090862233435064013 0.045989711617342853 0 0.1010457148863631 0.061023297578040009 0 0.099022467338433756 0.031244203595417869 0 0.1103021482587969 0.036074601139367668 0 0.11291526337535621 0.02653710400815824 0 0.099022467338433756 0.031244203595417869 0 0.1080405687592767 0.046140991045890978 0 0.1103021482587969 0.036074601139367668 0 0.099022467338433756 0.031244203595417869 0 0.093183236567949759 0.061729939934499413 0 0.090862233435064013 0.045989711617342853 0 0.1010457148863631 0.061023297578040009 0 0.090862233435064013 0.045989711617342853 0 0.1010457148863631 0.061023297578040009 0 0.1080405687592767 0.046140991045890978 0 0.1010457148863631 0.061023297578040009 0 0.1112933299769276 0.056243631665245673 0 0.1010457148863631 0.061023297578040009 0 0.1112933299769276 0.056243631665245673 0 0.1151194660822258 0.065724701492045956 0 0.1112933299769276 0.056243631665245673 0 0.1225973037219092 0.056524699014929972 0 0.1151194660822258 0.065724701492045956 0 0.1080405687592767 0.046140991045890978 0 0.1112933299769276 0.056243631665245673 0 0.11824765854727309 0.046088145468266978 0 0.1225973037219092 0.056524699014929972 0 0.11824765854727309 0.046088145468266978 0 0.12961231147286639 0.045501266200782563 0 0.1112933299769276 0.056243631665245673 0 0.1225973037219092 0.056524699014929972 0 0.11824765854727309 0.046088145468266978 0 0.1103021482587969 0.036074601139367668 0 0.12266990805833509 0.03551385407155877 0 0.11291526337535621 0.02653710400815824 0 0.1080405687592767 0.046140991045890978 0 0.1103021482587969 0.036074601139367668 0 0.11824765854727309 0.046088145468266978 0 0.1103021482587969 0.036074601139367668 0 0.11824765854727309 0.046088145468266978 0 0.12266990805833509 0.03551385407155877 0 0.11824765854727309 0.046088145468266978 0 0.12266990805833509 0.03551385407155877 0 0.12961231147286639 0.045501266200782563 0 0.12266990805833509 0.03551385407155877 0 0.11291526337535621 0.02653710400815824 0 0.12568473507245759 0.024972522549856178 0 0.11291526337535621 0.02653710400815824 0 0.1144991420263767 0.01429175589411515 0 0.10652168037184 0.01937551704869922 0 0.11291526337535621 0.02653710400815824 0 0.1144991420263767 0.01429175589411515 0 0.12568473507245759 0.024972522549856178 0 0.1201526421778074 0.0055944398547587816 0 0.1166930633044361 -0.002524768829776927 0 0.12864883577299299 -0.00035703598269560502 0 0.1100471059393566 0.0079361288998780997 0 0.1166930633044361 -0.002524768829776927 0 0.1032950776262675 -0.002938979832029905 0 0.1201526421778074 0.0055944398547587816 0 0.1100471059393566 0.0079361288998780997 0 0.1166930633044361 -0.002524768829776927 0 0.1100471059393566 0.0079361288998780997 0 0.1144991420263767 0.01429175589411515 0 0.10652168037184 0.01937551704869922 0 0.1201526421778074 0.0055944398547587816 0 0.1100471059393566 0.0079361288998780997 0 0.1144991420263767 0.01429175589411515 0 0.082201900922548019 0.01354895900587353 0 0.1100471059393566 0.0079361288998780997 0 0.097153103946625075 0.01720088989014212 0 0.1100471059393566 0.0079361288998780997 0 0.097153103946625075 0.01720088989014212 0 0.10652168037184 0.01937551704869922 0 0.082201900922548019 0.01354895900587353 0 0.1100471059393566 0.0079361288998780997 0 0.097073329751466916 0.0053620146198471294 0 0.082201900922548019 0.01354895900587353 0 0.1100471059393566 0.0079361288998780997 0 0.1100471059393566 0.0079361288998780997 0 0.097073329751466916 0.0053620146198471294 0 0.1032950776262675 -0.002938979832029905 0 0.09274923451769547 0.0029019504056667931 0 0.097073329751466916 0.0053620146198471294 0 0.1032950776262675 -0.002938979832029905 0 0.097153103946625075 0.01720088989014212 0 0.099022467338433756 0.031244203595417869 0 0.10652168037184 0.01937551704869922 0 0.088329220248379137 0.02285532918819547 0 0.097153103946625075 0.01720088989014212 0 0.099022467338433756 0.031244203595417869 0 0.11291526337535621 0.02653710400815824 0 0.099022467338433756 0.031244203595417869 0 0.10652168037184 0.01937551704869922 0 0.1039673821542446 0.1040257488822309 0 0.11141899136090661 0.1038513247110778 0 0.10256623490299629 0.08340301503974043 0 0.1039673821542446 0.1040257488822309 0 0.11049117928479001 0.113905318024786 0 0.11141899136090661 0.1038513247110778 0 0.1039673821542446 0.1040257488822309 0 0.094231828088436206 0.1050728775907919 0 0.09430890527487587 0.092269390284970179 0 0.1039673821542446 0.1040257488822309 0 0.094231828088436206 0.1050728775907919 0 0.1053685294054917 0.1246484827247215 0 0.1039673821542446 0.1040257488822309 0 0.1053685294054917 0.1246484827247215 0 0.094231828088436206 0.1050728775907919 0 0.1053685294054917 0.1246484827247215 0 0.08181479623274332 0.1088842303846254 0 0.1039673821542446 0.1040257488822309 0 0.1053685294054917 0.1246484827247215 0 0.11049117928479001 0.113905318024786 0 0.1053685294054917 0.1246484827247215 0 0.11049117928479001 0.113905318024786 0 0.1111233614270119 0.12112038214572179 0 0.1117808388761702 0.12894017032417951 0 0.12835050308055951 0.1082904160350935 0 0.12518123137184031 0.12303524468952751 0 0.1171989502389985 0.116314994621403 0 0.1117808388761702 0.12894017032417951 0 0.12835050308055951 0.1082904160350935 0 0.1117808388761702 0.12894017032417951 0 0.12835050308055951 0.1082904160350935 0 0.11049117928479001 0.113905318024786 0 0.1111233614270119 0.12112038214572179 0 0.1171989502389985 0.116314994621403 0 0.11049117928479001 0.113905318024786 0 0.1158631212031164 0.1095970128298569 0 0.1171989502389985 0.116314994621403 0 0.1053685294054917 0.1246484827247215 0 0.1111233614270119 0.12112038214572179 0 0.1117808388761702 0.12894017032417951 0 0.1111233614270119 0.12112038214572179 0 0.1171989502389985 0.116314994621403 0 0.1117808388761702 0.12894017032417951 0 0.1171989502389985 0.116314994621403 0 0.1212445848860715 0.1087292936443766 0 0.12835050308055951 0.1082904160350935 0 0.1158631212031164 0.1095970128298569 0 0.1171989502389985 0.116314994621403 0 0.1212445848860715 0.1087292936443766 0 0.124642567504887 0.105874177786111 0 0.1212445848860715 0.1087292936443766 0 0.12835050308055951 0.1082904160350935 0 0.124642567504887 0.105874177786111 0 0.1202663389512101 0.1046154092471243 0 0.12870884310170691 0.1018615922178497 0 0.1202663389512101 0.1046154092471243 0 0.1162420322500924 0.099609088734535264 0 0.12870884310170691 0.1018615922178497 0 0.124642567504887 0.105874177786111 0 0.1212445848860715 0.1087292936443766 0 0.1202663389512101 0.1046154092471243 0 0.1158631212031164 0.1095970128298569 0 0.1212445848860715 0.1087292936443766 0 0.1202663389512101 0.1046154092471243 0 0.1158631212031164 0.1095970128298569 0 0.1202663389512101 0.1046154092471243 0 0.11141899136090661 0.1038513247110778 0 0.11049117928479001 0.113905318024786 0 0.1158631212031164 0.1095970128298569 0 0.11141899136090661 0.1038513247110778 0 0.1202663389512101 0.1046154092471243 0 0.11141899136090661 0.1038513247110778 0 0.1162420322500924 0.099609088734535264 0 0.1162420322500924 0.099609088734535264 0 0.11679470789670041 0.093209648202029566 0 0.111603554230688 0.091168487737708193 0 0.11141899136090661 0.1038513247110778 0 0.1162420322500924 0.099609088734535264 0 0.111603554230688 0.091168487737708193 0 0.1162420322500924 0.099609088734535264 0 0.11679470789670041 0.093209648202029566 0 0.12870884310170691 0.1018615922178497 0 0.1148772789940348 0.081442444897944999 0 0.13019136681444871 0.084332495515473976 0 0.12870884310170691 0.1018615922178497 0 0.1148772789940348 0.081442444897944999 0 0.12870884310170691 0.1018615922178497 0 0.1148772789940348 0.081442444897944999 0 0.11679470789670041 0.093209648202029566 0 0.12870884310170691 0.1018615922178497 0 0.1148772789940348 0.081442444897944999 0 0.12698205778623689 0.070541615002526592 0 0.13019136681444871 0.084332495515473976 0 0.1148772789940348 0.081442444897944999 0 0.111603554230688 0.091168487737708193 0 0.10256623490299629 0.08340301503974043 0 0.1148772789940348 0.081442444897944999 0 0.11679470789670041 0.093209648202029566 0 0.111603554230688 0.091168487737708193 0 0.1010457148863631 0.061023297578040009 0 0.1148772789940348 0.081442444897944999 0 0.1151194660822258 0.065724701492045956 0 0.1148772789940348 0.081442444897944999 0 0.1151194660822258 0.065724701492045956 0 0.12698205778623689 0.070541615002526592 0 0.1225973037219092 0.056524699014929972 0 0.1151194660822258 0.065724701492045956 0 0.12698205778623689 0.070541615002526592 0 0.1010457148863631 0.061023297578040009 0 0.1148772789940348 0.081442444897944999 0 0.10256623490299629 0.08340301503974043 0 0.093183236567949759 0.061729939934499413 0 0.1010457148863631 0.061023297578040009 0 0.10256623490299629 0.08340301503974043 0 0.1010457148863631 0.061023297578040009 0 0.1148772789940348 0.081442444897944999 0 0.093183236567949759 0.061729939934499413 0 0.10256623490299629 0.08340301503974043 0 0.089530838435789378 0.071262789942050236 0 0.1010457148863631 0.061023297578040009 0 0.10256623490299629 0.08340301503974043 0 0.093183236567949759 0.061729939934499413 0 0.10256623490299629 0.08340301503974043 0 0.1039673821542446 0.1040257488822309 0 0.10256623490299629 0.08340301503974043 0 0.09430890527487587 0.092269390284970179 0 0.1039673821542446 0.1040257488822309 0 0.10256623490299629 0.08340301503974043 0 0.11141899136090661 0.1038513247110778 0 0.111603554230688 0.091168487737708193 0 0.10256623490299629 0.08340301503974043 0 0.11141899136090661 0.1038513247110778 0 0.10256623490299629 0.08340301503974043 0 0.10256623490299629 0.08340301503974043 0 0.09430890527487587 0.092269390284970179 0 0.092141031475122925 0.081767142088639264 0 0.10256623490299629 0.08340301503974043 0 0.092141031475122925 0.081767142088639264 0 0.089530838435789378 0.071262789942050236 0 0.09430890527487587 0.092269390284970179 0 0.087041477896423233 0.087266614218574678 0 0.092141031475122925 0.081767142088639264 0 0.09430890527487587 0.092269390284970179 0 0.087041477896423233 0.087266614218574678 0 0.085699527374826945 0.095536535677409565 0 0.087041477896423233 0.087266614218574678 0 0.092141031475122925 0.081767142088639264 0 0.083991276138048368 0.079348007347956037 0 0.087041477896423233 0.087266614218574678 0 0.083991276138048368 0.079348007347956037 0 0.079066649219242072 0.087411995693898306 0 0.083991276138048368 0.079348007347956037 0 0.079066649219242072 0.087411995693898306 0 0.077051093029256112 0.079885514625538709 0 0.087041477896423233 0.087266614218574678 0 0.079066649219242072 0.087411995693898306 0 0.085699527374826945 0.095536535677409565 0 0.079066649219242072 0.087411995693898306 0 0.079141579560256123 0.095980321396869669 0 0.085699527374826945 0.095536535677409565 0 0.085454535460643369 0.061585094417928553 0 0.093183236567949759 0.061729939934499413 0 0.089530838435789378 0.071262789942050236 0 0.092141031475122925 0.081767142088639264 0 0.083991276138048368 0.079348007347956037 0 0.089530838435789378 0.071262789942050236 0 0.083991276138048368 0.079348007347956037 0 0.089530838435789378 0.071262789942050236 0 0.07870400583815626 0.073386636603758118 0 0.083991276138048368 0.079348007347956037 0 0.07870400583815626 0.073386636603758118 0 0.077051093029256112 0.079885514625538709 0 0.085454535460643369 0.061585094417928553 0 0.089530838435789378 0.071262789942050236 0 0.081386077458957873 0.066248428785959684 0 0.089530838435789378 0.071262789942050236 0 0.07870400583815626 0.073386636603758118 0 0.081386077458957873 0.066248428785959684 0 0.077797013383973046 0.058890596928013891 0 0.081386077458957873 0.066248428785959684 0 0.070939323455590203 0.067174184982829219 0 0.07870400583815626 0.073386636603758118 0 0.081386077458957873 0.066248428785959684 0 0.070939323455590203 0.067174184982829219 0 0.07870400583815626 0.073386636603758118 0 0.070939323455590203 0.067174184982829219 0 0.071133581090757222 0.076512805470588363 0 0.07870400583815626 0.073386636603758118 0 0.071133581090757222 0.076512805470588363 0 0.077051093029256112 0.079885514625538709 0 0.070939323455590203 0.067174184982829219 0 0.071133581090757222 0.076512805470588363 0 0.058155894595680643 0.075292817278465707 0 0.060635629698455172 0.062455632829137762 0 0.070939323455590203 0.067174184982829219 0 0.058155894595680643 0.075292817278465707 0 0.071120684956454142 0.083163057141769747 0 0.06998534541421203 0.092088523831545505 0 0.058155894595680643 0.075292817278465707 0 0.06998534541421203 0.092088523831545505 0 0.058155894595680643 0.075292817278465707 0 0.060215446514366749 0.088458767709778091 0 0.06998534541421203 0.092088523831545505 0 0.058155894595680643 0.075292817278465707 0 0.079066649219242072 0.087411995693898306 0 0.06998534541421203 0.092088523831545505 0 0.079141579560256123 0.095980321396869669 0 0.079066649219242072 0.087411995693898306 0 0.071120684956454142 0.083163057141769747 0 0.06998534541421203 0.092088523831545505 0 0.079066649219242072 0.087411995693898306 0 0.077051093029256112 0.079885514625538709 0 0.071120684956454142 0.083163057141769747 0 0.071133581090757222 0.076512805470588363 0 0.077051093029256112 0.079885514625538709 0 0.071120684956454142 0.083163057141769747 0 0.071133581090757222 0.076512805470588363 0 0.071120684956454142 0.083163057141769747 0 0.058155894595680643 0.075292817278465707 0 0.06998534541421203 0.092088523831545505 0 0.065471082942349851 0.097945564373834129 0 0.060215446514366749 0.088458767709778091 0 0.065471082942349851 0.097945564373834129 0 0.08181479623274332 0.1088842303846254 0 0.069584590863206564 0.1118562953780164 0 0.06998534541421203 0.092088523831545505 0 0.065471082942349851 0.097945564373834129 0 0.08181479623274332 0.1088842303846254 0 0.065471082942349851 0.097945564373834129 0 0.08181479623274332 0.1088842303846254 0 0.06998534541421203 0.092088523831545505 0 0.079141579560256123 0.095980321396869669 0 0.08181479623274332 0.1088842303846254 0 0.06998534541421203 0.092088523831545505 0 0.08181479623274332 0.1088842303846254 0 0.065471082942349851 0.097945564373834129 0 0.069584590863206564 0.1118562953780164 0 0.056345252746920961 0.1096438167799393 0 0.079141579560256123 0.095980321396869669 0 0.085699527374826945 0.095536535677409565 0 0.08181479623274332 0.1088842303846254 0 0.094231828088436206 0.1050728775907919 0 0.085699527374826945 0.095536535677409565 0 0.08181479623274332 0.1088842303846254 0 0.094231828088436206 0.1050728775907919 0 0.09430890527487587 0.092269390284970179 0 0.085699527374826945 0.095536535677409565 0 0.08181479623274332 0.1088842303846254 0 0.092579891566294273 0.12416874232113941 0 0.074707231530812018 0.130951569973667 0 0.1053685294054917 0.1246484827247215 0 0.08181479623274332 0.1088842303846254 0 0.092579891566294273 0.12416874232113941 0 0.1053685294054917 0.1246484827247215 0 0.08181479623274332 0.1088842303846254 0 0.08181479623274332 0.1088842303846254 0 0.092579891566294273 0.12416874232113941 0 0.069584590863206564 0.1118562953780164 0 0.056345252746920961 0.1096438167799393 0 0.074707231530812018 0.130951569973667 0 0.056345252746920961 0.1096438167799393 0 0.074707231530812018 0.130951569973667 0 0.056345252746920961 0.1096438167799393 0 0.05680250850376535 0.12781538003609849 0 0.074707231530812018 0.130951569973667 0 0.08181479623274332 0.1088842303846254 0 0.069584590863206564 0.1118562953780164 0 0.074707231530812018 0.130951569973667 0 0.056345252746920961 0.1096438167799393 0 0.040359537208971473 0.120066606649404 0 0.05680250850376535 0.12781538003609849 0 0.056345252746920961 0.1096438167799393 0 0.052231744826064283 0.095733085775756968 0 0.037983273963029918 0.088336063586211697 0 0.056345252746920961 0.1096438167799393 0 0.037983273963029918 0.088336063586211697 0 0.065471082942349851 0.097945564373834129 0 0.056345252746920961 0.1096438167799393 0 0.052231744826064283 0.095733085775756968 0 0.040359537208971473 0.120066606649404 0 0.03072342246822039 0.094545942144094605 0 0.056345252746920961 0.1096438167799393 0 0.041663427390162877 0.099450513790446435 0 0.037983273963029918 0.088336063586211697 0 0.040359537208971473 0.120066606649404 0 0.026613615949307941 0.10981148997588951 0 0.03072342246822039 0.094545942144094605 0 0.041601760382480243 0.1052762326515401 0 0.040359537208971473 0.120066606649404 0 0.03072342246822039 0.094545942144094605 0 0.056345252746920961 0.1096438167799393 0 0.041601760382480243 0.1052762326515401 0 0.041663427390162877 0.099450513790446435 0 0.041601760382480243 0.1052762326515401 0 0.041663427390162877 0.099450513790446435 0 0.03072342246822039 0.094545942144094605 0 0.041663427390162877 0.099450513790446435 0 0.037983273963029918 0.088336063586211697 0 0.03072342246822039 0.094545942144094605 0 0.056345252746920961 0.1096438167799393 0 0.041601760382480243 0.1052762326515401 0 0.040359537208971473 0.120066606649404 0 0.046326443777149229 0.058497110725385867 0 0.060635629698455172 0.062455632829137762 0 0.058155894595680643 0.075292817278465707 0 0.046326443777149229 0.058497110725385867 0 0.058155894595680643 0.075292817278465707 0 0.045587370334026961 0.076214232997684483 0 0.046326443777149229 0.058497110725385867 0 0.058155894595680643 0.075292817278465707 0 0.065471082942349851 0.097945564373834129 0 0.049127369651956403 0.087006898363042706 0 0.065471082942349851 0.097945564373834129 0 0.060215446514366749 0.088458767709778091 0 0.049127369651956403 0.087006898363042706 0 0.065471082942349851 0.097945564373834129 0 0.052231744826064283 0.095733085775756968 0 0.049127369651956403 0.087006898363042706 0 0.058155894595680643 0.075292817278465707 0 0.049127369651956403 0.087006898363042706 0 0.045587370334026961 0.076214232997684483 0 0.058155894595680643 0.075292817278465707 0 0.060215446514366749 0.088458767709778091 0 0.049127369651956403 0.087006898363042706 0 0.037983273963029918 0.088336063586211697 0 0.045587370334026961 0.076214232997684483 0 0.036343869682318612 0.07193827503531644 0 0.052231744826064283 0.095733085775756968 0 0.049127369651956403 0.087006898363042706 0 0.037983273963029918 0.088336063586211697 0 0.049127369651956403 0.087006898363042706 0 0.037983273963029918 0.088336063586211697 0 0.045587370334026961 0.076214232997684483 0 0.037983273963029918 0.088336063586211697 0 0.036343869682318612 0.07193827503531644 0 0.030278388312406999 0.070794565584535021 0 0.046326443777149229 0.058497110725385867 0 0.045587370334026961 0.076214232997684483 0 0.036343869682318612 0.07193827503531644 0 0.046326443777149229 0.058497110725385867 0 0.036343869682318612 0.07193827503531644 0 0.034009414093471871 0.063478230137505601 0 0.036343869682318612 0.07193827503531644 0 0.034009414093471871 0.063478230137505601 0 0.030278388312406999 0.070794565584535021 0 0.037983273963029918 0.088336063586211697 0 0.02123356843310234 0.068899237321472781 0 0.030278388312406999 0.070794565584535021 0 0.02123356843310234 0.068899237321472781 0 0.019879153940960809 0.076533814410481141 0 0.022752624292595589 0.085786407003883708 0 0.018483026172035219 0.069372616010411531 0 0.019621295179138989 0.067028310392484178 0 0.014316977460177561 0.067867534831632118 0 0.018483026172035219 0.069372616010411531 0 0.01676929213491439 0.070621257552097139 0 0.014316977460177561 0.067867534831632118 0 0.018483026172035219 0.069372616010411531 0 0.02123356843310234 0.068899237321472781 0 0.01846670122986073 0.072015965773387619 0 0.019621295179138989 0.067028310392484178 0 0.02123356843310234 0.068899237321472781 0 0.018483026172035219 0.069372616010411531 0 0.019621295179138989 0.067028310392484178 0 0.02123356843310234 0.068899237321472781 0 0.025256650540416099 0.061209300882732527 0 0.034009414093471871 0.063478230137505601 0 0.030278388312406999 0.070794565584535021 0 0.019621295179138989 0.067028310392484178 0 0.02123356843310234 0.068899237321472781 0 0.030278388312406999 0.070794565584535021 0 0.025256650540416099 0.061209300882732527 0 0.019621295179138989 0.067028310392484178 0 0.030278388312406999 0.070794565584535021 0 0.02123356843310234 0.068899237321472781 0 0.019879153940960809 0.076533814410481141 0 0.01846670122986073 0.072015965773387619 0 0.01846670122986073 0.072015965773387619 0 0.01676929213491439 0.070621257552097139 0 0.01353206754746338 0.072919448350789326 0 0.019879153940960809 0.076533814410481141 0 0.01846670122986073 0.072015965773387619 0 0.01353206754746338 0.072919448350789326 0 0.018483026172035219 0.069372616010411531 0 0.01846670122986073 0.072015965773387619 0 0.01676929213491439 0.070621257552097139 0 0.019879153940960809 0.076533814410481141 0 0.013966615607525341 0.080443364759076125 0 0.01353206754746338 0.072919448350789326 0 0.037983273963029918 0.088336063586211697 0 0.02123356843310234 0.068899237321472781 0 0.03072342246822039 0.094545942144094605 0 0.037983273963029918 0.088336063586211697 0 0.02123356843310234 0.068899237321472781 0 0.02123356843310234 0.068899237321472781 0 0.03072342246822039 0.094545942144094605 0 0.02123356843310234 0.068899237321472781 0 0.022752624292595589 0.085786407003883708 0 0.03072342246822039 0.094545942144094605 0 0.019879153940960809 0.076533814410481141 0 0.022752624292595589 0.085786407003883708 0 0.017643434924699102 0.086361468622477983 0 0.019879153940960809 0.076533814410481141 0 0.017643434924699102 0.086361468622477983 0 0.013966615607525341 0.080443364759076125 0 0.022752624292595589 0.085786407003883708 0 0.03072342246822039 0.094545942144094605 0 0.019840285129247171 0.095028979468856786 0 0.022752624292595589 0.085786407003883708 0 0.017643434924699102 0.086361468622477983 0 0.019840285129247171 0.095028979468856786 0 0.017643434924699102 0.086361468622477983 0 0.0109993226329869 0.090016580559840478 0 0.019840285129247171 0.095028979468856786 0 -0.002368520125105951 0.094040152576106123 0 0.0109993226329869 0.090016580559840478 0 0.0053599725690053586 0.080027800662599832 0 0.017643434924699102 0.086361468622477983 0 0.0109993226329869 0.090016580559840478 0 0.013966615607525341 0.080443364759076125 0 0.0109993226329869 0.090016580559840478 0 0.0053599725690053586 0.080027800662599832 0 0.013966615607525341 0.080443364759076125 0 0.0053599725690053586 0.080027800662599832 0 0.013966615607525341 0.080443364759076125 0 0.01353206754746338 0.072919448350789326 0 0.01676929213491439 0.070621257552097139 0 0.01353206754746338 0.072919448350789326 0 0.014316977460177561 0.067867534831632118 0 -0.0070368550151780314 0.077174118983777282 0 0.0053599725690053586 0.080027800662599832 0 0.0030277117529624868 0.069691812760878366 0 0.0053599725690053586 0.080027800662599832 0 0.01353206754746338 0.072919448350789326 0 0.0030277117529624868 0.069691812760878366 0 0.0030277117529624868 0.069691812760878366 0 0.0057864763264800856 0.064770976780513245 0 0.009581539298843025 0.067096886775352749 0 0.00012756872033514 0.061153454134376568 0 0.0030277117529624868 0.069691812760878366 0 0.0057864763264800856 0.064770976780513245 0 0.0077350136337984866 0.060270642739598548 0 0.0057864763264800856 0.064770976780513245 0 0.009581539298843025 0.067096886775352749 0 0.0077350136337984866 0.060270642739598548 0 0.019621295179138989 0.067028310392484178 0 0.014316977460177561 0.067867534831632118 0 0.0077350136337984866 0.060270642739598548 0 0.009581539298843025 0.067096886775352749 0 0.014316977460177561 0.067867534831632118 0 0.01353206754746338 0.072919448350789326 0 0.0030277117529624868 0.069691812760878366 0 0.009581539298843025 0.067096886775352749 0 0.01353206754746338 0.072919448350789326 0 0.009581539298843025 0.067096886775352749 0 0.014316977460177561 0.067867534831632118 0 0.019717911467634588 0.1236275071947019 0 0.026613615949307941 0.10981148997588951 0 0.01138388260087593 0.1044540720567228 0 0.040359537208971473 0.120066606649404 0 0.019717911467634588 0.1236275071947019 0 0.026613615949307941 0.10981148997588951 0 0.026613615949307941 0.10981148997588951 0 0.03072342246822039 0.094545942144094605 0 0.019840285129247171 0.095028979468856786 0 0.026613615949307941 0.10981148997588951 0 0.019840285129247171 0.095028979468856786 0 0.01138388260087593 0.1044540720567228 0 -0.0063682858240813323 0.1104795305900077 0 -0.002368520125105951 0.094040152576106123 0 0.01138388260087593 0.1044540720567228 0 0.0109993226329869 0.090016580559840478 0 0.019840285129247171 0.095028979468856786 0 0.01138388260087593 0.1044540720567228 0 -0.002368520125105951 0.094040152576106123 0 0.0109993226329869 0.090016580559840478 0 0.01138388260087593 0.1044540720567228 0 -0.0063682858240813323 0.1104795305900077 0 0.01138388260087593 0.1044540720567228 0 0.001698333101076085 0.1252187099559969 0 0.019717911467634588 0.1236275071947019 0 0.01138388260087593 0.1044540720567228 0 0.001698333101076085 0.1252187099559969 0 0.019717911467634588 0.1236275071947019 0 0.001698333101076085 0.1252187099559969 0 0.012036031423494291 0.14166107390130631 0 -0.0067810657334562187 0.13898726920299651 0 0.001698333101076085 0.1252187099559969 0 0.012036031423494291 0.14166107390130631 0 0.040359537208971473 0.120066606649404 0 0.019717911467634588 0.1236275071947019 0 0.03053019861027401 0.13935990848612401 0 0.019717911467634588 0.1236275071947019 0 0.03053019861027401 0.13935990848612401 0 0.012036031423494291 0.14166107390130631 0 0.03053019861027401 0.13935990848612401 0 0.012036031423494291 0.14166107390130631 0 0.028925359128200202 0.1596927837402918 0 -0.0008599030197884496 0.1583962096517057 0 -0.0067810657334562187 0.13898726920299651 0 0.012036031423494291 0.14166107390130631 0 -0.0008599030197884496 0.1583962096517057 0 0.012036031423494291 0.14166107390130631 0 0.028925359128200202 0.1596927837402918 0 -0.0008599030197884496 0.1583962096517057 0 0.01182911347958392 0.17778243551760839 0 0.028925359128200202 0.1596927837402918 0 0.01182911347958392 0.17778243551760839 0 0.028925359128200202 0.1596927837402918 0 0.036379949620278677 0.18341955679050459 0 0.01182911347958392 0.17778243551760839 0 0.036379949620278677 0.18341955679050459 0 0.021189743558157201 0.19562010841785399 0 0.028925359128200202 0.1596927837402918 0 0.043493764212869539 0.16874217284002169 0 0.036379949620278677 0.18341955679050459 0 0.028925359128200202 0.1596927837402918 0 0.043493764212869539 0.16874217284002169 0 0.049995651949722539 0.1455872711547134 0 0.043493764212869539 0.16874217284002169 0 0.036379949620278677 0.18341955679050459 0 0.050102307513814323 0.18968680407165789 0 0.059631766690473612 0.17110793566002269 0 0.050102307513814323 0.18968680407165789 0 0.064990371888510937 0.18725225404828641 0 0.043493764212869539 0.16874217284002169 0 0.059631766690473612 0.17110793566002269 0 0.050102307513814323 0.18968680407165789 0 0.059631766690473612 0.17110793566002269 0 0.049995651949722539 0.1455872711547134 0 0.043493764212869539 0.16874217284002169 0 0.059631766690473612 0.17110793566002269 0 0.049995651949722539 0.1455872711547134 0 0.059631766690473612 0.17110793566002269 0 0.049995651949722539 0.1455872711547134 0 0.068040088710123903 0.16130286229349239 0 0.049995651949722539 0.1455872711547134 0 0.063259307731213188 0.13845502329367401 0 0.071531838940552844 0.1494658720102173 0 0.040359537208971473 0.120066606649404 0 0.049995651949722539 0.1455872711547134 0 0.05680250850376535 0.12781538003609849 0 0.049995651949722539 0.1455872711547134 0 0.05680250850376535 0.12781538003609849 0 0.063259307731213188 0.13845502329367401 0 0.040359537208971473 0.120066606649404 0 0.03053019861027401 0.13935990848612401 0 0.049995651949722539 0.1455872711547134 0 0.040359537208971473 0.120066606649404 0 0.049995651949722539 0.1455872711547134 0 0.03053019861027401 0.13935990848612401 0 0.028925359128200202 0.1596927837402918 0 0.049995651949722539 0.1455872711547134 0 0.02648992796807632 0.24672702143065181 0 0.02649038718984344 0.22895146794873911 0 0.038616628762004453 0.23697424219132199 0 0.02648992796807632 0.24672702143065181 0 0.01010111039693592 0.2391136420981142 0 0.02649038718984344 0.22895146794873911 0 0.02648992796807632 0.24672702143065181 0 0.01010111039693592 0.2391136420981142 0 0.0079648258068575686 0.25840069158400442 0 -0.009799921262099871 0.2474248970103998 0 0.01010111039693592 0.2391136420981142 0 0.0079648258068575686 0.25840069158400442 0 -0.0048059101388961689 0.226787632269843 0 0.01010111039693592 0.2391136420981142 0 0.01111604827724298 0.22333760440424111 0 -0.0048059101388961689 0.226787632269843 0 0.01111604827724298 0.22333760440424111 0 0.0043916685432209427 0.21683797682976561 0 0.01111604827724298 0.22333760440424111 0 0.02649038718984344 0.22895146794873911 0 0.021620827639286959 0.21782511687730829 0 0.01010111039693592 0.2391136420981142 0 0.01111604827724298 0.22333760440424111 0 0.02649038718984344 0.22895146794873911 0 0.02649038718984344 0.22895146794873911 0 0.021620827639286959 0.21782511687730829 0 0.033140023729020571 0.21772692101312571 0 0.028296570873130339 0.20855148007678509 0 0.021620827639286959 0.21782511687730829 0 0.0124882402681246 0.20981713740839239 0 0.028296570873130339 0.20855148007678509 0 0.0124882402681246 0.20981713740839239 0 0.021189743558157201 0.19562010841785399 0 0.028296570873130339 0.20855148007678509 0 0.021620827639286959 0.21782511687730829 0 0.033140023729020571 0.21772692101312571 0 -0.00123170423358764 0.2074095332365862 0 0.0124882402681246 0.20981713740839239 0 0.0020903727636386979 0.1931712092312004 0 0.01111604827724298 0.22333760440424111 0 0.0043916685432209427 0.21683797682976561 0 0.0124882402681246 0.20981713740839239 0 0.01111604827724298 0.22333760440424111 0 0.021620827639286959 0.21782511687730829 0 0.0124882402681246 0.20981713740839239 0 -0.00123170423358764 0.2074095332365862 0 0.0043916685432209427 0.21683797682976561 0 0.0124882402681246 0.20981713740839239 0 0.01182911347958392 0.17778243551760839 0 0.0020903727636386979 0.1931712092312004 0 0.021189743558157201 0.19562010841785399 0 0.0124882402681246 0.20981713740839239 0 0.0020903727636386979 0.1931712092312004 0 0.021189743558157201 0.19562010841785399 0 0.036379949620278677 0.18341955679050459 0 0.021189743558157201 0.19562010841785399 0 0.03507505978316959 0.19977605533850951 0 0.028296570873130339 0.20855148007678509 0 0.021189743558157201 0.19562010841785399 0 0.03507505978316959 0.19977605533850951 0 0.036379949620278677 0.18341955679050459 0 0.050102307513814323 0.18968680407165789 0 0.04768179043262849 0.20604252172797599 0 0.036379949620278677 0.18341955679050459 0 0.04768179043262849 0.20604252172797599 0 0.036379949620278677 0.18341955679050459 0 0.03507505978316959 0.19977605533850951 0 0.04768179043262849 0.20604252172797599 0 0.050102307513814323 0.18968680407165789 0 0.050950952675415023 0.20474871948873219 0 0.04768179043262849 0.20604252172797599 0 0.050102307513814323 0.18968680407165789 0 0.050950952675415023 0.20474871948873219 0 0.064990371888510937 0.18725225404828641 0 0.050950952675415023 0.20474871948873219 0 0.064990371888510937 0.18725225404828641 0 0.04768179043262849 0.20604252172797599 0 0.058983631244977353 0.22866548666544809 0 0.04768179043262849 0.20604252172797599 0 0.044169834604057823 0.21704844712843629 0 0.058983631244977353 0.22866548666544809 0 0.050950952675415023 0.20474871948873219 0 0.04768179043262849 0.20604252172797599 0 0.058983631244977353 0.22866548666544809 0 0.050950952675415023 0.20474871948873219 0 0.058983631244977353 0.22866548666544809 0 0.071805080304593927 0.20777162968837309 0 0.04768179043262849 0.20604252172797599 0 0.044169834604057823 0.21704844712843629 0 0.038024048293578763 0.20892790604288269 0 0.03507505978316959 0.19977605533850951 0 0.04768179043262849 0.20604252172797599 0 0.038024048293578763 0.20892790604288269 0 0.028296570873130339 0.20855148007678509 0 0.03507505978316959 0.19977605533850951 0 0.038024048293578763 0.20892790604288269 0 0.044169834604057823 0.21704844712843629 0 0.038024048293578763 0.20892790604288269 0 0.033140023729020571 0.21772692101312571 0 0.028296570873130339 0.20855148007678509 0 0.038024048293578763 0.20892790604288269 0 0.033140023729020571 0.21772692101312571 0 0.040631493515158129 0.22497213397533039 0 0.058983631244977353 0.22866548666544809 0 0.038616628762004453 0.23697424219132199 0 0.02649038718984344 0.22895146794873911 0 0.033140023729020571 0.21772692101312571 0 0.040631493515158129 0.22497213397533039 0 0.02649038718984344 0.22895146794873911 0 0.040631493515158129 0.22497213397533039 0 0.038616628762004453 0.23697424219132199 0 0.044169834604057823 0.21704844712843629 0 0.033140023729020571 0.21772692101312571 0 0.040631493515158129 0.22497213397533039 0 0.044169834604057823 0.21704844712843629 0 0.040631493515158129 0.22497213397533039 0 0.058983631244977353 0.22866548666544809 0 0.058983631244977353 0.22866548666544809 0 0.038616628762004453 0.23697424219132199 0 0.043466350173412202 0.25395247644911451 0 0.058983631244977353 0.22866548666544809 0 0.066919435365784111 0.24455063505467739 0 0.043466350173412202 0.25395247644911451 0 0.058983631244977353 0.22866548666544809 0 0.043466350173412202 0.25395247644911451 0 0.02648992796807632 0.24672702143065181 0 0.038616628762004453 0.23697424219132199 0 0.043466350173412202 0.25395247644911451 0 0.085484842901275504 0.2425127653747926 0 0.097878381012618212 0.2430079970525835 0 0.090586050216727637 0.25250257466821951 0 0.085484842901275504 0.2425127653747926 0 0.081930899422922671 0.25194183560051819 0 0.090586050216727637 0.25250257466821951 0 0.085484842901275504 0.2425127653747926 0 0.088387914162486744 0.23190622643653239 0 0.097878381012618212 0.2430079970525835 0 0.079029125723815583 0.2362806774029908 0 0.085484842901275504 0.2425127653747926 0 0.088387914162486744 0.23190622643653239 0 0.079029125723815583 0.2362806774029908 0 0.085484842901275504 0.2425127653747926 0 0.074453661878226163 0.24423780578458951 0 0.085484842901275504 0.2425127653747926 0 0.074453661878226163 0.24423780578458951 0 0.081930899422922671 0.25194183560051819 0 0.074453661878226163 0.24423780578458951 0 0.066919435365784111 0.24455063505467739 0 0.074855239486589897 0.26043578344390728 0 0.058983631244977353 0.22866548666544809 0 0.066919435365784111 0.24455063505467739 0 0.058983631244977353 0.22866548666544809 0 0.066919435365784111 0.24455063505467739 0 0.071020696701617689 0.23617445151722771 0 0.079029125723815583 0.2362806774029908 0 0.074453661878226163 0.24423780578458951 0 0.071020696701617689 0.23617445151722771 0 0.074453661878226163 0.24423780578458951 0 0.066919435365784111 0.24455063505467739 0 0.071020696701617689 0.23617445151722771 0 0.058983631244977353 0.22866548666544809 0 0.075798512975471799 0.22657213790181149 0 0.071805080304593927 0.20777162968837309 0 0.058983631244977353 0.22866548666544809 0 0.071020696701617689 0.23617445151722771 0 0.075798512975471799 0.22657213790181149 0 0.079029125723815583 0.2362806774029908 0 0.071020696701617689 0.23617445151722771 0 0.075798512975471799 0.22657213790181149 0 0.075798512975471799 0.22657213790181149 0 0.088387914162486744 0.23190622643653239 0 0.08632794081745726 0.21823708332819761 0 0.079029125723815583 0.2362806774029908 0 0.075798512975471799 0.22657213790181149 0 0.088387914162486744 0.23190622643653239 0 0.088387914162486744 0.23190622643653239 0 0.08632794081745726 0.21823708332819761 0 0.094136413356549209 0.22440586441318619 0 0.089887592460061616 0.20860799429135701 0 0.071805080304593927 0.20777162968837309 0 0.091852015732644968 0.19587263520815759 0 0.08632794081745726 0.21823708332819761 0 0.089887592460061616 0.20860799429135701 0 0.071805080304593927 0.20777162968837309 0 0.08632794081745726 0.21823708332819761 0 0.089887592460061616 0.20860799429135701 0 0.1010706425565997 0.2156599287331846 0 0.075798512975471799 0.22657213790181149 0 0.08632794081745726 0.21823708332819761 0 0.071805080304593927 0.20777162968837309 0 0.058983631244977353 0.22866548666544809 0 0.071805080304593927 0.20777162968837309 0 0.071805080304593927 0.20777162968837309 0 0.075223652988442233 0.1837555663700195 0 0.084626529364211084 0.1868777727112983 0 0.071805080304593927 0.20777162968837309 0 0.064990371888510937 0.18725225404828641 0 0.075223652988442233 0.1837555663700195 0 0.050950952675415023 0.20474871948873219 0 0.071805080304593927 0.20777162968837309 0 0.064990371888510937 0.18725225404828641 0 0.071805080304593927 0.20777162968837309 0 0.091852015732644968 0.19587263520815759 0 0.084626529364211084 0.1868777727112983 0 0.071805080304593927 0.20777162968837309 0 0.084626529364211084 0.1868777727112983 0 0.091852015732644968 0.19587263520815759 0 0.10349698033853071 0.1909324366121708 0 0.094159990794895176 0.1838663582784674 0 0.091852015732644968 0.19587263520815759 0 0.10349698033853071 0.1909324366121708 0 0.10387378784127441 0.20352560999237571 0 0.10349698033853071 0.1909324366121708 0 0.11269655072656801 0.19738879351787819 0 0.10387378784127441 0.20352560999237571 0 0.10349698033853071 0.1909324366121708 0 0.11269655072656801 0.19738879351787819 0 0.1164171751243588 0.18531104916954519 0 0.11269655072656801 0.19738879351787819 0 0.1164171751243588 0.18531104916954519 0 0.12711036542448431 0.2005501514181286 0 0.11269655072656801 0.19738879351787819 0 0.1114929100535607 0.21641800788804499 0 0.11269655072656801 0.19738879351787819 0 0.12318558746936541 0.21274030623527981 0 0.1114929100535607 0.21641800788804499 0 0.11269655072656801 0.19738879351787819 0 0.12318558746936541 0.21274030623527981 0 0.12711036542448431 0.2005501514181286 0 0.089887592460061616 0.20860799429135701 0 0.091852015732644968 0.19587263520815759 0 0.1010706425565997 0.2156599287331846 0 0.091852015732644968 0.19587263520815759 0 0.1010706425565997 0.2156599287331846 0 0.091852015732644968 0.19587263520815759 0 0.10387378784127441 0.20352560999237571 0 0.1010706425565997 0.2156599287331846 0 0.1114929100535607 0.21641800788804499 0 0.10387378784127441 0.20352560999237571 0 0.1010706425565997 0.2156599287331846 0 0.11269655072656801 0.19738879351787819 0 0.1114929100535607 0.21641800788804499 0 0.10387378784127441 0.20352560999237571 0 0.1010706425565997 0.2156599287331846 0 0.110289269380554 0.23544722225821191 0 0.1114929100535607 0.21641800788804499 0 0.1010706425565997 0.2156599287331846 0 0.110289269380554 0.23544722225821191 0 0.1010706425565997 0.2156599287331846 0 0.099531282524402298 0.23093513171804941 0 0.110289269380554 0.23544722225821191 0 0.1010706425565997 0.2156599287331846 0 0.094136413356549209 0.22440586441318619 0 0.099531282524402298 0.23093513171804941 0 0.08632794081745726 0.21823708332819761 0 0.1010706425565997 0.2156599287331846 0 0.094136413356549209 0.22440586441318619 0 0.088387914162486744 0.23190622643653239 0 0.094136413356549209 0.22440586441318619 0 0.099531282524402298 0.23093513171804941 0 0.1114929100535607 0.21641800788804499 0 0.110289269380554 0.23544722225821191 0 0.1114929100535607 0.21641800788804499 0 0.1224738920579605 0.22770624797324199 0 0.110289269380554 0.23544722225821191 0 0.12318558746936541 0.21274030623527981 0 0.1114929100535607 0.21641800788804499 0 0.1224738920579605 0.22770624797324199 0 0.110289269380554 0.23544722225821191 0 0.12187029504354339 0.26030527959044808 0 0.110289269380554 0.23544722225821191 0 0.12395336220600001 0.24256566063363591 0 0.12187029504354339 0.26030527959044808 0 0.110289269380554 0.23544722225821191 0 0.1092918836621132 0.2512156048590789 0 0.110289269380554 0.23544722225821191 0 0.12187029504354339 0.26030527959044808 0 0.1092918836621132 0.2512156048590789 0 0.1224738920579605 0.22770624797324199 0 0.110289269380554 0.23544722225821191 0 0.12395336220600001 0.24256566063363591 0 0.110289269380554 0.23544722225821191 0 0.097878381012618212 0.2430079970525835 0 0.1092918836621132 0.2512156048590789 0 0.097878381012618212 0.2430079970525835 0 0.1092918836621132 0.2512156048590789 0 0.099939214772606061 0.25538715793010919 0 0.099531282524402298 0.23093513171804941 0 0.110289269380554 0.23544722225821191 0 0.097878381012618212 0.2430079970525835 0 0.088387914162486744 0.23190622643653239 0 0.099531282524402298 0.23093513171804941 0 0.097878381012618212 0.2430079970525835 0 0.093069210314702736 0.15225932316739499 0 0.074707231530812018 0.130951569973667 0 0.079543908106600295 0.1475451493425545 0 0.093069210314702736 0.15225932316739499 0 0.074707231530812018 0.130951569973667 0 0.079543908106600295 0.1475451493425545 0 0.093069210314702736 0.15225932316739499 0 0.078867351640333622 0.15750383221893899 0 0.092579891566294273 0.12416874232113941 0 0.093069210314702736 0.15225932316739499 0 0.074707231530812018 0.130951569973667 0 0.05680250850376535 0.12781538003609849 0 0.063259307731213188 0.13845502329367401 0 0.074707231530812018 0.130951569973667 0 0.063259307731213188 0.13845502329367401 0 0.074707231530812018 0.130951569973667 0 0.071531838940552844 0.1494658720102173 0 0.049995651949722539 0.1455872711547134 0 0.071531838940552844 0.1494658720102173 0 0.068040088710123903 0.16130286229349239 0 0.079543908106600295 0.1475451493425545 0 0.074707231530812018 0.130951569973667 0 0.071531838940552844 0.1494658720102173 0 0.071531838940552844 0.1494658720102173 0 0.068040088710123903 0.16130286229349239 0 0.078867351640333622 0.15750383221893899 0 0.079543908106600295 0.1475451493425545 0 0.071531838940552844 0.1494658720102173 0 0.078867351640333622 0.15750383221893899 0 0.059631766690473612 0.17110793566002269 0 0.068040088710123903 0.16130286229349239 0 0.067923004597678818 0.17235471015241061 0 0.068040088710123903 0.16130286229349239 0 0.067923004597678818 0.17235471015241061 0 0.079029791101606822 0.16975578860784071 0 0.068040088710123903 0.16130286229349239 0 0.078867351640333622 0.15750383221893899 0 0.079029791101606822 0.16975578860784071 0 0.064990371888510937 0.18725225404828641 0 0.079029791101606822 0.16975578860784071 0 0.064990371888510937 0.18725225404828641 0 0.067923004597678818 0.17235471015241061 0 0.079029791101606822 0.16975578860784071 0 0.059631766690473612 0.17110793566002269 0 0.064990371888510937 0.18725225404828641 0 0.067923004597678818 0.17235471015241061 0 0.064990371888510937 0.18725225404828641 0 0.075223652988442233 0.1837555663700195 0 0.079029791101606822 0.16975578860784071 0 0.091852015732644968 0.19587263520815759 0 0.082633388908690236 0.17608534168313059 0 0.091852015732644968 0.19587263520815759 0 0.082633388908690236 0.17608534168313059 0 0.094159990794895176 0.1838663582784674 0 0.091852015732644968 0.19587263520815759 0 0.084626529364211084 0.1868777727112983 0 0.082633388908690236 0.17608534168313059 0 0.075223652988442233 0.1837555663700195 0 0.084626529364211084 0.1868777727112983 0 0.082633388908690236 0.17608534168313059 0 0.075223652988442233 0.1837555663700195 0 0.082633388908690236 0.17608534168313059 0 0.079029791101606822 0.16975578860784071 0 0.082633388908690236 0.17608534168313059 0 0.086102924700355715 0.1721533914990403 0 0.079029791101606822 0.16975578860784071 0 0.082633388908690236 0.17608534168313059 0 0.092075367384698972 0.1754549563798353 0 0.094159990794895176 0.1838663582784674 0 0.082633388908690236 0.17608534168313059 0 0.092075367384698972 0.1754549563798353 0 0.086102924700355715 0.1721533914990403 0 0.093069210314702736 0.15225932316739499 0 0.079029791101606822 0.16975578860784071 0 0.092933835271032911 0.1612078959476835 0 0.093069210314702736 0.15225932316739499 0 0.079029791101606822 0.16975578860784071 0 0.093069210314702736 0.15225932316739499 0 0.078867351640333622 0.15750383221893899 0 0.079029791101606822 0.16975578860784071 0 0.086102924700355715 0.1721533914990403 0 0.079029791101606822 0.16975578860784071 0 0.090673151406426858 0.16731747932535471 0 0.092075367384698972 0.1754549563798353 0 0.086102924700355715 0.1721533914990403 0 0.090673151406426858 0.16731747932535471 0 0.079029791101606822 0.16975578860784071 0 0.090673151406426858 0.16731747932535471 0 0.092933835271032911 0.1612078959476835 0 0.090673151406426858 0.16731747932535471 0 0.092933835271032911 0.1612078959476835 0 0.096381564409729906 0.16534835581448601 0 0.092933835271032911 0.1612078959476835 0 0.1010810220065588 0.16155645329557289 0 0.096381564409729906 0.16534835581448601 0 0.093069210314702736 0.15225932316739499 0 0.1010810220065588 0.16155645329557289 0 0.093069210314702736 0.15225932316739499 0 0.092933835271032911 0.1612078959476835 0 0.1010810220065588 0.16155645329557289 0 0.090673151406426858 0.16731747932535471 0 0.09930591954924689 0.1706314963043192 0 0.096381564409729906 0.16534835581448601 0 0.092075367384698972 0.1754549563798353 0 0.090673151406426858 0.16731747932535471 0 0.09930591954924689 0.1706314963043192 0 0.1010810220065588 0.16155645329557289 0 0.09930591954924689 0.1706314963043192 0 0.096381564409729906 0.16534835581448601 0 0.1010810220065588 0.16155645329557289 0 0.09930591954924689 0.1706314963043192 0 0.10873205667593 0.1696809622744466 0 0.1010810220065588 0.16155645329557289 0 0.1075832382133336 0.15724559215915429 0 0.10178064410785601 0.1510654012210341 0 0.1010810220065588 0.16155645329557289 0 0.10873205667593 0.1696809622744466 0 0.1075832382133336 0.15724559215915429 0 0.10873205667593 0.1696809622744466 0 0.1019823618114432 0.17963017350660049 0 0.1164171751243588 0.18531104916954519 0 0.10349698033853071 0.1909324366121708 0 0.094159990794895176 0.1838663582784674 0 0.1019823618114432 0.17963017350660049 0 0.092075367384698972 0.1754549563798353 0 0.09930591954924689 0.1706314963043192 0 0.1019823618114432 0.17963017350660049 0 0.092075367384698972 0.1754549563798353 0 0.094159990794895176 0.1838663582784674 0 0.1019823618114432 0.17963017350660049 0 0.09930591954924689 0.1706314963043192 0 0.10873205667593 0.1696809622744466 0 0.1019823618114432 0.17963017350660049 0 0.10349698033853071 0.1909324366121708 0 0.1019823618114432 0.17963017350660049 0 0.1164171751243588 0.18531104916954519 0 0.10873205667593 0.1696809622744466 0 0.1164171751243588 0.18531104916954519 0 0.1229466323994992 0.167284088572797 0 0.1229466323994992 0.167284088572797 0 0.12491413079659169 0.15388568789221979 0 0.1177470818523081 0.14980102788390931 0 0.10873205667593 0.1696809622744466 0 0.1075832382133336 0.15724559215915429 0 0.1229466323994992 0.167284088572797 0 0.1229466323994992 0.167284088572797 0 0.1066978261034094 0.1442136868632421 0 0.1229466323994992 0.167284088572797 0 0.1177470818523081 0.14980102788390931 0 0.1066978261034094 0.1442136868632421 0 0.1075832382133336 0.15724559215915429 0 0.1229466323994992 0.167284088572797 0 0.1066978261034094 0.1442136868632421 0 0.12491413079659169 0.15388568789221979 0 0.1177470818523081 0.14980102788390931 0 0.1224624953152214 0.14625683522294419 0 0.1224624953152214 0.14625683522294419 0 0.12069186095745919 0.14065343000105959 0 0.1254394696230719 0.1411865575225269 0 0.1177470818523081 0.14980102788390931 0 0.1224624953152214 0.14625683522294419 0 0.1164734721471893 0.1431927236814651 0 0.1224624953152214 0.14625683522294419 0 0.12069186095745919 0.14065343000105959 0 0.1164734721471893 0.1431927236814651 0 0.12069186095745919 0.14065343000105959 0 0.1164734721471893 0.1431927236814651 0 0.11718413521544931 0.13923859619406739 0 0.1177470818523081 0.14980102788390931 0 0.1129879343519371 0.14397314507078809 0 0.1066978261034094 0.1442136868632421 0 0.1164734721471893 0.1431927236814651 0 0.1123617916421126 0.14027078696488951 0 0.11718413521544931 0.13923859619406739 0 0.1164734721471893 0.1431927236814651 0 0.1129879343519371 0.14397314507078809 0 0.1123617916421126 0.14027078696488951 0 0.1177470818523081 0.14980102788390931 0 0.1164734721471893 0.1431927236814651 0 0.1129879343519371 0.14397314507078809 0 0.1129879343519371 0.14397314507078809 0 0.1066978261034094 0.1442136868632421 0 0.1123617916421126 0.14027078696488951 0 0.1075832382133336 0.15724559215915429 0 0.10178064410785601 0.1510654012210341 0 0.1066978261034094 0.1442136868632421 0 0.1075832382133336 0.15724559215915429 0 0.1066978261034094 0.1442136868632421 0 0.10178064410785601 0.1510654012210341 0 0.1066978261034094 0.1442136868632421 0 0.1033449868998431 0.13945325425765481 0 0.1066978261034094 0.1442136868632421 0 0.1033449868998431 0.13945325425765481 0 0.093069210314702736 0.15225932316739499 0 0.10178064410785601 0.1510654012210341 0 0.1033449868998431 0.13945325425765481 0 0.093069210314702736 0.15225932316739499 0 0.1033449868998431 0.13945325425765481 0 0.093069210314702736 0.15225932316739499 0 0.1010810220065588 0.16155645329557289 0 0.10178064410785601 0.1510654012210341 0 0.092579891566294273 0.12416874232113941 0 0.093069210314702736 0.15225932316739499 0 0.1033449868998431 0.13945325425765481 0 0.1053685294054917 0.1246484827247215 0 0.092579891566294273 0.12416874232113941 0 0.1061379114631307 0.13597260400014799 0 0.092579891566294273 0.12416874232113941 0 0.1033449868998431 0.13945325425765481 0 0.092579891566294273 0.12416874232113941 0 0.1033449868998431 0.13945325425765481 0 0.1061379114631307 0.13597260400014799 0 0.1066978261034094 0.1442136868632421 0 0.1061379114631307 0.13597260400014799 0 0.1123617916421126 0.14027078696488951 0 0.1066978261034094 0.1442136868632421 0 0.1033449868998431 0.13945325425765481 0 0.1061379114631307 0.13597260400014799 0 0.1066978261034094 0.1442136868632421 0 0.1061379114631307 0.13597260400014799 0 0.1033449868998431 0.13945325425765481 0 0.1061379114631307 0.13597260400014799 0 0.1053685294054917 0.1246484827247215 0 0.1061379114631307 0.13597260400014799 0 0.1061379114631307 0.13597260400014799 0 0.1117808388761702 0.12894017032417951 0 0.1053685294054917 0.1246484827247215 0 0.1061379114631307 0.13597260400014799 0 0.1117808388761702 0.12894017032417951 0 0.1053685294054917 0.1246484827247215 0 0.1117808388761702 0.12894017032417951 0 0.1061379114631307 0.13597260400014799 0 0.1117808388761702 0.12894017032417951 0 0.11594806567355311 0.13496149608670149 0 0.1061379114631307 0.13597260400014799 0 0.1123617916421126 0.14027078696488951 0 0.11594806567355311 0.13496149608670149 0 0.1123617916421126 0.14027078696488951 0 0.11594806567355311 0.13496149608670149 0 0.11718413521544931 0.13923859619406739 0 0.11594806567355311 0.13496149608670149 0 0.1194454693560416 0.1379859020094695 0 0.1239578155777047 0.13709008575604939 0 0.1117808388761702 0.12894017032417951 0 0.11594806567355311 0.13496149608670149 0 0.1239578155777047 0.13709008575604939 0 0.1117808388761702 0.12894017032417951 0 0.1239578155777047 0.13709008575604939 0 0.11594806567355311 0.13496149608670149 0 0.11718413521544931 0.13923859619406739 0 0.1194454693560416 0.1379859020094695 0 0.12069186095745919 0.14065343000105959 0 0.11718413521544931 0.13923859619406739 0 0.1194454693560416 0.1379859020094695 0 0.12069186095745919 0.14065343000105959 0 0.1239578155777047 0.13709008575604939 0 0.1254394696230719 0.1411865575225269 0 0.12069186095745919 0.14065343000105959 0 0.1194454693560416 0.1379859020094695 0 0.1239578155777047 0.13709008575604939 0 0.1117808388761702 0.12894017032417951 0 0.1239578155777047 0.13709008575604939 0 0.12518123137184031 0.12303524468952751 0 0.1254394696230719 0.1411865575225269 0 0.14787629645275441 0.1235748655350493 0 0.1239578155777047 0.13709008575604939 0 0.12518123137184031 0.12303524468952751 0 0.13603021757691561 0.1182635940846459 0 0.1239578155777047 0.13709008575604939 0 0.1254394696230719 0.1411865575225269 0 0.14787629645275441 0.1235748655350493 0 0.14445448980104941 0.14328391887975531 0 0.1254394696230719 0.1411865575225269 0 0.14787629645275441 0.1235748655350493 0 0.1239578155777047 0.13709008575604939 0 0.13603021757691561 0.1182635940846459 0 0.14787629645275441 0.1235748655350493 0 0.14445448980104941 0.14328391887975531 0 0.16115367426203339 0.13750849179545191 0 0.14787629645275441 0.1235748655350493 0 0.14445448980104941 0.14328391887975531 0 0.16115367426203339 0.13750849179545191 0 0.15799388680195769 0.1544890914604625 0 0.14445448980104941 0.14328391887975531 0 0.14201369937314659 0.1541612730071048 0 0.15799388680195769 0.1544890914604625 0 0.14445448980104941 0.14328391887975531 0 0.14201369937314659 0.1541612730071048 0 0.13224991229333261 0.14878323395793669 0 0.14201369937314659 0.1541612730071048 0 0.13224991229333261 0.14878323395793669 0 0.13288092068434321 0.15873015396615181 0 0.14445448980104941 0.14328391887975531 0 0.1254394696230719 0.1411865575225269 0 0.13224991229333261 0.14878323395793669 0 0.1224624953152214 0.14625683522294419 0 0.1254394696230719 0.1411865575225269 0 0.13224991229333261 0.14878323395793669 0 0.12491413079659169 0.15388568789221979 0 0.1224624953152214 0.14625683522294419 0 0.13224991229333261 0.14878323395793669 0 0.12491413079659169 0.15388568789221979 0 0.13224991229333261 0.14878323395793669 0 0.13288092068434321 0.15873015396615181 0 0.1229466323994992 0.167284088572797 0 0.12491413079659169 0.15388568789221979 0 0.13288092068434321 0.15873015396615181 0 0.1229466323994992 0.167284088572797 0 0.13288092068434321 0.15873015396615181 0 0.1422802285591459 0.16953648640070049 0 0.14201369937314659 0.1541612730071048 0 0.13288092068434321 0.15873015396615181 0 0.1422802285591459 0.16953648640070049 0 0.1229466323994992 0.167284088572797 0 0.1391954386955884 0.19035449028235249 0 0.1164171751243588 0.18531104916954519 0 0.1229466323994992 0.167284088572797 0 0.1391954386955884 0.19035449028235249 0 0.1229466323994992 0.167284088572797 0 0.1422802285591459 0.16953648640070049 0 0.1391954386955884 0.19035449028235249 0 0.1422802285591459 0.16953648640070049 0 0.15983792517670489 0.17715262010378369 0 0.1391954386955884 0.19035449028235249 0 0.1422802285591459 0.16953648640070049 0 0.15983792517670489 0.17715262010378369 0 0.15799388680195769 0.1544890914604625 0 0.14201369937314659 0.1541612730071048 0 0.1422802285591459 0.16953648640070049 0 0.15799388680195769 0.1544890914604625 0 0.15983792517670489 0.17715262010378369 0 0.17420138218963821 0.16224943636092881 0 0.15799388680195769 0.1544890914604625 0 0.15983792517670489 0.17715262010378369 0 0.17420138218963821 0.16224943636092881 0 0.17744145112270621 0.1892927935959216 0 0.17744145112270621 0.1892927935959216 0 0.19411412395880431 0.19006544077960319 0 0.1895514483985748 0.17231505025173169 0 0.17420138218963821 0.16224943636092881 0 0.17744145112270621 0.1892927935959216 0 0.1895514483985748 0.17231505025173169 0 0.17420138218963821 0.16224943636092881 0 0.19035754851591469 0.15790494485667261 0 0.1895514483985748 0.17231505025173169 0 0.17420138218963821 0.16224943636092881 0 0.17588524831226601 0.14618960111431309 0 0.19035754851591469 0.15790494485667261 0 0.17588524831226601 0.14618960111431309 0 0.19257872832345849 0.14047946976206391 0 0.19035754851591469 0.15790494485667261 0 0.17588524831226601 0.14618960111431309 0 0.19257872832345849 0.14047946976206391 0 0.17699579994310891 0.1247019117459955 0 0.17588524831226601 0.14618960111431309 0 0.16115367426203339 0.13750849179545191 0 0.17699579994310891 0.1247019117459955 0 0.16115367426203339 0.13750849179545191 0 0.14787629645275441 0.1235748655350493 0 0.17699579994310891 0.1247019117459955 0 0.17588524831226601 0.14618960111431309 0 0.16115367426203339 0.13750849179545191 0 0.15799388680195769 0.1544890914604625 0 0.17420138218963821 0.16224943636092881 0 0.17588524831226601 0.14618960111431309 0 0.15799388680195769 0.1544890914604625 0 0.15493591590665401 0.2440384172733733 0 0.13616883609404279 0.25327101280421499 0 0.15493591590665401 0.2440384172733733 0 0.14540702258892829 0.23796405489524319 0 0.13616883609404279 0.25327101280421499 0 0.15493591590665401 0.2440384172733733 0 0.14540702258892829 0.23796405489524319 0 0.1563012233939727 0.23428676320476999 0 0.12395336220600001 0.24256566063363591 0 0.12896451845390031 0.23609854054206261 0 0.13616883609404279 0.25327101280421499 0 0.1356023561664694 0.23313429716429671 0 0.13616883609404279 0.25327101280421499 0 0.14540702258892829 0.23796405489524319 0 0.1356023561664694 0.23313429716429671 0 0.13616883609404279 0.25327101280421499 0 0.12896451845390031 0.23609854054206261 0 0.1356023561664694 0.23313429716429671 0 0.13616883609404279 0.25327101280421499 0 0.1224738920579605 0.22770624797324199 0 0.12395336220600001 0.24256566063363591 0 0.12896451845390031 0.23609854054206261 0 0.1356023561664694 0.23313429716429671 0 0.12971333340805899 0.2222501614221202 0 0.13503587623889651 0.2129975815243785 0 0.14540702258892829 0.23796405489524319 0 0.1356023561664694 0.23313429716429671 0 0.14081676332605239 0.22789260600457231 0 0.1356023561664694 0.23313429716429671 0 0.14081676332605239 0.22789260600457231 0 0.13503587623889651 0.2129975815243785 0 0.1356023561664694 0.23313429716429671 0 0.13503587623889651 0.2129975815243785 0 0.1224738920579605 0.22770624797324199 0 0.12896451845390031 0.23609854054206261 0 0.12918852502159731 0.22979731177543039 0 0.12896451845390031 0.23609854054206261 0 0.1356023561664694 0.23313429716429671 0 0.12918852502159731 0.22979731177543039 0 0.1356023561664694 0.23313429716429671 0 0.12918852502159731 0.22979731177543039 0 0.12971333340805899 0.2222501614221202 0 0.1224738920579605 0.22770624797324199 0 0.12918852502159731 0.22979731177543039 0 0.12971333340805899 0.2222501614221202 0 0.12318558746936541 0.21274030623527981 0 0.1224738920579605 0.22770624797324199 0 0.12971333340805899 0.2222501614221202 0 0.14081676332605239 0.22789260600457231 0 0.15315629821525159 0.21453420816796109 0 0.1666434194289641 0.22673291610813101 0 0.14081676332605239 0.22789260600457231 0 0.15315629821525159 0.21453420816796109 0 0.1432247429621592 0.21503877934935561 0 0.14081676332605239 0.22789260600457231 0 0.1563012233939727 0.23428676320476999 0 0.1666434194289641 0.22673291610813101 0 0.14081676332605239 0.22789260600457231 0 0.1666434194289641 0.22673291610813101 0 0.14540702258892829 0.23796405489524319 0 0.14081676332605239 0.22789260600457231 0 0.1563012233939727 0.23428676320476999 0 0.15315629821525159 0.21453420816796109 0 0.1438900340684362 0.20473072170051029 0 0.15885877560037989 0.19956925757565669 0 0.1438900340684362 0.20473072170051029 0 0.1432247429621592 0.21503877934935561 0 0.13503587623889651 0.2129975815243785 0 0.15315629821525159 0.21453420816796109 0 0.1438900340684362 0.20473072170051029 0 0.1432247429621592 0.21503877934935561 0 0.14081676332605239 0.22789260600457231 0 0.1432247429621592 0.21503877934935561 0 0.13503587623889651 0.2129975815243785 0 0.1438900340684362 0.20473072170051029 0 0.13503587623889651 0.2129975815243785 0 0.12711036542448431 0.2005501514181286 0 0.12318558746936541 0.21274030623527981 0 0.12971333340805899 0.2222501614221202 0 0.13503587623889651 0.2129975815243785 0 0.12318558746936541 0.21274030623527981 0 0.13503587623889651 0.2129975815243785 0 0.12711036542448431 0.2005501514181286 0 0.1438900340684362 0.20473072170051029 0 0.1391954386955884 0.19035449028235249 0 0.12711036542448431 0.2005501514181286 0 0.1164171751243588 0.18531104916954519 0 0.1391954386955884 0.19035449028235249 0 0.12711036542448431 0.2005501514181286 0 0.15983792517670489 0.17715262010378369 0 0.1391954386955884 0.19035449028235249 0 0.15885877560037989 0.19956925757565669 0 0.1438900340684362 0.20473072170051029 0 0.1391954386955884 0.19035449028235249 0 0.15885877560037989 0.19956925757565669 0 0.15885877560037989 0.19956925757565669 0 0.17744145112270621 0.1892927935959216 0 0.17180731146201481 0.20664984593979299 0 0.15983792517670489 0.17715262010378369 0 0.15885877560037989 0.19956925757565669 0 0.17744145112270621 0.1892927935959216 0 0.17744145112270621 0.1892927935959216 0 0.1851812483866741 0.20648813210836781 0 0.17180731146201481 0.20664984593979299 0 0.17744145112270621 0.1892927935959216 0 0.1851812483866741 0.20648813210836781 0 0.19411412395880431 0.19006544077960319 0 0.1851812483866741 0.20648813210836781 0 0.17618845174804831 0.21590517007916221 0 0.17180731146201481 0.20664984593979299 0 0.1851812483866741 0.20648813210836781 0 0.17618845174804831 0.21590517007916221 0 0.19247007553187601 0.22557322621168871 0 0.17618845174804831 0.21590517007916221 0 0.1648402039307125 0.2140817300278306 0 0.17180731146201481 0.20664984593979299 0 0.15885877560037989 0.19956925757565669 0 0.1648402039307125 0.2140817300278306 0 0.17180731146201481 0.20664984593979299 0 0.15315629821525159 0.21453420816796109 0 0.15885877560037989 0.19956925757565669 0 0.1648402039307125 0.2140817300278306 0 0.15315629821525159 0.21453420816796109 0 0.1648402039307125 0.2140817300278306 0 0.1666434194289641 0.22673291610813101 0 0.1563012233939727 0.23428676320476999 0 0.1666434194289641 0.22673291610813101 0 0.1737029957192647 0.23480582174253059 0 0.17618845174804831 0.21590517007916221 0 0.1648402039307125 0.2140817300278306 0 0.1666434194289641 0.22673291610813101 0 0.1737029957192647 0.23480582174253059 0 0.19247007553187601 0.22557322621168871 0 0.1666434194289641 0.22673291610813101 0 0.19247007553187601 0.22557322621168871 0 0.1666434194289641 0.22673291610813101 0 0.1737029957192647 0.23480582174253059 0 0.19247007553187601 0.22557322621168871 0 0.17618845174804831 0.21590517007916221 0 0.1666434194289641 0.22673291610813101 0 0.19247007553187601 0.22557322621168871 0 0.1737029957192647 0.23480582174253059 0 0.18697717688249321 0.24356633448306039 0 0.17329303162147949 0.2513011983578195 0 0.1737029957192647 0.23480582174253059 0 0.18697717688249321 0.24356633448306039 0 0.19247007553187601 0.22557322621168871 0 0.15493591590665401 0.2440384172733733 0 0.1563012233939727 0.23428676320476999 0 0.1737029957192647 0.23480582174253059 0 0.15493591590665401 0.2440384172733733 0 0.1737029957192647 0.23480582174253059 0 0.15493591590665401 0.2440384172733733 0 0.1737029957192647 0.23480582174253059 0 0.17329303162147949 0.2513011983578195 0 0.21082486521106231 0.23647327389823561 0 0.20677797530962311 0.24905614057971279 0 0.2190350963392107 0.24711346655927249 0 0.21082486521106231 0.23647327389823561 0 0.22433593104148211 0.23659841243343471 0 0.2190350963392107 0.24711346655927249 0 0.21082486521106231 0.23647327389823561 0 0.20677797530962311 0.24905614057971279 0 0.19852613318189299 0.24118409587589221 0 0.20677797530962311 0.24905614057971279 0 0.19852613318189299 0.24118409587589221 0 0.1958181871866751 0.25127484198193301 0 0.21082486521106231 0.23647327389823561 0 0.19852613318189299 0.24118409587589221 0 0.19247007553187601 0.22557322621168871 0 0.18697717688249321 0.24356633448306039 0 0.19852613318189299 0.24118409587589221 0 0.19247007553187601 0.22557322621168871 0 0.18697717688249321 0.24356633448306039 0 0.19852613318189299 0.24118409587589221 0 0.1958181871866751 0.25127484198193301 0 0.19247007553187601 0.22557322621168871 0 0.21739817167590431 0.21330967581653659 0 0.21082486521106231 0.23647327389823561 0 0.19247007553187601 0.22557322621168871 0 0.2219308061886017 0.22425035609067059 0 0.19247007553187601 0.22557322621168871 0 0.21739817167590431 0.21330967581653659 0 0.2219308061886017 0.22425035609067059 0 0.19247007553187601 0.22557322621168871 0 0.2219308061886017 0.22425035609067059 0 0.19247007553187601 0.22557322621168871 0 0.21739817167590431 0.21330967581653659 0 0.19988558977092699 0.20841072632362939 0 0.21739817167590431 0.21330967581653659 0 0.19988558977092699 0.20841072632362939 0 0.20914687699647991 0.19834437985431819 0 0.1851812483866741 0.20648813210836781 0 0.19247007553187601 0.22557322621168871 0 0.19988558977092699 0.20841072632362939 0 0.1851812483866741 0.20648813210836781 0 0.19988558977092699 0.20841072632362939 0 0.19411412395880431 0.19006544077960319 0 0.19988558977092699 0.20841072632362939 0 0.19411412395880431 0.19006544077960319 0 0.20914687699647991 0.19834437985431819 0 0.19411412395880431 0.19006544077960319 0 0.20914687699647991 0.19834437985431819 0 0.2129382216561635 0.18435838888480011 0 0.21739817167590431 0.21330967581653659 0 0.20914687699647991 0.19834437985431819 0 0.22237757552020071 0.1959109739564765 0 0.20914687699647991 0.19834437985431819 0 0.22237757552020071 0.1959109739564765 0 0.2129382216561635 0.18435838888480011 0 0.22237757552020071 0.1959109739564765 0 0.24232626781993291 0.2010461254213855 0 0.2281469395448574 0.18006946416547259 0 0.24232626781993291 0.2010461254213855 0 0.2281469395448574 0.18006946416547259 0 0.2474512013313501 0.18180653338194541 0 0.24232626781993291 0.2010461254213855 0 0.24817961656526699 0.2130442618838089 0 0.23593418691966489 0.2149711225129721 0 0.24232626781993291 0.2010461254213855 0 0.24817961656526699 0.2130442618838089 0 0.25603689302773602 0.20818443908398249 0 0.24817961656526699 0.2130442618838089 0 0.23593418691966489 0.2149711225129721 0 0.25139153684532739 0.22292748596965131 0 0.21739817167590431 0.21330967581653659 0 0.24232626781993291 0.2010461254213855 0 0.23593418691966489 0.2149711225129721 0 0.21739817167590431 0.21330967581653659 0 0.24232626781993291 0.2010461254213855 0 0.21739817167590431 0.21330967581653659 0 0.23593418691966489 0.2149711225129721 0 0.2219308061886017 0.22425035609067059 0 0.21739817167590431 0.21330967581653659 0 0.22237757552020071 0.1959109739564765 0 0.24232626781993291 0.2010461254213855 0 0.21082486521106231 0.23647327389823561 0 0.2219308061886017 0.22425035609067059 0 0.22433593104148211 0.23659841243343471 0 0.2219308061886017 0.22425035609067059 0 0.22933229499895641 0.23174609436473009 0 0.22433593104148211 0.23659841243343471 0 0.2219308061886017 0.22425035609067059 0 0.22933229499895641 0.23174609436473009 0 0.2369022113285002 0.22895695289690929 0 0.22933229499895641 0.23174609436473009 0 0.2369022113285002 0.22895695289690929 0 0.23416023143724141 0.23717865603790581 0 0.2219308061886017 0.22425035609067059 0 0.25139153684532739 0.22292748596965131 0 0.23593418691966489 0.2149711225129721 0 0.2219308061886017 0.22425035609067059 0 0.25139153684532739 0.22292748596965131 0 0.2219308061886017 0.22425035609067059 0 0.2369022113285002 0.22895695289690929 0 0.25139153684532739 0.22292748596965131 0 0.24576832599598 0.23079517079207909 0 0.25199350520623048 0.23520080144638369 0 0.25139153684532739 0.22292748596965131 0 0.24576832599598 0.23079517079207909 0 0.2427860506038618 0.23609544285537201 0 0.25199350520623048 0.23520080144638369 0 0.24576832599598 0.23079517079207909 0 0.2369022113285002 0.22895695289690929 0 0.25139153684532739 0.22292748596965131 0 0.2369022113285002 0.22895695289690929 0 0.2427860506038618 0.23609544285537201 0 0.23416023143724141 0.23717865603790581 0 0.24576832599598 0.23079517079207909 0 0.2369022113285002 0.22895695289690929 0 0.2427860506038618 0.23609544285537201 0 0.23845273127688721 0.2406103129125069 0 0.2427860506038618 0.23609544285537201 0 0.2405161804709528 0.24565446548208689 0 0.23845273127688721 0.2406103129125069 0 0.2427860506038618 0.23609544285537201 0 0.23416023143724141 0.23717865603790581 0 0.23534339621312811 0.24186006472992211 0 0.23845273127688721 0.2406103129125069 0 0.23416023143724141 0.23717865603790581 0 0.2427860506038618 0.23609544285537201 0 0.2405161804709528 0.24565446548208689 0 0.25199350520623048 0.23520080144638369 0 0.2405161804709528 0.24565446548208689 0 0.25199350520623048 0.23520080144638369 0 0.2405161804709528 0.24565446548208689 0 0.23895536205957391 0.24451586023113331 0 0.23138945752561529 0.24459723013169571 0 0.23845273127688721 0.2406103129125069 0 0.2405161804709528 0.24565446548208689 0 0.23895536205957391 0.24451586023113331 0 0.2405161804709528 0.24565446548208689 0 0.23895536205957391 0.24451586023113331 0 0.23534339621312811 0.24186006472992211 0 0.23895536205957391 0.24451586023113331 0 0.23138945752561529 0.24459723013169571 0 0.23534339621312811 0.24186006472992211 0 0.23845273127688721 0.2406103129125069 0 0.23895536205957391 0.24451586023113331 0 0.2405161804709528 0.24565446548208689 0 0.23138945752561529 0.24459723013169571 0 0.2272815747562475 0.25766596394105801 0 0.23138945752561529 0.24459723013169571 0 0.23416023143724141 0.23717865603790581 0 0.22433593104148211 0.23659841243343471 0 0.23534339621312811 0.24186006472992211 0 0.23138945752561529 0.24459723013169571 0 0.23416023143724141 0.23717865603790581 0 0.22933229499895641 0.23174609436473009 0 0.23416023143724141 0.23717865603790581 0 0.22433593104148211 0.23659841243343471 0 0.23138945752561529 0.24459723013169571 0 0.2190350963392107 0.24711346655927249 0 0.2272815747562475 0.25766596394105801 0 0.23138945752561529 0.24459723013169571 0 0.22433593104148211 0.23659841243343471 0 0.2190350963392107 0.24711346655927249 0 0.20596039807511191 0.15449687886671939 0 0.21093981142511481 0.1359350997217415 0 0.19257872832345849 0.14047946976206391 0 0.20596039807511191 0.15449687886671939 0 0.21093981142511481 0.1359350997217415 0 0.22421609659582781 0.15022282154199831 0 0.21093981142511481 0.1359350997217415 0 0.23096691894386639 0.13227249879335159 0 0.21266072252515059 0.1112023607260121 0 0.1966758628765326 0.1250320808304714 0 0.19257872832345849 0.14047946976206391 0 0.17699579994310891 0.1247019117459955 0 0.21093981142511481 0.1359350997217415 0 0.1966758628765326 0.1250320808304714 0 0.19257872832345849 0.14047946976206391 0 0.20596039807511191 0.15449687886671939 0 0.19257872832345849 0.14047946976206391 0 0.19035754851591469 0.15790494485667261 0 0.20596039807511191 0.15449687886671939 0 0.19035754851591469 0.15790494485667261 0 0.2039680857964393 0.17169923278427901 0 0.19035754851591469 0.15790494485667261 0 0.1895514483985748 0.17231505025173169 0 0.2039680857964393 0.17169923278427901 0 0.19411412395880431 0.19006544077960319 0 0.1895514483985748 0.17231505025173169 0 0.2039680857964393 0.17169923278427901 0 0.2129382216561635 0.18435838888480011 0 0.21856587318616399 0.1679114320730157 0 0.2039680857964393 0.17169923278427901 0 0.19411412395880431 0.19006544077960319 0 0.2129382216561635 0.18435838888480011 0 0.2039680857964393 0.17169923278427901 0 0.20596039807511191 0.15449687886671939 0 0.21856587318616399 0.1679114320730157 0 0.22421609659582781 0.15022282154199831 0 0.20596039807511191 0.15449687886671939 0 0.21856587318616399 0.1679114320730157 0 0.2039680857964393 0.17169923278427901 0 0.21856587318616399 0.1679114320730157 0 0.2361654974485842 0.16662180619482519 0 0.22421609659582781 0.15022282154199831 0 0.21856587318616399 0.1679114320730157 0 0.2281469395448574 0.18006946416547259 0 0.2361654974485842 0.16662180619482519 0 0.2129382216561635 0.18435838888480011 0 0.21856587318616399 0.1679114320730157 0 0.2281469395448574 0.18006946416547259 0 0.22237757552020071 0.1959109739564765 0 0.2129382216561635 0.18435838888480011 0 0.2281469395448574 0.18006946416547259 0 0.2281469395448574 0.18006946416547259 0 0.2474512013313501 0.18180653338194541 0 0.2361654974485842 0.16662180619482519 0 0.2474512013313501 0.18180653338194541 0 0.2361654974485842 0.16662180619482519 0 0.26239994986757648 0.1647433014771775 0 0.2361654974485842 0.16662180619482519 0 0.2433198327392701 0.14920985917628349 0 0.26239994986757648 0.1647433014771775 0 0.2361654974485842 0.16662180619482519 0 0.2433198327392701 0.14920985917628349 0 0.22421609659582781 0.15022282154199831 0 0.2433198327392701 0.14920985917628349 0 0.22421609659582781 0.15022282154199831 0 0.23096691894386639 0.13227249879335159 0 0.21093981142511481 0.1359350997217415 0 0.22421609659582781 0.15022282154199831 0 0.23096691894386639 0.13227249879335159 0 0.23096691894386639 0.13227249879335159 0 0.23944745347504129 0.11368656732014169 0 0.25018951545366258 0.1321566729109088 0 0.2433198327392701 0.14920985917628349 0 0.23096691894386639 0.13227249879335159 0 0.25018951545366258 0.1321566729109088 0 0.2287551749729089 0.091897251736019189 0 0.2537464456283321 0.096974149152850547 0 0.23944745347504129 0.11368656732014169 0 0.2287551749729089 0.091897251736019189 0 0.2537464456283321 0.096974149152850547 0 0.23944745347504129 0.11368656732014169 0 0.21266072252515059 0.1112023607260121 0 0.2287551749729089 0.091897251736019189 0 0.23096691894386639 0.13227249879335159 0 0.23944745347504129 0.11368656732014169 0 0.21266072252515059 0.1112023607260121 0 0.21093981142511481 0.1359350997217415 0 0.1966758628765326 0.1250320808304714 0 0.21266072252515059 0.1112023607260121 0 0.21266072252515059 0.1112023607260121 0 0.19274995011211951 0.088351481560094092 0 0.2120824248278452 0.088295592681664758 0 0.21266072252515059 0.1112023607260121 0 0.2120824248278452 0.088295592681664758 0 0.2287551749729089 0.091897251736019189 0 0.21266072252515059 0.1112023607260121 0 0.1888810618617221 0.1109764811774497 0 0.19274995011211951 0.088351481560094092 0 0.1966758628765326 0.1250320808304714 0 0.21266072252515059 0.1112023607260121 0 0.1888810618617221 0.1109764811774497 0 0.1966758628765326 0.1250320808304714 0 0.1888810618617221 0.1109764811774497 0 0.17699579994310891 0.1247019117459955 0 0.19704671158667389 0.069249776506128152 0 0.2060052666474203 0.062293103867821657 0 0.1867034780887227 0.060958212966685701 0 0.19704671158667389 0.069249776506128152 0 0.19274995011211951 0.088351481560094092 0 0.21518677694180199 0.070739789572616479 0 0.19704671158667389 0.069249776506128152 0 0.19274995011211951 0.088351481560094092 0 0.18104565236908021 0.075912972338841048 0 0.19704671158667389 0.069249776506128152 0 0.1867034780887227 0.060958212966685701 0 0.18104565236908021 0.075912972338841048 0 0.19274995011211951 0.088351481560094092 0 0.2120824248278452 0.088295592681664758 0 0.21518677694180199 0.070739789572616479 0 0.2120824248278452 0.088295592681664758 0 0.21518677694180199 0.070739789572616479 0 0.22754750566053411 0.077742261173825891 0 0.19274995011211951 0.088351481560094092 0 0.21518677694180199 0.070739789572616479 0 0.23131004727528581 0.064043155232885937 0 0.2060052666474203 0.062293103867821657 0 0.19704671158667389 0.069249776506128152 0 0.21518677694180199 0.070739789572616479 0 0.20708047722421569 0.064959393065738141 0 0.21518677694180199 0.070739789572616479 0 0.23131004727528581 0.064043155232885937 0 0.2060052666474203 0.062293103867821657 0 0.21518677694180199 0.070739789572616479 0 0.20708047722421569 0.064959393065738141 0 0.2060052666474203 0.062293103867821657 0 0.19704671158667389 0.069249776506128152 0 0.20708047722421569 0.064959393065738141 0 0.2060052666474203 0.062293103867821657 0 0.20708047722421569 0.064959393065738141 0 0.2060052666474203 0.062293103867821657 0 0.21518677694180199 0.070739789572616479 0 0.22754750566053411 0.077742261173825891 0 0.23131004727528581 0.064043155232885937 0 0.2120824248278452 0.088295592681664758 0 0.22754750566053411 0.077742261173825891 0 0.2287551749729089 0.091897251736019189 0 0.22754750566053411 0.077742261173825891 0 0.2287551749729089 0.091897251736019189 0 0.24792671253809631 0.074867168015136071 0 0.2287551749729089 0.091897251736019189 0 0.24792671253809631 0.074867168015136071 0 0.2537464456283321 0.096974149152850547 0 0.23131004727528581 0.064043155232885937 0 0.24792671253809631 0.074867168015136071 0 0.24992376271867769 0.052131852538617768 0 0.22754750566053411 0.077742261173825891 0 0.23131004727528581 0.064043155232885937 0 0.24792671253809631 0.074867168015136071 0 0.24992376271867769 0.052131852538617768 0 0.22525550667378411 0.046645030029551469 0 0.23131004727528581 0.064043155232885937 0 0.24992376271867769 0.052131852538617768 0 0.22525550667378411 0.046645030029551469 0 0.2398062669444756 0.039422663866150343 0 0.22814024864963031 0.033860804424963371 0 0.24457617574235721 0.023894136327672611 0 0.24992376271867769 0.052131852538617768 0 0.2398062669444756 0.039422663866150343 0 0.22525550667378411 0.046645030029551469 0 0.2398062669444756 0.039422663866150343 0 0.24457617574235721 0.023894136327672611 0 0.261889074401774 0.039946406382272197 0 0.2398062669444756 0.039422663866150343 0 0.22814024864963031 0.033860804424963371 0 0.22525550667378411 0.046645030029551469 0 0.22814024864963031 0.033860804424963371 0 0.22525550667378411 0.046645030029551469 0 0.2143442563871521 0.037504489607880047 0 0.23131004727528581 0.064043155232885937 0 0.22525550667378411 0.046645030029551469 0 0.21203061007278101 0.050040626485466172 0 0.24457617574235721 0.023894136327672611 0 0.2286594600101986 0.00065470291791329134 0 0.25612269832549522 0.0072301428781907408 0 0.22814024864963031 0.033860804424963371 0 0.24457617574235721 0.023894136327672611 0 0.21671903750038241 0.021837702293562401 0 0.22814024864963031 0.033860804424963371 0 0.21671903750038241 0.021837702293562401 0 0.2143442563871521 0.037504489607880047 0 0.24457617574235721 0.023894136327672611 0 0.21671903750038241 0.021837702293562401 0 0.24457617574235721 0.023894136327672611 0 0.2286594600101986 0.00065470291791329134 0 0.21671903750038241 0.021837702293562401 0 0.21671903750038241 0.021837702293562401 0 0.18886189925840779 0.01978126825945058 0 0.204440525045432 -0.001660647373823296 0 0.2286594600101986 0.00065470291791329134 0 0.21671903750038241 0.021837702293562401 0 0.204440525045432 -0.001660647373823296 0 0.21671903750038241 0.021837702293562401 0 0.20788764074042801 0.029361390655016702 0 0.2143442563871521 0.037504489607880047 0 0.21671903750038241 0.021837702293562401 0 0.20788764074042801 0.029361390655016702 0 0.19632915259340389 0.023572802447474062 0 0.21671903750038241 0.021837702293562401 0 0.18886189925840779 0.01978126825945058 0 0.21671903750038241 0.021837702293562401 0 0.19632915259340389 0.023572802447474062 0 0.18886189925840779 0.01978126825945058 0 0.19632915259340389 0.023572802447474062 0 0.19237704592039001 0.02849807013638889 0 0.2013647801194455 0.031661711344607192 0 0.20788764074042801 0.029361390655016702 0 0.19632915259340389 0.023572802447474062 0 0.2013647801194455 0.031661711344607192 0 0.19632915259340389 0.023572802447474062 0 0.19237704592039001 0.02849807013638889 0 0.18886189925840779 0.01978126825945058 0 0.19237704592039001 0.02849807013638889 0 0.18886189925840779 0.01978126825945058 0 0.19632915259340389 0.023572802447474062 0 0.19237704592039001 0.02849807013638889 0 0.18886189925840779 0.01978126825945058 0 0.17888462137645811 -0.0049602184923681659 0 0.204440525045432 -0.001660647373823296 0 0.23131004727528581 0.064043155232885937 0 0.2060052666474203 0.062293103867821657 0 0.21203061007278101 0.050040626485466172 0 0.2060052666474203 0.062293103867821657 0 0.21203061007278101 0.050040626485466172 0 0.19919115628390599 0.045395587002104908 0 0.22525550667378411 0.046645030029551469 0 0.20058725062889049 0.041158207520485171 0 0.22525550667378411 0.046645030029551469 0 0.2143442563871521 0.037504489607880047 0 0.20058725062889049 0.041158207520485171 0 0.22525550667378411 0.046645030029551469 0 0.21203061007278101 0.050040626485466172 0 0.20058725062889049 0.041158207520485171 0 0.2143442563871521 0.037504489607880047 0 0.2065609814281765 0.034622427315282013 0 0.20058725062889049 0.041158207520485171 0 0.20788764074042801 0.029361390655016702 0 0.2143442563871521 0.037504489607880047 0 0.2065609814281765 0.034622427315282013 0 0.20788764074042801 0.029361390655016702 0 0.2065609814281765 0.034622427315282013 0 0.2013647801194455 0.031661711344607192 0 0.21203061007278101 0.050040626485466172 0 0.19919115628390599 0.045395587002104908 0 0.20058725062889049 0.041158207520485171 0 0.19237704592039001 0.02849807013638889 0 0.19919115628390599 0.045395587002104908 0 0.20058725062889049 0.041158207520485171 0 0.19237704592039001 0.02849807013638889 0 0.19919115628390599 0.045395587002104908 0 0.17988936772520711 0.044060696100970839 0 0.19237704592039001 0.02849807013638889 0 0.19919115628390599 0.045395587002104908 0 0.2065609814281765 0.034622427315282013 0 0.20058725062889049 0.041158207520485171 0 0.2013647801194455 0.031661711344607192 0 0.19237704592039001 0.02849807013638889 0 0.20058725062889049 0.041158207520485171 0 0.2013647801194455 0.031661711344607192 0 0.19919115628390599 0.045395587002104908 0 0.1867034780887227 0.060958212966685701 0 0.17988936772520711 0.044060696100970839 0 0.2060052666474203 0.062293103867821657 0 0.19919115628390599 0.045395587002104908 0 0.1867034780887227 0.060958212966685701 0 0.2060052666474203 0.062293103867821657 0 0.19919115628390599 0.045395587002104908 0 0.2060052666474203 0.062293103867821657 0 0.1867034780887227 0.060958212966685701 0 0.1867034780887227 0.060958212966685701 0 0.16740168953002479 0.059623322065553278 0 0.1867034780887227 0.060958212966685701 0 0.17988936772520711 0.044060696100970839 0 0.16740168953002479 0.059623322065553278 0 0.17988936772520711 0.044060696100970839 0 0.16740168953002479 0.059623322065553278 0 0.19237704592039001 0.02849807013638889 0 0.17988936772520711 0.044060696100970839 0 0.17840633758541821 0.029834263202539749 0 0.19237704592039001 0.02849807013638889 0 0.17988936772520711 0.044060696100970839 0 0.17988936772520711 0.044060696100970839 0 0.16439541659715551 0.038700197289163962 0 0.17840633758541821 0.029834263202539749 0 0.16439541659715551 0.038700197289163962 0 0.15319762784912661 0.029414713853816731 0 0.1530980392006647 0.047932945424429822 0 0.17988936772520711 0.044060696100970839 0 0.16439541659715551 0.038700197289163962 0 0.16740168953002479 0.059623322065553278 0 0.16439541659715551 0.038700197289163962 0 0.1622828747683786 0.059269310351603613 0 0.16439541659715551 0.038700197289163962 0 0.1622828747683786 0.059269310351603613 0 0.16740168953002479 0.059623322065553278 0 0.16439541659715551 0.038700197289163962 0 0.1622828747683786 0.059269310351603613 0 0.1530980392006647 0.047932945424429822 0 0.1622828747683786 0.059269310351603613 0 0.16740168953002479 0.059623322065553278 0 0.16148983148933951 0.066990907456923043 0 0.1622828747683786 0.059269310351603613 0 0.16740168953002479 0.059623322065553278 0 0.18886189925840779 0.01978126825945058 0 0.17888462137645811 -0.0049602184923681659 0 0.1722705241799124 0.0044736429529750668 0 0.17678999833506709 0.01149601631072439 0 0.17888462137645811 -0.0049602184923681659 0 0.18886189925840779 0.01978126825945058 0 0.17678999833506709 0.01149601631072439 0 0.17888462137645811 -0.0049602184923681659 0 0.1722705241799124 0.0044736429529750668 0 0.17678999833506709 0.01149601631072439 0 0.16719569844045601 0.011434789780100169 0 0.18886189925840779 0.01978126825945058 0 0.17678999833506709 0.01149601631072439 0 0.16650795842593241 0.018131084226724211 0 0.18886189925840779 0.01978126825945058 0 0.16650795842593241 0.018131084226724211 0 0.18886189925840779 0.01978126825945058 0 0.17840633758541821 0.029834263202539749 0 0.16650795842593241 0.018131084226724211 0 0.19237704592039001 0.02849807013638889 0 0.18886189925840779 0.01978126825945058 0 0.17840633758541821 0.029834263202539749 0 0.16439541659715551 0.038700197289163962 0 0.16650795842593241 0.018131084226724211 0 0.16439541659715551 0.038700197289163962 0 0.16650795842593241 0.018131084226724211 0 0.15319762784912661 0.029414713853816731 0 0.16439541659715551 0.038700197289163962 0 0.17840633758541821 0.029834263202539749 0 0.16650795842593241 0.018131084226724211 0 0.17678999833506709 0.01149601631072439 0 0.16650795842593241 0.018131084226724211 0 0.16719569844045601 0.011434789780100169 0 0.16650795842593241 0.018131084226724211 0 0.16719569844045601 0.011434789780100169 0 0.16650795842593241 0.018131084226724211 0 0.16719569844045601 0.011434789780100169 0 0.15571558637930261 0.0047442849742679941 0 0.16719569844045601 0.011434789780100169 0 0.15571558637930261 0.0047442849742679941 0 0.16408067648555019 -0.0018717480421266311 0 0.1722705241799124 0.0044736429529750668 0 0.16719569844045601 0.011434789780100169 0 0.16408067648555019 -0.0018717480421266311 0 0.15571558637930261 0.0047442849742679941 0 0.14050355022615449 0.016211420060419941 0 0.14196380943428469 -0.0042950747795691404 0 0.16650795842593241 0.018131084226724211 0 0.15571558637930261 0.0047442849742679941 0 0.14050355022615449 0.016211420060419941 0 0.16650795842593241 0.018131084226724211 0 0.14050355022615449 0.016211420060419941 0 0.15319762784912661 0.029414713853816731 0 0.14050355022615449 0.016211420060419941 0 0.1402528134242704 0.03680813921515963 0 0.16650795842593241 0.018131084226724211 0 0.15319762784912661 0.029414713853816731 0 0.14050355022615449 0.016211420060419941 0 0.1144991420263767 0.01429175589411515 0 0.14050355022615449 0.016211420060419941 0 0.12568473507245759 0.024972522549856178 0 0.14050355022615449 0.016211420060419941 0 0.12568473507245759 0.024972522549856178 0 0.1402528134242704 0.03680813921515963 0 0.1201526421778074 0.0055944398547587816 0 0.1144991420263767 0.01429175589411515 0 0.14050355022615449 0.016211420060419941 0 0.14050355022615449 0.016211420060419941 0 0.14196380943428469 -0.0042950747795691404 0 0.12864883577299299 -0.00035703598269560502 0 0.1201526421778074 0.0055944398547587816 0 0.14050355022615449 0.016211420060419941 0 0.12864883577299299 -0.00035703598269560502 0 0.1144991420263767 0.01429175589411515 0 0.14050355022615449 0.016211420060419941 0 0.1530980392006647 0.047932945424429822 0 0.14244008924514401 0.057897004683266647 0 0.1402528134242704 0.03680813921515963 0 0.1622828747683786 0.059269310351603613 0 0.1530980392006647 0.047932945424429822 0 0.14244008924514401 0.057897004683266647 0 0.1622828747683786 0.059269310351603613 0 0.14244008924514401 0.057897004683266647 0 0.16148983148933951 0.066990907456923043 0 0.1622828747683786 0.059269310351603613 0 0.14244008924514401 0.057897004683266647 0 0.15319762784912661 0.029414713853816731 0 0.1530980392006647 0.047932945424429822 0 0.1402528134242704 0.03680813921515963 0 0.12266990805833509 0.03551385407155877 0 0.12568473507245759 0.024972522549856178 0 0.1402528134242704 0.03680813921515963 0 0.12266990805833509 0.03551385407155877 0 0.1402528134242704 0.03680813921515963 0 0.12961231147286639 0.045501266200782563 0 0.14244008924514401 0.057897004683266647 0 0.1402528134242704 0.03680813921515963 0 0.12961231147286639 0.045501266200782563 0 0.1225973037219092 0.056524699014929972 0 0.14244008924514401 0.057897004683266647 0 0.1225973037219092 0.056524699014929972 0 0.14244008924514401 0.057897004683266647 0 0.12961231147286639 0.045501266200782563 0 0.1225973037219092 0.056524699014929972 0 0.14244008924514401 0.057897004683266647 0 0.12698205778623689 0.070541615002526592 0 0.14244008924514401 0.057897004683266647 0 0.12698205778623689 0.070541615002526592 0 0.13666684185965869 0.077328344411498023 0 0.12698205778623689 0.070541615002526592 0 0.13666684185965869 0.077328344411498023 0 0.13019136681444871 0.084332495515473976 0 0.14244008924514401 0.057897004683266647 0 0.13666684185965869 0.077328344411498023 0 0.146379232469773 0.072464229574423944 0 0.146379232469773 0.072464229574423944 0 0.14492016728494919 0.087640661746007986 0 0.16148983148933951 0.066990907456923043 0 0.14492016728494919 0.087640661746007986 0 0.16148983148933951 0.066990907456923043 0 0.14244008924514401 0.057897004683266647 0 0.146379232469773 0.072464229574423944 0 0.16148983148933951 0.066990907456923043 0 0.14492016728494919 0.087640661746007986 0 0.16148983148933951 0.066990907456923043 0 0.15885475735859339 0.092647742737019131 0 0.13666684185965869 0.077328344411498023 0 0.146379232469773 0.072464229574423944 0 0.14492016728494919 0.087640661746007986 0 0.14492016728494919 0.087640661746007986 0 0.13019136681444871 0.084332495515473976 0 0.12870884310170691 0.1018615922178497 0 0.13666684185965869 0.077328344411498023 0 0.14492016728494919 0.087640661746007986 0 0.13019136681444871 0.084332495515473976 0 0.14492016728494919 0.087640661746007986 0 0.12835050308055951 0.1082904160350935 0 0.14618158165933851 0.1056255863814279 0 0.14492016728494919 0.087640661746007986 0 0.12870884310170691 0.1018615922178497 0 0.12835050308055951 0.1082904160350935 0 0.14492016728494919 0.087640661746007986 0 0.12835050308055951 0.1082904160350935 0 0.124642567504887 0.105874177786111 0 0.12870884310170691 0.1018615922178497 0 0.12835050308055951 0.1082904160350935 0 0.12835050308055951 0.1082904160350935 0 0.13603021757691561 0.1182635940846459 0 0.14618158165933851 0.1056255863814279 0 0.12835050308055951 0.1082904160350935 0 0.12518123137184031 0.12303524468952751 0 0.13603021757691561 0.1182635940846459 0 0.14787629645275441 0.1235748655350493 0 0.14618158165933851 0.1056255863814279 0 0.170313123282437 0.1059631735475717 0 0.13603021757691561 0.1182635940846459 0 0.14787629645275441 0.1235748655350493 0 0.14618158165933851 0.1056255863814279 0 0.14492016728494919 0.087640661746007986 0 0.14618158165933851 0.1056255863814279 0 0.15885475735859339 0.092647742737019131 0 0.14618158165933851 0.1056255863814279 0 0.170313123282437 0.1059631735475717 0 0.15885475735859339 0.092647742737019131 0 0.170313123282437 0.1059631735475717 0 0.1736925127397515 0.088760639566093674 0 0.15885475735859339 0.092647742737019131 0 0.14787629645275441 0.1235748655350493 0 0.170313123282437 0.1059631735475717 0 0.17699579994310891 0.1247019117459955 0 0.14787629645275441 0.1235748655350493 0 0.170313123282437 0.1059631735475717 0 0.1888810618617221 0.1109764811774497 0 0.170313123282437 0.1059631735475717 0 0.17699579994310891 0.1247019117459955 0 0.19274995011211951 0.088351481560094092 0 0.170313123282437 0.1059631735475717 0 0.19274995011211951 0.088351481560094092 0 0.170313123282437 0.1059631735475717 0 0.1736925127397515 0.088760639566093674 0 0.1888810618617221 0.1109764811774497 0 0.19274995011211951 0.088351481560094092 0 0.170313123282437 0.1059631735475717 0 0.19274995011211951 0.088351481560094092 0 0.1736925127397515 0.088760639566093674 0 0.18104565236908021 0.075912972338841048 0 0.1736925127397515 0.088760639566093674 0 0.18104565236908021 0.075912972338841048 0 0.16896481114956771 0.078373719293502342 0 0.1867034780887227 0.060958212966685701 0 0.16740168953002479 0.059623322065553278 0 0.17312109252534741 0.068371826824301277 0 0.1867034780887227 0.060958212966685701 0 0.18104565236908021 0.075912972338841048 0 0.17312109252534741 0.068371826824301277 0 0.18104565236908021 0.075912972338841048 0 0.17312109252534741 0.068371826824301277 0 0.16896481114956771 0.078373719293502342 0 0.17312109252534741 0.068371826824301277 0 0.16148983148933951 0.066990907456923043 0 0.16896481114956771 0.078373719293502342 0 0.16740168953002479 0.059623322065553278 0 0.17312109252534741 0.068371826824301277 0 0.16148983148933951 0.066990907456923043 0 0.16740168953002479 0.059623322065553278 0 0.16148983148933951 0.066990907456923043 0 0.1622828747683786 0.059269310351603613 0 0.16148983148933951 0.066990907456923043 0 0.16148983148933951 0.066990907456923043 0 0.15885475735859339 0.092647742737019131 0 0.16148983148933951 0.066990907456923043 0 0.15885475735859339 0.092647742737019131 0 0.16896481114956771 0.078373719293502342 0 0.1736925127397515 0.088760639566093674 0 0.15885475735859339 0.092647742737019131 0 0.16896481114956771 0.078373719293502342 0 0.097255238950821513 0.47656789984389641 0 0.1173050368396272 0.49189118325213022 0 0.10250503113761419 0.49047754485363049 0 0.1139226224022685 0.5 0 0.084930460627468618 0.5 0 0.097255238950821513 0.47656789984389641 0 0.10250503113761419 0.49047754485363049 0 0.084930460627468618 0.5 0 0.097255238950821513 0.47656789984389641 0 0.10250503113761419 0.49047754485363049 0 0.1173050368396272 0.49189118325213022 0 0.1139226224022685 0.5 0 0.1173050368396272 0.49189118325213022 0 0.1429147841770684 0.50000000000000422 0 0.10250503113761419 0.49047754485363049 0 0.1139226224022685 0.5 0 0.1173050368396272 0.49189118325213022 0 0.1173050368396272 0.49189118325213022 0 0.1153527671525426 0.46585685838453678 0 0.13879478015770089 0.47535824273223592 0 0.097255238950821513 0.47656789984389641 0 0.1173050368396272 0.49189118325213022 0 0.1153527671525426 0.46585685838453678 0 0.1153527671525426 0.46585685838453678 0 0.11218822813676591 0.44124613736530782 0 0.13467477613833409 0.45071648546446752 0 0.11218822813676591 0.44124613736530782 0 0.094622713326185062 0.45414722988089629 0 0.091285677207431581 0.43513487439945231 0 0.097255238950821513 0.47656789984389641 0 0.1153527671525426 0.46585685838453678 0 0.094622713326185062 0.45414722988089629 0 0.1153527671525426 0.46585685838453678 0 0.11218822813676591 0.44124613736530782 0 0.094622713326185062 0.45414722988089629 0 0.097255238950821513 0.47656789984389641 0 0.094622713326185062 0.45414722988089629 0 0.077205441062015823 0.4612446164356625 0 0.094622713326185062 0.45414722988089629 0 0.074448927447533009 0.44483299285652228 0 0.077205441062015823 0.4612446164356625 0 0.094622713326185062 0.45414722988089629 0 0.074448927447533009 0.44483299285652228 0 0.091285677207431581 0.43513487439945231 0 0.074448927447533009 0.44483299285652228 0 0.077205441062015823 0.4612446164356625 0 0.057155643173210133 0.44592133302742859 0 0.074448927447533009 0.44483299285652228 0 0.057155643173210133 0.44592133302742859 0 0.073231699693577984 0.42831198893424999 0 0.077205441062015823 0.4612446164356625 0 0.057155643173210133 0.44592133302742859 0 0.077205441062015823 0.4612446164356625 0 0.071375884002750412 0.4825542051337724 0 0.051529811569465511 0.47284772714416828 0 0.097255238950821513 0.47656789984389641 0 0.077205441062015823 0.4612446164356625 0 0.097255238950821513 0.47656789984389641 0 0.077205441062015823 0.4612446164356625 0 0.071375884002750412 0.4825542051337724 0 0.097255238950821513 0.47656789984389641 0 0.071375884002750412 0.4825542051337724 0 0.084930460627468618 0.5 0 0.071375884002750412 0.4825542051337724 0 0.084930460627468618 0.5 0 0.055938298852668711 0.5 0 0.055938298852668711 0.5 0 0.051529811569465511 0.47284772714416828 0 0.040996354874590517 0.48801590175340992 0 0.071375884002750412 0.4825542051337724 0 0.055938298852668711 0.5 0 0.051529811569465511 0.47284772714416828 0 0.051529811569465511 0.47284772714416828 0 0.024766739457159941 0.47920529369712123 0 0.039263968659280182 0.45623406898284657 0 0.051529811569465511 0.47284772714416828 0 0.040996354874590517 0.48801590175340992 0 0.024766739457159941 0.47920529369712123 0 0.055938298852668711 0.5 0 0.040996354874590517 0.48801590175340992 0 0.0269461370778688 0.5 0 0.0269461370778688 0.5 0 0.024766739457159941 0.47920529369712123 0 0.01189607373737271 0.48946645578203352 0 0.040996354874590517 0.48801590175340992 0 0.0269461370778688 0.5 0 0.024766739457159941 0.47920529369712123 0 -0.0029689288135605579 0.47619452563456799 0 0.024766739457159941 0.47920529369712123 0 0.01871314737976577 0.45420225094570521 0 -0.0029689288135605579 0.47619452563456799 0 0.024766739457159941 0.47920529369712123 0 -0.0029689288135605579 0.47619452563456799 0 0.024766739457159941 0.47920529369712123 0 0.01189607373737271 0.48946645578203352 0 -0.0020460246969311591 0.5 0 0.0269461370778688 0.5 0 0.01189607373737271 0.48946645578203352 0 -0.0020460246969311591 0.5 0 -0.0029689288135605579 0.47619452563456799 0 0.01189607373737271 0.48946645578203352 0 -0.0010370407179707271 0.43869585753116258 0 0.01871314737976577 0.45420225094570521 0 -0.0072211939390956978 0.45717635546968771 0 -0.0010370407179707271 0.43869585753116258 0 0.01871314737976577 0.45420225094570521 0 -0.0010370407179707271 0.43869585753116258 0 0.01871314737976577 0.45420225094570521 0 0.015977866514135141 0.43314951222412817 0 -0.0072211939390956978 0.45717635546968771 0 -0.0029689288135605579 0.47619452563456799 0 0.01871314737976577 0.45420225094570521 0 0.024766739457159941 0.47920529369712123 0 0.01871314737976577 0.45420225094570521 0 0.039263968659280182 0.45623406898284657 0 0.01871314737976577 0.45420225094570521 0 0.037105845284404443 0.4305980496191949 0 0.015977866514135141 0.43314951222412817 0 0.039263968659280182 0.45623406898284657 0 0.057155643173210133 0.44592133302742859 0 0.037105845284404443 0.4305980496191949 0 0.01871314737976577 0.45420225094570521 0 0.039263968659280182 0.45623406898284657 0 0.037105845284404443 0.4305980496191949 0 0.051529811569465511 0.47284772714416828 0 0.039263968659280182 0.45623406898284657 0 0.057155643173210133 0.44592133302742859 0 0.077205441062015823 0.4612446164356625 0 0.051529811569465511 0.47284772714416828 0 0.057155643173210133 0.44592133302742859 0 0.057155643173210133 0.44592133302742859 0 0.037105845284404443 0.4305980496191949 0 0.057155643173210133 0.44592133302742859 0 0.056236334478350358 0.42207717396501498 0 0.073231699693577984 0.42831198893424999 0 0.057155643173210133 0.44592133302742859 0 0.056236334478350358 0.42207717396501498 0 0.037105845284404443 0.4305980496191949 0 0.062143826977525608 0.40986614119913312 0 0.051632593815053057 0.40942994841343638 0 0.054329489201457748 0.39979254072310572 0 0.056236334478350358 0.42207717396501498 0 0.062143826977525608 0.40986614119913312 0 0.051632593815053057 0.40942994841343638 0 0.056236334478350358 0.42207717396501498 0 0.062143826977525608 0.40986614119913312 0 0.06751451434092097 0.41805100828809372 0 0.056236334478350358 0.42207717396501498 0 0.051632593815053057 0.40942994841343638 0 0.04069719585760307 0.41274034980716229 0 0.04069719585760307 0.41274034980716229 0 0.037105845284404443 0.4305980496191949 0 0.017056047395598729 0.41527476621096099 0 0.056236334478350358 0.42207717396501498 0 0.04069719585760307 0.41274034980716229 0 0.037105845284404443 0.4305980496191949 0 0.04069719585760307 0.41274034980716229 0 0.017056047395598729 0.41527476621096099 0 0.037537899160496761 0.39575640288200797 0 0.051632593815053057 0.40942994841343638 0 0.04069719585760307 0.41274034980716229 0 0.047877512752875301 0.40222407023361773 0 0.037105845284404443 0.4305980496191949 0 0.015977866514135141 0.43314951222412817 0 0.017056047395598729 0.41527476621096099 0 0.037105845284404443 0.4305980496191949 0 0.017056047395598729 0.41527476621096099 0 -0.0029937504932070129 0.39995148280272708 0 -0.0019427938786046809 0.41929486330128912 0 0.017056047395598729 0.41527476621096099 0 -0.0029937504932070129 0.39995148280272708 0 0.017056047395598729 0.41527476621096099 0 -0.0019427938786046809 0.41929486330128912 0 -0.0010370407179707271 0.43869585753116258 0 0.015977866514135141 0.43314951222412817 0 -0.0019427938786046809 0.41929486330128912 0 0.015977866514135141 0.43314951222412817 0 0.017056047395598729 0.41527476621096099 0 -0.0029937504932070129 0.39995148280272708 0 0.015704205247335689 0.39626483633596199 0 0.00035162853190547072 0.36962621065383261 0 0.015704205247335689 0.39626483633596199 0 0.027771007130835652 0.38151365999810438 0 0.00035162853190547072 0.36962621065383261 0 0.027771007130835652 0.38151365999810438 0 0.00035162853190547072 0.36962621065383261 0 -0.0029937504932070129 0.39995148280272708 0 0.017056047395598729 0.41527476621096099 0 0.015704205247335689 0.39626483633596199 0 0.015704205247335689 0.39626483633596199 0 0.027771007130835652 0.38151365999810438 0 0.037537899160496761 0.39575640288200797 0 0.017056047395598729 0.41527476621096099 0 0.015704205247335689 0.39626483633596199 0 0.037537899160496761 0.39575640288200797 0 0.027771007130835652 0.38151365999810438 0 0.055190385729767047 0.39340110934237371 0 0.027771007130835652 0.38151365999810438 0 0.055190385729767047 0.39340110934237371 0 0.043829002476960567 0.37411724728998702 0 0.027771007130835652 0.38151365999810438 0 0.037537899160496761 0.39575640288200797 0 0.055190385729767047 0.39340110934237371 0 0.037537899160496761 0.39575640288200797 0 0.047877512752875301 0.40222407023361773 0 0.055190385729767047 0.39340110934237371 0 0.04069719585760307 0.41274034980716229 0 0.037537899160496761 0.39575640288200797 0 0.047877512752875301 0.40222407023361773 0 0.054329489201457748 0.39979254072310572 0 0.055190385729767047 0.39340110934237371 0 0.069990130380976526 0.39981741867683701 0 0.062143826977525608 0.40986614119913312 0 0.054329489201457748 0.39979254072310572 0 0.069990130380976526 0.39981741867683701 0 0.051632593815053057 0.40942994841343638 0 0.047877512752875301 0.40222407023361773 0 0.054329489201457748 0.39979254072310572 0 0.047877512752875301 0.40222407023361773 0 0.054329489201457748 0.39979254072310572 0 0.055190385729767047 0.39340110934237371 0 0.054329489201457748 0.39979254072310572 0 0.055190385729767047 0.39340110934237371 0 0.055190385729767047 0.39340110934237371 0 0.058898294800629372 0.36587300856283927 0 0.043829002476960567 0.37411724728998702 0 0.055190385729767047 0.39340110934237371 0 0.069453999966204688 0.38527207599112678 0 0.058898294800629372 0.36587300856283927 0 0.055190385729767047 0.39340110934237371 0 0.058898294800629372 0.36587300856283927 0 0.069453999966204688 0.38527207599112678 0 0.083908923058978263 0.37759712372833137 0 0.058898294800629372 0.36587300856283927 0 0.083908923058978263 0.37759712372833137 0 0.082214488845989739 0.39279637644441479 0 0.1040241422019909 0.39433444359550529 0 0.069453999966204688 0.38527207599112678 0 0.083908923058978263 0.37759712372833137 0 0.082214488845989739 0.39279637644441479 0 0.082214488845989739 0.39279637644441479 0 0.084789875032187628 0.40623372801129642 0 0.1040241422019909 0.39433444359550529 0 0.082214488845989739 0.39279637644441479 0 0.084789875032187628 0.40623372801129642 0 0.069990130380976526 0.39981741867683701 0 0.084789875032187628 0.40623372801129642 0 0.069990130380976526 0.39981741867683701 0 0.084789875032187628 0.40623372801129642 0 0.069990130380976526 0.39981741867683701 0 0.076653603291983299 0.41126723465161319 0 0.069453999966204688 0.38527207599112678 0 0.082214488845989739 0.39279637644441479 0 0.069990130380976526 0.39981741867683701 0 0.055190385729767047 0.39340110934237371 0 0.069453999966204688 0.38527207599112678 0 0.069990130380976526 0.39981741867683701 0 0.055190385729767047 0.39340110934237371 0 0.069990130380976526 0.39981741867683701 0 0.06751451434092097 0.41805100828809372 0 0.076653603291983299 0.41126723465161319 0 0.073231699693577984 0.42831198893424999 0 0.062143826977525608 0.40986614119913312 0 0.06751451434092097 0.41805100828809372 0 0.076653603291983299 0.41126723465161319 0 0.062143826977525608 0.40986614119913312 0 0.069990130380976526 0.39981741867683701 0 0.076653603291983299 0.41126723465161319 0 0.056236334478350358 0.42207717396501498 0 0.06751451434092097 0.41805100828809372 0 0.073231699693577984 0.42831198893424999 0 0.074448927447533009 0.44483299285652228 0 0.073231699693577984 0.42831198893424999 0 0.091285677207431581 0.43513487439945231 0 0.073231699693577984 0.42831198893424999 0 0.091285677207431581 0.43513487439945231 0 0.087880191881844608 0.4205723651655579 0 0.084789875032187628 0.40623372801129642 0 0.087880191881844608 0.4205723651655579 0 0.10767232357557779 0.4161542281039976 0 0.076653603291983299 0.41126723465161319 0 0.073231699693577984 0.42831198893424999 0 0.087880191881844608 0.4205723651655579 0 0.084789875032187628 0.40623372801129642 0 0.076653603291983299 0.41126723465161319 0 0.087880191881844608 0.4205723651655579 0 0.084789875032187628 0.40623372801129642 0 0.076653603291983299 0.41126723465161319 0 0.084789875032187628 0.40623372801129642 0 0.10767232357557779 0.4161542281039976 0 0.11218822813676591 0.44124613736530782 0 0.091285677207431581 0.43513487439945231 0 0.10767232357557779 0.4161542281039976 0 0.091285677207431581 0.43513487439945231 0 0.087880191881844608 0.4205723651655579 0 0.10767232357557779 0.4161542281039976 0 0.11218822813676591 0.44124613736530782 0 0.10767232357557779 0.4161542281039976 0 0.13055477211896799 0.42607472819669889 0 0.10767232357557779 0.4161542281039976 0 0.1269065907453811 0.40425494368820691 0 0.13055477211896799 0.42607472819669889 0 0.10767232357557779 0.4161542281039976 0 0.13055477211896799 0.42607472819669889 0 0.10767232357557779 0.4161542281039976 0 0.1040241422019909 0.39433444359550529 0 0.1269065907453811 0.40425494368820691 0 0.12325840937179459 0.38243515917971482 0 0.1040241422019909 0.39433444359550529 0 0.1269065907453811 0.40425494368820691 0 0.12325840937179459 0.38243515917971482 0 0.1040241422019909 0.39433444359550529 0 0.12325840937179459 0.38243515917971482 0 0.1040241422019909 0.39433444359550529 0 0.10380878944661751 0.3715908435812158 0 0.083908923058978263 0.37759712372833137 0 0.1040241422019909 0.39433444359550529 0 0.10380878944661751 0.3715908435812158 0 0.084789875032187628 0.40623372801129642 0 0.10767232357557779 0.4161542281039976 0 0.1040241422019909 0.39433444359550529 0 0.084789875032187628 0.40623372801129642 0 0.1040241422019909 0.39433444359550529 0 0.10526472290085739 0.35319429764072652 0 0.1018460015904519 0.3371537804693881 0 0.086906858819358598 0.35469139284152829 0 0.10526472290085739 0.35319429764072652 0 0.10380878944661751 0.3715908435812158 0 0.086906858819358598 0.35469139284152829 0 0.12325840937179459 0.38243515917971482 0 0.10380878944661751 0.3715908435812158 0 0.119761522642723 0.36152026842581869 0 0.10526472290085739 0.35319429764072652 0 0.10380878944661751 0.3715908435812158 0 0.119761522642723 0.36152026842581869 0 0.12325840937179459 0.38243515917971482 0 0.119761522642723 0.36152026842581869 0 0.119761522642723 0.36152026842581869 0 0.1162646359136512 0.34060537767192262 0 0.119761522642723 0.36152026842581869 0 0.1162646359136512 0.34060537767192262 0 0.1303121115679923 0.34381342776551432 0 0.10526472290085739 0.35319429764072652 0 0.119761522642723 0.36152026842581869 0 0.1162646359136512 0.34060537767192262 0 0.1162646359136512 0.34060537767192262 0 0.12723894973849201 0.32157070061980669 0 0.1303121115679923 0.34381342776551432 0 0.1162646359136512 0.34060537767192262 0 0.114699926705685 0.32702233361043609 0 0.12723894973849201 0.32157070061980669 0 0.1162646359136512 0.34060537767192262 0 0.114699926705685 0.32702233361043609 0 0.1018460015904519 0.3371537804693881 0 0.114699926705685 0.32702233361043609 0 0.1090464301384003 0.30341044649757642 0 0.12723894973849201 0.32157070061980669 0 0.114699926705685 0.32702233361043609 0 0.10341649055858559 0.31930019209424249 0 0.1090464301384003 0.30341044649757642 0 0.114699926705685 0.32702233361043609 0 0.10341649055858559 0.31930019209424249 0 0.1018460015904519 0.3371537804693881 0 0.10526472290085739 0.35319429764072652 0 0.1162646359136512 0.34060537767192262 0 0.1018460015904519 0.3371537804693881 0 0.10341649055858559 0.31930019209424249 0 0.1018460015904519 0.3371537804693881 0 0.084523374644573782 0.32810908895747282 0 0.1018460015904519 0.3371537804693881 0 0.084523374644573782 0.32810908895747282 0 0.086906858819358598 0.35469139284152829 0 0.10341649055858559 0.31930019209424249 0 0.084523374644573782 0.32810908895747282 0 0.086277477427437632 0.31147010312447732 0 0.084523374644573782 0.32810908895747282 0 0.066314112942333123 0.31081680700376768 0 0.086277477427437632 0.31147010312447732 0 0.062606203871481247 0.33834490778330351 0 0.066314112942333123 0.31081680700376768 0 0.084523374644573782 0.32810908895747282 0 0.062606203871481247 0.33834490778330351 0 0.066314112942333123 0.31081680700376768 0 0.084523374644573782 0.32810908895747282 0 0.062606203871481247 0.33834490778330351 0 0.086906858819358598 0.35469139284152829 0 0.062606203871481247 0.33834490778330351 0 0.086906858819358598 0.35469139284152829 0 0.058898294800629372 0.36587300856283927 0 0.083908923058978263 0.37759712372833137 0 0.10380878944661751 0.3715908435812158 0 0.086906858819358598 0.35469139284152829 0 0.083908923058978263 0.37759712372833137 0 0.086906858819358598 0.35469139284152829 0 0.058898294800629372 0.36587300856283927 0 0.062606203871481247 0.33834490778330351 0 0.058898294800629372 0.36587300856283927 0 0.062606203871481247 0.33834490778330351 0 0.058898294800629372 0.36587300856283927 0 0.033456322246611388 0.3556812112566281 0 0.027771007130835652 0.38151365999810438 0 0.033456322246611388 0.3556812112566281 0 0.043829002476960567 0.37411724728998702 0 0.058898294800629372 0.36587300856283927 0 0.033456322246611388 0.3556812112566281 0 0.043829002476960567 0.37411724728998702 0 0.027771007130835652 0.38151365999810438 0 0.033456322246611388 0.3556812112566281 0 0.00035162853190547072 0.36962621065383261 0 0.033456322246611388 0.3556812112566281 0 0.003069831527376202 0.34702578253211941 0 0.00035162853190547072 0.36962621065383261 0 0.033456322246611388 0.3556812112566281 0 0.003069831527376202 0.34702578253211941 0 0.020794489645648392 0.33212724221761492 0 -0.01030363734939152 0.3285881650071909 0 0.020794489645648392 0.33212724221761492 0 0.01755159566426974 0.30538378178747982 0 -0.01030363734939152 0.3285881650071909 0 0.003069831527376202 0.34702578253211941 0 0.020794489645648392 0.33212724221761492 0 0.020794489645648392 0.33212724221761492 0 0.038624700002725838 0.31155652644024218 0 0.01755159566426974 0.30538378178747982 0 0.020794489645648392 0.33212724221761492 0 0.04211401663836311 0.33256137491508703 0 0.038624700002725838 0.31155652644024218 0 0.062606203871481247 0.33834490778330351 0 0.033456322246611388 0.3556812112566281 0 0.04211401663836311 0.33256137491508703 0 0.033456322246611388 0.3556812112566281 0 0.020794489645648392 0.33212724221761492 0 0.04211401663836311 0.33256137491508703 0 0.04211401663836311 0.33256137491508703 0 0.038624700002725838 0.31155652644024218 0 0.066314112942333123 0.31081680700376768 0 0.062606203871481247 0.33834490778330351 0 0.04211401663836311 0.33256137491508703 0 0.066314112942333123 0.31081680700376768 0 0.047955100970014701 0.29428725155234631 0 0.038624700002725838 0.31155652644024218 0 0.066314112942333123 0.31081680700376768 0 0.047955100970014701 0.29428725155234631 0 0.064717156785737417 0.28930720971313889 0 0.066314112942333123 0.31081680700376768 0 0.047955100970014701 0.29428725155234631 0 0.04799066750692161 0.27465354461811592 0 0.064717156785737417 0.28930720971313889 0 0.047955100970014701 0.29428725155234631 0 0.027901189369754279 0.28601720198775638 0 0.04799066750692161 0.27465354461811592 0 0.047955100970014701 0.29428725155234631 0 0.038624700002725838 0.31155652644024218 0 0.027901189369754279 0.28601720198775638 0 0.038624700002725838 0.31155652644024218 0 0.01755159566426974 0.30538378178747982 0 0.027901189369754279 0.28601720198775638 0 0.01755159566426974 0.30538378178747982 0 0.027901189369754279 0.28601720198775638 0 0.0083530130892651155 0.28019951981350838 0 -0.0054379161255957292 0.29828942782533779 0 0.01755159566426974 0.30538378178747982 0 0.0083530130892651155 0.28019951981350838 0 -0.0054379161255957292 0.29828942782533779 0 -0.01030363734939152 0.3285881650071909 0 0.01755159566426974 0.30538378178747982 0 0.0079648258068575686 0.25840069158400442 0 0.0083530130892651155 0.28019951981350838 0 0.026628193790906089 0.26621165377502198 0 -0.01602887842569841 0.27222898710188442 0 0.0079648258068575686 0.25840069158400442 0 0.0083530130892651155 0.28019951981350838 0 0.027901189369754279 0.28601720198775638 0 0.0083530130892651155 0.28019951981350838 0 0.026628193790906089 0.26621165377502198 0 0.02648992796807632 0.24672702143065181 0 0.0079648258068575686 0.25840069158400442 0 0.026628193790906089 0.26621165377502198 0 0.02648992796807632 0.24672702143065181 0 0.026628193790906089 0.26621165377502198 0 0.043466350173412202 0.25395247644911451 0 0.026628193790906089 0.26621165377502198 0 0.043466350173412202 0.25395247644911451 0 0.04799066750692161 0.27465354461811592 0 0.027901189369754279 0.28601720198775638 0 0.026628193790906089 0.26621165377502198 0 0.04799066750692161 0.27465354461811592 0 0.04799066750692161 0.27465354461811592 0 0.068110252860499446 0.2729317670182525 0 0.064717156785737417 0.28930720971313889 0 0.04799066750692161 0.27465354461811592 0 0.060042589476826537 0.26032476783182568 0 0.068110252860499446 0.2729317670182525 0 0.066919435365784111 0.24455063505467739 0 0.043466350173412202 0.25395247644911451 0 0.060042589476826537 0.26032476783182568 0 0.043466350173412202 0.25395247644911451 0 0.04799066750692161 0.27465354461811592 0 0.060042589476826537 0.26032476783182568 0 0.066919435365784111 0.24455063505467739 0 0.074855239486589897 0.26043578344390728 0 0.066919435365784111 0.24455063505467739 0 0.060042589476826537 0.26032476783182568 0 0.074855239486589897 0.26043578344390728 0 0.074453661878226163 0.24423780578458951 0 0.074855239486589897 0.26043578344390728 0 0.084107938105012658 0.26925860122114048 0 0.060042589476826537 0.26032476783182568 0 0.074855239486589897 0.26043578344390728 0 0.068110252860499446 0.2729317670182525 0 0.074453661878226163 0.24423780578458951 0 0.084107938105012658 0.26925860122114048 0 0.081930899422922671 0.25194183560051819 0 0.087567537193141559 0.25923215927514959 0 0.084107938105012658 0.26925860122114048 0 0.074453661878226163 0.24423780578458951 0 0.081930899422922671 0.25194183560051819 0 0.084107938105012658 0.26925860122114048 0 0.087567537193141559 0.25923215927514959 0 0.093645261027903354 0.26322562561072038 0 0.084107938105012658 0.26925860122114048 0 0.087567537193141559 0.25923215927514959 0 0.093645261027903354 0.26322562561072038 0 0.090586050216727637 0.25250257466821951 0 0.081930899422922671 0.25194183560051819 0 0.087567537193141559 0.25923215927514959 0 0.090586050216727637 0.25250257466821951 0 0.084107938105012658 0.26925860122114048 0 0.090352887485898675 0.28544351216632641 0 0.092466981199381668 0.27477044448025462 0 0.084107938105012658 0.26925860122114048 0 0.090352887485898675 0.28544351216632641 0 0.084107938105012658 0.26925860122114048 0 0.078536161708440383 0.28578142106214738 0 0.090352887485898675 0.28544351216632641 0 0.093645261027903354 0.26322562561072038 0 0.092466981199381668 0.27477044448025462 0 0.084107938105012658 0.26925860122114048 0 0.084107938105012658 0.26925860122114048 0 0.068110252860499446 0.2729317670182525 0 0.078536161708440383 0.28578142106214738 0 0.074855239486589897 0.26043578344390728 0 0.084107938105012658 0.26925860122114048 0 0.068110252860499446 0.2729317670182525 0 0.068110252860499446 0.2729317670182525 0 0.064717156785737417 0.28930720971313889 0 0.078536161708440383 0.28578142106214738 0 0.064717156785737417 0.28930720971313889 0 0.078833905541734944 0.29853645007831198 0 0.078536161708440383 0.28578142106214738 0 0.064717156785737417 0.28930720971313889 0 0.066314112942333123 0.31081680700376768 0 0.078833905541734944 0.29853645007831198 0 0.066314112942333123 0.31081680700376768 0 0.086277477427437632 0.31147010312447732 0 0.078833905541734944 0.29853645007831198 0 0.086277477427437632 0.31147010312447732 0 0.078833905541734944 0.29853645007831198 0 0.093762214331799154 0.29427939665769148 0 0.078833905541734944 0.29853645007831198 0 0.078536161708440383 0.28578142106214738 0 0.093762214331799154 0.29427939665769148 0 0.090352887485898675 0.28544351216632641 0 0.093762214331799154 0.29427939665769148 0 0.078536161708440383 0.28578142106214738 0 0.090352887485898675 0.28544351216632641 0 0.093762214331799154 0.29427939665769148 0 0.090352887485898675 0.28544351216632641 0 0.1069645171906642 0.28801060231665909 0 0.099734668775526197 0.27998500592503661 0 0.090352887485898675 0.28544351216632641 0 0.1090464301384003 0.30341044649757642 0 0.090352887485898675 0.28544351216632641 0 0.093762214331799154 0.29427939665769148 0 0.1090464301384003 0.30341044649757642 0 0.090352887485898675 0.28544351216632641 0 0.1069645171906642 0.28801060231665909 0 0.1090464301384003 0.30341044649757642 0 0.10341649055858559 0.31930019209424249 0 0.093762214331799154 0.29427939665769148 0 0.1090464301384003 0.30341044649757642 0 0.10341649055858559 0.31930019209424249 0 0.086277477427437632 0.31147010312447732 0 0.093762214331799154 0.29427939665769148 0 0.10341649055858559 0.31930019209424249 0 0.093762214331799154 0.29427939665769148 0 0.1090464301384003 0.30341044649757642 0 0.12723894973849201 0.32157070061980669 0 0.1090464301384003 0.30341044649757642 0 0.12516983201693169 0.30910891918023742 0 0.12723894973849201 0.32157070061980669 0 0.1090464301384003 0.30341044649757642 0 0.12516983201693169 0.30910891918023742 0 0.12662657439514749 0.30136014571254138 0 0.1090464301384003 0.30341044649757642 0 0.12116865811198491 0.28830955922237039 0 0.12662657439514749 0.30136014571254138 0 0.1069645171906642 0.28801060231665909 0 0.12116865811198491 0.28830955922237039 0 0.1175764546613587 0.27609448428789862 0 0.1069645171906642 0.28801060231665909 0 0.1090464301384003 0.30341044649757642 0 0.12116865811198491 0.28830955922237039 0 0.1069645171906642 0.28801060231665909 0 0.1175764546613587 0.27609448428789862 0 0.1082944979436688 0.26698398745994573 0 0.12116865811198491 0.28830955922237039 0 0.1175764546613587 0.27609448428789862 0 0.12958430501693299 0.27686299285007171 0 0.1175764546613587 0.27609448428789862 0 0.12187029504354339 0.26030527959044808 0 0.12958430501693299 0.27686299285007171 0 0.1175764546613587 0.27609448428789862 0 0.12187029504354339 0.26030527959044808 0 0.1082944979436688 0.26698398745994573 0 0.12187029504354339 0.26030527959044808 0 0.1092918836621132 0.2512156048590789 0 0.1082944979436688 0.26698398745994573 0 0.12187029504354339 0.26030527959044808 0 0.1082944979436688 0.26698398745994573 0 0.1092918836621132 0.2512156048590789 0 0.099939214772606061 0.25538715793010919 0 0.1082944979436688 0.26698398745994573 0 0.1092918836621132 0.2512156048590789 0 0.1082944979436688 0.26698398745994573 0 0.097878381012618212 0.2430079970525835 0 0.090586050216727637 0.25250257466821951 0 0.099939214772606061 0.25538715793010919 0 0.093645261027903354 0.26322562561072038 0 0.090586050216727637 0.25250257466821951 0 0.099939214772606061 0.25538715793010919 0 0.093645261027903354 0.26322562561072038 0 0.099939214772606061 0.25538715793010919 0 0.1082944979436688 0.26698398745994573 0 0.092466981199381668 0.27477044448025462 0 0.1082944979436688 0.26698398745994573 0 0.093645261027903354 0.26322562561072038 0 0.092466981199381668 0.27477044448025462 0 0.1082944979436688 0.26698398745994573 0 0.092466981199381668 0.27477044448025462 0 0.099734668775526197 0.27998500592503661 0 0.1082944979436688 0.26698398745994573 0 0.1069645171906642 0.28801060231665909 0 0.1082944979436688 0.26698398745994573 0 0.1069645171906642 0.28801060231665909 0 0.099734668775526197 0.27998500592503661 0 0.1082944979436688 0.26698398745994573 0 0.092466981199381668 0.27477044448025462 0 0.090352887485898675 0.28544351216632641 0 0.099734668775526197 0.27998500592503661 0 0.15139254372393271 0.2784439836835168 0 0.14880992052474459 0.26291171403023361 0 0.1648187313569098 0.26545929693310871 0 0.15139254372393271 0.2784439836835168 0 0.14880992052474459 0.26291171403023361 0 0.1367335755421844 0.27334585945695428 0 0.15493591590665401 0.2440384172733733 0 0.14880992052474459 0.26291171403023361 0 0.13616883609404279 0.25327101280421499 0 0.15493591590665401 0.2440384172733733 0 0.14880992052474459 0.26291171403023361 0 0.1648187313569098 0.26545929693310871 0 0.14880992052474459 0.26291171403023361 0 0.13616883609404279 0.25327101280421499 0 0.1367335755421844 0.27334585945695428 0 0.13616883609404279 0.25327101280421499 0 0.1367335755421844 0.27334585945695428 0 0.12395336220600001 0.24256566063363591 0 0.12187029504354339 0.26030527959044808 0 0.13616883609404279 0.25327101280421499 0 0.12187029504354339 0.26030527959044808 0 0.13616883609404279 0.25327101280421499 0 0.1367335755421844 0.27334585945695428 0 0.12187029504354339 0.26030527959044808 0 0.13616883609404279 0.25327101280421499 0 0.12187029504354339 0.26030527959044808 0 0.12958430501693299 0.27686299285007171 0 0.1367335755421844 0.27334585945695428 0 0.12958430501693299 0.27686299285007171 0 0.13729831499032599 0.29342070610969367 0 0.12187029504354339 0.26030527959044808 0 0.1367335755421844 0.27334585945695428 0 0.12958430501693299 0.27686299285007171 0 0.1367335755421844 0.27334585945695428 0 0.13729831499032599 0.29342070610969367 0 0.12958430501693299 0.27686299285007171 0 0.13729831499032599 0.29342070610969367 0 0.12116865811198491 0.28830955922237039 0 0.13729831499032599 0.29342070610969367 0 0.12662657439514749 0.30136014571254138 0 0.12116865811198491 0.28830955922237039 0 0.12958430501693299 0.27686299285007171 0 0.13729831499032599 0.29342070610969367 0 0.13729831499032599 0.29342070610969367 0 0.12662657439514749 0.30136014571254138 0 0.1377673737956869 0.31009438389102489 0 0.13729831499032599 0.29342070610969367 0 0.1377673737956869 0.31009438389102489 0 0.14552379035911031 0.3110762527125881 0 0.13729831499032599 0.29342070610969367 0 0.1377673737956869 0.31009438389102489 0 0.12516983201693169 0.30910891918023742 0 0.12662657439514749 0.30136014571254138 0 0.1377673737956869 0.31009438389102489 0 0.13729831499032599 0.29342070610969367 0 0.14552379035911031 0.3110762527125881 0 0.1559854697988369 0.30386493793249231 0 0.13729831499032599 0.29342070610969367 0 0.14552379035911031 0.3110762527125881 0 0.14552379035911031 0.3110762527125881 0 0.1559854697988369 0.30386493793249231 0 0.1585045030452446 0.31622687992470733 0 0.15139254372393271 0.2784439836835168 0 0.13729831499032599 0.29342070610969367 0 0.1560435500043241 0.29162105255720577 0 0.13729831499032599 0.29342070610969367 0 0.1559854697988369 0.30386493793249231 0 0.1560435500043241 0.29162105255720577 0 0.15139254372393271 0.2784439836835168 0 0.1367335755421844 0.27334585945695428 0 0.13729831499032599 0.29342070610969367 0 0.15139254372393271 0.2784439836835168 0 0.1560435500043241 0.29162105255720577 0 0.1669413027000608 0.28172225577597798 0 0.1560435500043241 0.29162105255720577 0 0.16930073406652299 0.29663217304305739 0 0.1669413027000608 0.28172225577597798 0 0.1559854697988369 0.30386493793249231 0 0.170696658179574 0.31009240218873518 0 0.1585045030452446 0.31622687992470733 0 0.1559854697988369 0.30386493793249231 0 0.1560435500043241 0.29162105255720577 0 0.16930073406652299 0.29663217304305739 0 0.1559854697988369 0.30386493793249231 0 0.16930073406652299 0.29663217304305739 0 0.170696658179574 0.31009240218873518 0 0.170696658179574 0.31009240218873518 0 0.18448182865447121 0.30202901873756682 0 0.1872849957330871 0.31985317591527479 0 0.16930073406652299 0.29663217304305739 0 0.170696658179574 0.31009240218873518 0 0.18448182865447121 0.30202901873756682 0 0.16930073406652299 0.29663217304305739 0 0.1669413027000608 0.28172225577597798 0 0.18161528512978201 0.28715574891384799 0 0.16930073406652299 0.29663217304305739 0 0.18448182865447121 0.30202901873756682 0 0.18161528512978201 0.28715574891384799 0 0.1669413027000608 0.28172225577597798 0 0.18161528512978201 0.28715574891384799 0 0.17847697191889311 0.27102127952513172 0 0.17847697191889311 0.27102127952513172 0 0.18763433904400389 0.25946161634063941 0 0.19221325023410779 0.27550099185897009 0 0.18161528512978201 0.28715574891384799 0 0.17847697191889311 0.27102127952513172 0 0.19221325023410779 0.27550099185897009 0 0.15139254372393271 0.2784439836835168 0 0.1669413027000608 0.28172225577597798 0 0.1648187313569098 0.26545929693310871 0 0.1669413027000608 0.28172225577597798 0 0.17847697191889311 0.27102127952513172 0 0.1648187313569098 0.26545929693310871 0 0.15493591590665401 0.2440384172733733 0 0.1648187313569098 0.26545929693310871 0 0.17329303162147949 0.2513011983578195 0 0.17847697191889311 0.27102127952513172 0 0.17329303162147949 0.2513011983578195 0 0.18763433904400389 0.25946161634063941 0 0.17847697191889311 0.27102127952513172 0 0.1648187313569098 0.26545929693310871 0 0.17329303162147949 0.2513011983578195 0 0.18697717688249321 0.24356633448306039 0 0.17329303162147949 0.2513011983578195 0 0.18763433904400389 0.25946161634063941 0 0.18697717688249321 0.24356633448306039 0 0.18763433904400389 0.25946161634063941 0 0.1958181871866751 0.25127484198193301 0 0.18763433904400389 0.25946161634063941 0 0.202551334243216 0.2634376057399726 0 0.1958181871866751 0.25127484198193301 0 0.20677797530962311 0.24905614057971279 0 0.202551334243216 0.2634376057399726 0 0.1958181871866751 0.25127484198193301 0 0.18763433904400389 0.25946161634063941 0 0.202551334243216 0.2634376057399726 0 0.19221325023410779 0.27550099185897009 0 0.202551334243216 0.2634376057399726 0 0.19221325023410779 0.27550099185897009 0 0.204479192690082 0.27786915715426608 0 0.19221325023410779 0.27550099185897009 0 0.204479192690082 0.27786915715426608 0 0.19727174076030909 0.29032408692001621 0 0.204479192690082 0.27786915715426608 0 0.2140469690415405 0.26967746240002732 0 0.21631266917123629 0.29040563885234411 0 0.202551334243216 0.2634376057399726 0 0.204479192690082 0.27786915715426608 0 0.2140469690415405 0.26967746240002732 0 0.20677797530962311 0.24905614057971279 0 0.202551334243216 0.2634376057399726 0 0.21393858993796749 0.25739012784400872 0 0.202551334243216 0.2634376057399726 0 0.2140469690415405 0.26967746240002732 0 0.21393858993796749 0.25739012784400872 0 0.2140469690415405 0.26967746240002732 0 0.21393858993796749 0.25739012784400872 0 0.2272815747562475 0.25766596394105801 0 0.20677797530962311 0.24905614057971279 0 0.2190350963392107 0.24711346655927249 0 0.21393858993796749 0.25739012784400872 0 0.2190350963392107 0.24711346655927249 0 0.21393858993796749 0.25739012784400872 0 0.2272815747562475 0.25766596394105801 0 0.2405161804709528 0.24565446548208689 0 0.2272815747562475 0.25766596394105801 0 0.2140469690415405 0.26967746240002732 0 0.2272815747562475 0.25766596394105801 0 0.2140469690415405 0.26967746240002732 0 0.2272815747562475 0.25766596394105801 0 0.23199711416906549 0.2758678110521573 0 0.2140469690415405 0.26967746240002732 0 0.23199711416906549 0.2758678110521573 0 0.21631266917123629 0.29040563885234411 0 0.2272815747562475 0.25766596394105801 0 0.23199711416906549 0.2758678110521573 0 0.24429554955913249 0.26378503643748707 0 0.23199711416906549 0.2758678110521573 0 0.24429554955913249 0.26378503643748707 0 0.25072078068281722 0.282923439064732 0 0.2405161804709528 0.24565446548208689 0 0.2272815747562475 0.25766596394105801 0 0.24429554955913249 0.26378503643748707 0 0.2405161804709528 0.24565446548208689 0 0.24429554955913249 0.26378503643748707 0 0.26009744902829041 0.25993885310665937 0 0.23522172893288479 0.30612803990429588 0 0.24854251186677601 0.3172130716748226 0 0.25485729481014741 0.30158602926971162 0 0.23522172893288479 0.30612803990429588 0 0.23932514180341929 0.29074932561729561 0 0.25485729481014741 0.30158602926971162 0 0.23932514180341929 0.29074932561729561 0 0.25072078068281722 0.282923439064732 0 0.25485729481014741 0.30158602926971162 0 0.23199711416906549 0.2758678110521573 0 0.23932514180341929 0.29074932561729561 0 0.25072078068281722 0.282923439064732 0 0.23522172893288479 0.30612803990429588 0 0.23932514180341929 0.29074932561729561 0 0.21631266917123629 0.29040563885234411 0 0.23199711416906549 0.2758678110521573 0 0.23932514180341929 0.29074932561729561 0 0.21631266917123629 0.29040563885234411 0 0.23522172893288479 0.30612803990429588 0 0.21631266917123629 0.29040563885234411 0 0.2194787216463574 0.31400677516778658 0 0.21631266917123629 0.29040563885234411 0 0.20100195246466501 0.306027376735171 0 0.2194787216463574 0.31400677516778658 0 0.204479192690082 0.27786915715426608 0 0.21631266917123629 0.29040563885234411 0 0.19727174076030909 0.29032408692001621 0 0.21631266917123629 0.29040563885234411 0 0.19727174076030909 0.29032408692001621 0 0.20100195246466501 0.306027376735171 0 0.18448182865447121 0.30202901873756682 0 0.18161528512978201 0.28715574891384799 0 0.19727174076030909 0.29032408692001621 0 0.18161528512978201 0.28715574891384799 0 0.19221325023410779 0.27550099185897009 0 0.19727174076030909 0.29032408692001621 0 0.18448182865447121 0.30202901873756682 0 0.20100195246466501 0.306027376735171 0 0.1872849957330871 0.31985317591527479 0 0.18448182865447121 0.30202901873756682 0 0.19727174076030909 0.29032408692001621 0 0.20100195246466501 0.306027376735171 0 0.20100195246466501 0.306027376735171 0 0.2035451712406883 0.32032015779999462 0 0.1872849957330871 0.31985317591527479 0 0.20398562307506951 0.33767090172828917 0 0.2035451712406883 0.32032015779999462 0 0.1872849957330871 0.31985317591527479 0 0.20398562307506951 0.33767090172828917 0 0.18546945352397079 0.35398272400754011 0 0.17886577686095809 0.33758844431811341 0 0.20398562307506951 0.33767090172828917 0 0.17886577686095809 0.33758844431811341 0 0.1872849957330871 0.31985317591527479 0 0.20398562307506951 0.33767090172828917 0 0.22213128471835589 0.33333495667049079 0 0.22335482233090839 0.35368752631537398 0 0.20398562307506951 0.33767090172828917 0 0.2035451712406883 0.32032015779999462 0 0.22213128471835589 0.33333495667049079 0 0.2035451712406883 0.32032015779999462 0 0.2194787216463574 0.31400677516778658 0 0.22213128471835589 0.33333495667049079 0 0.20100195246466501 0.306027376735171 0 0.2035451712406883 0.32032015779999462 0 0.2194787216463574 0.31400677516778658 0 0.23522172893288479 0.30612803990429588 0 0.2194787216463574 0.31400677516778658 0 0.23567588738864789 0.32428317921462252 0 0.2194787216463574 0.31400677516778658 0 0.22213128471835589 0.33333495667049079 0 0.23567588738864789 0.32428317921462252 0 0.22213128471835589 0.33333495667049079 0 0.23958675632046489 0.34154207540535592 0 0.22335482233090839 0.35368752631537398 0 0.22213128471835589 0.33333495667049079 0 0.23958675632046489 0.34154207540535592 0 0.23567588738864789 0.32428317921462252 0 0.23958675632046489 0.34154207540535592 0 0.26007230383543373 0.33803203609223181 0 0.23958675632046489 0.34154207540535592 0 0.24845455954337081 0.32972388294009519 0 0.23567588738864789 0.32428317921462252 0 0.23958675632046489 0.34154207540535592 0 0.24845455954337081 0.32972388294009519 0 0.26007230383543373 0.33803203609223181 0 0.23522172893288479 0.30612803990429588 0 0.24854251186677601 0.3172130716748226 0 0.23567588738864789 0.32428317921462252 0 0.24845455954337081 0.32972388294009519 0 0.24854251186677601 0.3172130716748226 0 0.23567588738864789 0.32428317921462252 0 0.2486767394006868 0.36691082060798408 0 0.2406509947979317 0.3568290720433886 0 0.25774981719737472 0.35472222727326402 0 0.2486767394006868 0.36691082060798408 0 0.2406509947979317 0.3568290720433886 0 0.2338868387402237 0.36728271061496492 0 0.2486767394006868 0.36691082060798408 0 0.2338868387402237 0.36728271061496492 0 0.24141261287940119 0.37891604422159031 0 0.2486767394006868 0.36691082060798408 0 0.24141261287940119 0.37891604422159031 0 0.25120929876992643 0.37493491597804007 0 0.23958675632046489 0.34154207540535592 0 0.2406509947979317 0.3568290720433886 0 0.25774981719737472 0.35472222727326402 0 0.23958675632046489 0.34154207540535592 0 0.2406509947979317 0.3568290720433886 0 0.22335482233090839 0.35368752631537398 0 0.2406509947979317 0.3568290720433886 0 0.22335482233090839 0.35368752631537398 0 0.2338868387402237 0.36728271061496492 0 0.22335482233090839 0.35368752631537398 0 0.2338868387402237 0.36728271061496492 0 0.2195522977103708 0.37221477152275312 0 0.2338868387402237 0.36728271061496492 0 0.2195522977103708 0.37221477152275312 0 0.23064091492566921 0.37897926931153331 0 0.22335482233090839 0.35368752631537398 0 0.2195522977103708 0.37221477152275312 0 0.20199732560696329 0.36594130941850889 0 0.2195522977103708 0.37221477152275312 0 0.20199732560696329 0.36594130941850889 0 0.2113812373311785 0.38335216615559142 0 0.20398562307506951 0.33767090172828917 0 0.22335482233090839 0.35368752631537398 0 0.20199732560696329 0.36594130941850889 0 0.20398562307506951 0.33767090172828917 0 0.20199732560696329 0.36594130941850889 0 0.20398562307506951 0.33767090172828917 0 0.20199732560696329 0.36594130941850889 0 0.18546945352397079 0.35398272400754011 0 0.20199732560696329 0.36594130941850889 0 0.18546945352397079 0.35398272400754011 0 0.18181650853876699 0.37605146298649772 0 0.16362398893867541 0.35789120886426751 0 0.18181650853876699 0.37605146298649772 0 0.17443324291677381 0.35811333699240833 0 0.18546945352397079 0.35398272400754011 0 0.18181650853876699 0.37605146298649772 0 0.16362398893867541 0.35789120886426751 0 0.17443324291677381 0.35811333699240833 0 0.18181650853876699 0.37605146298649772 0 0.1659544995191943 0.37073009846103688 0 0.16362398893867541 0.35789120886426751 0 0.18181650853876699 0.37605146298649772 0 0.1659544995191943 0.37073009846103688 0 0.16002063059822 0.35969220140193131 0 0.15517440060447979 0.37708807353511498 0 0.1659544995191943 0.37073009846103688 0 0.16002063059822 0.35969220140193131 0 0.16362398893867541 0.35789120886426751 0 0.16282502702487789 0.34774322377490441 0 0.16362398893867541 0.35789120886426751 0 0.1454314693385837 0.33973095474203707 0 0.16002063059822 0.35969220140193131 0 0.16362398893867541 0.35789120886426751 0 0.1454314693385837 0.33973095474203707 0 0.16282502702487789 0.34774322377490441 0 0.16362398893867541 0.35789120886426751 0 0.1683199658708778 0.35301134404896278 0 0.1683199658708778 0.35301134404896278 0 0.17239760460318421 0.34829760656427122 0 0.17443324291677381 0.35811333699240833 0 0.16362398893867541 0.35789120886426751 0 0.1683199658708778 0.35301134404896278 0 0.17443324291677381 0.35811333699240833 0 0.16282502702487789 0.34774322377490441 0 0.17239760460318421 0.34829760656427122 0 0.1638134132646748 0.33845266616448089 0 0.16282502702487789 0.34774322377490441 0 0.1683199658708778 0.35301134404896278 0 0.17239760460318421 0.34829760656427122 0 0.17239760460318421 0.34829760656427122 0 0.18546945352397079 0.35398272400754011 0 0.17886577686095809 0.33758844431811341 0 0.17239760460318421 0.34829760656427122 0 0.17443324291677381 0.35811333699240833 0 0.18546945352397079 0.35398272400754011 0 0.170696658179574 0.31009240218873518 0 0.1872849957330871 0.31985317591527479 0 0.16858533909109599 0.32555327380916699 0 0.17886577686095809 0.33758844431811341 0 0.1872849957330871 0.31985317591527479 0 0.16858533909109599 0.32555327380916699 0 0.170696658179574 0.31009240218873518 0 0.16858533909109599 0.32555327380916699 0 0.1585045030452446 0.31622687992470733 0 0.16858533909109599 0.32555327380916699 0 0.1585045030452446 0.31622687992470733 0 0.15374926572789499 0.3287317993154823 0 0.16282502702487789 0.34774322377490441 0 0.1638134132646748 0.33845266616448089 0 0.1454314693385837 0.33973095474203707 0 0.17239760460318421 0.34829760656427122 0 0.17886577686095809 0.33758844431811341 0 0.1638134132646748 0.33845266616448089 0 0.17886577686095809 0.33758844431811341 0 0.16858533909109599 0.32555327380916699 0 0.1638134132646748 0.33845266616448089 0 0.16858533909109599 0.32555327380916699 0 0.1638134132646748 0.33845266616448089 0 0.15374926572789499 0.3287317993154823 0 0.1454314693385837 0.33973095474203707 0 0.15374926572789499 0.3287317993154823 0 0.14194216979195351 0.32224081825618778 0 0.1638134132646748 0.33845266616448089 0 0.1454314693385837 0.33973095474203707 0 0.15374926572789499 0.3287317993154823 0 0.14552379035911031 0.3110762527125881 0 0.15374926572789499 0.3287317993154823 0 0.14552379035911031 0.3110762527125881 0 0.1585045030452446 0.31622687992470733 0 0.15374926572789499 0.3287317993154823 0 0.14552379035911031 0.3110762527125881 0 0.15374926572789499 0.3287317993154823 0 0.14194216979195351 0.32224081825618778 0 0.1377673737956869 0.31009438389102489 0 0.14552379035911031 0.3110762527125881 0 0.14194216979195351 0.32224081825618778 0 0.1454314693385837 0.33973095474203707 0 0.14194216979195351 0.32224081825618778 0 0.12723894973849201 0.32157070061980669 0 0.1377673737956869 0.31009438389102489 0 0.14194216979195351 0.32224081825618778 0 0.12723894973849201 0.32157070061980669 0 0.12516983201693169 0.30910891918023742 0 0.1377673737956869 0.31009438389102489 0 0.12723894973849201 0.32157070061980669 0 0.1454314693385837 0.33973095474203707 0 0.12723894973849201 0.32157070061980669 0 0.1303121115679923 0.34381342776551432 0 0.1454314693385837 0.33973095474203707 0 0.12723894973849201 0.32157070061980669 0 0.119761522642723 0.36152026842581869 0 0.1303121115679923 0.34381342776551432 0 0.14286398020651159 0.35563983736798638 0 0.1454314693385837 0.33973095474203707 0 0.1303121115679923 0.34381342776551432 0 0.14286398020651159 0.35563983736798638 0 0.119761522642723 0.36152026842581869 0 0.14163951998500729 0.37106368029082298 0 0.14286398020651159 0.35563983736798638 0 0.12325840937179459 0.38243515917971482 0 0.119761522642723 0.36152026842581869 0 0.14163951998500729 0.37106368029082298 0 0.16002063059822 0.35969220140193131 0 0.14163951998500729 0.37106368029082298 0 0.14286398020651159 0.35563983736798638 0 0.16002063059822 0.35969220140193131 0 0.14163951998500729 0.37106368029082298 0 0.16002063059822 0.35969220140193131 0 0.14163951998500729 0.37106368029082298 0 0.15517440060447979 0.37708807353511498 0 0.16002063059822 0.35969220140193131 0 0.1454314693385837 0.33973095474203707 0 0.14286398020651159 0.35563983736798638 0 0.16362398893867541 0.35789120886426751 0 0.1454314693385837 0.33973095474203707 0 0.15483096883634331 0.39658955145560948 0 0.14252608967671321 0.40595550742506298 0 0.13984843414917739 0.38871008625458159 0 0.15483096883634331 0.39658955145560948 0 0.15517440060447979 0.37708807353511498 0 0.13984843414917739 0.38871008625458159 0 0.14163951998500729 0.37106368029082298 0 0.15517440060447979 0.37708807353511498 0 0.13984843414917739 0.38871008625458159 0 0.12325840937179459 0.38243515917971482 0 0.14163951998500729 0.37106368029082298 0 0.13984843414917739 0.38871008625458159 0 0.12325840937179459 0.38243515917971482 0 0.14163951998500729 0.37106368029082298 0 0.12325840937179459 0.38243515917971482 0 0.13984843414917739 0.38871008625458159 0 0.1269065907453811 0.40425494368820691 0 0.12325840937179459 0.38243515917971482 0 0.1269065907453811 0.40425494368820691 0 0.14252608967671321 0.40595550742506298 0 0.13984843414917739 0.38871008625458159 0 0.1269065907453811 0.40425494368820691 0 0.14252608967671321 0.40595550742506298 0 0.1269065907453811 0.40425494368820691 0 0.13055477211896799 0.42607472819669889 0 0.1269065907453811 0.40425494368820691 0 0.13055477211896799 0.42607472819669889 0 0.13055477211896799 0.42607472819669889 0 0.15315563220136641 0.43587314789454462 0 0.13055477211896799 0.42607472819669889 0 0.15315563220136641 0.43587314789454462 0 0.15531357975289889 0.41806925272531459 0 0.14252608967671321 0.40595550742506298 0 0.13055477211896799 0.42607472819669889 0 0.15531357975289889 0.41806925272531459 0 0.15483096883634331 0.39658955145560948 0 0.14252608967671321 0.40595550742506298 0 0.15531357975289889 0.41806925272531459 0 0.15531357975289889 0.41806925272531459 0 0.16645409028927929 0.40655694421029859 0 0.1727984038023353 0.41942981100792831 0 0.15483096883634331 0.39658955145560948 0 0.15531357975289889 0.41806925272531459 0 0.16645409028927929 0.40655694421029859 0 0.15531357975289889 0.41806925272531459 0 0.167386632842461 0.43027299991239842 0 0.1727984038023353 0.41942981100792831 0 0.15315563220136641 0.43587314789454462 0 0.15531357975289889 0.41806925272531459 0 0.167386632842461 0.43027299991239842 0 0.15315563220136641 0.43587314789454462 0 0.167386632842461 0.43027299991239842 0 0.17575649228376411 0.44567156759239163 0 0.167386632842461 0.43027299991239842 0 0.1799090561719407 0.43232122034181308 0 0.17575649228376411 0.44567156759239163 0 0.167386632842461 0.43027299991239842 0 0.1799090561719407 0.43232122034181308 0 0.1727984038023353 0.41942981100792831 0 0.1799090561719407 0.43232122034181308 0 0.1727984038023353 0.41942981100792831 0 0.18670526063812709 0.41923494950986528 0 0.1799090561719407 0.43232122034181308 0 0.18670526063812709 0.41923494950986528 0 0.19018835346319801 0.43169799033029221 0 0.1799090561719407 0.43232122034181308 0 0.19018835346319801 0.43169799033029221 0 0.18637933099628889 0.44105045895063588 0 0.1727984038023353 0.41942981100792831 0 0.18670526063812709 0.41923494950986528 0 0.18087891795170549 0.40113790099926688 0 0.16645409028927929 0.40655694421029859 0 0.1727984038023353 0.41942981100792831 0 0.18087891795170549 0.40113790099926688 0 0.15483096883634331 0.39658955145560948 0 0.16645409028927929 0.40655694421029859 0 0.1675290178751247 0.38813619662503079 0 0.16645409028927929 0.40655694421029859 0 0.18087891795170549 0.40113790099926688 0 0.1675290178751247 0.38813619662503079 0 0.1659544995191943 0.37073009846103688 0 0.1675290178751247 0.38813619662503079 0 0.18181650853876699 0.37605146298649772 0 0.1659544995191943 0.37073009846103688 0 0.15517440060447979 0.37708807353511498 0 0.1675290178751247 0.38813619662503079 0 0.15483096883634331 0.39658955145560948 0 0.15517440060447979 0.37708807353511498 0 0.1675290178751247 0.38813619662503079 0 0.18087891795170549 0.40113790099926688 0 0.1675290178751247 0.38813619662503079 0 0.18181650853876699 0.37605146298649772 0 0.20199732560696329 0.36594130941850889 0 0.20000902813885771 0.3942117171087286 0 0.18181650853876699 0.37605146298649772 0 0.20000902813885771 0.3942117171087286 0 0.18087891795170549 0.40113790099926688 0 0.18181650853876699 0.37605146298649772 0 0.20000902813885771 0.3942117171087286 0 0.20199732560696329 0.36594130941850889 0 0.18181650853876699 0.37605146298649772 0 0.20000902813885771 0.3942117171087286 0 0.20000902813885771 0.3942117171087286 0 0.1988924948261174 0.41008703378401701 0 0.18087891795170549 0.40113790099926688 0 0.20000902813885771 0.3942117171087286 0 0.1988924948261174 0.41008703378401701 0 0.20000902813885771 0.3942117171087286 0 0.2156899272418597 0.40986480523700031 0 0.20000902813885771 0.3942117171087286 0 0.21498176346166031 0.39578626587460158 0 0.2156899272418597 0.40986480523700031 0 0.20000902813885771 0.3942117171087286 0 0.2156899272418597 0.40986480523700031 0 0.1988924948261174 0.41008703378401701 0 0.20000902813885771 0.3942117171087286 0 0.21498176346166031 0.39578626587460158 0 0.2113812373311785 0.38335216615559142 0 0.20199732560696329 0.36594130941850889 0 0.20000902813885771 0.3942117171087286 0 0.2113812373311785 0.38335216615559142 0 0.21498176346166031 0.39578626587460158 0 0.2113812373311785 0.38335216615559142 0 0.22235604914782001 0.38750591576658738 0 0.2195522977103708 0.37221477152275312 0 0.2113812373311785 0.38335216615559142 0 0.22235604914782001 0.38750591576658738 0 0.2195522977103708 0.37221477152275312 0 0.23064091492566921 0.37897926931153331 0 0.22235604914782001 0.38750591576658738 0 0.23064091492566921 0.37897926931153331 0 0.22235604914782001 0.38750591576658738 0 0.23514598650011101 0.3895898852499452 0 0.21498176346166031 0.39578626587460158 0 0.22235604914782001 0.38750591576658738 0 0.22945313026814379 0.40179502293154629 0 0.21498176346166031 0.39578626587460158 0 0.22945313026814379 0.40179502293154629 0 0.2156899272418597 0.40986480523700031 0 0.22235604914782001 0.38750591576658738 0 0.22945313026814379 0.40179502293154629 0 0.23514598650011101 0.3895898852499452 0 0.22945313026814379 0.40179502293154629 0 0.2485047922109215 0.39575050364955761 0 0.2372078056300429 0.41573819882628732 0 0.2485047922109215 0.39575050364955761 0 0.2372078056300429 0.41573819882628732 0 0.22945313026814379 0.40179502293154629 0 0.2485047922109215 0.39575050364955761 0 0.23514598650011101 0.3895898852499452 0 0.2485047922109215 0.39575050364955761 0 0.2372078056300429 0.41573819882628732 0 0.25603878639525107 0.40657412151226102 0 0.2485047922109215 0.39575050364955761 0 0.24141261287940119 0.37891604422159031 0 0.23514598650011101 0.3895898852499452 0 0.2485047922109215 0.39575050364955761 0 0.24141261287940119 0.37891604422159031 0 0.25120929876992643 0.37493491597804007 0 0.23064091492566921 0.37897926931153331 0 0.24141261287940119 0.37891604422159031 0 0.23514598650011101 0.3895898852499452 0 0.2338868387402237 0.36728271061496492 0 0.23064091492566921 0.37897926931153331 0 0.24141261287940119 0.37891604422159031 0 0.2389451139856601 0.42983173083407422 0 0.2372078056300429 0.41573819882628732 0 0.2316054128803193 0.42565048098579089 0 0.2389451139856601 0.42983173083407422 0 0.24460112125099751 0.42329575265178071 0 0.2372078056300429 0.41573819882628732 0 0.2389451139856601 0.42983173083407422 0 0.23763223996399011 0.44090454565751858 0 0.25001041228465581 0.43352451276238191 0 0.24460112125099751 0.42329575265178071 0 0.252829339887921 0.41806842506264169 0 0.25001041228465581 0.43352451276238191 0 0.2389451139856601 0.42983173083407422 0 0.24460112125099751 0.42329575265178071 0 0.25001041228465581 0.43352451276238191 0 0.24460112125099751 0.42329575265178071 0 0.2372078056300429 0.41573819882628732 0 0.252829339887921 0.41806842506264169 0 0.2372078056300429 0.41573819882628732 0 0.25603878639525107 0.40657412151226102 0 0.252829339887921 0.41806842506264169 0 0.2372078056300429 0.41573819882628732 0 0.2316054128803193 0.42565048098579089 0 0.22843042237122679 0.41322898009002651 0 0.2316054128803193 0.42565048098579089 0 0.2156899272418597 0.40986480523700031 0 0.2316054128803193 0.42565048098579089 0 0.21718538259909359 0.42658207240939627 0 0.2156899272418597 0.40986480523700031 0 0.2316054128803193 0.42565048098579089 0 0.2156899272418597 0.40986480523700031 0 0.2372078056300429 0.41573819882628732 0 0.22843042237122679 0.41322898009002651 0 0.2316054128803193 0.42565048098579089 0 0.22945313026814379 0.40179502293154629 0 0.2372078056300429 0.41573819882628732 0 0.22843042237122679 0.41322898009002651 0 0.22945313026814379 0.40179502293154629 0 0.22843042237122679 0.41322898009002651 0 0.2156899272418597 0.40986480523700031 0 0.2316054128803193 0.42565048098579089 0 0.22591081904916421 0.43572589400301709 0 0.21718538259909359 0.42658207240939627 0 0.2316054128803193 0.42565048098579089 0 0.22591081904916421 0.43572589400301709 0 0.2389451139856601 0.42983173083407422 0 0.2316054128803193 0.42565048098579089 0 0.22591081904916421 0.43572589400301709 0 0.2389451139856601 0.42983173083407422 0 0.22591081904916421 0.43572589400301709 0 0.23763223996399011 0.44090454565751858 0 0.22591081904916421 0.43572589400301709 0 0.21718538259909359 0.42658207240939627 0 0.21537281400739369 0.43845315370415711 0 0.21718538259909359 0.42658207240939627 0 0.20805790608654151 0.43131691603031641 0 0.21537281400739369 0.43845315370415711 0 0.20805790608654151 0.43131691603031641 0 0.20692093882597051 0.41917313890841817 0 0.1977759615133777 0.42596235045930542 0 0.21718538259909359 0.42658207240939627 0 0.20805790608654151 0.43131691603031641 0 0.20692093882597051 0.41917313890841817 0 0.20805790608654151 0.43131691603031641 0 0.20626827580707349 0.44243240764161851 0 0.21537281400739369 0.43845315370415711 0 0.20805790608654151 0.43131691603031641 0 0.19945610971831401 0.43442890233741421 0 0.20626827580707349 0.44243240764161851 0 0.21718538259909359 0.42658207240939627 0 0.2156899272418597 0.40986480523700031 0 0.20692093882597051 0.41917313890841817 0 0.2156899272418597 0.40986480523700031 0 0.20692093882597051 0.41917313890841817 0 0.1988924948261174 0.41008703378401701 0 0.1988924948261174 0.41008703378401701 0 0.1977759615133777 0.42596235045930542 0 0.18670526063812709 0.41923494950986528 0 0.1988924948261174 0.41008703378401701 0 0.1977759615133777 0.42596235045930542 0 0.18670526063812709 0.41923494950986528 0 0.18087891795170549 0.40113790099926688 0 0.1988924948261174 0.41008703378401701 0 0.20692093882597051 0.41917313890841817 0 0.1988924948261174 0.41008703378401701 0 0.1977759615133777 0.42596235045930542 0 0.20805790608654151 0.43131691603031641 0 0.19945610971831401 0.43442890233741421 0 0.1977759615133777 0.42596235045930542 0 0.19945610971831401 0.43442890233741421 0 0.1977759615133777 0.42596235045930542 0 0.19018835346319801 0.43169799033029221 0 0.18670526063812709 0.41923494950986528 0 0.1977759615133777 0.42596235045930542 0 0.19018835346319801 0.43169799033029221 0 0.19945610971831401 0.43442890233741421 0 0.19018835346319801 0.43169799033029221 0 0.19542175607262979 0.44110940204832161 0 0.1938306704508683 0.45735723787024041 0 0.19835735236616189 0.45546998729023852 0 0.17575649228376411 0.44567156759239163 0 0.19018835346319801 0.43169799033029221 0 0.19542175607262979 0.44110940204832161 0 0.18637933099628889 0.44105045895063588 0 0.19542175607262979 0.44110940204832161 0 0.19835735236616189 0.45546998729023852 0 0.18637933099628889 0.44105045895063588 0 0.19542175607262979 0.44110940204832161 0 0.19835735236616189 0.45546998729023852 0 0.20626827580707349 0.44243240764161851 0 0.19945610971831401 0.43442890233741421 0 0.19542175607262979 0.44110940204832161 0 0.20626827580707349 0.44243240764161851 0 0.18975752887089359 0.46422925403134963 0 0.1938306704508683 0.45735723787024041 0 0.19974155132508531 0.4667481610894208 0 0.18975752887089359 0.46422925403134963 0 0.19974155132508531 0.4667481610894208 0 0.18997799202707141 0.4730918441630485 0 0.18975752887089359 0.46422925403134963 0 0.1938306704508683 0.45735723787024041 0 0.18306568814884899 0.4583044296112897 0 0.1938306704508683 0.45735723787024041 0 0.2193593596201657 0.46606372839869031 0 0.19974155132508531 0.4667481610894208 0 0.2193593596201657 0.46606372839869031 0 0.20617065374891469 0.47262421975305891 0 0.19835735236616189 0.45546998729023852 0 0.2146138324682855 0.45571358917974703 0 0.22095821244855951 0.46526840698808569 0 0.19835735236616189 0.45546998729023852 0 0.22095821244855951 0.46526840698808569 0 0.1938306704508683 0.45735723787024041 0 0.19835735236616189 0.45546998729023852 0 0.2193593596201657 0.46606372839869031 0 0.1938306704508683 0.45735723787024041 0 0.19974155132508531 0.4667481610894208 0 0.2193593596201657 0.46606372839869031 0 0.19835735236616189 0.45546998729023852 0 0.2193593596201657 0.46606372839869031 0 0.22095821244855951 0.46526840698808569 0 0.2146138324682855 0.45571358917974703 0 0.20626827580707349 0.44243240764161851 0 0.21537281400739369 0.43845315370415711 0 0.22591081904916421 0.43572589400301709 0 0.2146138324682855 0.45571358917974703 0 0.21537281400739369 0.43845315370415711 0 0.19835735236616189 0.45546998729023852 0 0.2146138324682855 0.45571358917974703 0 0.20626827580707349 0.44243240764161851 0 0.22591081904916421 0.43572589400301709 0 0.2146138324682855 0.45571358917974703 0 0.22881560217321301 0.45034114253084262 0 0.22591081904916421 0.43572589400301709 0 0.2146138324682855 0.45571358917974703 0 0.22591081904916421 0.43572589400301709 0 0.22881560217321301 0.45034114253084262 0 0.23763223996399011 0.44090454565751858 0 0.22881560217321301 0.45034114253084262 0 0.22095821244855951 0.46526840698808569 0 0.24544656154487371 0.45308710549441128 0 0.2146138324682855 0.45571358917974703 0 0.22881560217321301 0.45034114253084262 0 0.22095821244855951 0.46526840698808569 0 0.2193593596201657 0.46606372839869031 0 0.22095821244855951 0.46526840698808569 0 0.23545209576247411 0.47155211261891489 0 0.22095821244855951 0.46526840698808569 0 0.24544656154487371 0.45308710549441128 0 0.23545209576247411 0.47155211261891489 0 0.22095821244855951 0.46526840698808569 0 0.24544656154487371 0.45308710549441128 0 0.2193593596201657 0.46606372839869031 0 0.22095821244855951 0.46526840698808569 0 0.22095821244855951 0.46526840698808569 0 0.23545209576247411 0.47155211261891489 0 0.24544656154487371 0.45308710549441128 0 0.23545209576247411 0.47155211261891489 0 0.25169565385813247 0.46598812425547398 0 0.24544656154487371 0.45308710549441128 0 0.23763223996399011 0.44090454565751858 0 0.25001041228465581 0.43352451276238191 0 0.22881560217321301 0.45034114253084262 0 0.24544656154487371 0.45308710549441128 0 0.23763223996399011 0.44090454565751858 0 0.2474328499575674 0.5 0 0.23753877601871309 0.48569145649817103 0 0.25950869067493049 0.49113014862571752 0 0.2474328499575674 0.5 0 0.23753877601871309 0.48569145649817103 0 0.22130333351244269 0.5 0 0.23545209576247411 0.47155211261891489 0 0.25401041700660992 0.47959792237016141 0 0.23753877601871309 0.48569145649817103 0 0.23545209576247411 0.47155211261891489 0 0.25401041700660992 0.47959792237016141 0 0.23545209576247411 0.47155211261891489 0 0.26385997807186418 0.48124054419563028 0 0.2193593596201657 0.46606372839869031 0 0.23545209576247411 0.47155211261891489 0 0.22546924908213181 0.47448595580160202 0 0.23753877601871309 0.48569145649817103 0 0.23545209576247411 0.47155211261891489 0 0.22546924908213181 0.47448595580160202 0 0.2193593596201657 0.46606372839869031 0 0.23545209576247411 0.47155211261891489 0 0.2193593596201657 0.46606372839869031 0 0.2195947961348356 0.48307405607080101 0 0.22546924908213181 0.47448595580160202 0 0.23753877601871309 0.48569145649817103 0 0.2195947961348356 0.48307405607080101 0 0.22546924908213181 0.47448595580160202 0 0.23753877601871309 0.48569145649817103 0 0.2195947961348356 0.48307405607080101 0 0.22130333351244269 0.5 0 0.2195947961348356 0.48307405607080101 0 0.22130333351244269 0.5 0 0.20238937165292131 0.48605343119686739 0 0.22130333351244269 0.5 0 0.1951738170673179 0.5 0 0.20238937165292131 0.48605343119686739 0 0.2193593596201657 0.46606372839869031 0 0.2195947961348356 0.48307405607080101 0 0.20617065374891469 0.47262421975305891 0 0.2195947961348356 0.48307405607080101 0 0.20617065374891469 0.47262421975305891 0 0.20238937165292131 0.48605343119686739 0 0.2193593596201657 0.46606372839869031 0 0.20617065374891469 0.47262421975305891 0 0.20617065374891469 0.47262421975305891 0 0.18997799202707141 0.4730918441630485 0 0.20238937165292131 0.48605343119686739 0 0.19974155132508531 0.4667481610894208 0 0.20617065374891469 0.47262421975305891 0 0.18997799202707141 0.4730918441630485 0 0.18997799202707141 0.4730918441630485 0 0.20238937165292131 0.48605343119686739 0 0.18211563742694539 0.48753046719429621 0 0.1951738170673179 0.5 0 0.20238937165292131 0.48605343119686739 0 0.18211563742694539 0.48753046719429621 0 0.1951738170673179 0.5 0 0.18211563742694539 0.48753046719429621 0 0.16904430062219319 0.5 0 0.16904430062219319 0.5 0 0.15809799598448471 0.48421366804876681 0 0.1429147841770684 0.50000000000000422 0 0.18211563742694539 0.48753046719429621 0 0.16904430062219319 0.5 0 0.15809799598448471 0.48421366804876681 0 0.15809799598448471 0.48421366804876681 0 0.1731704092315956 0.4733277151732177 0 0.1542997998476513 0.46593797546523508 0 0.18211563742694539 0.48753046719429621 0 0.15809799598448471 0.48421366804876681 0 0.1731704092315956 0.4733277151732177 0 0.18997799202707141 0.4730918441630485 0 0.18211563742694539 0.48753046719429621 0 0.1731704092315956 0.4733277151732177 0 0.18997799202707141 0.4730918441630485 0 0.1731704092315956 0.4733277151732177 0 0.18047646350117999 0.46423345963059309 0 0.18975752887089359 0.46422925403134963 0 0.18997799202707141 0.4730918441630485 0 0.18047646350117999 0.46423345963059309 0 0.1938306704508683 0.45735723787024041 0 0.18306568814884899 0.4583044296112897 0 0.16830198128157031 0.44865074734179189 0 0.18975752887089359 0.46422925403134963 0 0.18047646350117999 0.46423345963059309 0 0.18306568814884899 0.4583044296112897 0 0.18047646350117999 0.46423345963059309 0 0.18306568814884899 0.4583044296112897 0 0.17584213714902111 0.45782457741305138 0 0.18306568814884899 0.4583044296112897 0 0.17584213714902111 0.45782457741305138 0 0.16830198128157031 0.44865074734179189 0 0.18047646350117999 0.46423345963059309 0 0.17584213714902111 0.45782457741305138 0 0.16796458591912941 0.46049623718382021 0 0.1731704092315956 0.4733277151732177 0 0.18047646350117999 0.46423345963059309 0 0.16796458591912941 0.46049623718382021 0 0.19835735236616189 0.45546998729023852 0 0.17575649228376411 0.44567156759239163 0 0.19835735236616189 0.45546998729023852 0 0.18637933099628889 0.44105045895063588 0 0.17575649228376411 0.44567156759239163 0 0.1938306704508683 0.45735723787024041 0 0.17575649228376411 0.44567156759239163 0 0.16830198128157031 0.44865074734179189 0 0.1938306704508683 0.45735723787024041 0 0.16830198128157031 0.44865074734179189 0 0.1799090561719407 0.43232122034181308 0 0.18637933099628889 0.44105045895063588 0 0.17575649228376411 0.44567156759239163 0 0.15315563220136641 0.43587314789454462 0 0.17575649228376411 0.44567156759239163 0 0.16830198128157031 0.44865074734179189 0 0.15315563220136641 0.43587314789454462 0 0.17575649228376411 0.44567156759239163 0 0.15315563220136641 0.43587314789454462 0 0.16830198128157031 0.44865074734179189 0 0.15390385564465961 0.450352128578556 0 0.1731704092315956 0.4733277151732177 0 0.16796458591912941 0.46049623718382021 0 0.1542997998476513 0.46593797546523508 0 0.17584213714902111 0.45782457741305138 0 0.16830198128157031 0.44865074734179189 0 0.16796458591912941 0.46049623718382021 0 0.16830198128157031 0.44865074734179189 0 0.16796458591912941 0.46049623718382021 0 0.15390385564465961 0.450352128578556 0 0.16796458591912941 0.46049623718382021 0 0.1542997998476513 0.46593797546523508 0 0.15390385564465961 0.450352128578556 0 0.1542997998476513 0.46593797546523508 0 0.13467477613833409 0.45071648546446752 0 0.13879478015770089 0.47535824273223592 0 0.1542997998476513 0.46593797546523508 0 0.15390385564465961 0.450352128578556 0 0.13467477613833409 0.45071648546446752 0 0.15315563220136641 0.43587314789454462 0 0.15390385564465961 0.450352128578556 0 0.13467477613833409 0.45071648546446752 0 0.11218822813676591 0.44124613736530782 0 0.13055477211896799 0.42607472819669889 0 0.13467477613833409 0.45071648546446752 0 0.13055477211896799 0.42607472819669889 0 0.13467477613833409 0.45071648546446752 0 0.13055477211896799 0.42607472819669889 0 0.15315563220136641 0.43587314789454462 0 0.13467477613833409 0.45071648546446752 0 0.13467477613833409 0.45071648546446752 0 0.13879478015770089 0.47535824273223592 0 0.1153527671525426 0.46585685838453678 0 0.13467477613833409 0.45071648546446752 0 0.13879478015770089 0.47535824273223592 0 0.1173050368396272 0.49189118325213022 0 0.13879478015770089 0.47535824273223592 0 0.1429147841770684 0.50000000000000422 0 0.15809799598448471 0.48421366804876681 0 0.13879478015770089 0.47535824273223592 0 0.1429147841770684 0.50000000000000422 0 0.13879478015770089 0.47535824273223592 0 0.1429147841770684 0.50000000000000422 0 0.15809799598448471 0.48421366804876681 0 0.1542997998476513 0.46593797546523508 0 0.13879478015770089 0.47535824273223592 0 0.35908544638331819 0.48439581499547207 0 0.36230119630860369 0.46823284203272852 0 0.33868574992099187 0.47730407040518669 0 0.34797183884857558 0.5 0 0.35908544638331819 0.48439581499547207 0 0.33868574992099187 0.47730407040518669 0 0.34797183884857558 0.5 0 0.35908544638331819 0.48439581499547207 0 0.37012227840420991 0.50000000000000133 0 0.37012227840420991 0.50000000000000133 0 0.37453035855018479 0.47892566457595898 0 0.35908544638331819 0.48439581499547207 0 0.37012227840420991 0.50000000000000133 0 0.37453035855018479 0.47892566457595898 0 0.35908544638331819 0.48439581499547207 0 0.37453035855018479 0.47892566457595898 0 0.36230119630860369 0.46823284203272852 0 0.35155010054904262 0.45460814081037471 0 0.37918082821740617 0.45669250310863502 0 0.37453035855018479 0.47892566457595898 0 0.36230119630860369 0.46823284203272852 0 0.37918082821740617 0.45669250310863502 0 0.36230119630860369 0.46823284203272852 0 0.35155010054904262 0.45460814081037471 0 0.37918082821740617 0.45669250310863502 0 0.37419129279574542 0.44314473613996952 0 0.35155010054904262 0.45460814081037471 0 0.36273059030824301 0.43488296262244353 0 0.37419129279574542 0.44314473613996952 0 0.35155010054904262 0.45460814081037471 0 0.37918082821740617 0.45669250310863502 0 0.35155010054904262 0.45460814081037471 0 0.36273059030824301 0.43488296262244353 0 0.35155010054904262 0.45460814081037471 0 0.34615071339196241 0.43505588068577428 0 0.36273059030824301 0.43488296262244353 0 0.36230119630860369 0.46823284203272852 0 0.35155010054904262 0.45460814081037471 0 0.33868574992099187 0.47730407040518669 0 0.35155010054904262 0.45460814081037471 0 0.33868574992099187 0.47730407040518669 0 0.35155010054904262 0.45460814081037471 0 0.33259077847921231 0.45236307387823221 0 0.33259077847921231 0.45236307387823221 0 0.32130785540394952 0.47206362155197518 0 0.33868574992099187 0.47730407040518669 0 0.35155010054904262 0.45460814081037471 0 0.33259077847921231 0.45236307387823221 0 0.33868574992099187 0.47730407040518669 0 0.35155010054904262 0.45460814081037471 0 0.33259077847921231 0.45236307387823221 0 0.34615071339196241 0.43505588068577428 0 0.33259077847921231 0.45236307387823221 0 0.328534864130683 0.4299966945774763 0 0.34615071339196241 0.43505588068577428 0 0.33259077847921231 0.45236307387823221 0 0.31565687741466969 0.44240138944432011 0 0.328534864130683 0.4299966945774763 0 0.33259077847921231 0.45236307387823221 0 0.31565687741466969 0.44240138944432011 0 0.31275806184306348 0.45861869820503931 0 0.33259077847921231 0.45236307387823221 0 0.31275806184306348 0.45861869820503931 0 0.32130785540394952 0.47206362155197518 0 0.31275806184306348 0.45861869820503931 0 0.32130785540394952 0.47206362155197518 0 0.3067388900898248 0.47454083811751502 0 0.32130785540394952 0.47206362155197518 0 0.33868574992099187 0.47730407040518669 0 0.31491975728751442 0.48707044850180159 0 0.32130785540394952 0.47206362155197518 0 0.31491975728751442 0.48707044850180159 0 0.3067388900898248 0.47454083811751502 0 0.33868574992099187 0.47730407040518669 0 0.32582139929294152 0.49999999999999911 0 0.34797183884857558 0.5 0 0.33868574992099187 0.47730407040518669 0 0.32582139929294152 0.49999999999999911 0 0.32582139929294152 0.49999999999999911 0 0.31491975728751442 0.48707044850180159 0 0.29969188284781678 0.5 0 0.33868574992099187 0.47730407040518669 0 0.32582139929294152 0.49999999999999911 0 0.31491975728751442 0.48707044850180159 0 0.31491975728751442 0.48707044850180159 0 0.2986445370458114 0.4857465750141845 0 0.29969188284781678 0.5 0 0.31491975728751442 0.48707044850180159 0 0.2986445370458114 0.4857465750141845 0 0.3067388900898248 0.47454083811751502 0 0.2986445370458114 0.4857465750141845 0 0.3067388900898248 0.47454083811751502 0 0.29531776667038601 0.47465076377707449 0 0.3067388900898248 0.47454083811751502 0 0.29531776667038601 0.47465076377707449 0 0.29894956786740629 0.4639529101080862 0 0.28783445887437359 0.48222156026057977 0 0.2725687382507469 0.4876437321214056 0 0.28442137947451401 0.46679193538500702 0 0.29531776667038601 0.47465076377707449 0 0.28783445887437359 0.48222156026057977 0 0.28442137947451401 0.46679193538500702 0 0.2986445370458114 0.4857465750141845 0 0.29531776667038601 0.47465076377707449 0 0.28783445887437359 0.48222156026057977 0 0.29969188284781678 0.5 0 0.28967179760715039 0.49505862487682822 0 0.27356236640269221 0.5 0 0.28783445887437359 0.48222156026057977 0 0.28967179760715039 0.49505862487682822 0 0.2725687382507469 0.4876437321214056 0 0.2986445370458114 0.4857465750141845 0 0.29969188284781678 0.5 0 0.28967179760715039 0.49505862487682822 0 0.2986445370458114 0.4857465750141845 0 0.28783445887437359 0.48222156026057977 0 0.28967179760715039 0.49505862487682822 0 0.28967179760715039 0.49505862487682822 0 0.27630631257877142 0.49397034651761118 0 0.2725687382507469 0.4876437321214056 0 0.28967179760715039 0.49505862487682822 0 0.27630631257877142 0.49397034651761118 0 0.27356236640269221 0.5 0 0.28967179760715039 0.49505862487682822 0 0.2725687382507469 0.4876437321214056 0 0.27356236640269221 0.5 0 0.26942234805449627 0.49317902907221112 0 0.25950869067493049 0.49113014862571752 0 0.27630631257877142 0.49397034651761118 0 0.27356236640269221 0.5 0 0.26942234805449627 0.49317902907221112 0 0.26942234805449627 0.49317902907221112 0 0.2725687382507469 0.4876437321214056 0 0.25950869067493049 0.49113014862571752 0 0.26942234805449627 0.49317902907221112 0 0.2725687382507469 0.4876437321214056 0 0.27630631257877142 0.49397034651761118 0 0.26942234805449627 0.49317902907221112 0 0.2725687382507469 0.4876437321214056 0 0.2725687382507469 0.4876437321214056 0 0.27275704128844658 0.47482881009794942 0 0.28442137947451401 0.46679193538500702 0 0.2725687382507469 0.4876437321214056 0 0.28442137947451401 0.46679193538500702 0 0.27275704128844658 0.47482881009794942 0 0.26385997807186418 0.48124054419563028 0 0.2628088503665178 0.46685252131404947 0 0.2725687382507469 0.4876437321214056 0 0.27275704128844658 0.47482881009794942 0 0.26385997807186418 0.48124054419563028 0 0.23545209576247411 0.47155211261891489 0 0.26385997807186418 0.48124054419563028 0 0.25169565385813247 0.46598812425547398 0 0.23545209576247411 0.47155211261891489 0 0.25401041700660992 0.47959792237016141 0 0.26385997807186418 0.48124054419563028 0 0.2725687382507469 0.4876437321214056 0 0.25401041700660992 0.47959792237016141 0 0.2725687382507469 0.4876437321214056 0 0.25401041700660992 0.47959792237016141 0 0.26385997807186418 0.48124054419563028 0 0.26385997807186418 0.48124054419563028 0 0.25169565385813247 0.46598812425547398 0 0.2628088503665178 0.46685252131404947 0 0.2725687382507469 0.4876437321214056 0 0.25401041700660992 0.47959792237016141 0 0.25950869067493049 0.49113014862571752 0 0.23753877601871309 0.48569145649817103 0 0.25401041700660992 0.47959792237016141 0 0.25950869067493049 0.49113014862571752 0 0.2474328499575674 0.5 0 0.27356236640269221 0.5 0 0.25950869067493049 0.49113014862571752 0 0.24544656154487371 0.45308710549441128 0 0.2699349106411893 0.44090580400073948 0 0.24544656154487371 0.45308710549441128 0 0.25939769893599968 0.45696455108021827 0 0.2699349106411893 0.44090580400073948 0 0.24544656154487371 0.45308710549441128 0 0.2699349106411893 0.44090580400073948 0 0.25001041228465581 0.43352451276238191 0 0.24544656154487371 0.45308710549441128 0 0.25169565385813247 0.46598812425547398 0 0.25939769893599968 0.45696455108021827 0 0.25169565385813247 0.46598812425547398 0 0.2628088503665178 0.46685252131404947 0 0.25939769893599968 0.45696455108021827 0 0.2628088503665178 0.46685252131404947 0 0.25939769893599968 0.45696455108021827 0 0.27134597596481852 0.45786730704934442 0 0.27134597596481852 0.45786730704934442 0 0.2808006173035299 0.44750328766409481 0 0.28442137947451401 0.46679193538500702 0 0.27275704128844658 0.47482881009794942 0 0.27134597596481852 0.45786730704934442 0 0.28442137947451401 0.46679193538500702 0 0.27275704128844658 0.47482881009794942 0 0.27134597596481852 0.45786730704934442 0 0.27275704128844658 0.47482881009794942 0 0.2628088503665178 0.46685252131404947 0 0.27134597596481852 0.45786730704934442 0 0.25939769893599968 0.45696455108021827 0 0.27134597596481852 0.45786730704934442 0 0.2699349106411893 0.44090580400073948 0 0.27134597596481852 0.45786730704934442 0 0.2808006173035299 0.44750328766409481 0 0.2699349106411893 0.44090580400073948 0 0.27134597596481852 0.45786730704934442 0 0.2699349106411893 0.44090580400073948 0 0.2699349106411893 0.44090580400073948 0 0.27751805872446028 0.43713369944970248 0 0.2808006173035299 0.44750328766409481 0 0.2699349106411893 0.44090580400073948 0 0.27751805872446028 0.43713369944970248 0 0.2808006173035299 0.44750328766409481 0 0.29069712101440809 0.43344137273711508 0 0.27751805872446028 0.43713369944970248 0 0.2808006173035299 0.44750328766409481 0 0.29627402069830122 0.44594013864861981 0 0.29069712101440809 0.43344137273711508 0 0.29627402069830122 0.44594013864861981 0 0.28442137947451401 0.46679193538500702 0 0.29894956786740629 0.4639529101080862 0 0.2808006173035299 0.44750328766409481 0 0.29627402069830122 0.44594013864861981 0 0.28442137947451401 0.46679193538500702 0 0.29627402069830122 0.44594013864861981 0 0.28442137947451401 0.46679193538500702 0 0.29531776667038601 0.47465076377707449 0 0.28442137947451401 0.46679193538500702 0 0.29894956786740629 0.4639529101080862 0 0.31275806184306348 0.45861869820503931 0 0.29627402069830122 0.44594013864861981 0 0.29894956786740629 0.4639529101080862 0 0.31275806184306348 0.45861869820503931 0 0.3067388900898248 0.47454083811751502 0 0.29894956786740629 0.4639529101080862 0 0.31565687741466969 0.44240138944432011 0 0.29627402069830122 0.44594013864861981 0 0.30812666192208849 0.42508834191223271 0 0.31565687741466969 0.44240138944432011 0 0.31275806184306348 0.45861869820503931 0 0.29627402069830122 0.44594013864861981 0 0.29627402069830122 0.44594013864861981 0 0.30812666192208849 0.42508834191223271 0 0.29069712101440809 0.43344137273711508 0 0.29627402069830122 0.44594013864861981 0 0.30812666192208849 0.42508834191223271 0 0.30812666192208849 0.42508834191223271 0 0.29475498156973928 0.39871586355124922 0 0.32259464300658341 0.4110141753096469 0 0.30812666192208849 0.42508834191223271 0 0.28842792669701861 0.41994427243576449 0 0.29475498156973928 0.39871586355124922 0 0.28842792669701861 0.41994427243576449 0 0.27981230779207722 0.40561906800537628 0 0.29475498156973928 0.39871586355124922 0 0.28842792669701861 0.41994427243576449 0 0.29069712101440809 0.43344137273711508 0 0.27751805872446028 0.43713369944970248 0 0.30812666192208849 0.42508834191223271 0 0.28842792669701861 0.41994427243576449 0 0.29069712101440809 0.43344137273711508 0 0.28842792669701861 0.41994427243576449 0 0.27751805872446028 0.43713369944970248 0 0.2680988300302003 0.4188354672421824 0 0.2699349106411893 0.44090580400073948 0 0.2680988300302003 0.4188354672421824 0 0.26021837321099162 0.42783355226698638 0 0.2699349106411893 0.44090580400073948 0 0.27751805872446028 0.43713369944970248 0 0.2680988300302003 0.4188354672421824 0 0.2699349106411893 0.44090580400073948 0 0.2680988300302003 0.4188354672421824 0 0.2680988300302003 0.4188354672421824 0 0.27981230779207722 0.40561906800537628 0 0.26626274941921008 0.39676513048362527 0 0.28842792669701861 0.41994427243576449 0 0.2680988300302003 0.4188354672421824 0 0.27981230779207722 0.40561906800537628 0 0.2680988300302003 0.4188354672421824 0 0.26626274941921008 0.39676513048362527 0 0.2680988300302003 0.4188354672421824 0 0.252829339887921 0.41806842506264169 0 0.26021837321099162 0.42783355226698638 0 0.2680988300302003 0.4188354672421824 0 0.25603878639525107 0.40657412151226102 0 0.26626274941921008 0.39676513048362527 0 0.2680988300302003 0.4188354672421824 0 0.25603878639525107 0.40657412151226102 0 0.252829339887921 0.41806842506264169 0 0.2699349106411893 0.44090580400073948 0 0.25001041228465581 0.43352451276238191 0 0.26021837321099162 0.42783355226698638 0 0.252829339887921 0.41806842506264169 0 0.25001041228465581 0.43352451276238191 0 0.26021837321099162 0.42783355226698638 0 0.2485047922109215 0.39575050364955761 0 0.25980177879180022 0.37576280847282773 0 0.25120929876992643 0.37493491597804007 0 0.2485047922109215 0.39575050364955761 0 0.25980177879180022 0.37576280847282773 0 0.26626274941921008 0.39676513048362527 0 0.25980177879180022 0.37576280847282773 0 0.26626274941921008 0.39676513048362527 0 0.26442666880822002 0.37469479372506831 0 0.2485047922109215 0.39575050364955761 0 0.25980177879180022 0.37576280847282773 0 0.26626274941921008 0.39676513048362527 0 0.26442666880822002 0.37469479372506831 0 0.2485047922109215 0.39575050364955761 0 0.25603878639525107 0.40657412151226102 0 0.26626274941921008 0.39676513048362527 0 0.27981230779207722 0.40561906800537628 0 0.26626274941921008 0.39676513048362527 0 0.28566139009475899 0.38806397356005712 0 0.26626274941921008 0.39676513048362527 0 0.27407716105253621 0.38158648020998681 0 0.26442666880822002 0.37469479372506831 0 0.26626274941921008 0.39676513048362527 0 0.27407716105253621 0.38158648020998681 0 0.28566139009475899 0.38806397356005712 0 0.27407716105253621 0.38158648020998681 0 0.27231962343587118 0.37374320132435213 0 0.26442666880822002 0.37469479372506831 0 0.27407716105253621 0.38158648020998681 0 0.28566139009475899 0.38806397356005712 0 0.28171537350462061 0.37466530195683129 0 0.27407716105253621 0.38158648020998681 0 0.28171537350462061 0.37466530195683129 0 0.27231962343587118 0.37374320132435213 0 0.28566139009475899 0.38806397356005712 0 0.29475498156973928 0.39871586355124922 0 0.2997298803980466 0.3773573643048303 0 0.28566139009475899 0.38806397356005712 0 0.2997298803980466 0.3773573643048303 0 0.28171537350462061 0.37466530195683129 0 0.27981230779207722 0.40561906800537628 0 0.28566139009475899 0.38806397356005712 0 0.29475498156973928 0.39871586355124922 0 0.29475498156973928 0.39871586355124922 0 0.32069209429204859 0.39091977433306929 0 0.29475498156973928 0.39871586355124922 0 0.2997298803980466 0.3773573643048303 0 0.32069209429204859 0.39091977433306929 0 0.2997298803980466 0.3773573643048303 0 0.32069209429204859 0.39091977433306929 0 0.31893731485925081 0.36299748631807072 0 0.32069209429204859 0.39091977433306929 0 0.33200732835282232 0.37412867648952147 0 0.31893731485925081 0.36299748631807072 0 0.32069209429204859 0.39091977433306929 0 0.34662920701435768 0.38312368511488948 0 0.33200732835282232 0.37412867648952147 0 0.32069209429204859 0.39091977433306929 0 0.34662920701435768 0.38312368511488948 0 0.32069209429204859 0.39091977433306929 0 0.34378351358778281 0.41117043820551807 0 0.34662920701435768 0.38312368511488948 0 0.32069209429204859 0.39091977433306929 0 0.32259464300658341 0.4110141753096469 0 0.34378351358778281 0.41117043820551807 0 0.29475498156973928 0.39871586355124922 0 0.32069209429204859 0.39091977433306929 0 0.32259464300658341 0.4110141753096469 0 0.30812666192208849 0.42508834191223271 0 0.32259464300658341 0.4110141753096469 0 0.328534864130683 0.4299966945774763 0 0.31565687741466969 0.44240138944432011 0 0.30812666192208849 0.42508834191223271 0 0.328534864130683 0.4299966945774763 0 0.328534864130683 0.4299966945774763 0 0.34378351358778281 0.41117043820551807 0 0.34615071339196241 0.43505588068577428 0 0.32259464300658341 0.4110141753096469 0 0.328534864130683 0.4299966945774763 0 0.34378351358778281 0.41117043820551807 0 0.34378351358778281 0.41117043820551807 0 0.35857899349095318 0.41925057692924089 0 0.34615071339196241 0.43505588068577428 0 0.34378351358778281 0.41117043820551807 0 0.35857899349095318 0.41925057692924089 0 0.36361603381806429 0.39629120393943829 0 0.35857899349095318 0.41925057692924089 0 0.34615071339196241 0.43505588068577428 0 0.36273059030824301 0.43488296262244353 0 0.35857899349095318 0.41925057692924089 0 0.36273059030824301 0.43488296262244353 0 0.37391108006744328 0.41515778443451218 0 0.36273059030824301 0.43488296262244353 0 0.37407037341599592 0.43193597311679122 0 0.37391108006744328 0.41515778443451218 0 0.36273059030824301 0.43488296262244353 0 0.37391108006744328 0.41515778443451218 0 0.37419129279574542 0.44314473613996952 0 0.36273059030824301 0.43488296262244353 0 0.37407037341599592 0.43193597311679122 0 0.35857899349095318 0.41925057692924089 0 0.37391108006744328 0.41515778443451218 0 0.36361603381806429 0.39629120393943829 0 0.37391108006744328 0.41515778443451218 0 0.36361603381806429 0.39629120393943829 0 0.38509156982664361 0.39543260624658078 0 0.36361603381806429 0.39629120393943829 0 0.37483230190347849 0.38861460742432241 0 0.38509156982664361 0.39543260624658078 0 0.37256631973666682 0.37532759589670961 0 0.34662920701435768 0.38312368511488948 0 0.36361603381806429 0.39629120393943829 0 0.37256631973666682 0.37532759589670961 0 0.34662920701435768 0.38312368511488948 0 0.36361603381806429 0.39629120393943829 0 0.37483230190347849 0.38861460742432241 0 0.37256631973666682 0.37532759589670961 0 0.34378351358778281 0.41117043820551807 0 0.36361603381806429 0.39629120393943829 0 0.34662920701435768 0.38312368511488948 0 0.35827684171921709 0.34870523781904678 0 0.34691384318714608 0.34005044783053451 0 0.34177069724563219 0.35947376019205662 0 0.35827684171921709 0.34870523781904678 0 0.35958005840472429 0.36437736143747018 0 0.34177069724563219 0.35947376019205662 0 0.34662920701435768 0.38312368511488948 0 0.35958005840472429 0.36437736143747018 0 0.34177069724563219 0.35947376019205662 0 0.37256631973666682 0.37532759589670961 0 0.34662920701435768 0.38312368511488948 0 0.35958005840472429 0.36437736143747018 0 0.37256631973666682 0.37532759589670961 0 0.35958005840472429 0.36437736143747018 0 0.38048177127572208 0.36121957412058631 0 0.35827684171921709 0.34870523781904678 0 0.35958005840472429 0.36437736143747018 0 0.37505285242633152 0.34639480194945199 0 0.35958005840472429 0.36437736143747018 0 0.37505285242633152 0.34639480194945199 0 0.38048177127572208 0.36121957412058631 0 0.35827684171921709 0.34870523781904678 0 0.3646611251318328 0.33428532826118501 0 0.37505285242633152 0.34639480194945199 0 0.3646611251318328 0.33428532826118501 0 0.3650603429327568 0.32004315176438342 0 0.37703893261359439 0.32588644906304071 0 0.3650603429327568 0.32004315176438342 0 0.34373173923090272 0.32369764220125458 0 0.35708810396885537 0.30252743698491252 0 0.3646611251318328 0.33428532826118501 0 0.3650603429327568 0.32004315176438342 0 0.34373173923090272 0.32369764220125458 0 0.3650603429327568 0.32004315176438342 0 0.34373173923090272 0.32369764220125458 0 0.34373173923090272 0.32369764220125458 0 0.35708810396885537 0.30252743698491252 0 0.35827684171921709 0.34870523781904678 0 0.3646611251318328 0.33428532826118501 0 0.34691384318714608 0.34005044783053451 0 0.3646611251318328 0.33428532826118501 0 0.34691384318714608 0.34005044783053451 0 0.34373173923090272 0.32369764220125458 0 0.33133452704507638 0.3433475642596624 0 0.34373173923090272 0.32369764220125458 0 0.34691384318714608 0.34005044783053451 0 0.33133452704507638 0.3433475642596624 0 0.34373173923090272 0.32369764220125458 0 0.33133452704507638 0.3433475642596624 0 0.34373173923090272 0.32369764220125458 0 0.32267377660406948 0.32730576039387321 0 0.34373173923090272 0.32369764220125458 0 0.32267377660406948 0.32730576039387321 0 0.34373173923090272 0.32369764220125458 0 0.32796870695677688 0.30945042351278568 0 0.3424999207227617 0.30774028268972081 0 0.34373173923090272 0.32369764220125458 0 0.32267377660406948 0.32730576039387321 0 0.32796870695677688 0.30945042351278568 0 0.32267377660406948 0.32730576039387321 0 0.31999005127680241 0.313969412435332 0 0.32796870695677688 0.30945042351278568 0 0.32267377660406948 0.32730576039387321 0 0.31274099586054599 0.31650005105369589 0 0.30889946873999069 0.3233228489535257 0 0.32267377660406948 0.32730576039387321 0 0.31999005127680241 0.313969412435332 0 0.31274099586054599 0.31650005105369589 0 0.33133452704507638 0.3433475642596624 0 0.32267377660406948 0.32730576039387321 0 0.31521052613591549 0.34271429114548241 0 0.32267377660406948 0.32730576039387321 0 0.31521052613591549 0.34271429114548241 0 0.30161581397723602 0.33091387858649041 0 0.33133452704507638 0.3433475642596624 0 0.31521052613591549 0.34271429114548241 0 0.31893731485925081 0.36299748631807072 0 0.33133452704507638 0.3433475642596624 0 0.31893731485925081 0.36299748631807072 0 0.34691384318714608 0.34005044783053451 0 0.33133452704507638 0.3433475642596624 0 0.34177069724563219 0.35947376019205662 0 0.33133452704507638 0.3433475642596624 0 0.34177069724563219 0.35947376019205662 0 0.31893731485925081 0.36299748631807072 0 0.33200732835282232 0.37412867648952147 0 0.34177069724563219 0.35947376019205662 0 0.31893731485925081 0.36299748631807072 0 0.34662920701435768 0.38312368511488948 0 0.33200732835282232 0.37412867648952147 0 0.34177069724563219 0.35947376019205662 0 0.2997298803980466 0.3773573643048303 0 0.31893731485925081 0.36299748631807072 0 0.30381494955855831 0.36301106489441448 0 0.2997298803980466 0.3773573643048303 0 0.30381494955855831 0.36301106489441448 0 0.29162871176803928 0.36328493155345798 0 0.31893731485925081 0.36299748631807072 0 0.30381494955855831 0.36301106489441448 0 0.3014911981939451 0.34900676616931481 0 0.31521052613591549 0.34271429114548241 0 0.31893731485925081 0.36299748631807072 0 0.3014911981939451 0.34900676616931481 0 0.30381494955855831 0.36301106489441448 0 0.3014911981939451 0.34900676616931481 0 0.29162871176803928 0.36328493155345798 0 0.3014911981939451 0.34900676616931481 0 0.28339911743075907 0.34921824627834991 0 0.29176599523808577 0.34091522195331653 0 0.3014911981939451 0.34900676616931481 0 0.28339911743075907 0.34921824627834991 0 0.29162871176803928 0.36328493155345798 0 0.28339911743075907 0.34921824627834991 0 0.29162871176803928 0.36328493155345798 0 0.28098345340004482 0.36234945566426141 0 0.2997298803980466 0.3773573643048303 0 0.29162871176803928 0.36328493155345798 0 0.28171537350462061 0.37466530195683129 0 0.29162871176803928 0.36328493155345798 0 0.28171537350462061 0.37466530195683129 0 0.28098345340004482 0.36234945566426141 0 0.28171537350462061 0.37466530195683129 0 0.27483718723795808 0.36746777775873107 0 0.27231962343587118 0.37374320132435213 0 0.28171537350462061 0.37466530195683129 0 0.27483718723795808 0.36746777775873107 0 0.28098345340004482 0.36234945566426141 0 0.27231962343587118 0.37374320132435213 0 0.26727587252409302 0.36737041578223267 0 0.26442666880822002 0.37469479372506831 0 0.27483718723795808 0.36746777775873107 0 0.27231962343587118 0.37374320132435213 0 0.26727587252409302 0.36737041578223267 0 0.26727587252409302 0.36737041578223267 0 0.27328896210491471 0.36138104589177522 0 0.26694470903370959 0.35747662768609723 0 0.27483718723795808 0.36746777775873107 0 0.26727587252409302 0.36737041578223267 0 0.27328896210491471 0.36138104589177522 0 0.27483718723795808 0.36746777775873107 0 0.27328896210491471 0.36138104589177522 0 0.28098345340004482 0.36234945566426141 0 0.27328896210491471 0.36138104589177522 0 0.28098345340004482 0.36234945566426141 0 0.27489485959691418 0.35417840258451211 0 0.28339911743075907 0.34921824627834991 0 0.28098345340004482 0.36234945566426141 0 0.27489485959691418 0.35417840258451211 0 0.28339911743075907 0.34921824627834991 0 0.27489485959691418 0.35417840258451211 0 0.26915383427389022 0.34462211202618881 0 0.27489485959691418 0.35417840258451211 0 0.26915383427389022 0.34462211202618881 0 0.26694470903370959 0.35747662768609723 0 0.27328896210491471 0.36138104589177522 0 0.27489485959691418 0.35417840258451211 0 0.26694470903370959 0.35747662768609723 0 0.26915383427389022 0.34462211202618881 0 0.25774981719737472 0.35472222727326402 0 0.26007230383543373 0.33803203609223181 0 0.23958675632046489 0.34154207540535592 0 0.25774981719737472 0.35472222727326402 0 0.26007230383543373 0.33803203609223181 0 0.26915383427389022 0.34462211202618881 0 0.26694470903370959 0.35747662768609723 0 0.25774981719737472 0.35472222727326402 0 0.26694470903370959 0.35747662768609723 0 0.25774981719737472 0.35472222727326402 0 0.25948548068627308 0.36500193077013821 0 0.26915383427389022 0.34462211202618881 0 0.25774981719737472 0.35472222727326402 0 0.2486767394006868 0.36691082060798408 0 0.25774981719737472 0.35472222727326402 0 0.25948548068627308 0.36500193077013821 0 0.2486767394006868 0.36691082060798408 0 0.25593166971963638 0.37132311762297898 0 0.25948548068627308 0.36500193077013821 0 0.25980177879180022 0.37576280847282773 0 0.25120929876992643 0.37493491597804007 0 0.25593166971963638 0.37132311762297898 0 0.2486767394006868 0.36691082060798408 0 0.25120929876992643 0.37493491597804007 0 0.25593166971963638 0.37132311762297898 0 0.25593166971963638 0.37132311762297898 0 0.26101102553096289 0.37045155371416039 0 0.25948548068627308 0.36500193077013821 0 0.25980177879180022 0.37576280847282773 0 0.25593166971963638 0.37132311762297898 0 0.26101102553096289 0.37045155371416039 0 0.25980177879180022 0.37576280847282773 0 0.26101102553096289 0.37045155371416039 0 0.26442666880822002 0.37469479372506831 0 0.26727587252409302 0.36737041578223267 0 0.26101102553096289 0.37045155371416039 0 0.26442666880822002 0.37469479372506831 0 0.26727587252409302 0.36737041578223267 0 0.26101102553096289 0.37045155371416039 0 0.25948548068627308 0.36500193077013821 0 0.26727587252409302 0.36737041578223267 0 0.26694470903370959 0.35747662768609723 0 0.25948548068627308 0.36500193077013821 0 0.26046110308168108 0.31427459811706671 0 0.25737244554427757 0.32433489500882362 0 0.26807106866221603 0.32318036780211179 0 0.24854251186677601 0.3172130716748226 0 0.26046110308168108 0.31427459811706671 0 0.25737244554427757 0.32433489500882362 0 0.24845455954337081 0.32972388294009519 0 0.24854251186677601 0.3172130716748226 0 0.25737244554427757 0.32433489500882362 0 0.24845455954337081 0.32972388294009519 0 0.25737244554427757 0.32433489500882362 0 0.26007230383543373 0.33803203609223181 0 0.25737244554427757 0.32433489500882362 0 0.26007230383543373 0.33803203609223181 0 0.26807106866221603 0.32318036780211179 0 0.26915383427389022 0.34462211202618881 0 0.26007230383543373 0.33803203609223181 0 0.28055785135040318 0.33452199677911082 0 0.26007230383543373 0.33803203609223181 0 0.28055785135040318 0.33452199677911082 0 0.26007230383543373 0.33803203609223181 0 0.28055785135040318 0.33452199677911082 0 0.26807106866221603 0.32318036780211179 0 0.28339911743075907 0.34921824627834991 0 0.26915383427389022 0.34462211202618881 0 0.28055785135040318 0.33452199677911082 0 0.26915383427389022 0.34462211202618881 0 0.28055785135040318 0.33452199677911082 0 0.26046110308168108 0.31427459811706671 0 0.26807106866221603 0.32318036780211179 0 0.27094083306116712 0.3065575899942834 0 0.28055785135040318 0.33452199677911082 0 0.26807106866221603 0.32318036780211179 0 0.28172269165782932 0.31869764067871098 0 0.26807106866221603 0.32318036780211179 0 0.28172269165782932 0.31869764067871098 0 0.27094083306116712 0.3065575899942834 0 0.28172269165782932 0.31869764067871098 0 0.29856728851811137 0.31857170578004329 0 0.2873860836743708 0.30883420669442208 0 0.28055785135040318 0.33452199677911082 0 0.30161581397723602 0.33091387858649041 0 0.29856728851811137 0.31857170578004329 0 0.28055785135040318 0.33452199677911082 0 0.29856728851811137 0.31857170578004329 0 0.28055785135040318 0.33452199677911082 0 0.28172269165782932 0.31869764067871098 0 0.29856728851811137 0.31857170578004329 0 0.28055785135040318 0.33452199677911082 0 0.29176599523808577 0.34091522195331653 0 0.30161581397723602 0.33091387858649041 0 0.28055785135040318 0.33452199677911082 0 0.30161581397723602 0.33091387858649041 0 0.28339911743075907 0.34921824627834991 0 0.28055785135040318 0.33452199677911082 0 0.29176599523808577 0.34091522195331653 0 0.32267377660406948 0.32730576039387321 0 0.30161581397723602 0.33091387858649041 0 0.3014911981939451 0.34900676616931481 0 0.29176599523808577 0.34091522195331653 0 0.30161581397723602 0.33091387858649041 0 0.31521052613591549 0.34271429114548241 0 0.3014911981939451 0.34900676616931481 0 0.30161581397723602 0.33091387858649041 0 0.32267377660406948 0.32730576039387321 0 0.30161581397723602 0.33091387858649041 0 0.30889946873999069 0.3233228489535257 0 0.31274099586054599 0.31650005105369589 0 0.29856728851811137 0.31857170578004329 0 0.31657672568581718 0.3026214147809731 0 0.30161581397723602 0.33091387858649041 0 0.29856728851811137 0.31857170578004329 0 0.30889946873999069 0.3233228489535257 0 0.31274099586054599 0.31650005105369589 0 0.29856728851811137 0.31857170578004329 0 0.30889946873999069 0.3233228489535257 0 0.29856728851811137 0.31857170578004329 0 0.30059919553267989 0.30281148784402812 0 0.31657672568581718 0.3026214147809731 0 0.29856728851811137 0.31857170578004329 0 0.31657672568581718 0.3026214147809731 0 0.30059919553267989 0.30281148784402812 0 0.31657672568581718 0.3026214147809731 0 0.31361434654987091 0.29897902593429548 0 0.29925998614296467 0.28850762835580562 0 0.31858591592797142 0.28795023543005249 0 0.31361434654987091 0.29897902593429548 0 0.29925998614296467 0.28850762835580562 0 0.31967261221160059 0.27549710094295599 0 0.29925998614296467 0.28850762835580562 0 0.31361434654987091 0.29897902593429548 0 0.30059919553267989 0.30281148784402812 0 0.29925998614296467 0.28850762835580562 0 0.31361434654987091 0.29897902593429548 0 0.29925998614296467 0.28850762835580562 0 0.27967871758562762 0.27422324073123239 0 0.29925998614296467 0.28850762835580562 0 0.28510040960206617 0.29753260917504493 0 0.27967871758562762 0.27422324073123239 0 0.29925998614296467 0.28850762835580562 0 0.28510040960206617 0.29753260917504493 0 0.30059919553267989 0.30281148784402812 0 0.29925998614296467 0.28850762835580562 0 0.28510040960206617 0.29753260917504493 0 0.29856728851811137 0.31857170578004329 0 0.30059919553267989 0.30281148784402812 0 0.2873860836743708 0.30883420669442208 0 0.30059919553267989 0.30281148784402812 0 0.28510040960206617 0.29753260917504493 0 0.2873860836743708 0.30883420669442208 0 0.28510040960206617 0.29753260917504493 0 0.27094083306116712 0.3065575899942834 0 0.26834293866127162 0.28962230438055031 0 0.28172269165782932 0.31869764067871098 0 0.2873860836743708 0.30883420669442208 0 0.27094083306116712 0.3065575899942834 0 0.28510040960206617 0.29753260917504493 0 0.2873860836743708 0.30883420669442208 0 0.27094083306116712 0.3065575899942834 0 0.28510040960206617 0.29753260917504493 0 0.27094083306116712 0.3065575899942834 0 0.28510040960206617 0.29753260917504493 0 0.26834293866127162 0.28962230438055031 0 0.27967871758562762 0.27422324073123239 0 0.26834293866127162 0.28962230438055031 0 0.25072078068281722 0.282923439064732 0 0.25485729481014741 0.30158602926971162 0 0.26834293866127162 0.28962230438055031 0 0.25072078068281722 0.282923439064732 0 0.2640750577931924 0.27500859720754339 0 0.24854251186677601 0.3172130716748226 0 0.26046110308168108 0.31427459811706671 0 0.25485729481014741 0.30158602926971162 0 0.27094083306116712 0.3065575899942834 0 0.26834293866127162 0.28962230438055031 0 0.25485729481014741 0.30158602926971162 0 0.26046110308168108 0.31427459811706671 0 0.27094083306116712 0.3065575899942834 0 0.25485729481014741 0.30158602926971162 0 0.2405161804709528 0.24565446548208689 0 0.26009744902829041 0.25993885310665937 0 0.24429554955913249 0.26378503643748707 0 0.26009744902829041 0.25993885310665937 0 0.2640750577931924 0.27500859720754339 0 0.24429554955913249 0.26378503643748707 0 0.25072078068281722 0.282923439064732 0 0.2640750577931924 0.27500859720754339 0 0.26009744902829041 0.25993885310665937 0 0.2640750577931924 0.27500859720754339 0 0.27967871758562762 0.27422324073123239 0 0.26009744902829041 0.25993885310665937 0 0.27967871758562762 0.27422324073123239 0 0.26834293866127162 0.28962230438055031 0 0.2640750577931924 0.27500859720754339 0 0.27967871758562762 0.27422324073123239 0 0.26009744902829041 0.25993885310665937 0 0.28524353510662431 0.25393003997790931 0 0.26968448393217709 0.23915064372060299 0 0.26009744902829041 0.25993885310665937 0 0.27967871758562762 0.27422324073123239 0 0.28524353510662431 0.25393003997790931 0 0.28524353510662431 0.25393003997790931 0 0.29594441489223722 0.27248931388590791 0 0.30393424051503909 0.25930379717881169 0 0.27967871758562762 0.27422324073123239 0 0.28524353510662431 0.25393003997790931 0 0.29594441489223722 0.27248931388590791 0 0.29925998614296467 0.28850762835580562 0 0.27967871758562762 0.27422324073123239 0 0.29594441489223722 0.27248931388590791 0 0.29925998614296467 0.28850762835580562 0 0.29594441489223722 0.27248931388590791 0 0.31967261221160059 0.27549710094295599 0 0.29594441489223722 0.27248931388590791 0 0.30393424051503909 0.25930379717881169 0 0.31967261221160059 0.27549710094295599 0 0.30393424051503909 0.25930379717881169 0 0.32145655410271801 0.25318508214936331 0 0.30260291121370209 0.24052332411420199 0 0.28524353510662431 0.25393003997790931 0 0.30393424051503909 0.25930379717881169 0 0.30260291121370209 0.24052332411420199 0 0.30393424051503909 0.25930379717881169 0 0.32145655410271801 0.25318508214936331 0 0.31967261221160059 0.27549710094295599 0 0.32145655410271801 0.25318508214936331 0 0.34008523828023601 0.26248657353010552 0 0.31967261221160059 0.27549710094295599 0 0.32145655410271801 0.25318508214936331 0 0.34008523828023601 0.26248657353010552 0 0.34229408525783023 0.2446180598967278 0 0.34008523828023601 0.26248657353010552 0 0.33471542302710539 0.27916575863863041 0 0.31967261221160059 0.27549710094295599 0 0.34008523828023601 0.26248657353010552 0 0.31967261221160059 0.27549710094295599 0 0.34008523828023601 0.26248657353010552 0 0.33471542302710539 0.27916575863863041 0 0.35085449854169293 0.27238083708859379 0 0.33471542302710539 0.27916575863863041 0 0.31967261221160059 0.27549710094295599 0 0.31858591592797142 0.28795023543005249 0 0.29925998614296467 0.28850762835580562 0 0.31967261221160059 0.27549710094295599 0 0.31858591592797142 0.28795023543005249 0 0.33471542302710539 0.27916575863863041 0 0.31858591592797142 0.28795023543005249 0 0.32850254484804792 0.29303161019657159 0 0.31858591592797142 0.28795023543005249 0 0.31361434654987091 0.29897902593429548 0 0.32216787857066681 0.29735282376842631 0 0.31858591592797142 0.28795023543005249 0 0.32216787857066681 0.29735282376842631 0 0.32850254484804792 0.29303161019657159 0 0.32216787857066681 0.29735282376842631 0 0.32796870695677688 0.30945042351278568 0 0.32850254484804792 0.29303161019657159 0 0.31999005127680241 0.313969412435332 0 0.31274099586054599 0.31650005105369589 0 0.31657672568581718 0.3026214147809731 0 0.31657672568581718 0.3026214147809731 0 0.31361434654987091 0.29897902593429548 0 0.32796870695677688 0.30945042351278568 0 0.31361434654987091 0.29897902593429548 0 0.32796870695677688 0.30945042351278568 0 0.31361434654987091 0.29897902593429548 0 0.32216787857066681 0.29735282376842631 0 0.32796870695677688 0.30945042351278568 0 0.31999005127680241 0.313969412435332 0 0.31657672568581718 0.3026214147809731 0 0.32796870695677688 0.30945042351278568 0 0.32796870695677688 0.30945042351278568 0 0.32850254484804792 0.29303161019657159 0 0.34121113273451181 0.29528562805993053 0 0.32796870695677688 0.30945042351278568 0 0.3424999207227617 0.30774028268972081 0 0.34121113273451181 0.29528562805993053 0 0.33471542302710539 0.27916575863863041 0 0.32850254484804792 0.29303161019657159 0 0.34121113273451181 0.29528562805993053 0 0.33471542302710539 0.27916575863863041 0 0.34121113273451181 0.29528562805993053 0 0.35085449854169293 0.27238083708859379 0 0.34121113273451181 0.29528562805993053 0 0.35085449854169293 0.27238083708859379 0 0.34121113273451181 0.29528562805993053 0 0.35454124355442629 0.28749913173843722 0 0.35085449854169293 0.27238083708859379 0 0.34121113273451181 0.29528562805993053 0 0.35454124355442629 0.28749913173843722 0 0.35708810396885537 0.30252743698491252 0 0.34373173923090272 0.32369764220125458 0 0.3424999207227617 0.30774028268972081 0 0.35708810396885537 0.30252743698491252 0 0.3424999207227617 0.30774028268972081 0 0.34121113273451181 0.29528562805993053 0 0.35708810396885537 0.30252743698491252 0 0.3650603429327568 0.32004315176438342 0 0.35708810396885537 0.30252743698491252 0 0.37820881678139101 0.30180542408454492 0 0.35708810396885537 0.30252743698491252 0 0.37044446870680892 0.2813572317685708 0 0.35708810396885537 0.30252743698491252 0 0.37044446870680892 0.2813572317685708 0 0.37820881678139101 0.30180542408454492 0 0.35454124355442629 0.28749913173843722 0 0.35708810396885537 0.30252743698491252 0 0.37044446870680892 0.2813572317685708 0 0.37044446870680892 0.2813572317685708 0 0.36758749917058081 0.26475636477001052 0 0.38380083344476229 0.26018702655222931 0 0.37044446870680892 0.2813572317685708 0 0.36758749917058081 0.26475636477001052 0 0.35085449854169293 0.27238083708859379 0 0.36758749917058081 0.26475636477001052 0 0.35085449854169293 0.27238083708859379 0 0.36049786434887249 0.24947604611725671 0 0.36758749917058081 0.26475636477001052 0 0.37528933983598339 0.2516803105044455 0 0.36049786434887249 0.24947604611725671 0 0.34008523828023601 0.26248657353010552 0 0.34229408525783023 0.2446180598967278 0 0.36049786434887249 0.24947604611725671 0 0.35085449854169293 0.27238083708859379 0 0.36049786434887249 0.24947604611725671 0 0.34008523828023601 0.26248657353010552 0 0.35085449854169293 0.27238083708859379 0 0.36049786434887249 0.24947604611725671 0 0.34008523828023601 0.26248657353010552 0 0.36049786434887249 0.24947604611725671 0 0.35454124355442629 0.28749913173843722 0 0.37044446870680892 0.2813572317685708 0 0.35085449854169293 0.27238083708859379 0 0.39652528443443541 0.26602108433923172 0 0.39470063413066142 0.27713259533371859 0 0.40062582470357899 0.27238420304249589 0 0.39652528443443541 0.26602108433923172 0 0.39076099996452451 0.26088076582705338 0 0.38727628432506189 0.2718715498659553 0 0.39652528443443541 0.26602108433923172 0 0.39470063413066142 0.27713259533371859 0 0.38727628432506189 0.2718715498659553 0 0.39470063413066142 0.27713259533371859 0 0.40385728801139059 0.27890413638547362 0 0.39812561299596438 0.28681657093473961 0 0.39470063413066142 0.27713259533371859 0 0.40385728801139059 0.27890413638547362 0 0.40062582470357899 0.27238420304249589 0 0.40385728801139059 0.27890413638547362 0 0.40062582470357899 0.27238420304249589 0 0.40771512142065158 0.27131837446154888 0 0.40062582470357899 0.27238420304249589 0 0.40314543767268041 0.26628132812019062 0 0.40771512142065158 0.27131837446154888 0 0.39652528443443541 0.26602108433923172 0 0.40062582470357899 0.27238420304249589 0 0.40314543767268041 0.26628132812019062 0 0.39652528443443541 0.26602108433923172 0 0.40261432255110557 0.2591974463948703 0 0.39694783887429202 0.25665801462697369 0 0.40261432255110557 0.2591974463948703 0 0.41152022421885581 0.25092107606466041 0 0.40400099508577569 0.2400308942295159 0 0.40261432255110557 0.2591974463948703 0 0.39694783887429202 0.25665801462697369 0 0.40400099508577569 0.2400308942295159 0 0.40314543767268041 0.26628132812019062 0 0.40261432255110557 0.2591974463948703 0 0.4102477549073788 0.26218697971185451 0 0.39652528443443541 0.26602108433923172 0 0.40314543767268041 0.26628132812019062 0 0.40261432255110557 0.2591974463948703 0 0.39694783887429202 0.25665801462697369 0 0.39076099996452451 0.26088076582705338 0 0.3851014018637105 0.24865361761834301 0 0.39652528443443541 0.26602108433923172 0 0.39694783887429202 0.25665801462697369 0 0.39076099996452451 0.26088076582705338 0 0.36758749917058081 0.26475636477001052 0 0.38380083344476229 0.26018702655222931 0 0.37528933983598339 0.2516803105044455 0 0.39076099996452451 0.26088076582705338 0 0.38380083344476229 0.26018702655222931 0 0.38727628432506189 0.2718715498659553 0 0.39076099996452451 0.26088076582705338 0 0.38380083344476229 0.26018702655222931 0 0.3851014018637105 0.24865361761834301 0 0.38380083344476229 0.26018702655222931 0 0.37528933983598339 0.2516803105044455 0 0.3851014018637105 0.24865361761834301 0 0.37044446870680892 0.2813572317685708 0 0.38380083344476229 0.26018702655222931 0 0.38727628432506189 0.2718715498659553 0 0.37044446870680892 0.2813572317685708 0 0.38727628432506189 0.2718715498659553 0 0.38713316003829751 0.28557933016289699 0 0.37044446870680892 0.2813572317685708 0 0.38380083344476229 0.26018702655222931 0 0.39470063413066142 0.27713259533371859 0 0.38727628432506189 0.2718715498659553 0 0.38713316003829751 0.28557933016289699 0 0.38713316003829751 0.28557933016289699 0 0.37820881678139101 0.30180542408454492 0 0.39440703963834173 0.29708176233351002 0 0.37044446870680892 0.2813572317685708 0 0.38713316003829751 0.28557933016289699 0 0.37820881678139101 0.30180542408454492 0 0.37820881678139101 0.30180542408454492 0 0.38992071104990889 0.30590937355616488 0 0.39440703963834173 0.29708176233351002 0 0.37820881678139101 0.30180542408454492 0 0.38992071104990889 0.30590937355616488 0 0.38638894663461071 0.31638866132751081 0 0.39967044641517502 0.30615952484716108 0 0.40771755033646462 0.31273417089063832 0 0.38638894663461071 0.31638866132751081 0 0.38992071104990889 0.30590937355616488 0 0.39967044641517502 0.30615952484716108 0 0.38638894663461071 0.31638866132751081 0 0.38992071104990889 0.30590937355616488 0 0.39440703963834173 0.29708176233351002 0 0.39967044641517502 0.30615952484716108 0 0.39440703963834173 0.29708176233351002 0 0.39967044641517502 0.30615952484716108 0 0.40714850358617011 0.29953143273084659 0 0.39967044641517502 0.30615952484716108 0 0.40710561726514272 0.30584376598160767 0 0.40714850358617011 0.29953143273084659 0 0.39967044641517502 0.30615952484716108 0 0.40710561726514272 0.30584376598160767 0 0.40771755033646462 0.31273417089063832 0 0.39470063413066142 0.27713259533371859 0 0.38713316003829751 0.28557933016289699 0 0.39812561299596438 0.28681657093473961 0 0.38713316003829751 0.28557933016289699 0 0.39440703963834173 0.29708176233351002 0 0.39812561299596438 0.28681657093473961 0 0.39440703963834173 0.29708176233351002 0 0.40460625909683873 0.29164768111746991 0 0.40714850358617011 0.29953143273084659 0 0.39440703963834173 0.29708176233351002 0 0.39812561299596438 0.28681657093473961 0 0.40460625909683873 0.29164768111746991 0 0.39812561299596438 0.28681657093473961 0 0.40460625909683873 0.29164768111746991 0 0.40987437424562068 0.28551699092291299 0 0.40385728801139059 0.27890413638547362 0 0.39812561299596438 0.28681657093473961 0 0.40987437424562068 0.28551699092291299 0 0.40987437424562068 0.28551699092291299 0 0.41822161127790553 0.28445530472679947 0 0.41319979274464519 0.27738062288505549 0 0.40460625909683873 0.29164768111746991 0 0.41629759411098438 0.29445274190373949 0 0.40714850358617011 0.29953143273084659 0 0.40460625909683873 0.29164768111746991 0 0.40987437424562068 0.28551699092291299 0 0.41629759411098438 0.29445274190373949 0 0.41629759411098438 0.29445274190373949 0 0.41822161127790553 0.28445530472679947 0 0.42799968526956372 0.29057357123828731 0 0.40987437424562068 0.28551699092291299 0 0.41629759411098438 0.29445274190373949 0 0.41822161127790553 0.28445530472679947 0 0.41310151011789931 0.30478081484122482 0 0.42390308282064909 0.30893967459681287 0 0.40771755033646462 0.31273417089063832 0 0.40710561726514272 0.30584376598160767 0 0.41310151011789931 0.30478081484122482 0 0.40771755033646462 0.31273417089063832 0 0.41629759411098438 0.29445274190373949 0 0.41310151011789931 0.30478081484122482 0 0.40714850358617011 0.29953143273084659 0 0.40710561726514272 0.30584376598160767 0 0.41310151011789931 0.30478081484122482 0 0.40714850358617011 0.29953143273084659 0 0.41629759411098438 0.29445274190373949 0 0.41310151011789931 0.30478081484122482 0 0.42390308282064909 0.30893967459681287 0 0.42390308282064909 0.30893967459681287 0 0.44476473060902078 0.29911928121267972 0 0.42390308282064909 0.30893967459681287 0 0.42799968526956372 0.29057357123828731 0 0.44476473060902078 0.29911928121267972 0 0.42390308282064909 0.30893967459681287 0 0.44476473060902078 0.29911928121267972 0 0.43539240671831331 0.3211923413259804 0 0.41629759411098438 0.29445274190373949 0 0.42390308282064909 0.30893967459681287 0 0.42799968526956372 0.29057357123828731 0 0.42799968526956372 0.29057357123828731 0 0.43601355656381041 0.27953759943549822 0 0.42373661001871382 0.2743525966840023 0 0.42799968526956372 0.29057357123828731 0 0.43601355656381041 0.27953759943549822 0 0.44476473060902078 0.29911928121267972 0 0.41822161127790553 0.28445530472679947 0 0.42799968526956372 0.29057357123828731 0 0.42373661001871382 0.2743525966840023 0 0.43601355656381041 0.27953759943549822 0 0.42373661001871382 0.2743525966840023 0 0.43565072133448379 0.25822535824775361 0 0.42373661001871382 0.2743525966840023 0 0.41481892756114819 0.26906124161868361 0 0.41319979274464519 0.27738062288505549 0 0.41822161127790553 0.28445530472679947 0 0.42373661001871382 0.2743525966840023 0 0.41319979274464519 0.27738062288505549 0 0.42373661001871382 0.2743525966840023 0 0.41481892756114819 0.26906124161868361 0 0.41919535871435182 0.26006763435095681 0 0.41481892756114819 0.26906124161868361 0 0.40771512142065158 0.27131837446154888 0 0.41319979274464519 0.27738062288505549 0 0.40314543767268041 0.26628132812019062 0 0.40771512142065158 0.27131837446154888 0 0.4102477549073788 0.26218697971185451 0 0.41481892756114819 0.26906124161868361 0 0.40771512142065158 0.27131837446154888 0 0.4102477549073788 0.26218697971185451 0 0.40385728801139059 0.27890413638547362 0 0.40987437424562068 0.28551699092291299 0 0.41319979274464519 0.27738062288505549 0 0.40385728801139059 0.27890413638547362 0 0.40771512142065158 0.27131837446154888 0 0.41319979274464519 0.27738062288505549 0 0.41152022421885581 0.25092107606466041 0 0.41919535871435182 0.26006763435095681 0 0.42206233639570467 0.2432866090071216 0 0.41152022421885581 0.25092107606466041 0 0.4102477549073788 0.26218697971185451 0 0.41919535871435182 0.26006763435095681 0 0.40261432255110557 0.2591974463948703 0 0.41152022421885581 0.25092107606466041 0 0.4102477549073788 0.26218697971185451 0 0.41481892756114819 0.26906124161868361 0 0.4102477549073788 0.26218697971185451 0 0.41919535871435182 0.26006763435095681 0 0.41919535871435182 0.26006763435095681 0 0.43565072133448379 0.25822535824775361 0 0.42206233639570467 0.2432866090071216 0 0.42373661001871382 0.2743525966840023 0 0.41919535871435182 0.26006763435095681 0 0.43565072133448379 0.25822535824775361 0 0.43565072133448379 0.25822535824775361 0 0.44791603558727 0.27541718979476792 0 0.45963787902983522 0.26320592082835792 0 0.43565072133448379 0.25822535824775361 0 0.45963787902983522 0.26320592082835792 0 0.45150467887599421 0.24531093436574619 0 0.43601355656381041 0.27953759943549822 0 0.43565072133448379 0.25822535824775361 0 0.44791603558727 0.27541718979476792 0 0.45859577635712462 0.2803243195109405 0 0.45963787902983522 0.26320592082835792 0 0.47150919750676312 0.27684213357130621 0 0.44791603558727 0.27541718979476792 0 0.45859577635712462 0.2803243195109405 0 0.45963787902983522 0.26320592082835792 0 0.45963787902983522 0.26320592082835792 0 0.45150467887599421 0.24531093436574619 0 0.47097633483903989 0.24619202949595559 0 0.45963787902983522 0.26320592082835792 0 0.48012571803998749 0.26136264834092421 0 0.47097633483903989 0.24619202949595559 0 0.48012571803998749 0.26136264834092421 0 0.48658190008537833 0.24712965436043061 0 0.47097633483903989 0.24619202949595559 0 0.45963787902983522 0.26320592082835792 0 0.48012571803998749 0.26136264834092421 0 0.47150919750676312 0.27684213357130621 0 0.48195254722517872 0.27251743502559572 0 0.48919413363688108 0.28137159650207733 0 0.47844728778396067 0.28326358443373972 0 0.47150919750676312 0.27684213357130621 0 0.48195254722517872 0.27251743502559572 0 0.47844728778396067 0.28326358443373972 0 0.48012571803998749 0.26136264834092421 0 0.47150919750676312 0.27684213357130621 0 0.48195254722517872 0.27251743502559572 0 0.48195254722517872 0.27251743502559572 0 0.5 0.26526897781140352 0 0.48919413363688108 0.28137159650207733 0 0.5 0.26526897781140352 0 0.5 0.29421201365316779 0 0.48919413363688108 0.28137159650207733 0 0.48012571803998749 0.26136264834092421 0 0.48195254722517872 0.27251743502559572 0 0.5 0.26526897781140352 0 0.48012571803998749 0.26136264834092421 0 0.5 0.26526897781140352 0 0.48658190008537833 0.24712965436043061 0 0.5 0.29421201365316779 0 0.48342891029154589 0.30499392359559352 0 0.5 0.32315504949493251 0 0.5 0.29421201365316779 0 0.48557083317526623 0.29159597158647987 0 0.48342891029154589 0.30499392359559352 0 0.5 0.29421201365316779 0 0.48919413363688108 0.28137159650207733 0 0.48557083317526623 0.29159597158647987 0 0.48919413363688108 0.28137159650207733 0 0.48557083317526623 0.29159597158647987 0 0.47844728778396067 0.28326358443373972 0 0.47720944148396638 0.29482485356790988 0 0.47061771482374332 0.30527737794762461 0 0.46562637839739213 0.28929888782854613 0 0.48557083317526623 0.29159597158647987 0 0.47720944148396638 0.29482485356790988 0 0.47844728778396067 0.28326358443373972 0 0.47150919750676312 0.27684213357130621 0 0.47844728778396067 0.28326358443373972 0 0.46562637839739213 0.28929888782854613 0 0.47844728778396067 0.28326358443373972 0 0.46562637839739213 0.28929888782854613 0 0.47720944148396638 0.29482485356790988 0 0.47844728778396067 0.28326358443373972 0 0.46562637839739213 0.28929888782854613 0 0.48342891029154589 0.30499392359559352 0 0.47061771482374332 0.30527737794762461 0 0.47464334488081378 0.32236853331879411 0 0.47720944148396638 0.29482485356790988 0 0.48342891029154589 0.30499392359559352 0 0.47061771482374332 0.30527737794762461 0 0.48557083317526623 0.29159597158647987 0 0.47720944148396638 0.29482485356790988 0 0.48342891029154589 0.30499392359559352 0 0.47061771482374332 0.30527737794762461 0 0.46562637839739213 0.28929888782854613 0 0.45343332474440862 0.31511744015468862 0 0.46562637839739213 0.28929888782854613 0 0.44476473060902078 0.29911928121267972 0 0.45343332474440862 0.31511744015468862 0 0.46562637839739213 0.28929888782854613 0 0.45343332474440862 0.31511744015468862 0 0.45859577635712462 0.2803243195109405 0 0.46562637839739213 0.28929888782854613 0 0.44476473060902078 0.29911928121267972 0 0.46562637839739213 0.28929888782854613 0 0.44476473060902078 0.29911928121267972 0 0.45859577635712462 0.2803243195109405 0 0.47150919750676312 0.27684213357130621 0 0.46562637839739213 0.28929888782854613 0 0.47150919750676312 0.27684213357130621 0 0.46562637839739213 0.28929888782854613 0 0.43601355656381041 0.27953759943549822 0 0.44791603558727 0.27541718979476792 0 0.44476473060902078 0.29911928121267972 0 0.44791603558727 0.27541718979476792 0 0.45859577635712462 0.2803243195109405 0 0.44476473060902078 0.29911928121267972 0 0.44476473060902078 0.29911928121267972 0 0.45343332474440862 0.31511744015468862 0 0.43539240671831331 0.3211923413259804 0 0.44124027109142572 0.3409359924808314 0 0.45343332474440862 0.31511744015468862 0 0.43539240671831331 0.3211923413259804 0 0.44124027109142572 0.3409359924808314 0 0.45343332474440862 0.31511744015468862 0 0.44124027109142572 0.3409359924808314 0 0.45994859642086472 0.33264193303842188 0 0.45343332474440862 0.31511744015468862 0 0.44124027109142572 0.3409359924808314 0 0.45994859642086472 0.33264193303842188 0 0.46143644976853782 0.34804624954037761 0 0.45994859642086472 0.33264193303842188 0 0.47253371060999533 0.3402591427983605 0 0.46143644976853782 0.34804624954037761 0 0.47061771482374332 0.30527737794762461 0 0.45343332474440862 0.31511744015468862 0 0.47464334488081378 0.32236853331879411 0 0.45994859642086472 0.33264193303842188 0 0.45343332474440862 0.31511744015468862 0 0.47464334488081378 0.32236853331879411 0 0.47464334488081378 0.32236853331879411 0 0.47253371060999533 0.3402591427983605 0 0.48599942683938152 0.33776290423028571 0 0.45994859642086472 0.33264193303842188 0 0.47464334488081378 0.32236853331879411 0 0.47253371060999533 0.3402591427983605 0 0.47253371060999533 0.3402591427983605 0 0.48599942683938152 0.33776290423028571 0 0.48282007870609828 0.35093371020264358 0 0.48599942683938152 0.33776290423028571 0 0.5 0.32315504949493251 0 0.49999999999999828 0.35209808533669729 0 0.48342891029154589 0.30499392359559352 0 0.47464334488081378 0.32236853331879411 0 0.5 0.32315504949493251 0 0.47464334488081378 0.32236853331879411 0 0.48599942683938152 0.33776290423028571 0 0.5 0.32315504949493251 0 0.49999999999999972 0.36864881039903641 0 0.48048279982149539 0.36814342646923792 0 0.47986229569730432 0.37908461075164851 0 0.49999999999999828 0.35209808533669729 0 0.48048279982149539 0.36814342646923792 0 0.49999999999999972 0.36864881039903641 0 0.47986229569730432 0.37908461075164851 0 0.49999999999999972 0.36864881039903641 0 0.49999999999999828 0.35209808533669729 0 0.48048279982149539 0.36814342646923792 0 0.49999999999999828 0.35209808533669729 0 0.48282007870609828 0.35093371020264358 0 0.48048279982149539 0.36814342646923792 0 0.48599942683938152 0.33776290423028571 0 0.49999999999999828 0.35209808533669729 0 0.48282007870609828 0.35093371020264358 0 0.47253371060999533 0.3402591427983605 0 0.48282007870609828 0.35093371020264358 0 0.4707809033776128 0.35691688998627791 0 0.48282007870609828 0.35093371020264358 0 0.4707809033776128 0.35691688998627791 0 0.48048279982149539 0.36814342646923792 0 0.48048279982149539 0.36814342646923792 0 0.46536663567946362 0.36881778976235591 0 0.46096559964299322 0.38418876760177939 0 0.4707809033776128 0.35691688998627791 0 0.48048279982149539 0.36814342646923792 0 0.46536663567946362 0.36881778976235591 0 0.4707809033776128 0.35691688998627791 0 0.46536663567946362 0.36881778976235591 0 0.4592240741581094 0.36211393216299692 0 0.46536663567946362 0.36881778976235591 0 0.4592240741581094 0.36211393216299692 0 0.45537980139710688 0.37272593259148701 0 0.47253371060999533 0.3402591427983605 0 0.4707809033776128 0.35691688998627791 0 0.46143644976853782 0.34804624954037761 0 0.4707809033776128 0.35691688998627791 0 0.4592240741581094 0.36211393216299692 0 0.46143644976853782 0.34804624954037761 0 0.4592240741581094 0.36211393216299692 0 0.46143644976853782 0.34804624954037761 0 0.45156420925523788 0.35375373378071051 0 0.44124027109142572 0.3409359924808314 0 0.45156420925523788 0.35375373378071051 0 0.44399045338020943 0.36264432336400998 0 0.44124027109142572 0.3409359924808314 0 0.46143644976853782 0.34804624954037761 0 0.45156420925523788 0.35375373378071051 0 0.44124027109142572 0.3409359924808314 0 0.44399045338020943 0.36264432336400998 0 0.42904721743844049 0.36675454480697328 0 0.45537980139710688 0.37272593259148701 0 0.44399045338020943 0.36264432336400998 0 0.44438590441652459 0.37813747795561758 0 0.4592240741581094 0.36211393216299692 0 0.45537980139710688 0.37272593259148701 0 0.44399045338020943 0.36264432336400998 0 0.4592240741581094 0.36211393216299692 0 0.45156420925523788 0.35375373378071051 0 0.44399045338020943 0.36264432336400998 0 0.44399045338020943 0.36264432336400998 0 0.42904721743844049 0.36675454480697328 0 0.44438590441652459 0.37813747795561758 0 0.42904721743844049 0.36675454480697328 0 0.44438590441652459 0.37813747795561758 0 0.42904721743844049 0.36675454480697328 0 0.42572017956071773 0.37379948235763372 0 0.42056632278418232 0.37105032583342018 0 0.42904721743844049 0.36675454480697328 0 0.42056632278418232 0.37105032583342018 0 0.42020736724060959 0.3672163413775702 0 0.42904721743844049 0.36675454480697328 0 0.42572017956071773 0.37379948235763372 0 0.43235100829920692 0.38028934934578218 0 0.42904721743844049 0.36675454480697328 0 0.42572017956071773 0.37379948235763372 0 0.42904721743844049 0.36675454480697328 0 0.41537813434248422 0.36260859511370519 0 0.40780027062566071 0.35098705600377827 0 0.42572017956071773 0.37379948235763372 0 0.42056632278418232 0.37105032583342018 0 0.41721521757900631 0.37554960036565121 0 0.41587196005976201 0.36905104094055718 0 0.42056632278418232 0.37105032583342018 0 0.41721521757900631 0.37554960036565121 0 0.41587196005976201 0.36905104094055718 0 0.41118493895219033 0.37182176891622493 0 0.41721521757900631 0.37554960036565121 0 0.41587196005976201 0.36905104094055718 0 0.42056632278418232 0.37105032583342018 0 0.42020736724060959 0.3672163413775702 0 0.42904721743844049 0.36675454480697328 0 0.42020736724060959 0.3672163413775702 0 0.41537813434248422 0.36260859511370519 0 0.41587196005976201 0.36905104094055718 0 0.42020736724060959 0.3672163413775702 0 0.41537813434248422 0.36260859511370519 0 0.41587196005976201 0.36905104094055718 0 0.41537813434248422 0.36260859511370519 0 0.4106797794600997 0.36605961403677129 0 0.41537813434248422 0.36260859511370519 0 0.4106797794600997 0.36605961403677129 0 0.40901640061148559 0.35889388588311449 0 0.4106797794600997 0.36605961403677129 0 0.40901640061148559 0.35889388588311449 0 0.40612588031322122 0.361815833609404 0 0.4106797794600997 0.36605961403677129 0 0.40738171314076388 0.36903177367515089 0 0.40595934456925808 0.3655572449861117 0 0.4106797794600997 0.36605961403677129 0 0.40595934456925808 0.3655572449861117 0 0.40612588031322122 0.361815833609404 0 0.4106797794600997 0.36605961403677129 0 0.40738171314076388 0.36903177367515089 0 0.41118493895219033 0.37182176891622493 0 0.40738171314076388 0.36903177367515089 0 0.40703726409019281 0.37288032999234982 0 0.41118493895219033 0.37182176891622493 0 0.40703726409019281 0.37288032999234982 0 0.41118493895219033 0.37182176891622493 0 0.40853678574376973 0.37810096365639478 0 0.41587196005976201 0.36905104094055718 0 0.4106797794600997 0.36605961403677129 0 0.41118493895219033 0.37182176891622493 0 0.42904721743844049 0.36675454480697328 0 0.40780027062566071 0.35098705600377827 0 0.42904721743844049 0.36675454480697328 0 0.40780027062566071 0.35098705600377827 0 0.41893499549090268 0.35217612991446529 0 0.40780027062566071 0.35098705600377827 0 0.41356064299408052 0.34140090446008448 0 0.40450732836741682 0.34015317937767181 0 0.40780027062566071 0.35098705600377827 0 0.41893499549090268 0.35217612991446529 0 0.41356064299408052 0.34140090446008448 0 0.41537813434248422 0.36260859511370519 0 0.40780027062566071 0.35098705600377827 0 0.40901640061148559 0.35889388588311449 0 0.40780027062566071 0.35098705600377827 0 0.40901640061148559 0.35889388588311449 0 0.40526903986951018 0.35597527142584018 0 0.40901640061148559 0.35889388588311449 0 0.40612588031322122 0.361815833609404 0 0.40526903986951018 0.35597527142584018 0 0.41893499549090268 0.35217612991446529 0 0.42533185090542952 0.34956201438702528 0 0.41356064299408052 0.34140090446008448 0 0.44124027109142572 0.3409359924808314 0 0.42904721743844049 0.36675454480697328 0 0.42533185090542952 0.34956201438702528 0 0.44124027109142572 0.3409359924808314 0 0.42904721743844049 0.36675454480697328 0 0.42904721743844049 0.36675454480697328 0 0.41893499549090268 0.35217612991446529 0 0.42533185090542952 0.34956201438702528 0 0.44124027109142572 0.3409359924808314 0 0.43539240671831331 0.3211923413259804 0 0.42119257665958848 0.33291003900893529 0 0.44124027109142572 0.3409359924808314 0 0.42533185090542952 0.34956201438702528 0 0.42119257665958848 0.33291003900893529 0 0.43539240671831331 0.3211923413259804 0 0.4204834713383977 0.32121202131190307 0 0.42119257665958848 0.33291003900893529 0 0.42390308282064909 0.30893967459681287 0 0.43539240671831331 0.3211923413259804 0 0.4204834713383977 0.32121202131190307 0 0.42390308282064909 0.30893967459681287 0 0.40304143503227757 0.31876006798094608 0 0.42390308282064909 0.30893967459681287 0 0.4204834713383977 0.32121202131190307 0 0.40304143503227757 0.31876006798094608 0 0.4204834713383977 0.32121202131190307 0 0.41182120326648058 0.32644870108639418 0 0.40304143503227757 0.31876006798094608 0 0.42390308282064909 0.30893967459681287 0 0.40771755033646462 0.31273417089063832 0 0.40304143503227757 0.31876006798094608 0 0.4204834713383977 0.32121202131190307 0 0.41182120326648058 0.32644870108639418 0 0.42119257665958848 0.33291003900893529 0 0.42533185090542952 0.34956201438702528 0 0.42119257665958848 0.33291003900893529 0 0.41356064299408052 0.34140090446008448 0 0.42119257665958848 0.33291003900893529 0 0.41093455999392381 0.33375924668650653 0 0.41356064299408052 0.34140090446008448 0 0.41182120326648058 0.32644870108639418 0 0.42119257665958848 0.33291003900893529 0 0.41093455999392381 0.33375924668650653 0 0.41182120326648058 0.32644870108639418 0 0.41093455999392381 0.33375924668650653 0 0.40333999985801788 0.326755763481824 0 0.41093455999392381 0.33375924668650653 0 0.41356064299408052 0.34140090446008448 0 0.40450732836741682 0.34015317937767181 0 0.40780027062566071 0.35098705600377827 0 0.38655332381288099 0.33521956720058288 0 0.40780027062566071 0.35098705600377827 0 0.40450732836741682 0.34015317937767181 0 0.38655332381288099 0.33521956720058288 0 0.40450732836741682 0.34015317937767181 0 0.40055775608438893 0.33331573445569879 0 0.38655332381288099 0.33521956720058288 0 0.40055775608438893 0.33331573445569879 0 0.40333999985801788 0.326755763481824 0 0.393551674015308 0.32648859480832387 0 0.41093455999392381 0.33375924668650653 0 0.40450732836741682 0.34015317937767181 0 0.40055775608438893 0.33331573445569879 0 0.41093455999392381 0.33375924668650653 0 0.40055775608438893 0.33331573445569879 0 0.40333999985801788 0.326755763481824 0 0.40055775608438893 0.33331573445569879 0 0.393551674015308 0.32648859480832387 0 0.38655332381288099 0.33521956720058288 0 0.40771755033646462 0.31273417089063832 0 0.40304143503227757 0.31876006798094608 0 0.38638894663461071 0.31638866132751081 0 0.40304143503227757 0.31876006798094608 0 0.393551674015308 0.32648859480832387 0 0.38638894663461071 0.31638866132751081 0 0.40771755033646462 0.31273417089063832 0 0.38638894663461071 0.31638866132751081 0 0.41182120326648058 0.32644870108639418 0 0.40304143503227757 0.31876006798094608 0 0.40333999985801788 0.326755763481824 0 0.40304143503227757 0.31876006798094608 0 0.40333999985801788 0.326755763481824 0 0.393551674015308 0.32648859480832387 0 0.3650603429327568 0.32004315176438342 0 0.38638894663461071 0.31638866132751081 0 0.3650603429327568 0.32004315176438342 0 0.37820881678139101 0.30180542408454492 0 0.38638894663461071 0.31638866132751081 0 0.3650603429327568 0.32004315176438342 0 0.38638894663461071 0.31638866132751081 0 0.37703893261359439 0.32588644906304071 0 0.393551674015308 0.32648859480832387 0 0.38638894663461071 0.31638866132751081 0 0.37703893261359439 0.32588644906304071 0 0.393551674015308 0.32648859480832387 0 0.37703893261359439 0.32588644906304071 0 0.38655332381288099 0.33521956720058288 0 0.3646611251318328 0.33428532826118501 0 0.38655332381288099 0.33521956720058288 0 0.37505285242633152 0.34639480194945199 0 0.3646611251318328 0.33428532826118501 0 0.37703893261359439 0.32588644906304071 0 0.38655332381288099 0.33521956720058288 0 0.38655332381288099 0.33521956720058288 0 0.37505285242633152 0.34639480194945199 0 0.38689087847053899 0.3506370427698855 0 0.38689087847053899 0.3506370427698855 0 0.38048177127572208 0.36121957412058631 0 0.39146955306913039 0.36154624006850861 0 0.37505285242633152 0.34639480194945199 0 0.38689087847053899 0.3506370427698855 0 0.38048177127572208 0.36121957412058631 0 0.37256631973666682 0.37532759589670961 0 0.38048177127572208 0.36121957412058631 0 0.38786235635103861 0.3715231845975589 0 0.38048177127572208 0.36121957412058631 0 0.38786235635103861 0.3715231845975589 0 0.39146955306913039 0.36154624006850861 0 0.39146955306913039 0.36154624006850861 0 0.40089689176863019 0.34880503051029749 0 0.39627205958584399 0.37570742805864948 0 0.40089689176863019 0.34880503051029749 0 0.39627205958584399 0.37570742805864948 0 0.4001586817205125 0.36756982484962242 0 0.40089689176863019 0.34880503051029749 0 0.39627205958584399 0.37570742805864948 0 0.38786235635103861 0.3715231845975589 0 0.39146955306913039 0.36154624006850861 0 0.39627205958584399 0.37570742805864948 0 0.4009472317496951 0.37322257271302939 0 0.4001586817205125 0.36756982484962242 0 0.39627205958584399 0.37570742805864948 0 0.4009472317496951 0.37322257271302939 0 0.39922198031560469 0.37375465211765613 0 0.39627205958584399 0.37570742805864948 0 0.4009472317496951 0.37322257271302939 0 0.39922198031560469 0.37375465211765613 0 0.39990030538211202 0.3760883443969868 0 0.4009472317496951 0.37322257271302939 0 0.40160101963748568 0.37022631428648972 0 0.40428382913172578 0.37125458618529528 0 0.4009472317496951 0.37322257271302939 0 0.40160101963748568 0.37022631428648972 0 0.4001586817205125 0.36756982484962242 0 0.40160101963748568 0.37022631428648972 0 0.4001586817205125 0.36756982484962242 0 0.40326007953236792 0.36760743499502591 0 0.40738171314076388 0.36903177367515089 0 0.40326007953236792 0.36760743499502591 0 0.40428382913172578 0.37125458618529528 0 0.40738171314076388 0.36903177367515089 0 0.40326007953236792 0.36760743499502591 0 0.40595934456925808 0.3655572449861117 0 0.40738171314076388 0.36903177367515089 0 0.40703726409019281 0.37288032999234982 0 0.40428382913172578 0.37125458618529528 0 0.40160101963748568 0.37022631428648972 0 0.40326007953236792 0.36760743499502591 0 0.40428382913172578 0.37125458618529528 0 0.4009472317496951 0.37322257271302939 0 0.40428382913172578 0.37125458618529528 0 0.40379905348251449 0.37419255752868302 0 0.40703726409019281 0.37288032999234982 0 0.40428382913172578 0.37125458618529528 0 0.40379905348251449 0.37419255752868302 0 0.4001586817205125 0.36756982484962242 0 0.40222876893619092 0.36002400741203211 0 0.40360194843278258 0.36438497791255409 0 0.4001586817205125 0.36756982484962242 0 0.40326007953236792 0.36760743499502591 0 0.40360194843278258 0.36438497791255409 0 0.40326007953236792 0.36760743499502591 0 0.40360194843278258 0.36438497791255409 0 0.40595934456925808 0.3655572449861117 0 0.40360194843278258 0.36438497791255409 0 0.40595934456925808 0.3655572449861117 0 0.40612588031322122 0.361815833609404 0 0.40222876893619092 0.36002400741203211 0 0.40360194843278258 0.36438497791255409 0 0.40612588031322122 0.361815833609404 0 0.40222876893619092 0.36002400741203211 0 0.40526903986951018 0.35597527142584018 0 0.40089689176863019 0.34880503051029749 0 0.40780027062566071 0.35098705600377827 0 0.38655332381288099 0.33521956720058288 0 0.40089689176863019 0.34880503051029749 0 0.4001586817205125 0.36756982484962242 0 0.40222876893619092 0.36002400741203211 0 0.40089689176863019 0.34880503051029749 0 0.40222876893619092 0.36002400741203211 0 0.40612588031322122 0.361815833609404 0 0.40526903986951018 0.35597527142584018 0 0.40780027062566071 0.35098705600377827 0 0.40526903986951018 0.35597527142584018 0 0.40089689176863019 0.34880503051029749 0 0.38655332381288099 0.33521956720058288 0 0.38689087847053899 0.3506370427698855 0 0.40089689176863019 0.34880503051029749 0 0.38689087847053899 0.3506370427698855 0 0.39146955306913039 0.36154624006850861 0 0.40089689176863019 0.34880503051029749 0 0.39399080474536669 0.38588834287633028 0 0.3890541459027132 0.40948972962043179 0 0.39328867314060689 0.40021523351696531 0 0.39399080474536669 0.38588834287633028 0 0.3890541459027132 0.40948972962043179 0 0.39328867314060689 0.40021523351696531 0 0.40001110896226438 0.39406156938206471 0 0.39903393770812978 0.38736059577084841 0 0.39328867314060689 0.40021523351696531 0 0.40242139060463178 0.39802274995796288 0 0.4016923241807499 0.40869664002848027 0 0.40242139060463178 0.39802274995796288 0 0.4016923241807499 0.40869664002848027 0 0.41107399060296312 0.39858703824358888 0 0.39328867314060689 0.40021523351696531 0 0.40242139060463178 0.39802274995796288 0 0.40001110896226438 0.39406156938206471 0 0.40001110896226438 0.39406156938206471 0 0.40530043439568919 0.39064769828248208 0 0.39903393770812978 0.38736059577084841 0 0.40242139060463178 0.39802274995796288 0 0.40001110896226438 0.39406156938206471 0 0.40530043439568919 0.39064769828248208 0 0.39328867314060689 0.40021523351696531 0 0.39399080474536669 0.38588834287633028 0 0.39627205958584399 0.37570742805864948 0 0.40530043439568919 0.39064769828248208 0 0.40412747398211701 0.38328307375220738 0 0.39903393770812978 0.38736059577084841 0 0.39399080474536669 0.38588834287633028 0 0.39627205958584399 0.37570742805864948 0 0.38509156982664361 0.39543260624658078 0 0.39627205958584399 0.37570742805864948 0 0.38509156982664361 0.39543260624658078 0 0.39328867314060689 0.40021523351696531 0 0.39627205958584399 0.37570742805864948 0 0.39328867314060689 0.40021523351696531 0 0.39903393770812978 0.38736059577084841 0 0.39627205958584399 0.37570742805864948 0 0.40412747398211701 0.38328307375220738 0 0.39903393770812978 0.38736059577084841 0 0.40058857017513022 0.37977537944892659 0 0.39903393770812978 0.38736059577084841 0 0.40058857017513022 0.37977537944892659 0 0.39627205958584399 0.37570742805864948 0 0.40379905348251449 0.37419255752868302 0 0.40278835134867369 0.37763475131095892 0 0.40853678574376973 0.37810096365639478 0 0.4009472317496951 0.37322257271302939 0 0.40379905348251449 0.37419255752868302 0 0.40278835134867369 0.37763475131095892 0 0.40412747398211701 0.38328307375220738 0 0.40278835134867369 0.37763475131095892 0 0.40853678574376973 0.37810096365639478 0 0.40412747398211701 0.38328307375220738 0 0.40278835134867369 0.37763475131095892 0 0.40058857017513022 0.37977537944892659 0 0.40058857017513022 0.37977537944892659 0 0.39990030538211202 0.3760883443969868 0 0.39627205958584399 0.37570742805864948 0 0.4009472317496951 0.37322257271302939 0 0.40278835134867369 0.37763475131095892 0 0.39990030538211202 0.3760883443969868 0 0.40278835134867369 0.37763475131095892 0 0.40058857017513022 0.37977537944892659 0 0.39990030538211202 0.3760883443969868 0 0.39922198031560469 0.37375465211765613 0 0.39990030538211202 0.3760883443969868 0 0.39627205958584399 0.37570742805864948 0 0.39627205958584399 0.37570742805864948 0 0.38317805310703879 0.38149070370813648 0 0.38509156982664361 0.39543260624658078 0 0.38786235635103861 0.3715231845975589 0 0.39627205958584399 0.37570742805864948 0 0.38317805310703879 0.38149070370813648 0 0.37483230190347849 0.38861460742432241 0 0.37256631973666682 0.37532759589670961 0 0.38317805310703879 0.38149070370813648 0 0.37256631973666682 0.37532759589670961 0 0.38786235635103861 0.3715231845975589 0 0.38317805310703879 0.38149070370813648 0 0.37483230190347849 0.38861460742432241 0 0.38317805310703879 0.38149070370813648 0 0.38509156982664361 0.39543260624658078 0 0.39399080474536669 0.38588834287633028 0 0.38509156982664361 0.39543260624658078 0 0.3890541459027132 0.40948972962043179 0 0.37391108006744328 0.41515778443451218 0 0.38509156982664361 0.39543260624658078 0 0.39328867314060689 0.40021523351696531 0 0.3890541459027132 0.40948972962043179 0 0.38948456382659469 0.42592033502029919 0 0.3890541459027132 0.40948972962043179 0 0.38948456382659469 0.42592033502029919 0 0.38523247027222868 0.42776055761167592 0 0.37391108006744328 0.41515778443451218 0 0.38509156982664361 0.39543260624658078 0 0.3890541459027132 0.40948972962043179 0 0.3890541459027132 0.40948972962043179 0 0.38028827161155299 0.4224186508840671 0 0.38523247027222868 0.42776055761167592 0 0.3890541459027132 0.40948972962043179 0 0.38523247027222868 0.42776055761167592 0 0.37391108006744328 0.41515778443451218 0 0.3890541459027132 0.40948972962043179 0 0.38028827161155299 0.4224186508840671 0 0.38875114708245978 0.43087617364007957 0 0.39800500781741288 0.42971346792988119 0 0.38414087414866938 0.447493491664534 0 0.37407037341599592 0.43193597311679122 0 0.37391108006744328 0.41515778443451218 0 0.38028827161155299 0.4224186508840671 0 0.38411748706005983 0.4330911163645334 0 0.38875114708245978 0.43087617364007957 0 0.38414087414866938 0.447493491664534 0 0.37407037341599592 0.43193597311679122 0 0.38411748706005983 0.4330911163645334 0 0.378027689485055 0.44011016684936782 0 0.37407037341599592 0.43193597311679122 0 0.38028827161155299 0.4224186508840671 0 0.38411748706005983 0.4330911163645334 0 0.38028827161155299 0.4224186508840671 0 0.38523247027222868 0.42776055761167592 0 0.38411748706005983 0.4330911163645334 0 0.38948456382659469 0.42592033502029919 0 0.38875114708245978 0.43087617364007957 0 0.38948456382659469 0.42592033502029919 0 0.38523247027222868 0.42776055761167592 0 0.38948456382659469 0.42592033502029919 0 0.38523247027222868 0.42776055761167592 0 0.38875114708245978 0.43087617364007957 0 0.38523247027222868 0.42776055761167592 0 0.38411748706005983 0.4330911163645334 0 0.38523247027222868 0.42776055761167592 0 0.38411748706005983 0.4330911163645334 0 0.38875114708245978 0.43087617364007957 0 0.39800500781741288 0.42971346792988119 0 0.40665416311566738 0.43320315784405611 0 0.38414087414866938 0.447493491664534 0 0.38948456382659469 0.42592033502029919 0 0.39800500781741288 0.42971346792988119 0 0.41289790634926582 0.41378702704828602 0 0.39800500781741288 0.42971346792988119 0 0.41289790634926582 0.41378702704828602 0 0.40665416311566738 0.43320315784405611 0 0.38948456382659469 0.42592033502029919 0 0.38875114708245978 0.43087617364007957 0 0.39800500781741288 0.42971346792988119 0 0.39328867314060689 0.40021523351696531 0 0.38948456382659469 0.42592033502029919 0 0.38948456382659469 0.42592033502029919 0 0.4016923241807499 0.40869664002848027 0 0.41289790634926582 0.41378702704828602 0 0.38948456382659469 0.42592033502029919 0 0.41289790634926582 0.41378702704828602 0 0.39328867314060689 0.40021523351696531 0 0.38948456382659469 0.42592033502029919 0 0.4016923241807499 0.40869664002848027 0 0.4016923241807499 0.40869664002848027 0 0.41289790634926582 0.41378702704828602 0 0.41107399060296312 0.39858703824358888 0 0.40665416311566738 0.43320315784405611 0 0.42916745208266538 0.41891282402357821 0 0.41289790634926582 0.41378702704828602 0 0.40665416311566738 0.43320315784405611 0 0.42916745208266538 0.41891282402357821 0 0.40665416311566738 0.43320315784405611 0 0.42454973660895717 0.43651709770532032 0 0.42916745208266538 0.41891282402357821 0 0.42454973660895717 0.43651709770532032 0 0.42916745208266538 0.41891282402357821 0 0.44201497644001242 0.44163560781095951 0 0.41289790634926582 0.41378702704828602 0 0.43631124887193751 0.40165371907627317 0 0.41289790634926582 0.41378702704828602 0 0.42916745208266538 0.41891282402357821 0 0.43631124887193751 0.40165371907627317 0 0.41289790634926582 0.41378702704828602 0 0.43631124887193751 0.40165371907627317 0 0.42103851088381861 0.40007196511368542 0 0.43631124887193751 0.40165371907627317 0 0.42924497977042658 0.39086496274860899 0 0.44040354655054098 0.3880931840461086 0 0.43631124887193751 0.40165371907627317 0 0.42924497977042658 0.39086496274860899 0 0.42103851088381861 0.40007196511368542 0 0.42924497977042658 0.39086496274860899 0 0.42103851088381861 0.40007196511368542 0 0.41898262506419293 0.39046016905684189 0 0.41289790634926582 0.41378702704828602 0 0.42103851088381861 0.40007196511368542 0 0.41107399060296312 0.39858703824358888 0 0.42103851088381861 0.40007196511368542 0 0.41107399060296312 0.39858703824358888 0 0.41898262506419293 0.39046016905684189 0 0.41107399060296312 0.39858703824358888 0 0.412149654551555 0.38927334010645448 0 0.41898262506419293 0.39046016905684189 0 0.40242139060463178 0.39802274995796288 0 0.40530043439568919 0.39064769828248208 0 0.41107399060296312 0.39858703824358888 0 0.40530043439568919 0.39064769828248208 0 0.41107399060296312 0.39858703824358888 0 0.412149654551555 0.38927334010645448 0 0.40853678574376973 0.37810096365639478 0 0.4156458671812141 0.38245058736001619 0 0.41721521757900631 0.37554960036565121 0 0.41118493895219033 0.37182176891622493 0 0.40853678574376973 0.37810096365639478 0 0.41721521757900631 0.37554960036565121 0 0.40853678574376973 0.37810096365639478 0 0.40975817213555338 0.38422528569788489 0 0.4156458671812141 0.38245058736001619 0 0.40703726409019281 0.37288032999234982 0 0.40379905348251449 0.37419255752868302 0 0.40853678574376973 0.37810096365639478 0 0.40412747398211701 0.38328307375220738 0 0.40853678574376973 0.37810096365639478 0 0.40975817213555338 0.38422528569788489 0 0.40530043439568919 0.39064769828248208 0 0.40412747398211701 0.38328307375220738 0 0.40975817213555338 0.38422528569788489 0 0.40530043439568919 0.39064769828248208 0 0.40975817213555338 0.38422528569788489 0 0.412149654551555 0.38927334010645448 0 0.40975817213555338 0.38422528569788489 0 0.412149654551555 0.38927334010645448 0 0.4156458671812141 0.38245058736001619 0 0.412149654551555 0.38927334010645448 0 0.41898262506419293 0.39046016905684189 0 0.4156458671812141 0.38245058736001619 0 0.41898262506419293 0.39046016905684189 0 0.4156458671812141 0.38245058736001619 0 0.42365878732702322 0.38181680715765182 0 0.4156458671812141 0.38245058736001619 0 0.41721521757900631 0.37554960036565121 0 0.42365878732702322 0.38181680715765182 0 0.42572017956071773 0.37379948235763372 0 0.42365878732702322 0.38181680715765182 0 0.43235100829920692 0.38028934934578218 0 0.42572017956071773 0.37379948235763372 0 0.41721521757900631 0.37554960036565121 0 0.42365878732702322 0.38181680715765182 0 0.42924497977042658 0.39086496274860899 0 0.42365878732702322 0.38181680715765182 0 0.43235100829920692 0.38028934934578218 0 0.42924497977042658 0.39086496274860899 0 0.41898262506419293 0.39046016905684189 0 0.42365878732702322 0.38181680715765182 0 0.42924497977042658 0.39086496274860899 0 0.43235100829920692 0.38028934934578218 0 0.44040354655054098 0.3880931840461086 0 0.42904721743844049 0.36675454480697328 0 0.43235100829920692 0.38028934934578218 0 0.44438590441652459 0.37813747795561758 0 0.44438590441652459 0.37813747795561758 0 0.44040354655054098 0.3880931840461086 0 0.45972459139460919 0.38952041110426089 0 0.43235100829920692 0.38028934934578218 0 0.44438590441652459 0.37813747795561758 0 0.44040354655054098 0.3880931840461086 0 0.44438590441652459 0.37813747795561758 0 0.45972459139460919 0.38952041110426089 0 0.43631124887193751 0.40165371907627317 0 0.45972459139460919 0.38952041110426089 0 0.43631124887193751 0.40165371907627317 0 0.44040354655054098 0.3880931840461086 0 0.45972459139460919 0.38952041110426089 0 0.43631124887193751 0.40165371907627317 0 0.45168074104966349 0.40462249020310032 0 0.45972459139460919 0.38952041110426089 0 0.45972459139460919 0.38952041110426089 0 0.47677667562186349 0.40217486680058129 0 0.46320653117495431 0.40286555411464109 0 0.45972459139460919 0.38952041110426089 0 0.47677667562186349 0.40217486680058129 0 0.45168074104966349 0.40462249020310032 0 0.46320653117495431 0.40286555411464109 0 0.45972459139460919 0.38952041110426089 0 0.44438590441652459 0.37813747795561758 0 0.45972459139460919 0.38952041110426089 0 0.46096559964299322 0.38418876760177939 0 0.45972459139460919 0.38952041110426089 0 0.46096559964299322 0.38418876760177939 0 0.47986229569730432 0.37908461075164851 0 0.45537980139710688 0.37272593259148701 0 0.44438590441652459 0.37813747795561758 0 0.46096559964299322 0.38418876760177939 0 0.46536663567946362 0.36881778976235591 0 0.45537980139710688 0.37272593259148701 0 0.46096559964299322 0.38418876760177939 0 0.47268194333690311 0.38987637711004502 0 0.47986229569730432 0.37908461075164851 0 0.5 0.39453331438186112 0 0.48048279982149539 0.36814342646923792 0 0.46096559964299322 0.38418876760177939 0 0.47986229569730432 0.37908461075164851 0 0.48048279982149539 0.36814342646923792 0 0.46096559964299322 0.38418876760177939 0 0.45972459139460919 0.38952041110426089 0 0.47986229569730432 0.37908461075164851 0 0.45972459139460919 0.38952041110426089 0 0.47268194333690311 0.38987637711004502 0 0.47986229569730432 0.37908461075164851 0 0.47268194333690311 0.38987637711004502 0 0.47677667562186349 0.40217486680058129 0 0.5 0.39453331438186112 0 0.45972459139460919 0.38952041110426089 0 0.47268194333690311 0.38987637711004502 0 0.47677667562186349 0.40217486680058129 0 0.47677667562186349 0.40217486680058129 0 0.5 0.39453331438186112 0 0.5 0.42041781836468578 0 0.49999999999999972 0.36864881039903641 0 0.47986229569730432 0.37908461075164851 0 0.5 0.39453331438186112 0 0.5 0.42041781836468578 0 0.48125769447583211 0.42818068777801771 0 0.5 0.44630232234751049 0 0.47677667562186349 0.40217486680058129 0 0.5 0.42041781836468578 0 0.48125769447583211 0.42818068777801771 0 0.47677667562186349 0.40217486680058129 0 0.48125769447583211 0.42818068777801771 0 0.46464411663368083 0.41514444835062198 0 0.48125769447583211 0.42818068777801771 0 0.4655701335024045 0.4349753945274577 0 0.46464411663368083 0.41514444835062198 0 0.4655701335024045 0.4349753945274577 0 0.46464411663368083 0.41514444835062198 0 0.44779230493268468 0.42337568574362988 0 0.45168074104966349 0.40462249020310032 0 0.46464411663368083 0.41514444835062198 0 0.44779230493268468 0.42337568574362988 0 0.46320653117495431 0.40286555411464109 0 0.47677667562186349 0.40217486680058129 0 0.46464411663368083 0.41514444835062198 0 0.45168074104966349 0.40462249020310032 0 0.46320653117495431 0.40286555411464109 0 0.46464411663368083 0.41514444835062198 0 0.42916745208266538 0.41891282402357821 0 0.45168074104966349 0.40462249020310032 0 0.42916745208266538 0.41891282402357821 0 0.43631124887193751 0.40165371907627317 0 0.45168074104966349 0.40462249020310032 0 0.42916745208266538 0.41891282402357821 0 0.45168074104966349 0.40462249020310032 0 0.44779230493268468 0.42337568574362988 0 0.4655701335024045 0.4349753945274577 0 0.44779230493268468 0.42337568574362988 0 0.44201497644001242 0.44163560781095951 0 0.42916745208266538 0.41891282402357821 0 0.44779230493268468 0.42337568574362988 0 0.44201497644001242 0.44163560781095951 0 0.44201497644001242 0.44163560781095951 0 0.45200442892765791 0.46650343379620668 0 0.4632293988861898 0.45250576849502872 0 0.45200442892765791 0.46650343379620668 0 0.42800664339148509 0.46366173752914258 0 0.46053630478790403 0.47021745206486348 0 0.43227258132160812 0.46551874666347087 0 0.44201497644001242 0.44163560781095951 0 0.45200442892765791 0.46650343379620668 0 0.42800664339148509 0.46366173752914258 0 0.45200442892765791 0.46650343379620668 0 0.46053630478790403 0.47021745206486348 0 0.43227258132160812 0.46551874666347087 0 0.45200442892765791 0.46650343379620668 0 0.47600221446383068 0.46934513006327078 0 0.45200442892765791 0.46650343379620668 0 0.4632293988861898 0.45250576849502872 0 0.47600221446383068 0.46934513006327078 0 0.45200442892765791 0.46650343379620668 0 0.47600221446383068 0.46934513006327078 0 0.46053630478790403 0.47021745206486348 0 0.4655701335024045 0.4349753945274577 0 0.44201497644001242 0.44163560781095951 0 0.4632293988861898 0.45250576849502872 0 0.4655701335024045 0.4349753945274577 0 0.4632293988861898 0.45250576849502872 0 0.48055524109704362 0.45006927627724858 0 0.48125769447583211 0.42818068777801771 0 0.4655701335024045 0.4349753945274577 0 0.48055524109704362 0.45006927627724858 0 0.4632293988861898 0.45250576849502872 0 0.48055524109704362 0.45006927627724858 0 0.47600221446383068 0.46934513006327078 0 0.48055524109704362 0.45006927627724858 0 0.5 0.44630232234751049 0 0.50000000000000355 0.47218682633033537 0 0.48055524109704362 0.45006927627724858 0 0.50000000000000355 0.47218682633033537 0 0.47600221446383068 0.46934513006327078 0 0.48125769447583211 0.42818068777801771 0 0.48055524109704362 0.45006927627724858 0 0.5 0.44630232234751049 0 0.5 0.5 0 0.46904212967677678 0.48452947881254499 0 0.44315593217892058 0.5 0 0.5 0.5 0 0.48628240317861238 0.48163192292650292 0 0.50000000000000355 0.47218682633033537 0 0.5 0.5 0 0.48628240317861238 0.48163192292650292 0 0.46904212967677678 0.48452947881254499 0 0.48628240317861238 0.48163192292650292 0 0.50000000000000355 0.47218682633033537 0 0.47600221446383068 0.46934513006327078 0 0.50000000000000355 0.47218682633033537 0 0.47600221446383068 0.46934513006327078 0 0.48628240317861238 0.48163192292650292 0 0.47600221446383068 0.46934513006327078 0 0.46904212967677678 0.48452947881254499 0 0.46904212967677678 0.48452947881254499 0 0.44738367309470572 0.48110345980609298 0 0.44315593217892058 0.5 0 0.46904212967677678 0.48452947881254499 0 0.46053630478790403 0.47021745206486348 0 0.44738367309470572 0.48110345980609298 0 0.47600221446383068 0.46934513006327078 0 0.46904212967677678 0.48452947881254499 0 0.46053630478790403 0.47021745206486348 0 0.46053630478790403 0.47021745206486348 0 0.44738367309470572 0.48110345980609298 0 0.44332733430553362 0.47413851251271288 0 0.46053630478790403 0.47021745206486348 0 0.44332733430553362 0.47413851251271288 0 0.43227258132160812 0.46551874666347087 0 0.44738367309470572 0.48110345980609298 0 0.44332733430553362 0.47413851251271288 0 0.43311677801791659 0.47971439151642431 0 0.44738367309470572 0.48110345980609298 0 0.44315593217892058 0.5 0 0.43311677801791659 0.47971439151642431 0 0.44315593217892058 0.5 0 0.4201731535802829 0.48648713445335667 0 0.40115635959375168 0.5 0 0.44315593217892058 0.5 0 0.4201731535802829 0.48648713445335667 0 0.43311677801791659 0.47971439151642431 0 0.4201731535802829 0.48648713445335667 0 0.41674673713850369 0.47262342458492762 0 0.39542128044206082 0.47988863987582048 0 0.41674673713850369 0.47262342458492762 0 0.43311677801791659 0.47971439151642431 0 0.43227258132160812 0.46551874666347087 0 0.4201731535802829 0.48648713445335667 0 0.41674673713850369 0.47262342458492762 0 0.43311677801791659 0.47971439151642431 0 0.44332733430553362 0.47413851251271288 0 0.43311677801791659 0.47971439151642431 0 0.43227258132160812 0.46551874666347087 0 0.45200442892765791 0.46650343379620668 0 0.42800664339148509 0.46366173752914258 0 0.43227258132160812 0.46551874666347087 0 0.42454973660895717 0.43651709770532032 0 0.44201497644001242 0.44163560781095951 0 0.42800664339148509 0.46366173752914258 0 0.42454973660895717 0.43651709770532032 0 0.42800664339148509 0.46366173752914258 0 0.41313126935975519 0.44837775553690179 0 0.40665416311566738 0.43320315784405611 0 0.42454973660895717 0.43651709770532032 0 0.41313126935975519 0.44837775553690179 0 0.41313126935975519 0.44837775553690179 0 0.40400885785531232 0.46082004126207832 0 0.40243694582735468 0.44768674334391201 0 0.40665416311566738 0.43320315784405611 0 0.41313126935975519 0.44837775553690179 0 0.40243694582735468 0.44768674334391201 0 0.42800664339148509 0.46366173752914258 0 0.40400885785531232 0.46082004126207832 0 0.42800664339148509 0.46366173752914258 0 0.41313126935975519 0.44837775553690179 0 0.40400885785531232 0.46082004126207832 0 0.43227258132160812 0.46551874666347087 0 0.40400885785531232 0.46082004126207832 0 0.41674673713850369 0.47262342458492762 0 0.43227258132160812 0.46551874666347087 0 0.40400885785531232 0.46082004126207832 0 0.42800664339148509 0.46366173752914258 0 0.43227258132160812 0.46551874666347087 0 0.40400885785531232 0.46082004126207832 0 0.40400885785531232 0.46082004126207832 0 0.37918082821740617 0.45669250310863502 0 0.40400885785531232 0.46082004126207832 0 0.37918082821740617 0.45669250310863502 0 0.39542128044206082 0.47988863987582048 0 0.40665416311566738 0.43320315784405611 0 0.38414087414866938 0.447493491664534 0 0.40400885785531232 0.46082004126207832 0 0.40243694582735468 0.44768674334391201 0 0.38414087414866938 0.447493491664534 0 0.40665416311566738 0.43320315784405611 0 0.40243694582735468 0.44768674334391201 0 0.38414087414866938 0.447493491664534 0 0.38411748706005983 0.4330911163645334 0 0.37918082821740617 0.45669250310863502 0 0.38411748706005983 0.4330911163645334 0 0.38414087414866938 0.447493491664534 0 0.37918082821740617 0.45669250310863502 0 0.38411748706005983 0.4330911163645334 0 0.378027689485055 0.44011016684936782 0 0.37918082821740617 0.45669250310863502 0 0.37419129279574542 0.44314473613996952 0 0.378027689485055 0.44011016684936782 0 0.37918082821740617 0.45669250310863502 0 0.37419129279574542 0.44314473613996952 0 0.37407037341599592 0.43193597311679122 0 0.378027689485055 0.44011016684936782 0 0.37453035855018479 0.47892566457595898 0 0.37918082821740617 0.45669250310863502 0 0.40400885785531232 0.46082004126207832 0 0.38414087414866938 0.447493491664534 0 0.37918082821740617 0.45669250310863502 0 0.37453035855018479 0.47892566457595898 0 0.37918082821740617 0.45669250310863502 0 0.39542128044206082 0.47988863987582048 0 0.37012227840420991 0.50000000000000133 0 0.40115635959375168 0.5 0 0.39542128044206082 0.47988863987582048 0 0.37012227840420991 0.50000000000000133 0 0.37453035855018479 0.47892566457595898 0 0.39542128044206082 0.47988863987582048 0 0.4201731535802829 0.48648713445335667 0 0.40115635959375168 0.5 0 0.39542128044206082 0.47988863987582048 0 0.41674673713850369 0.47262342458492762 0 0.40400885785531232 0.46082004126207832 0 0.39542128044206082 0.47988863987582048 0 0.32450648552416111 0.088379981768455435 0 0.34859678689825202 0.074079142574882351 0 0.32450648552416111 0.088379981768455435 0 0.34690482730841782 0.094516734939925726 0 0.34859678689825202 0.074079142574882351 0 0.32392853085335838 0.068592320065816684 0 0.32450648552416111 0.088379981768455435 0 0.34859678689825202 0.074079142574882351 0 0.32392853085335838 0.068592320065816684 0 0.34859678689825202 0.074079142574882351 0 0.33728159004108321 0.0607770491281511 0 0.32392853085335838 0.068592320065816684 0 0.34859678689825202 0.074079142574882351 0 0.32392853085335838 0.068592320065816684 0 0.32450648552416111 0.088379981768455435 0 0.30646921255953058 0.085682383350963925 0 0.32450648552416111 0.088379981768455435 0 0.31752943888525348 0.1020076676068072 0 0.30041618415007038 0.1026808209620293 0 0.31752943888525348 0.1020076676068072 0 0.32872025759460127 0.11220484140334611 0 0.30372898693917849 0.1071279439865133 0 0.31752943888525348 0.1020076676068072 0 0.32872025759460127 0.11220484140334611 0 0.32941525232810842 0.09927730642963363 0 0.32450648552416111 0.088379981768455435 0 0.31752943888525348 0.1020076676068072 0 0.32941525232810842 0.09927730642963363 0 0.31660172331269898 0.11450973937251489 0 0.32872025759460127 0.11220484140334611 0 0.30372898693917849 0.1071279439865133 0 0.32872025759460127 0.11220484140334611 0 0.30372898693917849 0.1071279439865133 0 0.31691097171230381 0.1198230338616056 0 0.32315881868877522 0.1235577413001059 0 0.3171368107362974 0.12704034770763281 0 0.31691097171230381 0.1198230338616056 0 0.31077087539991438 0.1216602693227528 0 0.3171368107362974 0.12704034770763281 0 0.31691097171230381 0.1198230338616056 0 0.31077087539991438 0.1216602693227528 0 0.31040583224716178 0.1158598949866539 0 0.31691097171230381 0.1198230338616056 0 0.31660172331269898 0.11450973937251489 0 0.32324256807024948 0.1175329826244557 0 0.31691097171230381 0.1198230338616056 0 0.31660172331269898 0.11450973937251489 0 0.31040583224716178 0.1158598949866539 0 0.31660172331269898 0.11450973937251489 0 0.32324256807024948 0.1175329826244557 0 0.32872025759460127 0.11220484140334611 0 0.32324256807024948 0.1175329826244557 0 0.32872025759460127 0.11220484140334611 0 0.32324256807024948 0.1175329826244557 0 0.32848146732598021 0.11532300237384489 0 0.32872025759460127 0.11220484140334611 0 0.31691097171230381 0.1198230338616056 0 0.32324256807024948 0.1175329826244557 0 0.32315881868877522 0.1235577413001059 0 0.32324256807024948 0.1175329826244557 0 0.33030787378110088 0.1196943877543107 0 0.32848146732598021 0.11532300237384489 0 0.32324256807024948 0.1175329826244557 0 0.32315881868877522 0.1235577413001059 0 0.33030787378110088 0.1196943877543107 0 0.32315881868877522 0.1235577413001059 0 0.33030787378110088 0.1196943877543107 0 0.32823982741342028 0.12685581788910849 0 0.33030787378110088 0.1196943877543107 0 0.3359370344731808 0.12788758339531769 0 0.32823982741342028 0.12685581788910849 0 0.33030787378110088 0.1196943877543107 0 0.33857770480773608 0.1204561738978257 0 0.3359370344731808 0.12788758339531769 0 0.33030787378110088 0.1196943877543107 0 0.33361322329404852 0.1156612568566812 0 0.33857770480773608 0.1204561738978257 0 0.33361322329404852 0.1156612568566812 0 0.33067801404817138 0.1148279620645333 0 0.33415141256127762 0.1115109333986546 0 0.33361322329404852 0.1156612568566812 0 0.33415141256127762 0.1115109333986546 0 0.33912209615481342 0.11416058659603789 0 0.33030787378110088 0.1196943877543107 0 0.32848146732598021 0.11532300237384489 0 0.33067801404817138 0.1148279620645333 0 0.33030787378110088 0.1196943877543107 0 0.33361322329404852 0.1156612568566812 0 0.33067801404817138 0.1148279620645333 0 0.32848146732598021 0.11532300237384489 0 0.33067801404817138 0.1148279620645333 0 0.32872025759460127 0.11220484140334611 0 0.33067801404817138 0.1148279620645333 0 0.32872025759460127 0.11220484140334611 0 0.33415141256127762 0.1115109333986546 0 0.33415141256127762 0.1115109333986546 0 0.33912209615481342 0.11416058659603789 0 0.34506300543557178 0.110416867749576 0 0.33912209615481342 0.11416058659603789 0 0.33857770480773608 0.1204561738978257 0 0.34506300543557178 0.110416867749576 0 0.33361322329404852 0.1156612568566812 0 0.33912209615481342 0.11416058659603789 0 0.33857770480773608 0.1204561738978257 0 0.32872025759460127 0.11220484140334611 0 0.33415141256127762 0.1115109333986546 0 0.34690482730841782 0.094516734939925726 0 0.32872025759460127 0.11220484140334611 0 0.32941525232810842 0.09927730642963363 0 0.34690482730841782 0.094516734939925726 0 0.32872025759460127 0.11220484140334611 0 0.34690482730841782 0.094516734939925726 0 0.32450648552416111 0.088379981768455435 0 0.32941525232810842 0.09927730642963363 0 0.34690482730841782 0.094516734939925726 0 0.33415141256127762 0.1115109333986546 0 0.34690482730841782 0.094516734939925726 0 0.34506300543557178 0.110416867749576 0 0.34690482730841782 0.094516734939925726 0 0.35083541660341921 0.10290343847504969 0 0.34506300543557178 0.110416867749576 0 0.35083541660341921 0.10290343847504969 0 0.34506300543557178 0.110416867749576 0 0.35982128071072839 0.1051485608853017 0 0.34690482730841782 0.094516734939925726 0 0.35083541660341921 0.10290343847504969 0 0.3599129287338646 0.089698405972390677 0 0.35083541660341921 0.10290343847504969 0 0.35982128071072839 0.1051485608853017 0 0.3599129287338646 0.089698405972390677 0 0.33857770480773608 0.1204561738978257 0 0.34506300543557178 0.110416867749576 0 0.3480949376980681 0.12815258032141091 0 0.35982128071072839 0.1051485608853017 0 0.3480949376980681 0.12815258032141091 0 0.35982128071072839 0.1051485608853017 0 0.3480949376980681 0.12815258032141091 0 0.36129937038451421 0.12696452639352079 0 0.34506300543557178 0.110416867749576 0 0.35982128071072839 0.1051485608853017 0 0.3480949376980681 0.12815258032141091 0 0.36689489990363489 0.1149454347428549 0 0.37464688561336812 0.1322020553483933 0 0.36129937038451421 0.12696452639352079 0 0.36689489990363489 0.1149454347428549 0 0.35982128071072839 0.1051485608853017 0 0.36129937038451421 0.12696452639352079 0 0.35982128071072839 0.1051485608853017 0 0.37364086673582048 0.096589521037674236 0 0.37154762372338879 0.082144541449192546 0 0.36689489990363489 0.1149454347428549 0 0.35982128071072839 0.1051485608853017 0 0.3702134004605932 0.1053670772731115 0 0.3702134004605932 0.1053670772731115 0 0.37364086673582048 0.096589521037674236 0 0.37906581057935618 0.104686780263733 0 0.36689489990363489 0.1149454347428549 0 0.3702134004605932 0.1053670772731115 0 0.37906581057935618 0.104686780263733 0 0.35982128071072839 0.1051485608853017 0 0.3702134004605932 0.1053670772731115 0 0.37364086673582048 0.096589521037674236 0 0.35982128071072839 0.1051485608853017 0 0.37154762372338879 0.082144541449192546 0 0.35982128071072839 0.1051485608853017 0 0.37154762372338879 0.082144541449192546 0 0.3599129287338646 0.089698405972390677 0 0.37154762372338879 0.082144541449192546 0 0.3599129287338646 0.089698405972390677 0 0.36508939702223359 0.076828628476504707 0 0.34690482730841782 0.094516734939925726 0 0.3599129287338646 0.089698405972390677 0 0.36508939702223359 0.076828628476504707 0 0.34690482730841782 0.094516734939925726 0 0.34859678689825202 0.074079142574882351 0 0.36285807417586868 0.077251201106328535 0 0.34690482730841782 0.094516734939925726 0 0.36508939702223359 0.076828628476504707 0 0.34690482730841782 0.094516734939925726 0 0.36285807417586868 0.077251201106328535 0 0.36508939702223359 0.076828628476504707 0 0.34859678689825202 0.074079142574882351 0 0.36541462379859768 0.064095490757462986 0 0.36285807417586868 0.077251201106328535 0 0.34859678689825202 0.074079142574882351 0 0.36541462379859768 0.064095490757462986 0 0.34859678689825202 0.074079142574882351 0 0.36541462379859768 0.064095490757462986 0 0.34854319628386837 0.060200367742827013 0 0.34859678689825202 0.074079142574882351 0 0.34854319628386837 0.060200367742827013 0 0.33728159004108321 0.0607770491281511 0 0.34859678689825202 0.074079142574882351 0 0.36285807417586868 0.077251201106328535 0 0.36541462379859768 0.064095490757462986 0 0.36508939702223359 0.076828628476504707 0 0.38327396673604941 0.059140522013083507 0 0.37154762372338879 0.082144541449192546 0 0.36508939702223359 0.076828628476504707 0 0.38327396673604941 0.059140522013083507 0 0.36508939702223359 0.076828628476504707 0 0.38327396673604941 0.059140522013083507 0 0.36541462379859768 0.064095490757462986 0 0.36285807417586868 0.077251201106328535 0 0.36508939702223359 0.076828628476504707 0 0.36541462379859768 0.064095490757462986 0 0.37151109221557738 0.054796404409703743 0 0.36577618318696559 0.054678196740663952 0 0.36541462379859768 0.064095490757462986 0 0.38223246069894479 0.054111838940045627 0 0.36541462379859768 0.064095490757462986 0 0.37151109221557738 0.054796404409703743 0 0.38223246069894479 0.054111838940045627 0 0.36541462379859768 0.064095490757462986 0 0.36577618318696559 0.054678196740663952 0 0.35873202027048162 0.055271811497253062 0 0.36091069081891458 0.048855402903160781 0 0.36577618318696559 0.054678196740663952 0 0.35873202027048162 0.055271811497253062 0 0.36091069081891458 0.048855402903160781 0 0.36577618318696559 0.054678196740663952 0 0.36847830895007139 0.047933263225841967 0 0.37151109221557738 0.054796404409703743 0 0.36847830895007139 0.047933263225841967 0 0.38223246069894479 0.054111838940045627 0 0.37151109221557738 0.054796404409703743 0 0.36577618318696559 0.054678196740663952 0 0.36847830895007139 0.047933263225841967 0 0.36847830895007139 0.047933263225841967 0 0.36461512217683117 0.032152390881424638 0 0.36261259209143748 0.042296406282980287 0 0.36461512217683117 0.032152390881424638 0 0.38223246069894479 0.054111838940045627 0 0.37399099555786552 0.038448956325371757 0 0.36461512217683117 0.032152390881424638 0 0.38223246069894479 0.054111838940045627 0 0.36847830895007139 0.047933263225841967 0 0.36461512217683117 0.032152390881424638 0 0.38223246069894479 0.054111838940045627 0 0.37158142930418731 0.033231919962497268 0 0.37399099555786552 0.038448956325371757 0 0.36461512217683117 0.032152390881424638 0 0.37158142930418731 0.033231919962497268 0 0.37399099555786552 0.038448956325371757 0 0.37676094086129019 0.033302350807218273 0 0.37158142930418731 0.033231919962497268 0 0.37095865862076233 0.029023981835974409 0 0.37676094086129019 0.033302350807218273 0 0.37158142930418731 0.033231919962497268 0 0.36461512217683117 0.032152390881424638 0 0.37095865862076233 0.029023981835974409 0 0.36274548009636282 0.034076276269137729 0 0.36261259209143748 0.042296406282980287 0 0.35533929241836187 0.039406082278981423 0 0.36274548009636282 0.034076276269137729 0 0.36461512217683117 0.032152390881424638 0 0.36261259209143748 0.042296406282980287 0 0.36091069081891458 0.048855402903160781 0 0.36847830895007139 0.047933263225841967 0 0.36261259209143748 0.042296406282980287 0 0.36091069081891458 0.048855402903160781 0 0.36261259209143748 0.042296406282980287 0 0.35482038266779847 0.044917411617669337 0 0.36261259209143748 0.042296406282980287 0 0.35533929241836187 0.039406082278981423 0 0.35482038266779847 0.044917411617669337 0 0.35533929241836187 0.039406082278981423 0 0.35482038266779847 0.044917411617669337 0 0.34822743024712449 0.043036366690147702 0 0.36274548009636282 0.034076276269137729 0 0.35533929241836187 0.039406082278981423 0 0.34996807888552839 0.034224001291879587 0 0.34996807888552839 0.034224001291879587 0 0.34822743024712449 0.043036366690147702 0 0.33835135622362589 0.036908780580941943 0 0.35533929241836187 0.039406082278981423 0 0.34996807888552839 0.034224001291879587 0 0.34822743024712449 0.043036366690147702 0 0.34996807888552839 0.034224001291879587 0 0.34390590142294142 0.023722182667947379 0 0.33835135622362589 0.036908780580941943 0 0.35482038266779847 0.044917411617669337 0 0.34822743024712449 0.043036366690147702 0 0.35149897128757412 0.051021571783814772 0 0.35149897128757412 0.051021571783814772 0 0.34854319628386837 0.060200367742827013 0 0.34054820897314497 0.050234839970290768 0 0.36541462379859768 0.064095490757462986 0 0.34854319628386837 0.060200367742827013 0 0.35873202027048162 0.055271811497253062 0 0.34822743024712449 0.043036366690147702 0 0.35149897128757412 0.051021571783814772 0 0.34054820897314497 0.050234839970290768 0 0.35149897128757412 0.051021571783814772 0 0.34854319628386837 0.060200367742827013 0 0.35873202027048162 0.055271811497253062 0 0.36091069081891458 0.048855402903160781 0 0.35482038266779847 0.044917411617669337 0 0.35149897128757412 0.051021571783814772 0 0.36091069081891458 0.048855402903160781 0 0.35149897128757412 0.051021571783814772 0 0.35873202027048162 0.055271811497253062 0 0.36513402642733928 0.0086728114881906553 0 0.36801494489513581 0.020291893817263859 0 0.38390769732521918 0.01511434078405611 0 0.36513402642733928 0.0086728114881906553 0 0.38390769732521918 0.01511434078405611 0 0.36897188712046558 -0.0066720369852666349 0 0.36513402642733928 0.0086728114881906553 0 0.36801494489513581 0.020291893817263859 0 0.34699778365471767 0.010192942822803421 0 0.36513402642733928 0.0086728114881906553 0 0.35686997754884131 0.00072843394229600783 0 0.36897188712046558 -0.0066720369852666349 0 0.36461512217683117 0.032152390881424638 0 0.36801494489513581 0.020291893817263859 0 0.34699778365471767 0.010192942822803421 0 0.36801494489513581 0.020291893817263859 0 0.37095865862076233 0.029023981835974409 0 0.37683862849852379 0.026551609767686331 0 0.36461512217683117 0.032152390881424638 0 0.36801494489513581 0.020291893817263859 0 0.37095865862076233 0.029023981835974409 0 0.37095865862076233 0.029023981835974409 0 0.37683862849852379 0.026551609767686331 0 0.37676094086129019 0.033302350807218273 0 0.36461512217683117 0.032152390881424638 0 0.34699778365471767 0.010192942822803421 0 0.36461512217683117 0.032152390881424638 0 0.34390590142294142 0.023722182667947379 0 0.34699778365471767 0.010192942822803421 0 0.36274548009636282 0.034076276269137729 0 0.34390590142294142 0.023722182667947379 0 0.36274548009636282 0.034076276269137729 0 0.34996807888552839 0.034224001291879587 0 0.34390590142294142 0.023722182667947379 0 0.36274548009636282 0.034076276269137729 0 0.36461512217683117 0.032152390881424638 0 0.34390590142294142 0.023722182667947379 0 0.36513402642733928 0.0086728114881906553 0 0.34699778365471767 0.010192942822803421 0 0.35686997754884131 0.00072843394229600783 0 0.34699778365471767 0.010192942822803421 0 0.35686997754884131 0.00072843394229600783 0 0.34637621299284282 -0.0092799815565434082 0 0.34699778365471767 0.010192942822803421 0 0.32506632274952008 0.01336808906675703 0 0.32370385960110992 0.0017037311309708769 0 0.34699778365471767 0.010192942822803421 0 0.32370385960110992 0.0017037311309708769 0 0.32938044513260423 -0.01176650523581789 0 0.34390590142294142 0.023722182667947379 0 0.33835135622362589 0.036908780580941943 0 0.32496253329668467 0.032351556958912127 0 0.34390590142294142 0.023722182667947379 0 0.32506632274952008 0.01336808906675703 0 0.34390590142294142 0.023722182667947379 0 0.32506632274952008 0.01336808906675703 0 0.32496253329668467 0.032351556958912127 0 0.34390590142294142 0.023722182667947379 0 0.34699778365471767 0.010192942822803421 0 0.32506632274952008 0.01336808906675703 0 0.32506632274952008 0.01336808906675703 0 0.30924606720827452 0.01200675030678711 0 0.30801313314669643 0.026496804556068839 0 0.32506632274952008 0.01336808906675703 0 0.32496253329668467 0.032351556958912127 0 0.30801313314669643 0.026496804556068839 0 0.32506632274952008 0.01336808906675703 0 0.30622674407609851 0.003013995465567122 0 0.32506632274952008 0.01336808906675703 0 0.32370385960110992 0.0017037311309708769 0 0.30622674407609851 0.003013995465567122 0 0.32506632274952008 0.01336808906675703 0 0.30622674407609851 0.003013995465567122 0 0.30924606720827452 0.01200675030678711 0 0.33728159004108321 0.0607770491281511 0 0.34054820897314497 0.050234839970290768 0 0.32479122719679199 0.050778575286938653 0 0.32392853085335838 0.068592320065816684 0 0.33728159004108321 0.0607770491281511 0 0.32479122719679199 0.050778575286938653 0 0.34854319628386837 0.060200367742827013 0 0.33728159004108321 0.0607770491281511 0 0.34054820897314497 0.050234839970290768 0 0.34822743024712449 0.043036366690147702 0 0.34054820897314497 0.050234839970290768 0 0.33835135622362589 0.036908780580941943 0 0.34054820897314497 0.050234839970290768 0 0.33835135622362589 0.036908780580941943 0 0.32479122719679199 0.050778575286938653 0 0.33835135622362589 0.036908780580941943 0 0.32496253329668467 0.032351556958912127 0 0.32479122719679199 0.050778575286938653 0 0.32496253329668467 0.032351556958912127 0 0.32479122719679199 0.050778575286938653 0 0.30889724955609887 0.043600455967141807 0 0.32496253329668467 0.032351556958912127 0 0.30889724955609887 0.043600455967141807 0 0.30801313314669643 0.026496804556068839 0 0.32392853085335838 0.068592320065816684 0 0.32479122719679199 0.050778575286938653 0 0.2992602748084649 0.063105497556750378 0 0.32479122719679199 0.050778575286938653 0 0.30889724955609887 0.043600455967141807 0 0.2992602748084649 0.063105497556750378 0 0.30889724955609887 0.043600455967141807 0 0.29000290825723007 0.040660540151725641 0 0.2992602748084649 0.063105497556750378 0 0.30889724955609887 0.043600455967141807 0 0.29000290825723007 0.040660540151725641 0 0.30801313314669643 0.026496804556068839 0 0.29000290825723007 0.040660540151725641 0 0.27459201876357131 0.057618675047684073 0 0.2992602748084649 0.063105497556750378 0 0.27459201876357131 0.057618675047684073 0 0.2992602748084649 0.063105497556750378 0 0.30622674407609851 0.003013995465567122 0 0.30017748428423219 0.01345751063314848 0 0.29549614059362789 0.0025927338669159269 0 0.30622674407609851 0.003013995465567122 0 0.30924606720827452 0.01200675030678711 0 0.30017748428423219 0.01345751063314848 0 0.29000290825723007 0.040660540151725641 0 0.30801313314669643 0.026496804556068839 0 0.29262146660328747 0.02509511208084729 0 0.30017748428423219 0.01345751063314848 0 0.30801313314669643 0.026496804556068839 0 0.29262146660328747 0.02509511208084729 0 0.30924606720827452 0.01200675030678711 0 0.30017748428423219 0.01345751063314848 0 0.30801313314669643 0.026496804556068839 0 0.29000290825723007 0.040660540151725641 0 0.29262146660328747 0.02509511208084729 0 0.2724333139843319 0.025950570361782811 0 0.29262146660328747 0.02509511208084729 0 0.28990625564306288 0.01125565815905331 0 0.27547193422033223 0.01093062910157807 0 0.30017748428423219 0.01345751063314848 0 0.29262146660328747 0.02509511208084729 0 0.28990625564306288 0.01125565815905331 0 0.28990625564306288 0.01125565815905331 0 0.29549614059362789 0.0025927338669159269 0 0.28981099862610937 -0.0060079772583931414 0 0.30017748428423219 0.01345751063314848 0 0.28990625564306288 0.01125565815905331 0 0.29549614059362789 0.0025927338669159269 0 0.27547193422033223 0.01093062910157807 0 0.2724333139843319 0.025950570361782811 0 0.25612269832549522 0.0072301428781907408 0 0.27547193422033223 0.01093062910157807 0 0.25612269832549522 0.0072301428781907408 0 0.26593470145343129 -0.0036557619505161211 0 0.27547193422033223 0.01093062910157807 0 0.26593470145343129 -0.0036557619505161211 0 0.27778314131040138 -0.0031190012101286841 0 0.28990625564306288 0.01125565815905331 0 0.27547193422033223 0.01093062910157807 0 0.27778314131040138 -0.0031190012101286841 0 0.29262146660328747 0.02509511208084729 0 0.27547193422033223 0.01093062910157807 0 0.2724333139843319 0.025950570361782811 0 0.24457617574235721 0.023894136327672611 0 0.2724333139843319 0.025950570361782811 0 0.25612269832549522 0.0072301428781907408 0 0.24457617574235721 0.023894136327672611 0 0.2724333139843319 0.025950570361782811 0 0.24457617574235721 0.023894136327672611 0 0.2724333139843319 0.025950570361782811 0 0.261889074401774 0.039946406382272197 0 0.29000290825723007 0.040660540151725641 0 0.2724333139843319 0.025950570361782811 0 0.261889074401774 0.039946406382272197 0 0.29000290825723007 0.040660540151725641 0 0.27459201876357131 0.057618675047684073 0 0.261889074401774 0.039946406382272197 0 0.24992376271867769 0.052131852538617768 0 0.2398062669444756 0.039422663866150343 0 0.261889074401774 0.039946406382272197 0 0.24792671253809631 0.074867168015136071 0 0.24992376271867769 0.052131852538617768 0 0.27459201876357131 0.057618675047684073 0 0.24992376271867769 0.052131852538617768 0 0.27459201876357131 0.057618675047684073 0 0.24992376271867769 0.052131852538617768 0 0.27459201876357131 0.057618675047684073 0 0.261889074401774 0.039946406382272197 0 0.24792671253809631 0.074867168015136071 0 0.27459201876357131 0.057618675047684073 0 0.27223990749339422 0.084395868306817057 0 0.24792671253809631 0.074867168015136071 0 0.27223990749339422 0.084395868306817057 0 0.2537464456283321 0.096974149152850547 0 0.27223990749339422 0.084395868306817057 0 0.2894380458884202 0.092215265451677755 0 0.27873771628375538 0.10205104656968191 0 0.27459201876357131 0.057618675047684073 0 0.27223990749339422 0.084395868306817057 0 0.28866980276102949 0.079031603138847217 0 0.27459201876357131 0.057618675047684073 0 0.28866980276102949 0.079031603138847217 0 0.2992602748084649 0.063105497556750378 0 0.27223990749339422 0.084395868306817057 0 0.2894380458884202 0.092215265451677755 0 0.28866980276102949 0.079031603138847217 0 0.2894380458884202 0.092215265451677755 0 0.28866980276102949 0.079031603138847217 0 0.30646921255953058 0.085682383350963925 0 0.2894380458884202 0.092215265451677755 0 0.30646921255953058 0.085682383350963925 0 0.30041618415007038 0.1026808209620293 0 0.32450648552416111 0.088379981768455435 0 0.30646921255953058 0.085682383350963925 0 0.30041618415007038 0.1026808209620293 0 0.28866980276102949 0.079031603138847217 0 0.30646921255953058 0.085682383350963925 0 0.2992602748084649 0.063105497556750378 0 0.32392853085335838 0.068592320065816684 0 0.30646921255953058 0.085682383350963925 0 0.2992602748084649 0.063105497556750378 0 0.32392853085335838 0.068592320065816684 0 0.2992602748084649 0.063105497556750378 0 0.30271454960440219 0.1165351311524164 0 0.30372898693917849 0.1071279439865133 0 0.2937683906847281 0.1109446815398507 0 0.30271454960440219 0.1165351311524164 0 0.30584040393224821 0.12567109940119969 0 0.29670127670203711 0.1254209561725978 0 0.30271454960440219 0.1165351311524164 0 0.31077087539991438 0.1216602693227528 0 0.30584040393224821 0.12567109940119969 0 0.30271454960440219 0.1165351311524164 0 0.31077087539991438 0.1216602693227528 0 0.31040583224716178 0.1158598949866539 0 0.31660172331269898 0.11450973937251489 0 0.31040583224716178 0.1158598949866539 0 0.30372898693917849 0.1071279439865133 0 0.30271454960440219 0.1165351311524164 0 0.31040583224716178 0.1158598949866539 0 0.30372898693917849 0.1071279439865133 0 0.31752943888525348 0.1020076676068072 0 0.30041618415007038 0.1026808209620293 0 0.30372898693917849 0.1071279439865133 0 0.32450648552416111 0.088379981768455435 0 0.30041618415007038 0.1026808209620293 0 0.30372898693917849 0.1071279439865133 0 0.2937683906847281 0.1109446815398507 0 0.27873771628375538 0.10205104656968191 0 0.30372898693917849 0.1071279439865133 0 0.27873771628375538 0.10205104656968191 0 0.2894380458884202 0.092215265451677755 0 0.30041618415007038 0.1026808209620293 0 0.27873771628375538 0.10205104656968191 0 0.30041618415007038 0.1026808209620293 0 0.30372898693917849 0.1071279439865133 0 0.27873771628375538 0.10205104656968191 0 0.28989230991157627 0.1180646044507913 0 0.27751798263781191 0.12066065145276381 0 0.27873771628375538 0.10205104656968191 0 0.2937683906847281 0.1109446815398507 0 0.28989230991157627 0.1180646044507913 0 0.27873771628375538 0.10205104656968191 0 0.30271454960440219 0.1165351311524164 0 0.2937683906847281 0.1109446815398507 0 0.28989230991157627 0.1180646044507913 0 0.30271454960440219 0.1165351311524164 0 0.28989230991157627 0.1180646044507913 0 0.29670127670203711 0.1254209561725978 0 0.28989230991157627 0.1180646044507913 0 0.27751798263781191 0.12066065145276381 0 0.28634644765509809 0.132467118418754 0 0.27751798263781191 0.12066065145276381 0 0.26232868400494841 0.1171788277300283 0 0.26915260687230719 0.1329332294411377 0 0.27751798263781191 0.12066065145276381 0 0.27873771628375538 0.10205104656968191 0 0.26232868400494841 0.1171788277300283 0 0.27223990749339422 0.084395868306817057 0 0.27873771628375538 0.10205104656968191 0 0.2537464456283321 0.096974149152850547 0 0.27873771628375538 0.10205104656968191 0 0.2537464456283321 0.096974149152850547 0 0.27873771628375538 0.10205104656968191 0 0.2537464456283321 0.096974149152850547 0 0.26232868400494841 0.1171788277300283 0 0.23944745347504129 0.11368656732014169 0 0.2537464456283321 0.096974149152850547 0 0.26232868400494841 0.1171788277300283 0 0.23944745347504129 0.11368656732014169 0 0.26232868400494841 0.1171788277300283 0 0.25018951545366258 0.1321566729109088 0 0.25018951545366258 0.1321566729109088 0 0.26915260687230719 0.1329332294411377 0 0.25950002585385978 0.1460002814590525 0 0.26232868400494841 0.1171788277300283 0 0.25018951545366258 0.1321566729109088 0 0.26915260687230719 0.1329332294411377 0 0.27751798263781191 0.12066065145276381 0 0.26915260687230719 0.1329332294411377 0 0.28634644765509809 0.132467118418754 0 0.26915260687230719 0.1329332294411377 0 0.27631582932116588 0.1476755911070963 0 0.28634644765509809 0.132467118418754 0 0.27631582932116588 0.1476755911070963 0 0.25950002585385978 0.1460002814590525 0 0.26239994986757648 0.1647433014771775 0 0.26915260687230719 0.1329332294411377 0 0.27631582932116588 0.1476755911070963 0 0.25950002585385978 0.1460002814590525 0 0.2433198327392701 0.14920985917628349 0 0.25018951545366258 0.1321566729109088 0 0.25950002585385978 0.1460002814590525 0 0.2433198327392701 0.14920985917628349 0 0.25950002585385978 0.1460002814590525 0 0.26239994986757648 0.1647433014771775 0 0.2474512013313501 0.18180653338194541 0 0.26239994986757648 0.1647433014771775 0 0.26725436396396152 0.18878257502623441 0 0.26239994986757648 0.1647433014771775 0 0.28176657992498599 0.17647756729895911 0 0.26725436396396152 0.18878257502623441 0 0.28176657992498599 0.17647756729895911 0 0.26725436396396152 0.18878257502623441 0 0.28799384903864761 0.19445640893722249 0 0.27631582932116588 0.1476755911070963 0 0.26239994986757648 0.1647433014771775 0 0.28735849048497952 0.16082536578108769 0 0.26239994986757648 0.1647433014771775 0 0.28735849048497952 0.16082536578108769 0 0.28176657992498599 0.17647756729895911 0 0.28735849048497952 0.16082536578108769 0 0.28176657992498599 0.17647756729895911 0 0.30599402095485623 0.1740842126826419 0 0.28176657992498599 0.17647756729895911 0 0.30599402095485623 0.1740842126826419 0 0.28799384903864761 0.19445640893722249 0 0.30599402095485623 0.1740842126826419 0 0.28799384903864761 0.19445640893722249 0 0.28735849048497952 0.16082536578108769 0 0.30599402095485623 0.1740842126826419 0 0.30685267060493487 0.15551774937767801 0 0.30599402095485623 0.1740842126826419 0 0.30685267060493487 0.15551774937767801 0 0.3169176133586934 0.16252656334356019 0 0.3054728357523751 0.14306845774293209 0 0.29871267240686078 0.13436682743982781 0 0.29392064990015981 0.14665208837107499 0 0.30685267060493487 0.15551774937767801 0 0.3054728357523751 0.14306845774293209 0 0.29392064990015981 0.14665208837107499 0 0.30685267060493487 0.15551774937767801 0 0.3054728357523751 0.14306845774293209 0 0.31373837944162147 0.14608514636092779 0 0.3054728357523751 0.14306845774293209 0 0.31555740260933429 0.13588971404945471 0 0.31373837944162147 0.14608514636092779 0 0.3054728357523751 0.14306845774293209 0 0.30679817289863698 0.13412529613244031 0 0.31555740260933429 0.13588971404945471 0 0.30679817289863698 0.13412529613244031 0 0.31148281121135618 0.1297377308031743 0 0.31555740260933429 0.13588971404945471 0 0.31077087539991438 0.1216602693227528 0 0.30584040393224821 0.12567109940119969 0 0.31148281121135618 0.1297377308031743 0 0.30679817289863698 0.13412529613244031 0 0.30584040393224821 0.12567109940119969 0 0.31148281121135618 0.1297377308031743 0 0.30584040393224821 0.12567109940119969 0 0.29871267240686078 0.13436682743982781 0 0.29670127670203711 0.1254209561725978 0 0.30679817289863698 0.13412529613244031 0 0.30584040393224821 0.12567109940119969 0 0.29871267240686078 0.13436682743982781 0 0.3054728357523751 0.14306845774293209 0 0.30679817289863698 0.13412529613244031 0 0.29871267240686078 0.13436682743982781 0 0.29871267240686078 0.13436682743982781 0 0.28634644765509809 0.132467118418754 0 0.29392064990015981 0.14665208837107499 0 0.28989230991157627 0.1180646044507913 0 0.29670127670203711 0.1254209561725978 0 0.28634644765509809 0.132467118418754 0 0.29871267240686078 0.13436682743982781 0 0.29670127670203711 0.1254209561725978 0 0.28634644765509809 0.132467118418754 0 0.28735849048497952 0.16082536578108769 0 0.30685267060493487 0.15551774937767801 0 0.29392064990015981 0.14665208837107499 0 0.27631582932116588 0.1476755911070963 0 0.28735849048497952 0.16082536578108769 0 0.29392064990015981 0.14665208837107499 0 0.27631582932116588 0.1476755911070963 0 0.28634644765509809 0.132467118418754 0 0.29392064990015981 0.14665208837107499 0 0.28524353510662431 0.25393003997790931 0 0.26968448393217709 0.23915064372060299 0 0.28538702072897099 0.23393326543210549 0 0.2405161804709528 0.24565446548208689 0 0.26009744902829041 0.25993885310665937 0 0.25199350520623048 0.23520080144638369 0 0.26009744902829041 0.25993885310665937 0 0.26968448393217709 0.23915064372060299 0 0.25199350520623048 0.23520080144638369 0 0.25199350520623048 0.23520080144638369 0 0.26999367712243899 0.21482860519180311 0 0.26968448393217709 0.23915064372060299 0 0.25199350520623048 0.23520080144638369 0 0.26371375228649158 0.2246007518981232 0 0.25199350520623048 0.23520080144638369 0 0.26999367712243899 0.21482860519180311 0 0.25832012720709152 0.21753672166543811 0 0.25199350520623048 0.23520080144638369 0 0.26371375228649158 0.2246007518981232 0 0.26999367712243899 0.21482860519180311 0 0.25199350520623048 0.23520080144638369 0 0.25139153684532739 0.22292748596965131 0 0.25832012720709152 0.21753672166543811 0 0.25199350520623048 0.23520080144638369 0 0.26371375228649158 0.2246007518981232 0 0.26968448393217709 0.23915064372060299 0 0.27578393375680821 0.22614314303506811 0 0.28538702072897099 0.23393326543210549 0 0.26371375228649158 0.2246007518981232 0 0.27578393375680821 0.22614314303506811 0 0.27541556446127352 0.2139803902542288 0 0.26371375228649158 0.2246007518981232 0 0.27541556446127352 0.2139803902542288 0 0.26968448393217709 0.23915064372060299 0 0.26371375228649158 0.2246007518981232 0 0.27578393375680821 0.22614314303506811 0 0.27578393375680821 0.22614314303506811 0 0.27541556446127352 0.2139803902542288 0 0.28675507539080702 0.2189819164350387 0 0.26999367712243899 0.21482860519180311 0 0.26758123112020638 0.2019152623611726 0 0.28799384903864761 0.19445640893722249 0 0.26999367712243899 0.21482860519180311 0 0.28799384903864761 0.19445640893722249 0 0.27541556446127352 0.2139803902542288 0 0.26999367712243899 0.21482860519180311 0 0.28799384903864761 0.19445640893722249 0 0.26999367712243899 0.21482860519180311 0 0.26348027581045319 0.21052975918612121 0 0.26758123112020638 0.2019152623611726 0 0.26371375228649158 0.2246007518981232 0 0.27541556446127352 0.2139803902542288 0 0.26999367712243899 0.21482860519180311 0 0.25832012720709152 0.21753672166543811 0 0.25603689302773602 0.20818443908398249 0 0.26348027581045319 0.21052975918612121 0 0.26999367712243899 0.21482860519180311 0 0.25832012720709152 0.21753672166543811 0 0.26348027581045319 0.21052975918612121 0 0.24817961656526699 0.2130442618838089 0 0.25139153684532739 0.22292748596965131 0 0.25832012720709152 0.21753672166543811 0 0.24817961656526699 0.2130442618838089 0 0.25832012720709152 0.21753672166543811 0 0.25603689302773602 0.20818443908398249 0 0.25603689302773602 0.20818443908398249 0 0.26348027581045319 0.21052975918612121 0 0.26758123112020638 0.2019152623611726 0 0.24232626781993291 0.2010461254213855 0 0.26725436396396152 0.18878257502623441 0 0.25603689302773602 0.20818443908398249 0 0.26725436396396152 0.18878257502623441 0 0.26758123112020638 0.2019152623611726 0 0.24232626781993291 0.2010461254213855 0 0.2474512013313501 0.18180653338194541 0 0.26725436396396152 0.18878257502623441 0 0.24232626781993291 0.2010461254213855 0 0.25603689302773602 0.20818443908398249 0 0.26725436396396152 0.18878257502623441 0 0.26725436396396152 0.18878257502623441 0 0.26758123112020638 0.2019152623611726 0 0.28799384903864761 0.19445640893722249 0 0.30599402095485623 0.1740842126826419 0 0.28799384903864761 0.19445640893722249 0 0.31291590866008689 0.1971646386297384 0 0.3011895656474266 0.22016865806584759 0 0.31291590866008689 0.1971646386297384 0 0.28799384903864761 0.19445640893722249 0 0.3011895656474266 0.22016865806584759 0 0.31291590866008689 0.1971646386297384 0 0.27541556446127352 0.2139803902542288 0 0.28799384903864761 0.19445640893722249 0 0.28675507539080702 0.2189819164350387 0 0.28799384903864761 0.19445640893722249 0 0.28675507539080702 0.2189819164350387 0 0.3011895656474266 0.22016865806584759 0 0.28675507539080702 0.2189819164350387 0 0.28538702072897099 0.23393326543210549 0 0.3011895656474266 0.22016865806584759 0 0.28538702072897099 0.23393326543210549 0 0.3011895656474266 0.22016865806584759 0 0.30260291121370209 0.24052332411420199 0 0.27578393375680821 0.22614314303506811 0 0.28675507539080702 0.2189819164350387 0 0.28538702072897099 0.23393326543210549 0 0.3011895656474266 0.22016865806584759 0 0.30260291121370209 0.24052332411420199 0 0.32200362596355592 0.23443953382831581 0 0.28524353510662431 0.25393003997790931 0 0.28538702072897099 0.23393326543210549 0 0.30260291121370209 0.24052332411420199 0 0.32145655410271801 0.25318508214936331 0 0.34229408525783023 0.2446180598967278 0 0.32200362596355592 0.23443953382831581 0 0.34229408525783023 0.2446180598967278 0 0.32200362596355592 0.23443953382831581 0 0.34746006317586292 0.22720950248080971 0 0.32145655410271801 0.25318508214936331 0 0.30260291121370209 0.24052332411420199 0 0.32200362596355592 0.23443953382831581 0 0.3011895656474266 0.22016865806584759 0 0.32200362596355592 0.23443953382831581 0 0.33024445259819563 0.21502472331560241 0 0.32200362596355592 0.23443953382831581 0 0.33024445259819563 0.21502472331560241 0 0.34746006317586292 0.22720950248080971 0 0.32200362596355592 0.23443953382831581 0 0.34746006317586292 0.22720950248080971 0 0.33024445259819563 0.21502472331560241 0 0.33760440537584407 0.19550696953833491 0 0.35772229415421641 0.2114266521484415 0 0.3011895656474266 0.22016865806584759 0 0.33024445259819563 0.21502472331560241 0 0.31291590866008689 0.1971646386297384 0 0.31291590866008689 0.1971646386297384 0 0.33760440537584407 0.19550696953833491 0 0.32464225167274741 0.17416061919362921 0 0.33024445259819563 0.21502472331560241 0 0.31291590866008689 0.1971646386297384 0 0.33760440537584407 0.19550696953833491 0 0.33760440537584407 0.19550696953833491 0 0.36236224128941502 0.19461934700304889 0 0.33773928388040397 0.18064583693954911 0 0.33760440537584407 0.19550696953833491 0 0.36236224128941502 0.19461934700304889 0 0.35772229415421641 0.2114266521484415 0 0.36236224128941502 0.19461934700304889 0 0.37445841859378359 0.2163171280364474 0 0.38473548056955742 0.1919071905663437 0 0.36236224128941502 0.19461934700304889 0 0.37445841859378359 0.2163171280364474 0 0.35772229415421641 0.2114266521484415 0 0.36236224128941502 0.19461934700304889 0 0.37445841859378359 0.2163171280364474 0 0.37445841859378359 0.2163171280364474 0 0.35772229415421641 0.2114266521484415 0 0.37291650038816998 0.21997947113330429 0 0.37445841859378359 0.2163171280364474 0 0.37291650038816998 0.21997947113330429 0 0.37445841859378359 0.2163171280364474 0 0.37291650038816998 0.21997947113330429 0 0.37601026823267991 0.21910079206634861 0 0.33024445259819563 0.21502472331560241 0 0.35772229415421641 0.2114266521484415 0 0.34746006317586292 0.22720950248080971 0 0.34746006317586292 0.22720950248080971 0 0.36670718236852251 0.23472775862528111 0 0.3542397987877724 0.23900784178001899 0 0.35772229415421641 0.2114266521484415 0 0.34746006317586292 0.22720950248080971 0 0.37291650038816998 0.21997947113330429 0 0.37291650038816998 0.21997947113330429 0 0.36670718236852251 0.23472775862528111 0 0.38443756726754691 0.23421744293550059 0 0.34746006317586292 0.22720950248080971 0 0.37291650038816998 0.21997947113330429 0 0.34746006317586292 0.22720950248080971 0 0.37291650038816998 0.21997947113330429 0 0.36670718236852251 0.23472775862528111 0 0.37291650038816998 0.21997947113330429 0 0.37601026823267991 0.21910079206634861 0 0.37291650038816998 0.21997947113330429 0 0.36670718236852251 0.23472775862528111 0 0.37528933983598339 0.2516803105044455 0 0.36049786434887249 0.24947604611725671 0 0.38443756726754691 0.23421744293550059 0 0.36670718236852251 0.23472775862528111 0 0.36049786434887249 0.24947604611725671 0 0.38443756726754691 0.23421744293550059 0 0.36670718236852251 0.23472775862528111 0 0.36049786434887249 0.24947604611725671 0 0.36670718236852251 0.23472775862528111 0 0.36049786434887249 0.24947604611725671 0 0.3542397987877724 0.23900784178001899 0 0.36049786434887249 0.24947604611725671 0 0.38443756726754691 0.23421744293550059 0 0.34229408525783023 0.2446180598967278 0 0.36049786434887249 0.24947604611725671 0 0.3542397987877724 0.23900784178001899 0 0.34229408525783023 0.2446180598967278 0 0.34746006317586292 0.22720950248080971 0 0.3542397987877724 0.23900784178001899 0 0.33816988668067482 0.15122378493625321 0 0.3363685946854077 0.15115659975751999 0 0.3480949376980681 0.12815258032141091 0 0.33265418702019972 0.14751316029750361 0 0.33495375564151653 0.1434386392460637 0 0.32863385586219768 0.14529634092663901 0 0.33265418702019972 0.14751316029750361 0 0.33495375564151653 0.1434386392460637 0 0.3363685946854077 0.15115659975751999 0 0.33495375564151653 0.1434386392460637 0 0.32863385586219768 0.14529634092663901 0 0.32981822542100708 0.13969571857541979 0 0.32863385586219768 0.14529634092663901 0 0.33066054189167687 0.15016106125979201 0 0.32539067589940329 0.1496354169811053 0 0.33265418702019972 0.14751316029750361 0 0.32863385586219768 0.14529634092663901 0 0.33066054189167687 0.15016106125979201 0 0.33066054189167687 0.15016106125979201 0 0.3363685946854077 0.15115659975751999 0 0.32684999350167909 0.15676987208452159 0 0.33265418702019972 0.14751316029750361 0 0.33066054189167687 0.15016106125979201 0 0.3363685946854077 0.15115659975751999 0 0.33816988668067482 0.15122378493625321 0 0.3363685946854077 0.15115659975751999 0 0.3374372161808557 0.16602168135932049 0 0.33495375564151653 0.1434386392460637 0 0.3363685946854077 0.15115659975751999 0 0.33772138943856878 0.13661047224906711 0 0.3363685946854077 0.15115659975751999 0 0.3480949376980681 0.12815258032141091 0 0.3363685946854077 0.15115659975751999 0 0.33772138943856878 0.13661047224906711 0 0.3480949376980681 0.12815258032141091 0 0.33772138943856878 0.13661047224906711 0 0.3359370344731808 0.12788758339531769 0 0.3480949376980681 0.12815258032141091 0 0.33857770480773608 0.1204561738978257 0 0.3359370344731808 0.12788758339531769 0 0.3480949376980681 0.12815258032141091 0 0.33772138943856878 0.13661047224906711 0 0.3359370344731808 0.12788758339531769 0 0.32986146804803379 0.13298815141342499 0 0.3359370344731808 0.12788758339531769 0 0.32823982741342028 0.12685581788910849 0 0.32986146804803379 0.13298815141342499 0 0.33495375564151653 0.1434386392460637 0 0.33772138943856878 0.13661047224906711 0 0.32981822542100708 0.13969571857541979 0 0.33772138943856878 0.13661047224906711 0 0.32986146804803379 0.13298815141342499 0 0.32981822542100708 0.13969571857541979 0 0.32433747112274658 0.13647943840811469 0 0.32311486041927939 0.1303998779635224 0 0.31555740260933429 0.13588971404945471 0 0.32981822542100708 0.13969571857541979 0 0.32433747112274658 0.13647943840811469 0 0.32533017357130117 0.1414770916104453 0 0.32986146804803379 0.13298815141342499 0 0.32433747112274658 0.13647943840811469 0 0.32311486041927939 0.1303998779635224 0 0.32986146804803379 0.13298815141342499 0 0.32981822542100708 0.13969571857541979 0 0.32433747112274658 0.13647943840811469 0 0.32433747112274658 0.13647943840811469 0 0.32055985818221328 0.1438494472552436 0 0.32533017357130117 0.1414770916104453 0 0.32315881868877522 0.1235577413001059 0 0.32823982741342028 0.12685581788910849 0 0.32311486041927939 0.1303998779635224 0 0.32823982741342028 0.12685581788910849 0 0.32986146804803379 0.13298815141342499 0 0.32311486041927939 0.1303998779635224 0 0.32315881868877522 0.1235577413001059 0 0.32311486041927939 0.1303998779635224 0 0.3171368107362974 0.12704034770763281 0 0.31148281121135618 0.1297377308031743 0 0.3171368107362974 0.12704034770763281 0 0.31555740260933429 0.13588971404945471 0 0.32311486041927939 0.1303998779635224 0 0.3171368107362974 0.12704034770763281 0 0.31555740260933429 0.13588971404945471 0 0.31077087539991438 0.1216602693227528 0 0.31148281121135618 0.1297377308031743 0 0.3171368107362974 0.12704034770763281 0 0.32433747112274658 0.13647943840811469 0 0.31555740260933429 0.13588971404945471 0 0.32055985818221328 0.1438494472552436 0 0.31555740260933429 0.13588971404945471 0 0.31373837944162147 0.14608514636092779 0 0.32055985818221328 0.1438494472552436 0 0.31373837944162147 0.14608514636092779 0 0.32055985818221328 0.1438494472552436 0 0.32024913005924949 0.15210036337933031 0 0.32863385586219768 0.14529634092663901 0 0.32055985818221328 0.1438494472552436 0 0.32533017357130117 0.1414770916104453 0 0.32863385586219768 0.14529634092663901 0 0.32055985818221328 0.1438494472552436 0 0.32539067589940329 0.1496354169811053 0 0.32863385586219768 0.14529634092663901 0 0.32981822542100708 0.13969571857541979 0 0.32533017357130117 0.1414770916104453 0 0.32055985818221328 0.1438494472552436 0 0.32539067589940329 0.1496354169811053 0 0.32024913005924949 0.15210036337933031 0 0.33066054189167687 0.15016106125979201 0 0.32539067589940329 0.1496354169811053 0 0.32684999350167909 0.15676987208452159 0 0.32539067589940329 0.1496354169811053 0 0.32024913005924949 0.15210036337933031 0 0.32684999350167909 0.15676987208452159 0 0.30685267060493487 0.15551774937767801 0 0.31373837944162147 0.14608514636092779 0 0.32024913005924949 0.15210036337933031 0 0.3169176133586934 0.16252656334356019 0 0.32684999350167909 0.15676987208452159 0 0.32464225167274741 0.17416061919362921 0 0.30685267060493487 0.15551774937767801 0 0.32024913005924949 0.15210036337933031 0 0.3169176133586934 0.16252656334356019 0 0.30599402095485623 0.1740842126826419 0 0.3169176133586934 0.16252656334356019 0 0.32464225167274741 0.17416061919362921 0 0.32024913005924949 0.15210036337933031 0 0.3169176133586934 0.16252656334356019 0 0.32684999350167909 0.15676987208452159 0 0.31291590866008689 0.1971646386297384 0 0.32464225167274741 0.17416061919362921 0 0.30599402095485623 0.1740842126826419 0 0.31291590866008689 0.1971646386297384 0 0.32464225167274741 0.17416061919362921 0 0.33760440537584407 0.19550696953833491 0 0.32464225167274741 0.17416061919362921 0 0.33773928388040397 0.18064583693954911 0 0.32464225167274741 0.17416061919362921 0 0.33773928388040397 0.18064583693954911 0 0.3374372161808557 0.16602168135932049 0 0.33773928388040397 0.18064583693954911 0 0.3374372161808557 0.16602168135932049 0 0.35026606398504478 0.172921565969651 0 0.3363685946854077 0.15115659975751999 0 0.32684999350167909 0.15676987208452159 0 0.32464225167274741 0.17416061919362921 0 0.3363685946854077 0.15115659975751999 0 0.32464225167274741 0.17416061919362921 0 0.3374372161808557 0.16602168135932049 0 0.3363685946854077 0.15115659975751999 0 0.32464225167274741 0.17416061919362921 0 0.33816988668067482 0.15122378493625321 0 0.3374372161808557 0.16602168135932049 0 0.35026606398504478 0.172921565969651 0 0.35456810245996839 0.15749857393556321 0 0.35026606398504478 0.172921565969651 0 0.3714106631901618 0.16874888601548049 0 0.33816988668067482 0.15122378493625321 0 0.35456810245996839 0.15749857393556321 0 0.35026606398504478 0.172921565969651 0 0.33816988668067482 0.15122378493625321 0 0.35026606398504478 0.172921565969651 0 0.36236224128941502 0.19461934700304889 0 0.33773928388040397 0.18064583693954911 0 0.35026606398504478 0.172921565969651 0 0.36236224128941502 0.19461934700304889 0 0.35026606398504478 0.172921565969651 0 0.36236224128941502 0.19461934700304889 0 0.35026606398504478 0.172921565969651 0 0.3714106631901618 0.16874888601548049 0 0.36236224128941502 0.19461934700304889 0 0.3714106631901618 0.16874888601548049 0 0.38473548056955742 0.1919071905663437 0 0.35456810245996839 0.15749857393556321 0 0.3714106631901618 0.16874888601548049 0 0.36651373828684669 0.14713330896582391 0 0.3714106631901618 0.16874888601548049 0 0.36651373828684669 0.14713330896582391 0 0.3864164731949673 0.14966496257169201 0 0.33816988668067482 0.15122378493625321 0 0.35191221063046951 0.14346518295911681 0 0.3480949376980681 0.12815258032141091 0 0.33816988668067482 0.15122378493625321 0 0.35456810245996839 0.15749857393556321 0 0.35191221063046951 0.14346518295911681 0 0.35456810245996839 0.15749857393556321 0 0.36651373828684669 0.14713330896582391 0 0.35191221063046951 0.14346518295911681 0 0.35191221063046951 0.14346518295911681 0 0.3480949376980681 0.12815258032141091 0 0.36129937038451421 0.12696452639352079 0 0.36651373828684669 0.14713330896582391 0 0.37464688561336812 0.1322020553483933 0 0.36129937038451421 0.12696452639352079 0 0.36651373828684669 0.14713330896582391 0 0.35191221063046951 0.14346518295911681 0 0.36129937038451421 0.12696452639352079 0 0.37464688561336812 0.1322020553483933 0 0.39202190047761531 0.13246151024441319 0 0.38474569953237792 0.1222255210853249 0 0.37464688561336812 0.1322020553483933 0 0.39202190047761531 0.13246151024441319 0 0.3864164731949673 0.14966496257169201 0 0.39202190047761531 0.13246151024441319 0 0.41099845782525207 0.12952772510225249 0 0.40233563147844481 0.1200658271665123 0 0.39202190047761531 0.13246151024441319 0 0.40528960452111068 0.14308731562613869 0 0.41099845782525207 0.12952772510225249 0 0.39202190047761531 0.13246151024441319 0 0.40528960452111068 0.14308731562613869 0 0.39202190047761531 0.13246151024441319 0 0.40528960452111068 0.14308731562613869 0 0.3864164731949673 0.14966496257169201 0 0.40528960452111068 0.14308731562613869 0 0.3864164731949673 0.14966496257169201 0 0.39501254254533341 0.16749725309624089 0 0.40528960452111068 0.14308731562613869 0 0.39501254254533341 0.16749725309624089 0 0.36651373828684669 0.14713330896582391 0 0.37464688561336812 0.1322020553483933 0 0.3864164731949673 0.14966496257169201 0 0.3714106631901618 0.16874888601548049 0 0.3864164731949673 0.14966496257169201 0 0.39501254254533341 0.16749725309624089 0 0.3714106631901618 0.16874888601548049 0 0.39501254254533341 0.16749725309624089 0 0.38473548056955742 0.1919071905663437 0 0.39501254254533341 0.16749725309624089 0 0.38473548056955742 0.1919071905663437 0 0.39853159331415322 0.18660896994625689 0 0.39501254254533341 0.16749725309624089 0 0.38473548056955742 0.1919071905663437 0 0.39853159331415322 0.18660896994625689 0 0.40840616951602482 0.17914268637664901 0 0.40727063361078442 0.1948380344990521 0 0.39853159331415322 0.18660896994625689 0 0.39501254254533341 0.16749725309624089 0 0.40840616951602482 0.17914268637664901 0 0.39501254254533341 0.16749725309624089 0 0.40987088499254531 0.16137180900993051 0 0.40840616951602482 0.17914268637664901 0 0.40528960452111068 0.14308731562613869 0 0.39501254254533341 0.16749725309624089 0 0.40987088499254531 0.16137180900993051 0 0.40987088499254531 0.16137180900993051 0 0.40840616951602482 0.17914268637664901 0 0.42513035702277829 0.17270062227377761 0 0.40987088499254531 0.16137180900993051 0 0.42513035702277829 0.17270062227377761 0 0.42358396489107142 0.15773885686018091 0 0.40840616951602482 0.17914268637664901 0 0.42513035702277829 0.17270062227377761 0 0.42296687005242151 0.1901654967433733 0 0.40840616951602482 0.17914268637664901 0 0.40727063361078442 0.1948380344990521 0 0.42296687005242151 0.1901654967433733 0 0.43996014390933758 0.19882865939529379 0 0.44187832526103071 0.1723903980942246 0 0.42513035702277829 0.17270062227377761 0 0.42296687005242151 0.1901654967433733 0 0.44187832526103071 0.1723903980942246 0 0.42513035702277829 0.17270062227377761 0 0.42358396489107142 0.15773885686018091 0 0.44187832526103071 0.1723903980942246 0 0.42358396489107142 0.15773885686018091 0 0.44375601589930957 0.14651021961492239 0 0.44187832526103071 0.1723903980942246 0 0.42358396489107142 0.15773885686018091 0 0.44187832526103071 0.1723903980942246 0 0.42358396489107142 0.15773885686018091 0 0.42277117049838159 0.14187692323669801 0 0.44375601589930957 0.14651021961492239 0 0.42277117049838159 0.14187692323669801 0 0.43022780935516541 0.13252049897999621 0 0.44375601589930957 0.14651021961492239 0 0.40528960452111068 0.14308731562613869 0 0.42277117049838159 0.14187692323669801 0 0.41099845782525207 0.12952772510225249 0 0.42277117049838159 0.14187692323669801 0 0.43022780935516541 0.13252049897999621 0 0.41099845782525207 0.12952772510225249 0 0.43022780935516541 0.13252049897999621 0 0.41099845782525207 0.12952772510225249 0 0.42246976814561721 0.1190947515257728 0 0.40528960452111068 0.14308731562613869 0 0.41099845782525207 0.12952772510225249 0 0.40528960452111068 0.14308731562613869 0 0.40987088499254531 0.16137180900993051 0 0.42358396489107142 0.15773885686018091 0 0.40528960452111068 0.14308731562613869 0 0.42358396489107142 0.15773885686018091 0 0.42277117049838159 0.14187692323669801 0 0.40528960452111068 0.14308731562613869 0 0.42358396489107142 0.15773885686018091 0 0.40261432255110557 0.2591974463948703 0 0.40400099508577569 0.2400308942295159 0 0.39694783887429202 0.25665801462697369 0 0.40400099508577569 0.2400308942295159 0 0.38443756726754691 0.23421744293550059 0 0.39694783887429202 0.25665801462697369 0 0.38443756726754691 0.23421744293550059 0 0.39694783887429202 0.25665801462697369 0 0.3851014018637105 0.24865361761834301 0 0.38443756726754691 0.23421744293550059 0 0.37528933983598339 0.2516803105044455 0 0.3851014018637105 0.24865361761834301 0 0.38443756726754691 0.23421744293550059 0 0.38443756726754691 0.23421744293550059 0 0.37601026823267991 0.21910079206634861 0 0.39108879113996747 0.21481825274693919 0 0.38443756726754691 0.23421744293550059 0 0.37601026823267991 0.21910079206634861 0 0.37291650038816998 0.21997947113330429 0 0.38443756726754691 0.23421744293550059 0 0.37601026823267991 0.21910079206634861 0 0.40400099508577569 0.2400308942295159 0 0.40538766762044542 0.22086434206416139 0 0.38443756726754691 0.23421744293550059 0 0.40538766762044542 0.22086434206416139 0 0.38443756726754691 0.23421744293550059 0 0.40538766762044542 0.22086434206416139 0 0.39108879113996747 0.21481825274693919 0 0.40400099508577569 0.2400308942295159 0 0.38443756726754691 0.23421744293550059 0 0.40538766762044542 0.22086434206416139 0 0.40616731404725531 0.21053571342752991 0 0.39108879113996747 0.21481825274693919 0 0.40538766762044542 0.22086434206416139 0 0.40616731404725531 0.21053571342752991 0 0.39108879113996747 0.21481825274693919 0 0.40538766762044542 0.22086434206416139 0 0.40616731404725531 0.21053571342752991 0 0.40616731404725531 0.21053571342752991 0 0.39108879113996747 0.21481825274693919 0 0.39723314032906593 0.1996596851929987 0 0.37601026823267991 0.21910079206634861 0 0.39108879113996747 0.21481825274693919 0 0.37445841859378359 0.2163171280364474 0 0.38473548056955742 0.1919071905663437 0 0.37445841859378359 0.2163171280364474 0 0.37601026823267991 0.21910079206634861 0 0.39108879113996747 0.21481825274693919 0 0.37445841859378359 0.2163171280364474 0 0.39108879113996747 0.21481825274693919 0 0.38473548056955742 0.1919071905663437 0 0.37445841859378359 0.2163171280364474 0 0.37601026823267991 0.21910079206634861 0 0.40616731404725531 0.21053571342752991 0 0.39723314032906593 0.1996596851929987 0 0.40727063361078442 0.1948380344990521 0 0.39108879113996747 0.21481825274693919 0 0.38473548056955742 0.1919071905663437 0 0.39723314032906593 0.1996596851929987 0 0.39853159331415322 0.18660896994625689 0 0.38473548056955742 0.1919071905663437 0 0.39723314032906593 0.1996596851929987 0 0.39853159331415322 0.18660896994625689 0 0.39723314032906593 0.1996596851929987 0 0.40727063361078442 0.1948380344990521 0 0.41476162678341011 0.20134585364840171 0 0.42296687005242151 0.1901654967433733 0 0.42267390576489039 0.2098465007297261 0 0.40616731404725531 0.21053571342752991 0 0.40727063361078442 0.1948380344990521 0 0.40840616951602482 0.17914268637664901 0 0.40727063361078442 0.1948380344990521 0 0.42296687005242151 0.1901654967433733 0 0.40616731404725531 0.21053571342752991 0 0.41476162678341011 0.20134585364840171 0 0.40727063361078442 0.1948380344990521 0 0.41476162678341011 0.20134585364840171 0 0.40727063361078442 0.1948380344990521 0 0.42296687005242151 0.1901654967433733 0 0.42296687005242151 0.1901654967433733 0 0.42267390576489039 0.2098465007297261 0 0.43996014390933758 0.19882865939529379 0 0.42267390576489039 0.2098465007297261 0 0.43780543262191163 0.2285270088215238 0 0.43996014390933758 0.19882865939529379 0 0.42267390576489039 0.2098465007297261 0 0.43996014390933758 0.19882865939529379 0 0.40538766762044542 0.22086434206416139 0 0.42267390576489039 0.2098465007297261 0 0.40538766762044542 0.22086434206416139 0 0.40616731404725531 0.21053571342752991 0 0.42267390576489039 0.2098465007297261 0 0.40616731404725531 0.21053571342752991 0 0.41476162678341011 0.20134585364840171 0 0.42267390576489039 0.2098465007297261 0 0.40400099508577569 0.2400308942295159 0 0.40538766762044542 0.22086434206416139 0 0.41955813941032138 0.22725323072656281 0 0.40538766762044542 0.22086434206416139 0 0.42267390576489039 0.2098465007297261 0 0.41955813941032138 0.22725323072656281 0 0.42267390576489039 0.2098465007297261 0 0.41955813941032138 0.22725323072656281 0 0.43780543262191163 0.2285270088215238 0 0.41955813941032138 0.22725323072656281 0 0.42206233639570467 0.2432866090071216 0 0.43780543262191163 0.2285270088215238 0 0.43565072133448379 0.25822535824775361 0 0.42206233639570467 0.2432866090071216 0 0.43780543262191163 0.2285270088215238 0 0.43565072133448379 0.25822535824775361 0 0.43780543262191163 0.2285270088215238 0 0.40400099508577569 0.2400308942295159 0 0.41955813941032138 0.22725323072656281 0 0.42206233639570467 0.2432866090071216 0 0.41152022421885581 0.25092107606466041 0 0.40400099508577569 0.2400308942295159 0 0.42206233639570467 0.2432866090071216 0 0.45150467887599421 0.24531093436574619 0 0.46068046397656759 0.23001243705505481 0 0.47097633483903989 0.24619202949595559 0 0.43565072133448379 0.25822535824775361 0 0.45150467887599421 0.24531093436574619 0 0.43780543262191163 0.2285270088215238 0 0.45150467887599421 0.24531093436574619 0 0.43780543262191163 0.2285270088215238 0 0.46068046397656759 0.23001243705505481 0 0.43780543262191163 0.2285270088215238 0 0.46068046397656759 0.23001243705505481 0 0.4523846259187474 0.21477356905327261 0 0.46068046397656759 0.23001243705505481 0 0.46732126199154123 0.21434483113033109 0 0.4523846259187474 0.21477356905327261 0 0.46732126199154123 0.21434483113033109 0 0.45774294008202132 0.20163659070874029 0 0.47047745122348777 0.1991582912500757 0 0.46732126199154123 0.21434483113033109 0 0.4523846259187474 0.21477356905327261 0 0.45774294008202132 0.20163659070874029 0 0.4523846259187474 0.21477356905327261 0 0.43996014390933758 0.19882865939529379 0 0.45774294008202132 0.20163659070874029 0 0.43780543262191163 0.2285270088215238 0 0.4523846259187474 0.21477356905327261 0 0.43996014390933758 0.19882865939529379 0 0.43780543262191163 0.2285270088215238 0 0.43996014390933758 0.19882865939529379 0 0.43996014390933758 0.19882865939529379 0 0.45342758403827949 0.18163993936134101 0 0.46364794506253182 0.1837306124699451 0 0.43996014390933758 0.19882865939529379 0 0.46364794506253182 0.1837306124699451 0 0.43996014390933758 0.19882865939529379 0 0.45774294008202132 0.20163659070874029 0 0.46364794506253182 0.1837306124699451 0 0.45774294008202132 0.20163659070874029 0 0.47047745122348777 0.1991582912500757 0 0.46364794506253182 0.1837306124699451 0 0.48277287288330939 0.18760502187934691 0 0.47047745122348777 0.1991582912500757 0 0.46364794506253182 0.1837306124699451 0 0.48277287288330939 0.18760502187934691 0 0.47047745122348777 0.1991582912500757 0 0.48188097126305668 0.2057738626954464 0 0.48277287288330939 0.18760502187934691 0 0.5 0.20738290612787461 0 0.5 0.17843987028611019 0 0.48277287288330939 0.18760502187934691 0 0.5 0.20738290612787461 0 0.48188097126305668 0.2057738626954464 0 0.5 0.20738290612787461 0 0.48188097126305668 0.2057738626954464 0 0.48180744754786381 0.226498674184231 0 0.46732126199154123 0.21434483113033109 0 0.48188097126305668 0.2057738626954464 0 0.48180744754786381 0.226498674184231 0 0.46732126199154123 0.21434483113033109 0 0.47047745122348777 0.1991582912500757 0 0.48188097126305668 0.2057738626954464 0 0.46068046397656759 0.23001243705505481 0 0.48180744754786381 0.226498674184231 0 0.47097633483903989 0.24619202949595559 0 0.46068046397656759 0.23001243705505481 0 0.46732126199154123 0.21434483113033109 0 0.48180744754786381 0.226498674184231 0 0.5 0.20738290612787461 0 0.48180744754786381 0.226498674184231 0 0.5 0.23632594196963899 0 0.48180744754786381 0.226498674184231 0 0.5 0.23632594196963899 0 0.48658190008537833 0.24712965436043061 0 0.5 0.26526897781140352 0 0.5 0.23632594196963899 0 0.48658190008537833 0.24712965436043061 0 0.48180744754786381 0.226498674184231 0 0.48658190008537833 0.24712965436043061 0 0.47097633483903989 0.24619202949595559 0 0.46530563627680821 0.13500683696069229 0 0.44375601589930957 0.14651021961492239 0 0.46209099666188541 0.15678050040460351 0 0.46530563627680821 0.13500683696069229 0 0.44375601589930957 0.14651021961492239 0 0.44563370653758949 0.1206300411356202 0 0.43022780935516541 0.13252049897999621 0 0.44375601589930957 0.14651021961492239 0 0.44563370653758949 0.1206300411356202 0 0.44375601589930957 0.14651021961492239 0 0.44563370653758949 0.1206300411356202 0 0.44375601589930957 0.14651021961492239 0 0.45238570072678602 0.16574458734215791 0 0.46209099666188541 0.15678050040460351 0 0.44375601589930957 0.14651021961492239 0 0.44187832526103071 0.1723903980942246 0 0.44375601589930957 0.14651021961492239 0 0.45238570072678602 0.16574458734215791 0 0.44187832526103071 0.1723903980942246 0 0.43996014390933758 0.19882865939529379 0 0.44187832526103071 0.1723903980942246 0 0.45342758403827949 0.18163993936134101 0 0.43996014390933758 0.19882865939529379 0 0.44187832526103071 0.1723903980942246 0 0.45238570072678602 0.16574458734215791 0 0.44187832526103071 0.1723903980942246 0 0.45342758403827949 0.18163993936134101 0 0.44187832526103071 0.1723903980942246 0 0.45342758403827949 0.18163993936134101 0 0.45238570072678602 0.16574458734215791 0 0.45342758403827949 0.18163993936134101 0 0.46077558177342581 0.171401879235698 0 0.46364794506253182 0.1837306124699451 0 0.46077558177342581 0.171401879235698 0 0.47062715252984239 0.16671479319908519 0 0.45342758403827949 0.18163993936134101 0 0.46364794506253182 0.1837306124699451 0 0.46077558177342581 0.171401879235698 0 0.45238570072678602 0.16574458734215791 0 0.46077558177342581 0.171401879235698 0 0.46209099666188541 0.15678050040460351 0 0.46077558177342581 0.171401879235698 0 0.46209099666188541 0.15678050040460351 0 0.47062715252984239 0.16671479319908519 0 0.46209099666188541 0.15678050040460351 0 0.47062715252984239 0.16671479319908519 0 0.47928549293564188 0.1530284083405806 0 0.47062715252984239 0.16671479319908519 0 0.48733574621572751 0.16863256554459879 0 0.47928549293564188 0.1530284083405806 0 0.46364794506253182 0.1837306124699451 0 0.48733574621572751 0.16863256554459879 0 0.46364794506253182 0.1837306124699451 0 0.47062715252984239 0.16671479319908519 0 0.48733574621572751 0.16863256554459879 0 0.48277287288330939 0.18760502187934691 0 0.46364794506253182 0.1837306124699451 0 0.48733574621572751 0.16863256554459879 0 0.48277287288330939 0.18760502187934691 0 0.5 0.17843987028611019 0 0.48733574621572751 0.16863256554459879 0 0.5 0.17843987028611019 0 0.48733574621572751 0.16863256554459879 0 0.5 0.14949683444434569 0 0.48733574621572751 0.16863256554459879 0 0.5 0.14949683444434569 0 0.47928549293564188 0.1530284083405806 0 0.5 0.14949683444434569 0 0.47928549293564188 0.1530284083405806 0 0.48434782198630483 0.13552411123426361 0 0.46530563627680821 0.13500683696069229 0 0.46209099666188541 0.15678050040460351 0 0.47928549293564188 0.1530284083405806 0 0.46530563627680821 0.13500683696069229 0 0.47928549293564188 0.1530284083405806 0 0.48434782198630483 0.13552411123426361 0 0.46530563627680821 0.13500683696069229 0 0.48434782198630483 0.13552411123426361 0 0.47714798071907349 0.1195346778231179 0 0.48434782198630483 0.13552411123426361 0 0.5 0.12055379860258129 0 0.47714798071907349 0.1195346778231179 0 0.5 0.14949683444434569 0 0.48434782198630483 0.13552411123426361 0 0.5 0.12055379860258129 0 0.5 0.12055379860258129 0 0.48309316734869451 0.10456795311439671 0 0.47714798071907349 0.1195346778231179 0 0.48309316734869451 0.10456795311439671 0 0.5 0.091610762760816811 0 0.47243416993623 0.08977274682617957 0 0.5 0.12055379860258129 0 0.48309316734869451 0.10456795311439671 0 0.5 0.091610762760816811 0 0.48309316734869451 0.10456795311439671 0 0.4699618013478617 0.1055534460867113 0 0.47243416993623 0.08977274682617957 0 0.48309316734869451 0.10456795311439671 0 0.4699618013478617 0.1055534460867113 0 0.47714798071907349 0.1195346778231179 0 0.49999999999999839 0.062667726919052313 0 0.47889680626290593 0.076612376505971053 0 0.49353931351726582 0.05654831277956434 0 0.49999999999999839 0.062667726919052313 0 0.5 0.091610762760816811 0 0.47889680626290593 0.076612376505971053 0 0.49999999999999839 0.062667726919052313 0 0.47889680626290593 0.076612376505971053 0 0.47243416993623 0.08977274682617957 0 0.47889680626290593 0.076612376505971053 0 0.45779361252581391 0.0905570260928905 0 0.5 0.091610762760816811 0 0.47243416993623 0.08977274682617957 0 0.47889680626290593 0.076612376505971053 0 0.47889680626290593 0.076612376505971053 0 0.46056382381511618 0.062223900558916509 0 0.47741564874241488 0.060156453109967228 0 0.47889680626290593 0.076612376505971053 0 0.47741564874241488 0.060156453109967228 0 0.49353931351726582 0.05654831277956434 0 0.45628594885369728 0.077070397233637622 0 0.44431598562809149 0.068033244185525435 0 0.46056382381511618 0.062223900558916509 0 0.47889680626290593 0.076612376505971053 0 0.45628594885369728 0.077070397233637622 0 0.46056382381511618 0.062223900558916509 0 0.47889680626290593 0.076612376505971053 0 0.45628594885369728 0.077070397233637622 0 0.45779361252581391 0.0905570260928905 0 0.47889680626290593 0.076612376505971053 0 0.45779361252581391 0.0905570260928905 0 0.45628594885369728 0.077070397233637622 0 0.45779361252581391 0.0905570260928905 0 0.45107346177910501 0.084847694393688528 0 0.47243416993623 0.08977274682617957 0 0.45779361252581391 0.0905570260928905 0 0.46021245068034983 0.097871548816988826 0 0.45779361252581391 0.0905570260928905 0 0.44556288241080583 0.091917497483695806 0 0.46021245068034983 0.097871548816988826 0 0.44556288241080583 0.091917497483695806 0 0.44465140332610281 0.079845856764530154 0 0.42858931116103971 0.086317495354869003 0 0.45779361252581391 0.0905570260928905 0 0.44556288241080583 0.091917497483695806 0 0.45107346177910501 0.084847694393688528 0 0.45628594885369728 0.077070397233637622 0 0.44465140332610281 0.079845856764530154 0 0.45107346177910501 0.084847694393688528 0 0.44556288241080583 0.091917497483695806 0 0.44465140332610281 0.079845856764530154 0 0.45107346177910501 0.084847694393688528 0 0.45628594885369728 0.077070397233637622 0 0.44465140332610281 0.079845856764530154 0 0.44431598562809149 0.068033244185525435 0 0.44465140332610281 0.079845856764530154 0 0.44431598562809149 0.068033244185525435 0 0.43208589185237478 0.070069105843824586 0 0.46530563627680821 0.13500683696069229 0 0.45911461419747168 0.11354214245760021 0 0.44563370653758949 0.1206300411356202 0 0.46530563627680821 0.13500683696069229 0 0.47714798071907349 0.1195346778231179 0 0.45911461419747168 0.11354214245760021 0 0.4699618013478617 0.1055534460867113 0 0.47714798071907349 0.1195346778231179 0 0.45911461419747168 0.11354214245760021 0 0.4699618013478617 0.1055534460867113 0 0.45911461419747168 0.11354214245760021 0 0.46021245068034983 0.097871548816988826 0 0.4699618013478617 0.1055534460867113 0 0.47243416993623 0.08977274682617957 0 0.46021245068034983 0.097871548816988826 0 0.45911461419747168 0.11354214245760021 0 0.46021245068034983 0.097871548816988826 0 0.43688306298617108 0.1021400202984553 0 0.46021245068034983 0.097871548816988826 0 0.43688306298617108 0.1021400202984553 0 0.44556288241080583 0.091917497483695806 0 0.46021245068034983 0.097871548816988826 0 0.43688306298617108 0.1021400202984553 0 0.45911461419747168 0.11354214245760021 0 0.44563370653758949 0.1206300411356202 0 0.43688306298617108 0.1021400202984553 0 0.43022780935516541 0.13252049897999621 0 0.44563370653758949 0.1206300411356202 0 0.42246976814561721 0.1190947515257728 0 0.44563370653758949 0.1206300411356202 0 0.42246976814561721 0.1190947515257728 0 0.43688306298617108 0.1021400202984553 0 0.42246976814561721 0.1190947515257728 0 0.41355367529199238 0.1064084917799218 0 0.40233563147844481 0.1200658271665123 0 0.41099845782525207 0.12952772510225249 0 0.42246976814561721 0.1190947515257728 0 0.40233563147844481 0.1200658271665123 0 0.41355367529199238 0.1064084917799218 0 0.41175310594387449 0.08938932859307594 0 0.4006675428599919 0.095702976980843013 0 0.41355367529199238 0.1064084917799218 0 0.42858931116103971 0.086317495354869003 0 0.41175310594387449 0.08938932859307594 0 0.41355367529199238 0.1064084917799218 0 0.43688306298617108 0.1021400202984553 0 0.41355367529199238 0.1064084917799218 0 0.43688306298617108 0.1021400202984553 0 0.42858931116103971 0.086317495354869003 0 0.42246976814561721 0.1190947515257728 0 0.41355367529199238 0.1064084917799218 0 0.43688306298617108 0.1021400202984553 0 0.44556288241080583 0.091917497483695806 0 0.43688306298617108 0.1021400202984553 0 0.42858931116103971 0.086317495354869003 0 0.44465140332610281 0.079845856764530154 0 0.42858931116103971 0.086317495354869003 0 0.43208589185237478 0.070069105843824586 0 0.42858931116103971 0.086317495354869003 0 0.43208589185237478 0.070069105843824586 0 0.41799601644250561 0.077068712660348759 0 0.44431598562809149 0.068033244185525435 0 0.43208589185237478 0.070069105843824586 0 0.43239960797058902 0.057623074361009267 0 0.43208589185237478 0.070069105843824586 0 0.41723315520628268 0.062911978861947548 0 0.41799601644250561 0.077068712660348759 0 0.43208589185237478 0.070069105843824586 0 0.41723315520628268 0.062911978861947548 0 0.43239960797058902 0.057623074361009267 0 0.41723315520628268 0.062911978861947548 0 0.41799601644250561 0.077068712660348759 0 0.40031861804895669 0.076655654648026705 0 0.41723315520628268 0.062911978861947548 0 0.40031861804895669 0.076655654648026705 0 0.40149001157079511 0.058280273901190532 0 0.42858931116103971 0.086317495354869003 0 0.41799601644250561 0.077068712660348759 0 0.41175310594387449 0.08938932859307594 0 0.41799601644250561 0.077068712660348759 0 0.41175310594387449 0.08938932859307594 0 0.40031861804895669 0.076655654648026705 0 0.40031861804895669 0.076655654648026705 0 0.38748802741732208 0.095384446621802135 0 0.4006675428599919 0.095702976980843013 0 0.41175310594387449 0.08938932859307594 0 0.40031861804895669 0.076655654648026705 0 0.4006675428599919 0.095702976980843013 0 0.40031861804895669 0.076655654648026705 0 0.3849549938109223 0.057505389241937543 0 0.40031861804895669 0.076655654648026705 0 0.3849549938109223 0.057505389241937543 0 0.40149001157079511 0.058280273901190532 0 0.40031861804895669 0.076655654648026705 0 0.38431485775423901 0.071884539954915297 0 0.3849549938109223 0.057505389241937543 0 0.37154762372338879 0.082144541449192546 0 0.38431485775423901 0.071884539954915297 0 0.38327396673604941 0.059140522013083507 0 0.40031861804895669 0.076655654648026705 0 0.38431485775423901 0.071884539954915297 0 0.38147908645187772 0.083976592422335739 0 0.37154762372338879 0.082144541449192546 0 0.38327396673604941 0.059140522013083507 0 0.38431485775423901 0.071884539954915297 0 0.3849549938109223 0.057505389241937543 0 0.38327396673604941 0.059140522013083507 0 0.40031861804895669 0.076655654648026705 0 0.38147908645187772 0.083976592422335739 0 0.38748802741732208 0.095384446621802135 0 0.37154762372338879 0.082144541449192546 0 0.38431485775423901 0.071884539954915297 0 0.38147908645187772 0.083976592422335739 0 0.37364086673582048 0.096589521037674236 0 0.37154762372338879 0.082144541449192546 0 0.38147908645187772 0.083976592422335739 0 0.37364086673582048 0.096589521037674236 0 0.38147908645187772 0.083976592422335739 0 0.38748802741732208 0.095384446621802135 0 0.37364086673582048 0.096589521037674236 0 0.38748802741732208 0.095384446621802135 0 0.37906581057935618 0.104686780263733 0 0.38748802741732208 0.095384446621802135 0 0.37906581057935618 0.104686780263733 0 0.39022428759781358 0.1106769632613884 0 0.36689489990363489 0.1149454347428549 0 0.37464688561336812 0.1322020553483933 0 0.38474569953237792 0.1222255210853249 0 0.36689489990363489 0.1149454347428549 0 0.39022428759781358 0.1106769632613884 0 0.36689489990363489 0.1149454347428549 0 0.38474569953237792 0.1222255210853249 0 0.39022428759781358 0.1106769632613884 0 0.36689489990363489 0.1149454347428549 0 0.37906581057935618 0.104686780263733 0 0.39022428759781358 0.1106769632613884 0 0.41355367529199238 0.1064084917799218 0 0.39022428759781358 0.1106769632613884 0 0.40233563147844481 0.1200658271665123 0 0.38474569953237792 0.1222255210853249 0 0.39022428759781358 0.1106769632613884 0 0.40233563147844481 0.1200658271665123 0 0.39202190047761531 0.13246151024441319 0 0.38474569953237792 0.1222255210853249 0 0.40233563147844481 0.1200658271665123 0 0.41355367529199238 0.1064084917799218 0 0.39022428759781358 0.1106769632613884 0 0.41355367529199238 0.1064084917799218 0 0.39022428759781358 0.1106769632613884 0 0.4006675428599919 0.095702976980843013 0 0.38748802741732208 0.095384446621802135 0 0.39022428759781358 0.1106769632613884 0 0.4006675428599919 0.095702976980843013 0 0.40219354285382469 0.022025259712946301 0 0.4005014510627341 0.042383371216394759 0 0.41604790831454502 0.02726135319085092 0 0.40219354285382469 0.022025259712946301 0 0.38390769732521918 0.01511434078405611 0 0.38659797714113281 0.028735587637454169 0 0.40219354285382469 0.022025259712946301 0 0.38390769732521918 0.01511434078405611 0 0.40219354285382469 0.022025259712946301 0 0.38659797714113281 0.028735587637454169 0 0.39479754445913262 0.036534275067286043 0 0.40219354285382469 0.022025259712946301 0 0.39479754445913262 0.036534275067286043 0 0.39795800920071089 0.0079048400600749153 0 0.41416323537571109 -0.001456147842712825 0 0.39156756124808839 -0.0040640924139898693 0 0.40219354285382469 0.022025259712946301 0 0.39795800920071089 0.0079048400600749153 0 0.41416323537571109 -0.001456147842712825 0 0.40219354285382469 0.022025259712946301 0 0.39795800920071089 0.0079048400600749153 0 0.38390769732521918 0.01511434078405611 0 0.39795800920071089 0.0079048400600749153 0 0.38390769732521918 0.01511434078405611 0 0.39156756124808839 -0.0040640924139898693 0 0.38390769732521918 0.01511434078405611 0 0.39156756124808839 -0.0040640924139898693 0 0.36897188712046558 -0.0066720369852666349 0 0.36801494489513581 0.020291893817263859 0 0.38390769732521918 0.01511434078405611 0 0.37683862849852379 0.026551609767686331 0 0.38659797714113281 0.028735587637454169 0 0.37683862849852379 0.026551609767686331 0 0.37676094086129019 0.033302350807218273 0 0.38390769732521918 0.01511434078405611 0 0.38659797714113281 0.028735587637454169 0 0.37683862849852379 0.026551609767686331 0 0.37399099555786552 0.038448956325371757 0 0.38104732177107409 0.043948419463323868 0 0.38223246069894479 0.054111838940045627 0 0.37676094086129019 0.033302350807218273 0 0.37868227441578478 0.038884810184523527 0 0.38527927329869671 0.038898871791388151 0 0.37399099555786552 0.038448956325371757 0 0.37676094086129019 0.033302350807218273 0 0.37868227441578478 0.038884810184523527 0 0.37399099555786552 0.038448956325371757 0 0.37868227441578478 0.038884810184523527 0 0.38104732177107409 0.043948419463323868 0 0.37868227441578478 0.038884810184523527 0 0.38104732177107409 0.043948419463323868 0 0.38527927329869671 0.038898871791388151 0 0.38104732177107409 0.043948419463323868 0 0.38527927329869671 0.038898871791388151 0 0.38740154606443861 0.051043290421624837 0 0.38527927329869671 0.038898871791388151 0 0.38740154606443861 0.051043290421624837 0 0.39479754445913262 0.036534275067286043 0 0.38659797714113281 0.028735587637454169 0 0.38527927329869671 0.038898871791388151 0 0.39479754445913262 0.036534275067286043 0 0.38659797714113281 0.028735587637454169 0 0.37676094086129019 0.033302350807218273 0 0.38527927329869671 0.038898871791388151 0 0.36541462379859768 0.064095490757462986 0 0.38223246069894479 0.054111838940045627 0 0.38327396673604941 0.059140522013083507 0 0.38104732177107409 0.043948419463323868 0 0.38223246069894479 0.054111838940045627 0 0.38740154606443861 0.051043290421624837 0 0.38740154606443861 0.051043290421624837 0 0.3849549938109223 0.057505389241937543 0 0.3949891578181971 0.046539020679672832 0 0.38223246069894479 0.054111838940045627 0 0.38740154606443861 0.051043290421624837 0 0.3849549938109223 0.057505389241937543 0 0.38223246069894479 0.054111838940045627 0 0.38740154606443861 0.051043290421624837 0 0.38740154606443861 0.051043290421624837 0 0.3849549938109223 0.057505389241937543 0 0.38223246069894479 0.054111838940045627 0 0.3849549938109223 0.057505389241937543 0 0.38327396673604941 0.059140522013083507 0 0.38223246069894479 0.054111838940045627 0 0.3849549938109223 0.057505389241937543 0 0.3849549938109223 0.057505389241937543 0 0.38327396673604941 0.059140522013083507 0 0.3849549938109223 0.057505389241937543 0 0.40149001157079511 0.058280273901190532 0 0.4005014510627341 0.042383371216394759 0 0.40149001157079511 0.058280273901190532 0 0.4005014510627341 0.042383371216394759 0 0.41019387439018179 0.053080421302047917 0 0.3849549938109223 0.057505389241937543 0 0.3949891578181971 0.046539020679672832 0 0.4005014510627341 0.042383371216394759 0 0.3849549938109223 0.057505389241937543 0 0.4005014510627341 0.042383371216394759 0 0.38740154606443861 0.051043290421624837 0 0.3949891578181971 0.046539020679672832 0 0.40219354285382469 0.022025259712946301 0 0.39479754445913262 0.036534275067286043 0 0.4005014510627341 0.042383371216394759 0 0.39479754445913262 0.036534275067286043 0 0.3949891578181971 0.046539020679672832 0 0.4005014510627341 0.042383371216394759 0 0.38740154606443861 0.051043290421624837 0 0.39479754445913262 0.036534275067286043 0 0.38740154606443861 0.051043290421624837 0 0.39479754445913262 0.036534275067286043 0 0.3949891578181971 0.046539020679672832 0 0.4005014510627341 0.042383371216394759 0 0.42155087972091537 0.048746061228658842 0 0.41604790831454502 0.02726135319085092 0 0.4005014510627341 0.042383371216394759 0 0.41604790831454502 0.02726135319085092 0 0.4005014510627341 0.042383371216394759 0 0.41019387439018179 0.053080421302047917 0 0.42155087972091537 0.048746061228658842 0 0.41723315520628268 0.062911978861947548 0 0.40149001157079511 0.058280273901190532 0 0.41019387439018179 0.053080421302047917 0 0.41723315520628268 0.062911978861947548 0 0.41019387439018179 0.053080421302047917 0 0.42155087972091537 0.048746061228658842 0 0.41723315520628268 0.062911978861947548 0 0.42155087972091537 0.048746061228658842 0 0.43239960797058902 0.057623074361009267 0 0.42155087972091537 0.048746061228658842 0 0.43239960797058902 0.057623074361009267 0 0.4332510101242768 0.04523123475855912 0 0.43239960797058902 0.057623074361009267 0 0.4332510101242768 0.04523123475855912 0 0.44422421412352731 0.054921231301960118 0 0.41604790831454502 0.02726135319085092 0 0.4418783767154526 0.037023673053753793 0 0.42155087972091537 0.048746061228658842 0 0.4332510101242768 0.04523123475855912 0 0.41604790831454502 0.02726135319085092 0 0.4332510101242768 0.04523123475855912 0 0.41604790831454502 0.02726135319085092 0 0.4418783767154526 0.037023673053753793 0 0.435108511601348 0.023298731258973821 0 0.42784848389953978 0.01578294921638548 0 0.41604790831454502 0.02726135319085092 0 0.435108511601348 0.023298731258973821 0 0.41604790831454502 0.02726135319085092 0 0.4418783767154526 0.037023673053753793 0 0.435108511601348 0.023298731258973821 0 0.42784848389953978 0.01578294921638548 0 0.44160254423717782 0.013804517816265601 0 0.42784848389953978 0.01578294921638548 0 0.41604790831454502 0.02726135319085092 0 0.40219354285382469 0.022025259712946301 0 0.41604790831454502 0.02726135319085092 0 0.41416323537571109 -0.001456147842712825 0 0.40219354285382469 0.022025259712946301 0 0.41604790831454502 0.02726135319085092 0 0.42784848389953978 0.01578294921638548 0 0.41604790831454502 0.02726135319085092 0 0.41416323537571109 -0.001456147842712825 0 0.40219354285382469 0.022025259712946301 0 0.41416323537571109 -0.001456147842712825 0 0.42784848389953978 0.01578294921638548 0 0.4320398080346613 0.00060712809035366635 0 0.41416323537571109 -0.001456147842712825 0 0.42784848389953978 0.01578294921638548 0 0.4320398080346613 0.00060712809035366635 0 0.44160254423717782 0.013804517816265601 0 0.4320398080346613 0.00060712809035366635 0 0.4499163806936114 0.00267040402342044 0 0.4320398080346613 0.00060712809035366635 0 0.4499163806936114 0.00267040402342044 0 0.44160254423717782 0.013804517816265601 0 0.435108511601348 0.023298731258973821 0 0.44160254423717782 0.013804517816265601 0 0.44480803773946809 0.027325360171056919 0 0.44160254423717782 0.013804517816265601 0 0.44480803773946809 0.027325360171056919 0 0.47240401886973449 0.020717841856275541 0 0.435108511601348 0.023298731258973821 0 0.44480803773946809 0.027325360171056919 0 0.4418783767154526 0.037023673053753793 0 0.44480803773946809 0.027325360171056919 0 0.46085030935681842 0.032718177400174547 0 0.47240401886973449 0.020717841856275541 0 0.44480803773946809 0.027325360171056919 0 0.47240401886973449 0.020717841856275541 0 0.4499163806936114 0.00267040402342044 0 0.44160254423717782 0.013804517816265601 0 0.47240401886973449 0.020717841856275541 0 0.4499163806936114 0.00267040402342044 0 0.47240401886973449 0.020717841856275541 0 0.47148344148234139 -0.001168939746351438 0 0.44422421412352731 0.054921231301960118 0 0.45269249248957572 0.049805508633427392 0 0.46056382381511618 0.062223900558916509 0 0.44431598562809149 0.068033244185525435 0 0.44422421412352731 0.054921231301960118 0 0.46056382381511618 0.062223900558916509 0 0.44431598562809149 0.068033244185525435 0 0.43239960797058902 0.057623074361009267 0 0.44422421412352731 0.054921231301960118 0 0.4332510101242768 0.04523123475855912 0 0.44422421412352731 0.054921231301960118 0 0.44368659884256528 0.046892893425694242 0 0.44422421412352731 0.054921231301960118 0 0.44368659884256528 0.046892893425694242 0 0.45269249248957572 0.049805508633427392 0 0.44480803773946809 0.027325360171056919 0 0.4418783767154526 0.037023673053753793 0 0.46085030935681842 0.032718177400174547 0 0.44368659884256528 0.046892893425694242 0 0.45269249248957572 0.049805508633427392 0 0.4418783767154526 0.037023673053753793 0 0.4332510101242768 0.04523123475855912 0 0.44368659884256528 0.046892893425694242 0 0.4418783767154526 0.037023673053753793 0 0.4418783767154526 0.037023673053753793 0 0.46770884511635941 0.046785992916659108 0 0.45269249248957572 0.049805508633427392 0 0.4418783767154526 0.037023673053753793 0 0.46770884511635941 0.046785992916659108 0 0.4418783767154526 0.037023673053753793 0 0.46085030935681842 0.032718177400174547 0 0.46770884511635941 0.046785992916659108 0 0.46770884511635941 0.046785992916659108 0 0.46056382381511618 0.062223900558916509 0 0.47741564874241488 0.060156453109967228 0 0.45269249248957572 0.049805508633427392 0 0.46770884511635941 0.046785992916659108 0 0.46056382381511618 0.062223900558916509 0 0.46770884511635941 0.046785992916659108 0 0.48207745180813888 0.041442380361399633 0 0.49353931351726582 0.05654831277956434 0 0.46770884511635941 0.046785992916659108 0 0.47741564874241488 0.060156453109967228 0 0.49353931351726582 0.05654831277956434 0 0.46770884511635941 0.046785992916659108 0 0.49353931351726582 0.05654831277956434 0 0.46085030935681842 0.032718177400174547 0 0.48207745180813888 0.041442380361399633 0 0.47240401886973449 0.020717841856275541 0 0.46085030935681842 0.032718177400174547 0 0.46770884511635941 0.046785992916659108 0 0.48207745180813888 0.041442380361399633 0 0.48207745180813888 0.041442380361399633 0 0.5 0.038389025230273099 0 0.49353931351726582 0.05654831277956434 0 0.48207745180813888 0.041442380361399633 0 0.5 0.038389025230273099 0 0.47240401886973449 0.020717841856275541 0 0.49999999999999839 0.062667726919052313 0 0.5 0.038389025230273099 0 0.49353931351726582 0.05654831277956434 0 0.47240401886973449 0.020717841856275541 0 0.48818099002580873 -0.00080118900248755606 0 0.47148344148234139 -0.001168939746351438 0 0.5 0.038389025230273099 0 0.47240401886973449 0.020717841856275541 0 0.50000000000000089 0.014110323541493981 0 0.47240401886973449 0.020717841856275541 0 0.50000000000000089 0.014110323541493981 0 0.47240401886973449 0.020717841856275541 0 0.50000000000000089 0.014110323541493981 0 0.48818099002580873 -0.00080118900248755606 0 0.50000000000000089 0.014110323541493981 0 0.48818099002580873 -0.00080118900248755606 0 0.5 -0.01564784804977631 0 0.48818099002580873 -0.00080118900248755606 0 0.4765628941091648 -0.022478041854585181 0 0.5 -0.01564784804977631 0 0.48818099002580873 -0.00080118900248755606 0 0.47148344148234139 -0.001168939746351438 0 0.4765628941091648 -0.022478041854585181 0 0.47148344148234139 -0.001168939746351438 0 0.4765628941091648 -0.022478041854585181 0 0.46118807661844102 -0.012812806852020421 0 0.4765628941091648 -0.022478041854585181 0 0.49093817467762629 -0.03122630905599047 0 0.5 -0.01564784804977631 0 0.49093817467762629 -0.03122630905599047 0 0.5 -0.01564784804977631 0 0.5 -0.045406019641046458 0 0.49093817467762629 -0.03122630905599047 0 0.5 -0.045406019641046458 0 0.48972796185758471 -0.044324202412820188 0 0.49093817467762629 -0.03122630905599047 0 0.48972796185758471 -0.044324202412820188 0 0.4794316078213447 -0.043505551281432478 0 0.5 -0.045406019641046458 0 0.48872848443955919 -0.055141348304073932 0 0.5 -0.075164191232316602 0 0.5 -0.045406019641046458 0 0.48972796185758471 -0.044324202412820188 0 0.48872848443955919 -0.055141348304073932 0 0.48972796185758471 -0.044324202412820188 0 0.48872848443955919 -0.055141348304073932 0 0.4794316078213447 -0.043505551281432478 0 0.47349439251355818 -0.051499675320406432 0 0.4794316078213447 -0.043505551281432478 0 0.48205080592238603 -0.068823702702983269 0 0.48872848443955919 -0.055141348304073932 0 0.4794316078213447 -0.043505551281432478 0 0.48205080592238603 -0.068823702702983269 0 0.4794316078213447 -0.043505551281432478 0 0.48205080592238603 -0.068823702702983269 0 0.4765628941091648 -0.022478041854585181 0 0.47349439251355818 -0.051499675320406432 0 0.46416823057247419 -0.039088466330892697 0 0.4765628941091648 -0.022478041854585181 0 0.47349439251355818 -0.051499675320406432 0 0.4794316078213447 -0.043505551281432478 0 0.4765628941091648 -0.022478041854585181 0 0.49093817467762629 -0.03122630905599047 0 0.4794316078213447 -0.043505551281432478 0 0.4765628941091648 -0.022478041854585181 0 0.47349439251355818 -0.051499675320406432 0 0.46416823057247419 -0.039088466330892697 0 0.45113308979301442 -0.042609224046137373 0 0.45975874973847491 -0.0263767045651765 0 0.46416823057247419 -0.039088466330892697 0 0.45989202670815882 -0.052478685868158043 0 0.45113308979301442 -0.042609224046137373 0 0.47349439251355818 -0.051499675320406432 0 0.45989202670815882 -0.052478685868158043 0 0.46298673280741082 -0.064177593552973394 0 0.47349439251355818 -0.051499675320406432 0 0.46416823057247419 -0.039088466330892697 0 0.45989202670815882 -0.052478685868158043 0 0.45989202670815882 -0.052478685868158043 0 0.44996141127176248 -0.054682303130618663 0 0.45113308979301442 -0.042609224046137373 0 0.45989202670815882 -0.052478685868158043 0 0.44996141127176248 -0.054682303130618663 0 0.45146046113587118 -0.063843029541501783 0 0.45989202670815882 -0.052478685868158043 0 0.46298673280741082 -0.064177593552973394 0 0.45146046113587118 -0.063843029541501783 0 0.44996141127176248 -0.054682303130618663 0 0.45146046113587118 -0.063843029541501783 0 0.44117117502821079 -0.063450523737757128 0 0.44996141127176248 -0.054682303130618663 0 0.44179337609367969 -0.051392371972577497 0 0.45113308979301442 -0.042609224046137373 0 0.44179337609367969 -0.051392371972577497 0 0.43937699213898002 -0.041901739758310741 0 0.43175343454921089 -0.04933522962864656 0 0.44996141127176248 -0.054682303130618663 0 0.44179337609367969 -0.051392371972577497 0 0.44117117502821079 -0.063450523737757128 0 0.44179337609367969 -0.051392371972577497 0 0.44117117502821079 -0.063450523737757128 0 0.43458085256618129 -0.057364710268699833 0 0.45113308979301442 -0.042609224046137373 0 0.44093109674037068 -0.030217897712584929 0 0.45975874973847491 -0.0263767045651765 0 0.44179337609367969 -0.051392371972577497 0 0.45113308979301442 -0.042609224046137373 0 0.43937699213898002 -0.041901739758310741 0 0.45113308979301442 -0.042609224046137373 0 0.43937699213898002 -0.041901739758310741 0 0.44093109674037068 -0.030217897712584929 0 0.44093109674037068 -0.030217897712584929 0 0.44821891706861239 -0.016710752117409432 0 0.43447400907142519 -0.01243530500703784 0 0.44093109674037068 -0.030217897712584929 0 0.44821891706861239 -0.016710752117409432 0 0.45975874973847491 -0.0263767045651765 0 0.4499163806936114 0.00267040402342044 0 0.44821891706861239 -0.016710752117409432 0 0.46118807661844102 -0.012812806852020421 0 0.4499163806936114 0.00267040402342044 0 0.44821891706861239 -0.016710752117409432 0 0.43447400907142519 -0.01243530500703784 0 0.4320398080346613 0.00060712809035366635 0 0.4499163806936114 0.00267040402342044 0 0.43447400907142519 -0.01243530500703784 0 0.4499163806936114 0.00267040402342044 0 0.47148344148234139 -0.001168939746351438 0 0.46118807661844102 -0.012812806852020421 0 0.4765628941091648 -0.022478041854585181 0 0.46416823057247419 -0.039088466330892697 0 0.45975874973847491 -0.0263767045651765 0 0.4765628941091648 -0.022478041854585181 0 0.46118807661844102 -0.012812806852020421 0 0.45975874973847491 -0.0263767045651765 0 0.44821891706861239 -0.016710752117409432 0 0.46118807661844102 -0.012812806852020421 0 0.45975874973847491 -0.0263767045651765 0 0.47738236537104339 -0.1178727916621924 0 0.46792981665418448 -0.1041289720477466 0 0.46543374239041979 -0.12773663530926591 0 0.47738236537104339 -0.1178727916621924 0 0.48023915503003273 -0.1088700790528762 0 0.46792981665418448 -0.1041289720477466 0 0.47738236537104339 -0.1178727916621924 0 0.48950034129267289 -0.11938602124465281 0 0.48023915503003273 -0.1088700790528762 0 0.47738236537104339 -0.1178727916621924 0 0.48950034129267289 -0.11938602124465281 0 0.48271687119520779 -0.13120858486206169 0 0.48950034129267289 -0.11938602124465281 0 0.5 -0.1049223628235867 0 0.499999999999996 -0.13468053441485681 0 0.48950034129267289 -0.11938602124465281 0 0.48614409680223009 -0.094092531256912776 0 0.48950034129267289 -0.11938602124465281 0 0.48614409680223009 -0.094092531256912776 0 0.5 -0.1049223628235867 0 0.48950034129267289 -0.11938602124465281 0 0.48614409680223009 -0.094092531256912776 0 0.48023915503003273 -0.1088700790528762 0 0.48614409680223009 -0.094092531256912776 0 0.48023915503003273 -0.1088700790528762 0 0.46792981665418448 -0.1041289720477466 0 0.48614409680223009 -0.094092531256912776 0 0.47042589091795273 -0.080521308786227638 0 0.48205080592238603 -0.068823702702983269 0 0.48614409680223009 -0.094092531256912776 0 0.48205080592238603 -0.068823702702983269 0 0.47042589091795273 -0.080521308786227638 0 0.46792981665418448 -0.1041289720477466 0 0.48614409680223009 -0.094092531256912776 0 0.47042589091795273 -0.080521308786227638 0 0.46792981665418448 -0.1041289720477466 0 0.48614409680223009 -0.094092531256912776 0 0.5 -0.075164191232316602 0 0.48205080592238603 -0.068823702702983269 0 0.48614409680223009 -0.094092531256912776 0 0.5 -0.1049223628235867 0 0.5 -0.075164191232316602 0 0.48872848443955919 -0.055141348304073932 0 0.5 -0.075164191232316602 0 0.48205080592238603 -0.068823702702983269 0 0.47349439251355818 -0.051499675320406432 0 0.47042589091795273 -0.080521308786227638 0 0.48205080592238603 -0.068823702702983269 0 0.47349439251355818 -0.051499675320406432 0 0.47042589091795273 -0.080521308786227638 0 0.46298673280741082 -0.064177593552973394 0 0.47349439251355818 -0.051499675320406432 0 0.47042589091795273 -0.080521308786227638 0 0.47042589091795273 -0.080521308786227638 0 0.48205080592238603 -0.068823702702983269 0 0.47042589091795273 -0.080521308786227638 0 0.46298673280741082 -0.064177593552973394 0 0.45966089276151428 -0.072545268248573172 0 0.46298673280741082 -0.064177593552973394 0 0.45966089276151428 -0.072545268248573172 0 0.45146046113587118 -0.063843029541501783 0 0.45966089276151428 -0.072545268248573172 0 0.45146046113587118 -0.063843029541501783 0 0.44750872071673542 -0.072104890254443485 0 0.44750872071673542 -0.072104890254443485 0 0.45079270725181009 -0.082680540285685597 0 0.43445836740627042 -0.0780050894586998 0 0.45146046113587118 -0.063843029541501783 0 0.44117117502821079 -0.063450523737757128 0 0.44750872071673542 -0.072104890254443485 0 0.44117117502821079 -0.063450523737757128 0 0.44750872071673542 -0.072104890254443485 0 0.43445836740627042 -0.0780050894586998 0 0.45966089276151428 -0.072545268248573172 0 0.44750872071673542 -0.072104890254443485 0 0.45079270725181009 -0.082680540285685597 0 0.45079270725181009 -0.082680540285685597 0 0.45045381003868601 -0.10061827592098101 0 0.4324748430159544 -0.095195231688678772 0 0.45079270725181009 -0.082680540285685597 0 0.4324748430159544 -0.095195231688678772 0 0.43445836740627042 -0.0780050894586998 0 0.47042589091795273 -0.080521308786227638 0 0.45045381003868601 -0.10061827592098101 0 0.47042589091795273 -0.080521308786227638 0 0.45079270725181009 -0.082680540285685597 0 0.45045381003868601 -0.10061827592098101 0 0.47042589091795273 -0.080521308786227638 0 0.45966089276151428 -0.072545268248573172 0 0.45079270725181009 -0.082680540285685597 0 0.47042589091795273 -0.080521308786227638 0 0.46792981665418448 -0.1041289720477466 0 0.45045381003868601 -0.10061827592098101 0 0.46792981665418448 -0.1041289720477466 0 0.45045381003868601 -0.10061827592098101 0 0.45794377621455201 -0.1141774556151236 0 0.45045381003868601 -0.10061827592098101 0 0.43048172915942012 -0.12071524305573531 0 0.4324748430159544 -0.095195231688678772 0 0.45045381003868601 -0.10061827592098101 0 0.44795773577491982 -0.12422593918250111 0 0.43048172915942012 -0.12071524305573531 0 0.45045381003868601 -0.10061827592098101 0 0.44795773577491982 -0.12422593918250111 0 0.45794377621455201 -0.1141774556151236 0 0.44795773577491982 -0.12422593918250111 0 0.43048172915942012 -0.12071524305573531 0 0.45045381003868601 -0.10061827592098101 0 0.43048172915942012 -0.12071524305573531 0 0.44795773577491982 -0.12422593918250111 0 0.45794377621455201 -0.1141774556151236 0 0.46543374239041979 -0.12773663530926591 0 0.46792981665418448 -0.1041289720477466 0 0.45794377621455201 -0.1141774556151236 0 0.46543374239041979 -0.12773663530926591 0 0.46792981665418448 -0.1041289720477466 0 0.46543374239041979 -0.12773663530926591 0 0.43048172915942012 -0.12071524305573531 0 0.40425344987380668 -0.11544633234142961 0 0.41896838303406858 -0.13230058261503749 0 0.43048172915942012 -0.12071524305573531 0 0.40425344987380668 -0.11544633234142961 0 0.43048172915942012 -0.12071524305573531 0 0.4180759323688672 -0.1045270944509811 0 0.40425344987380668 -0.11544633234142961 0 0.43048172915942012 -0.12071524305573531 0 0.4324748430159544 -0.095195231688678772 0 0.4180759323688672 -0.1045270944509811 0 0.4324748430159544 -0.095195231688678772 0 0.4180759323688672 -0.1045270944509811 0 0.41787679061792482 -0.092454580517409235 0 0.4180759323688672 -0.1045270944509811 0 0.40529284917723152 -0.098824084651654237 0 0.40425344987380668 -0.11544633234142961 0 0.4180759323688672 -0.1045270944509811 0 0.41787679061792482 -0.092454580517409235 0 0.40529284917723152 -0.098824084651654237 0 0.41787679061792482 -0.092454580517409235 0 0.40613265942122001 -0.084621381499500103 0 0.40529284917723152 -0.098824084651654237 0 0.41461438217176672 -0.079265955053486367 0 0.41787679061792482 -0.092454580517409235 0 0.40613265942122001 -0.084621381499500103 0 0.41461438217176672 -0.079265955053486367 0 0.41787679061792482 -0.092454580517409235 0 0.42412344145431141 -0.082620384660563262 0 0.4324748430159544 -0.095195231688678772 0 0.41787679061792482 -0.092454580517409235 0 0.42412344145431141 -0.082620384660563262 0 0.4324748430159544 -0.095195231688678772 0 0.42412344145431141 -0.082620384660563262 0 0.43445836740627042 -0.0780050894586998 0 0.43445836740627042 -0.0780050894586998 0 0.43107367289061771 -0.065513163288315107 0 0.4212815235700445 -0.070913400620618863 0 0.42412344145431141 -0.082620384660563262 0 0.43445836740627042 -0.0780050894586998 0 0.4212815235700445 -0.070913400620618863 0 0.44117117502821079 -0.063450523737757128 0 0.43445836740627042 -0.0780050894586998 0 0.43107367289061771 -0.065513163288315107 0 0.43107367289061771 -0.065513163288315107 0 0.4212815235700445 -0.070913400620618863 0 0.4271126042691874 -0.057132262716202822 0 0.4212815235700445 -0.070913400620618863 0 0.40636636033128137 -0.069705439685202056 0 0.4271126042691874 -0.057132262716202822 0 0.40636636033128137 -0.069705439685202056 0 0.4271126042691874 -0.057132262716202822 0 0.41461438217176672 -0.079265955053486367 0 0.42412344145431141 -0.082620384660563262 0 0.4212815235700445 -0.070913400620618863 0 0.41461438217176672 -0.079265955053486367 0 0.4212815235700445 -0.070913400620618863 0 0.40636636033128137 -0.069705439685202056 0 0.41461438217176672 -0.079265955053486367 0 0.40636636033128137 -0.069705439685202056 0 0.40613265942122001 -0.084621381499500103 0 0.40636636033128137 -0.069705439685202056 0 0.38920409109015902 -0.06847626519965215 0 0.38235197742781318 -0.084259259015117743 0 0.40636636033128137 -0.069705439685202056 0 0.38235197742781318 -0.084259259015117743 0 0.40636636033128137 -0.069705439685202056 0 0.38920409109015902 -0.06847626519965215 0 0.40958189935026179 -0.059844030662862979 0 0.38920409109015902 -0.06847626519965215 0 0.37913234228721182 -0.065582313485077551 0 0.38096841664564929 -0.072747076387439394 0 0.38920409109015902 -0.06847626519965215 0 0.38096841664564929 -0.072747076387439394 0 0.38235197742781318 -0.084259259015117743 0 0.38096841664564929 -0.072747076387439394 0 0.38235197742781318 -0.084259259015117743 0 0.37318525577741318 -0.072670467849910172 0 0.37913234228721182 -0.065582313485077551 0 0.38096841664564929 -0.072747076387439394 0 0.37318525577741318 -0.072670467849910172 0 0.38235197742781318 -0.084259259015117743 0 0.38225551929451329 -0.095360534588707579 0 0.37794196226703358 -0.096448415032830831 0 0.38235197742781318 -0.084259259015117743 0 0.39219576545973828 -0.089941430656163765 0 0.38225551929451329 -0.095360534588707579 0 0.40636636033128137 -0.069705439685202056 0 0.39219576545973828 -0.089941430656163765 0 0.40636636033128137 -0.069705439685202056 0 0.38235197742781318 -0.084259259015117743 0 0.39219576545973828 -0.089941430656163765 0 0.40636636033128137 -0.069705439685202056 0 0.39219576545973828 -0.089941430656163765 0 0.40613265942122001 -0.084621381499500103 0 0.39219576545973828 -0.089941430656163765 0 0.40613265942122001 -0.084621381499500103 0 0.40005034974994619 -0.092893944047731297 0 0.40613265942122001 -0.084621381499500103 0 0.40005034974994619 -0.092893944047731297 0 0.40529284917723152 -0.098824084651654237 0 0.40529284917723152 -0.098824084651654237 0 0.3939030633290741 -0.1038137418262568 0 0.40425344987380668 -0.11544633234142961 0 0.40005034974994619 -0.092893944047731297 0 0.40529284917723152 -0.098824084651654237 0 0.3939030633290741 -0.1038137418262568 0 0.39219576545973828 -0.089941430656163765 0 0.40005034974994619 -0.092893944047731297 0 0.3939030633290741 -0.1038137418262568 0 0.38235197742781318 -0.084259259015117743 0 0.37794196226703358 -0.096448415032830831 0 0.36846400979487481 -0.1016831810778633 0 0.39219576545973828 -0.089941430656163765 0 0.37802517058819329 -0.110177421627124 0 0.39219576545973828 -0.089941430656163765 0 0.38225551929451329 -0.095360534588707579 0 0.37802517058819329 -0.110177421627124 0 0.39219576545973828 -0.089941430656163765 0 0.3939030633290741 -0.1038137418262568 0 0.37802517058819329 -0.110177421627124 0 0.38225551929451329 -0.095360534588707579 0 0.37794196226703358 -0.096448415032830831 0 0.37640580043462329 -0.1026568744274637 0 0.38225551929451329 -0.095360534588707579 0 0.37640580043462329 -0.1026568744274637 0 0.37802517058819329 -0.110177421627124 0 0.37640580043462329 -0.1026568744274637 0 0.37802517058819329 -0.110177421627124 0 0.37286385678548911 -0.1091405826755914 0 0.37802517058819329 -0.110177421627124 0 0.38362161538303458 -0.11932532112763181 0 0.40425344987380668 -0.11544633234142961 0 0.37802517058819329 -0.110177421627124 0 0.38362161538303458 -0.11932532112763181 0 0.37304599086368051 -0.1172878243209769 0 0.37802517058819329 -0.110177421627124 0 0.37304599086368051 -0.1172878243209769 0 0.37802517058819329 -0.110177421627124 0 0.37286385678548911 -0.1091405826755914 0 0.38362161538303458 -0.11932532112763181 0 0.37468118458843741 -0.1259833128596666 0 0.38810228100105498 -0.1277317144889617 0 0.38362161538303458 -0.11932532112763181 0 0.37304599086368051 -0.1172878243209769 0 0.37468118458843741 -0.1259833128596666 0 0.3939030633290741 -0.1038137418262568 0 0.37802517058819329 -0.110177421627124 0 0.40425344987380668 -0.11544633234142961 0 0.38362161538303458 -0.11932532112763181 0 0.40425344987380668 -0.11544633234142961 0 0.38810228100105498 -0.1277317144889617 0 0.37802517058819329 -0.110177421627124 0 0.40425344987380668 -0.11544633234142961 0 0.40854424168798831 -0.01781020546059537 0 0.41405218841074881 -0.02935736261125926 0 0.40196326348133798 -0.033968887697501199 0 0.40854424168798831 -0.01781020546059537 0 0.41405218841074881 -0.02935736261125926 0 0.42507953455019609 -0.02287107303372013 0 0.41416323537571109 -0.001456147842712825 0 0.42507953455019609 -0.02287107303372013 0 0.40854424168798831 -0.01781020546059537 0 0.41416323537571109 -0.001456147842712825 0 0.42507953455019609 -0.02287107303372013 0 0.4320398080346613 0.00060712809035366635 0 0.41416323537571109 -0.001456147842712825 0 0.43447400907142519 -0.01243530500703784 0 0.41416323537571109 -0.001456147842712825 0 0.43447400907142519 -0.01243530500703784 0 0.42507953455019609 -0.02287107303372013 0 0.4320398080346613 0.00060712809035366635 0 0.41416323537571109 -0.001456147842712825 0 0.44093109674037068 -0.030217897712584929 0 0.42507953455019609 -0.02287107303372013 0 0.42842882060382631 -0.038199652460347261 0 0.44093109674037068 -0.030217897712584929 0 0.43447400907142519 -0.01243530500703784 0 0.42507953455019609 -0.02287107303372013 0 0.41405218841074881 -0.02935736261125926 0 0.42507953455019609 -0.02287107303372013 0 0.42842882060382631 -0.038199652460347261 0 0.42842882060382631 -0.038199652460347261 0 0.41739759046755359 -0.053952546072774533 0 0.43937699213898002 -0.041901739758310741 0 0.44093109674037068 -0.030217897712584929 0 0.42842882060382631 -0.038199652460347261 0 0.43937699213898002 -0.041901739758310741 0 0.42842882060382631 -0.038199652460347261 0 0.43175343454921089 -0.04933522962864656 0 0.42842882060382631 -0.038199652460347261 0 0.43175343454921089 -0.04933522962864656 0 0.41739759046755359 -0.053952546072774533 0 0.44117117502821079 -0.063450523737757128 0 0.43107367289061771 -0.065513163288315107 0 0.43458085256618129 -0.057364710268699833 0 0.43107367289061771 -0.065513163288315107 0 0.43458085256618129 -0.057364710268699833 0 0.4271126042691874 -0.057132262716202822 0 0.44179337609367969 -0.051392371972577497 0 0.43458085256618129 -0.057364710268699833 0 0.43175343454921089 -0.04933522962864656 0 0.43458085256618129 -0.057364710268699833 0 0.43175343454921089 -0.04933522962864656 0 0.4271126042691874 -0.057132262716202822 0 0.43175343454921089 -0.04933522962864656 0 0.4271126042691874 -0.057132262716202822 0 0.41739759046755359 -0.053952546072774533 0 0.40636636033128137 -0.069705439685202056 0 0.4271126042691874 -0.057132262716202822 0 0.41739759046755359 -0.053952546072774533 0 0.40636636033128137 -0.069705439685202056 0 0.41739759046755359 -0.053952546072774533 0 0.40958189935026179 -0.059844030662862979 0 0.40636636033128137 -0.069705439685202056 0 0.41739759046755359 -0.053952546072774533 0 0.41739759046755359 -0.053952546072774533 0 0.40685785723800622 -0.047070973429319117 0 0.40958189935026179 -0.059844030662862979 0 0.41739759046755359 -0.053952546072774533 0 0.40685785723800622 -0.047070973429319117 0 0.41526905032225708 -0.041160658820114333 0 0.42842882060382631 -0.038199652460347261 0 0.41739759046755359 -0.053952546072774533 0 0.41526905032225708 -0.041160658820114333 0 0.41405218841074881 -0.02935736261125926 0 0.42842882060382631 -0.038199652460347261 0 0.41526905032225708 -0.041160658820114333 0 0.40685785723800622 -0.047070973429319117 0 0.41526905032225708 -0.041160658820114333 0 0.40196326348133798 -0.033968887697501199 0 0.41405218841074881 -0.02935736261125926 0 0.41526905032225708 -0.041160658820114333 0 0.40196326348133798 -0.033968887697501199 0 0.40685785723800622 -0.047070973429319117 0 0.40196326348133798 -0.033968887697501199 0 0.39682077359816598 -0.046747971943321087 0 0.40196326348133798 -0.033968887697501199 0 0.39682077359816598 -0.046747971943321087 0 0.38801252800686742 -0.037459941929490717 0 0.40196326348133798 -0.033968887697501199 0 0.38801252800686742 -0.037459941929490717 0 0.39546971232987782 -0.02247054043532588 0 0.40958189935026179 -0.059844030662862979 0 0.38313226370833608 -0.052376971188234631 0 0.38920409109015902 -0.06847626519965215 0 0.40958189935026179 -0.059844030662862979 0 0.38313226370833608 -0.052376971188234631 0 0.40958189935026179 -0.059844030662862979 0 0.39682077359816598 -0.046747971943321087 0 0.38313226370833608 -0.052376971188234631 0 0.40685785723800622 -0.047070973429319117 0 0.40958189935026179 -0.059844030662862979 0 0.39682077359816598 -0.046747971943321087 0 0.38920409109015902 -0.06847626519965215 0 0.37913234228721182 -0.065582313485077551 0 0.38313226370833608 -0.052376971188234631 0 0.37913234228721182 -0.065582313485077551 0 0.38313226370833608 -0.052376971188234631 0 0.36766497539258192 -0.059454043633802738 0 0.38801252800686742 -0.037459941929490717 0 0.38181001257155911 -0.022549915060866069 0 0.37307271907327899 -0.039658101661346423 0 0.39682077359816598 -0.046747971943321087 0 0.38313226370833608 -0.052376971188234631 0 0.38801252800686742 -0.037459941929490717 0 0.38313226370833608 -0.052376971188234631 0 0.38801252800686742 -0.037459941929490717 0 0.37307271907327899 -0.039658101661346423 0 0.38181001257155911 -0.022549915060866069 0 0.39546971232987782 -0.02247054043532588 0 0.39156756124808839 -0.0040640924139898693 0 0.38801252800686742 -0.037459941929490717 0 0.38181001257155911 -0.022549915060866069 0 0.39546971232987782 -0.02247054043532588 0 0.40854424168798831 -0.01781020546059537 0 0.40196326348133798 -0.033968887697501199 0 0.39546971232987782 -0.02247054043532588 0 0.41416323537571109 -0.001456147842712825 0 0.39156756124808839 -0.0040640924139898693 0 0.40854424168798831 -0.01781020546059537 0 0.39546971232987782 -0.02247054043532588 0 0.39156756124808839 -0.0040640924139898693 0 0.40854424168798831 -0.01781020546059537 0 0.41416323537571109 -0.001456147842712825 0 0.39156756124808839 -0.0040640924139898693 0 0.38181001257155911 -0.022549915060866069 0 0.39156756124808839 -0.0040640924139898693 0 0.36897188712046558 -0.0066720369852666349 0 0.39156756124808839 -0.0040640924139898693 0 0.36897188712046558 -0.0066720369852666349 0 0.36897188712046558 -0.0066720369852666349 0 0.36763850073025461 -0.024086901462008769 0 0.34637621299284282 -0.0092799815565434082 0 0.38181001257155911 -0.022549915060866069 0 0.36897188712046558 -0.0066720369852666349 0 0.36763850073025461 -0.024086901462008769 0 0.36763850073025461 -0.024086901462008769 0 0.35122658210294128 -0.025712303448582621 0 0.37307271907327899 -0.039658101661346423 0 0.38181001257155911 -0.022549915060866069 0 0.36763850073025461 -0.024086901462008769 0 0.37307271907327899 -0.039658101661346423 0 0.36763850073025461 -0.024086901462008769 0 0.35122658210294128 -0.025712303448582621 0 0.34637621299284282 -0.0092799815565434082 0 0.36897188712046558 -0.0066720369852666349 0 0.34637621299284282 -0.0092799815565434082 0 0.35686997754884131 0.00072843394229600783 0 0.36897188712046558 -0.0066720369852666349 0 0.34637621299284282 -0.0092799815565434082 0 0.34699778365471767 0.010192942822803421 0 0.32938044513260423 -0.01176650523581789 0 0.35122658210294128 -0.025712303448582621 0 0.34637621299284282 -0.0092799815565434082 0 0.32938044513260423 -0.01176650523581789 0 0.34699778365471767 0.010192942822803421 0 0.34637621299284282 -0.0092799815565434082 0 0.32938044513260423 -0.01176650523581789 0 0.35122658210294128 -0.025712303448582621 0 0.32938044513260423 -0.01176650523581789 0 0.33023299242448478 -0.037442852238977968 0 0.35122658210294128 -0.025712303448582621 0 0.32938044513260423 -0.01176650523581789 0 0.32938044513260423 -0.01176650523581789 0 0.31476763303011429 -0.02998090736882059 0 0.33023299242448478 -0.037442852238977968 0 0.32938044513260423 -0.01176650523581789 0 0.31476763303011429 -0.02998090736882059 0 0.30816416158870619 -0.01619482591902242 0 0.32938044513260423 -0.01176650523581789 0 0.31476763303011429 -0.02998090736882059 0 0.30622674407609851 0.003013995465567122 0 0.32938044513260423 -0.01176650523581789 0 0.32370385960110992 0.0017037311309708769 0 0.30622674407609851 0.003013995465567122 0 0.32938044513260423 -0.01176650523581789 0 0.32938044513260423 -0.01176650523581789 0 0.31144895349291429 -0.0082106664658960944 0 0.30816416158870619 -0.01619482591902242 0 0.30622674407609851 0.003013995465567122 0 0.32938044513260423 -0.01176650523581789 0 0.31144895349291429 -0.0082106664658960944 0 0.32717965151314587 -0.052288346914905658 0 0.31766237423582883 -0.061616024814846182 0 0.31615723423464798 -0.047994482683498187 0 0.32717965151314587 -0.052288346914905658 0 0.31766237423582883 -0.061616024814846182 0 0.33008785792136658 -0.063602309430435433 0 0.31766237423582883 -0.061616024814846182 0 0.31615723423464798 -0.047994482683498187 0 0.30572114637877268 -0.060389431274860149 0 0.31476763303011429 -0.02998090736882059 0 0.31615723423464798 -0.047994482683498187 0 0.33023299242448478 -0.037442852238977968 0 0.32717965151314587 -0.052288346914905658 0 0.31615723423464798 -0.047994482683498187 0 0.33023299242448478 -0.037442852238977968 0 0.33023299242448478 -0.037442852238977968 0 0.35668262806641038 -0.044909911713606282 0 0.33023299242448478 -0.037442852238977968 0 0.34007184944216873 -0.055354075455928443 0 0.35668262806641038 -0.044909911713606282 0 0.32717965151314587 -0.052288346914905658 0 0.33023299242448478 -0.037442852238977968 0 0.34007184944216873 -0.055354075455928443 0 0.32717965151314587 -0.052288346914905658 0 0.34007184944216873 -0.055354075455928443 0 0.33008785792136658 -0.063602309430435433 0 0.35334696615766359 -0.060905066427639223 0 0.35668262806641038 -0.044909911713606282 0 0.36766497539258192 -0.059454043633802738 0 0.34007184944216873 -0.055354075455928443 0 0.35334696615766359 -0.060905066427639223 0 0.35668262806641038 -0.044909911713606282 0 0.35122658210294128 -0.025712303448582621 0 0.33023299242448478 -0.037442852238977968 0 0.35668262806641038 -0.044909911713606282 0 0.35122658210294128 -0.025712303448582621 0 0.37307271907327899 -0.039658101661346423 0 0.35122658210294128 -0.025712303448582621 0 0.35668262806641038 -0.044909911713606282 0 0.37307271907327899 -0.039658101661346423 0 0.38313226370833608 -0.052376971188234631 0 0.35668262806641038 -0.044909911713606282 0 0.37307271907327899 -0.039658101661346423 0 0.38313226370833608 -0.052376971188234631 0 0.35668262806641038 -0.044909911713606282 0 0.36766497539258192 -0.059454043633802738 0 0.38313226370833608 -0.052376971188234631 0 0.35668262806641038 -0.044909911713606282 0 0.37913234228721182 -0.065582313485077551 0 0.36766497539258192 -0.059454043633802738 0 0.37318525577741318 -0.072670467849910172 0 0.35334696615766359 -0.060905066427639223 0 0.36766497539258192 -0.059454043633802738 0 0.35962377272256307 -0.072544595045789986 0 0.36766497539258192 -0.059454043633802738 0 0.35962377272256307 -0.072544595045789986 0 0.37318525577741318 -0.072670467849910172 0 0.35962377272256307 -0.072544595045789986 0 0.37318525577741318 -0.072670467849910172 0 0.36535361887490292 -0.082921110766217068 0 0.38235197742781318 -0.084259259015117743 0 0.36535361887490292 -0.082921110766217068 0 0.35833759452434483 -0.098813078345032945 0 0.38235197742781318 -0.084259259015117743 0 0.35833759452434483 -0.098813078345032945 0 0.38235197742781318 -0.084259259015117743 0 0.37318525577741318 -0.072670467849910172 0 0.36535361887490292 -0.082921110766217068 0 0.36535361887490292 -0.082921110766217068 0 0.35307168285724089 -0.085089487587883622 0 0.35833759452434483 -0.098813078345032945 0 0.35307168285724089 -0.085089487587883622 0 0.3426916051645939 -0.07226270628906864 0 0.3384023298871322 -0.093008350754025165 0 0.35962377272256307 -0.072544595045789986 0 0.36535361887490292 -0.082921110766217068 0 0.35307168285724089 -0.085089487587883622 0 0.35307168285724089 -0.085089487587883622 0 0.35833759452434483 -0.098813078345032945 0 0.3384023298871322 -0.093008350754025165 0 0.34007184944216873 -0.055354075455928443 0 0.35334696615766359 -0.060905066427639223 0 0.3426916051645939 -0.07226270628906864 0 0.35962377272256307 -0.072544595045789986 0 0.35307168285724089 -0.085089487587883622 0 0.3426916051645939 -0.07226270628906864 0 0.35334696615766359 -0.060905066427639223 0 0.35962377272256307 -0.072544595045789986 0 0.3426916051645939 -0.07226270628906864 0 0.3632105854436658 -0.12386911710915841 0 0.36754591778873141 -0.11894640483752821 0 0.3627362351171538 -0.113442645408941 0 0.3632105854436658 -0.12386911710915841 0 0.3627362351171538 -0.113442645408941 0 0.35294990916585189 -0.11776704340289861 0 0.37304599086368051 -0.1172878243209769 0 0.36754591778873141 -0.11894640483752821 0 0.37468118458843741 -0.1259833128596666 0 0.3632105854436658 -0.12386911710915841 0 0.36754591778873141 -0.11894640483752821 0 0.37468118458843741 -0.1259833128596666 0 0.37304599086368051 -0.1172878243209769 0 0.36754591778873141 -0.11894640483752821 0 0.36885301350585731 -0.1124458834118035 0 0.37304599086368051 -0.1172878243209769 0 0.36885301350585731 -0.1124458834118035 0 0.37286385678548911 -0.1091405826755914 0 0.37802517058819329 -0.110177421627124 0 0.37304599086368051 -0.1172878243209769 0 0.37286385678548911 -0.1091405826755914 0 0.36754591778873141 -0.11894640483752821 0 0.36885301350585731 -0.1124458834118035 0 0.3627362351171538 -0.113442645408941 0 0.38235197742781318 -0.084259259015117743 0 0.36846400979487481 -0.1016831810778633 0 0.35833759452434483 -0.098813078345032945 0 0.36885301350585731 -0.1124458834118035 0 0.3627362351171538 -0.113442645408941 0 0.36846400979487481 -0.1016831810778633 0 0.3627362351171538 -0.113442645408941 0 0.36846400979487481 -0.1016831810778633 0 0.35833759452434483 -0.098813078345032945 0 0.37640580043462329 -0.1026568744274637 0 0.36846400979487481 -0.1016831810778633 0 0.37286385678548911 -0.1091405826755914 0 0.36885301350585731 -0.1124458834118035 0 0.36846400979487481 -0.1016831810778633 0 0.37286385678548911 -0.1091405826755914 0 0.37794196226703358 -0.096448415032830831 0 0.37640580043462329 -0.1026568744274637 0 0.36846400979487481 -0.1016831810778633 0 0.35833759452434483 -0.098813078345032945 0 0.33432321162087653 -0.11336689767494811 0 0.35833759452434483 -0.098813078345032945 0 0.35294990916585189 -0.11776704340289861 0 0.33432321162087653 -0.11336689767494811 0 0.3627362351171538 -0.113442645408941 0 0.35833759452434483 -0.098813078345032945 0 0.35294990916585189 -0.11776704340289861 0 0.35294990916585189 -0.11776704340289861 0 0.34062532775838872 -0.1251148555094917 0 0.35243895871886849 -0.1285257506201691 0 0.3632105854436658 -0.12386911710915841 0 0.35294990916585189 -0.11776704340289861 0 0.35243895871886849 -0.1285257506201691 0 0.35294990916585189 -0.11776704340289861 0 0.33432321162087653 -0.11336689767494811 0 0.34062532775838872 -0.1251148555094917 0 0.33432321162087653 -0.11336689767494811 0 0.32539824185952049 -0.12631695411272251 0 0.34062532775838872 -0.1251148555094917 0 0.35833759452434483 -0.098813078345032945 0 0.33432321162087653 -0.11336689767494811 0 0.3384023298871322 -0.093008350754025165 0 0.33432321162087653 -0.11336689767494811 0 0.3247825712764939 -0.1022523736424806 0 0.3384023298871322 -0.093008350754025165 0 0.3247825712764939 -0.1022523736424806 0 0.3384023298871322 -0.093008350754025165 0 0.32065160418377348 -0.089445741958414884 0 0.3247825712764939 -0.1022523736424806 0 0.31577754746788939 -0.1117439722243696 0 0.30784735706917471 -0.098506337840767816 0 0.33432321162087653 -0.11336689767494811 0 0.3247825712764939 -0.1022523736424806 0 0.31577754746788939 -0.1117439722243696 0 0.3247825712764939 -0.1022523736424806 0 0.32065160418377348 -0.089445741958414884 0 0.30784735706917471 -0.098506337840767816 0 0.33432321162087653 -0.11336689767494811 0 0.31030882871740822 -0.12792071700486321 0 0.33432321162087653 -0.11336689767494811 0 0.31577754746788939 -0.1117439722243696 0 0.31030882871740822 -0.12792071700486321 0 0.33432321162087653 -0.11336689767494811 0 0.31030882871740822 -0.12792071700486321 0 0.32539824185952049 -0.12631695411272251 0 0.34007184944216873 -0.055354075455928443 0 0.3426916051645939 -0.07226270628906864 0 0.33008785792136658 -0.063602309430435433 0 0.3426916051645939 -0.07226270628906864 0 0.33008785792136658 -0.063602309430435433 0 0.32586372729943902 -0.076212226338445335 0 0.3426916051645939 -0.07226270628906864 0 0.3384023298871322 -0.093008350754025165 0 0.32586372729943902 -0.076212226338445335 0 0.3384023298871322 -0.093008350754025165 0 0.32065160418377348 -0.089445741958414884 0 0.32586372729943902 -0.076212226338445335 0 0.32065160418377348 -0.089445741958414884 0 0.32586372729943902 -0.076212226338445335 0 0.30492228410462291 -0.076168052933047792 0 0.31766237423582883 -0.061616024814846182 0 0.32586372729943902 -0.076212226338445335 0 0.30492228410462291 -0.076168052933047792 0 0.31766237423582883 -0.061616024814846182 0 0.33008785792136658 -0.063602309430435433 0 0.32586372729943902 -0.076212226338445335 0 0.31766237423582883 -0.061616024814846182 0 0.30492228410462291 -0.076168052933047792 0 0.30572114637877268 -0.060389431274860149 0 0.30492228410462291 -0.076168052933047792 0 0.30572114637877268 -0.060389431274860149 0 0.29504649893182938 -0.06218251985998189 0 0.32065160418377348 -0.089445741958414884 0 0.30492228410462291 -0.076168052933047792 0 0.30784735706917471 -0.098506337840767816 0 0.30492228410462291 -0.076168052933047792 0 0.29464936048689122 -0.088678908323998815 0 0.30784735706917471 -0.098506337840767816 0 0.30492228410462291 -0.076168052933047792 0 0.29464936048689122 -0.088678908323998815 0 0.28090469518093492 -0.077702472478269599 0 0.29464936048689122 -0.088678908323998815 0 0.28492310559283263 -0.10233877004391009 0 0.28090469518093492 -0.077702472478269599 0 0.30492228410462291 -0.076168052933047792 0 0.28090469518093492 -0.077702472478269599 0 0.29504649893182938 -0.06218251985998189 0 0.28090469518093492 -0.077702472478269599 0 0.28390521533497748 -0.048049762265828612 0 0.28090469518093492 -0.077702472478269599 0 0.28390521533497748 -0.048049762265828612 0 0.29504649893182938 -0.06218251985998189 0 0.31577754746788939 -0.1117439722243696 0 0.30018601737348899 -0.11559216667548081 0 0.31030882871740822 -0.12792071700486321 0 0.30018601737348899 -0.11559216667548081 0 0.29454271148567579 -0.13093475646224989 0 0.31030882871740822 -0.12792071700486321 0 0.30018601737348899 -0.11559216667548081 0 0.30784735706917471 -0.098506337840767816 0 0.28492310559283263 -0.10233877004391009 0 0.31577754746788939 -0.1117439722243696 0 0.30018601737348899 -0.11559216667548081 0 0.30784735706917471 -0.098506337840767816 0 0.29464936048689122 -0.088678908323998815 0 0.30784735706917471 -0.098506337840767816 0 0.28492310559283263 -0.10233877004391009 0 0.28492310559283263 -0.10233877004391009 0 0.28677341718949989 -0.1211026283107989 0 0.27623438115298321 -0.1158824580824917 0 0.30018601737348899 -0.11559216667548081 0 0.28492310559283263 -0.10233877004391009 0 0.28677341718949989 -0.1211026283107989 0 0.30018601737348899 -0.11559216667548081 0 0.28677341718949989 -0.1211026283107989 0 0.29454271148567579 -0.13093475646224989 0 0.28677341718949989 -0.1211026283107989 0 0.27623438115298321 -0.1158824580824917 0 0.2768566485333529 -0.13384463676463959 0 0.27623438115298321 -0.1158824580824917 0 0.26574953049771211 -0.1218931665137732 0 0.2768566485333529 -0.13384463676463959 0 0.27623438115298321 -0.1158824580824917 0 0.26574953049771211 -0.1218931665137732 0 0.25759961101203199 -0.11296906871701271 0 0.27623438115298321 -0.1158824580824917 0 0.26825881798308238 -0.095016002413587666 0 0.25759961101203199 -0.11296906871701271 0 0.28492310559283263 -0.10233877004391009 0 0.27623438115298321 -0.1158824580824917 0 0.26825881798308238 -0.095016002413587666 0 0.25759961101203199 -0.11296906871701271 0 0.25205260541919938 -0.089026744033824351 0 0.24099359969779161 -0.1040257536698791 0 0.26825881798308238 -0.095016002413587666 0 0.25759961101203199 -0.11296906871701271 0 0.25205260541919938 -0.089026744033824351 0 0.25759961101203199 -0.11296906871701271 0 0.25881461920020682 -0.13179103064725881 0 0.24476529414343329 -0.12484218881723699 0 0.26574953049771211 -0.1218931665137732 0 0.25759961101203199 -0.11296906871701271 0 0.25881461920020682 -0.13179103064725881 0 0.28090469518093492 -0.077702472478269599 0 0.25930629704633412 -0.076641068424638081 0 0.2578069212616747 -0.054360598826842452 0 0.26825881798308238 -0.095016002413587666 0 0.28090469518093492 -0.077702472478269599 0 0.25930629704633412 -0.076641068424638081 0 0.28492310559283263 -0.10233877004391009 0 0.26825881798308238 -0.095016002413587666 0 0.28090469518093492 -0.077702472478269599 0 0.25205260541919938 -0.089026744033824351 0 0.25930629704633412 -0.076641068424638081 0 0.2404440203984225 -0.076028658967907267 0 0.26825881798308238 -0.095016002413587666 0 0.25205260541919938 -0.089026744033824351 0 0.25930629704633412 -0.076641068424638081 0 0.25930629704633412 -0.076641068424638081 0 0.2578069212616747 -0.054360598826842452 0 0.2404440203984225 -0.076028658967907267 0 0.28090469518093492 -0.077702472478269599 0 0.2578069212616747 -0.054360598826842452 0 0.28390521533497748 -0.048049762265828612 0 0.26611876807940688 -0.031271809695431377 0 0.28690573548902032 -0.018397052053387649 0 0.28390521533497748 -0.048049762265828612 0 0.2578069212616747 -0.054360598826842452 0 0.26611876807940688 -0.031271809695431377 0 0.28390521533497748 -0.048049762265828612 0 0.2578069212616747 -0.054360598826842452 0 0.26611876807940688 -0.031271809695431377 0 0.2459607450064917 -0.036233690560893039 0 0.26611876807940688 -0.031271809695431377 0 0.25000261356975351 -0.01488422752578606 0 0.27103908877359412 -0.016219287343870879 0 0.26611876807940688 -0.031271809695431377 0 0.25000261356975351 -0.01488422752578606 0 0.2459607450064917 -0.036233690560893039 0 0.25612269832549522 0.0072301428781907408 0 0.25000261356975351 -0.01488422752578606 0 0.26593470145343129 -0.0036557619505161211 0 0.25000261356975351 -0.01488422752578606 0 0.26593470145343129 -0.0036557619505161211 0 0.27103908877359412 -0.016219287343870879 0 0.27778314131040138 -0.0031190012101286841 0 0.27103908877359412 -0.016219287343870879 0 0.28690573548902032 -0.018397052053387649 0 0.26593470145343129 -0.0036557619505161211 0 0.27778314131040138 -0.0031190012101286841 0 0.27103908877359412 -0.016219287343870879 0 0.26611876807940688 -0.031271809695431377 0 0.27103908877359412 -0.016219287343870879 0 0.28690573548902032 -0.018397052053387649 0 0.28690573548902032 -0.018397052053387649 0 0.29913587350957949 -0.02859887057585769 0 0.29252541131530052 -0.035810248599224333 0 0.28690573548902032 -0.018397052053387649 0 0.2972082464775328 -0.015418811196194419 0 0.29913587350957949 -0.02859887057585769 0 0.28990625564306288 0.01125565815905331 0 0.28690573548902032 -0.018397052053387649 0 0.28981099862610937 -0.0060079772583931414 0 0.28990625564306288 0.01125565815905331 0 0.28690573548902032 -0.018397052053387649 0 0.28990625564306288 0.01125565815905331 0 0.27778314131040138 -0.0031190012101286841 0 0.28690573548902032 -0.018397052053387649 0 0.28981099862610937 -0.0060079772583931414 0 0.2972082464775328 -0.015418811196194419 0 0.30202446317424858 -0.0078953301743112016 0 0.28690573548902032 -0.018397052053387649 0 0.28981099862610937 -0.0060079772583931414 0 0.2972082464775328 -0.015418811196194419 0 0.30622674407609851 0.003013995465567122 0 0.28981099862610937 -0.0060079772583931414 0 0.30622674407609851 0.003013995465567122 0 0.29549614059362789 0.0025927338669159269 0 0.28981099862610937 -0.0060079772583931414 0 0.30622674407609851 0.003013995465567122 0 0.28981099862610937 -0.0060079772583931414 0 0.30202446317424858 -0.0078953301743112016 0 0.2972082464775328 -0.015418811196194419 0 0.30202446317424858 -0.0078953301743112016 0 0.30816416158870619 -0.01619482591902242 0 0.30202446317424858 -0.0078953301743112016 0 0.31144895349291429 -0.0082106664658960944 0 0.30816416158870619 -0.01619482591902242 0 0.30622674407609851 0.003013995465567122 0 0.30202446317424858 -0.0078953301743112016 0 0.31144895349291429 -0.0082106664658960944 0 0.31476763303011429 -0.02998090736882059 0 0.29913587350957949 -0.02859887057585769 0 0.30816416158870619 -0.01619482591902242 0 0.2972082464775328 -0.015418811196194419 0 0.29913587350957949 -0.02859887057585769 0 0.30816416158870619 -0.01619482591902242 0 0.31476763303011429 -0.02998090736882059 0 0.30015482092762452 -0.048195309501823373 0 0.31476763303011429 -0.02998090736882059 0 0.29913587350957949 -0.02859887057585769 0 0.30015482092762452 -0.048195309501823373 0 0.29913587350957949 -0.02859887057585769 0 0.30015482092762452 -0.048195309501823373 0 0.29252541131530052 -0.035810248599224333 0 0.31476763303011429 -0.02998090736882059 0 0.31615723423464798 -0.047994482683498187 0 0.30015482092762452 -0.048195309501823373 0 0.31615723423464798 -0.047994482683498187 0 0.30572114637877268 -0.060389431274860149 0 0.30015482092762452 -0.048195309501823373 0 0.30572114637877268 -0.060389431274860149 0 0.30015482092762452 -0.048195309501823373 0 0.29504649893182938 -0.06218251985998189 0 0.30015482092762452 -0.048195309501823373 0 0.28390521533497748 -0.048049762265828612 0 0.29504649893182938 -0.06218251985998189 0 0.28690573548902032 -0.018397052053387649 0 0.28390521533497748 -0.048049762265828612 0 0.28690573548902032 -0.018397052053387649 0 0.28390521533497748 -0.048049762265828612 0 0.29252541131530052 -0.035810248599224333 0 0.30015482092762452 -0.048195309501823373 0 0.28390521533497748 -0.048049762265828612 0 0.29252541131530052 -0.035810248599224333 0 0.28753367851941242 -0.20774142455002459 0 0.29239499279862341 -0.1890512529263545 0 0.30481744478707212 -0.19787575659161261 0 0.28753367851941242 -0.20774142455002459 0 0.29239499279862341 -0.1890512529263545 0 0.2745928082564798 -0.19366623618045689 0 0.29239499279862341 -0.1890512529263545 0 0.30481744478707212 -0.19787575659161261 0 0.30842868910566229 -0.18304869679499861 0 0.30481744478707212 -0.19787575659161261 0 0.30842868910566229 -0.18304869679499861 0 0.31389166376837813 -0.19117131697793799 0 0.30481744478707212 -0.19787575659161261 0 0.31724566271778082 -0.2011167874298174 0 0.31389166376837813 -0.19117131697793799 0 0.28753367851941242 -0.20774142455002459 0 0.30481744478707212 -0.19787575659161261 0 0.31095467209756728 -0.21439406071993081 0 0.28753367851941242 -0.20774142455002459 0 0.31095467209756728 -0.21439406071993081 0 0.29919689572139718 -0.2259093999253004 0 0.30481744478707212 -0.19787575659161261 0 0.31095467209756728 -0.21439406071993081 0 0.31724566271778082 -0.2011167874298174 0 0.29919689572139718 -0.2259093999253004 0 0.30805485442002528 -0.24320141437427439 0 0.31542284104195012 -0.23154528263351121 0 0.30805485442002528 -0.24320141437427439 0 0.28980269443792089 -0.24441540941917339 0 0.29886978151582599 -0.26038827723449942 0 0.29919689572139718 -0.2259093999253004 0 0.30805485442002528 -0.24320141437427439 0 0.28980269443792089 -0.24441540941917339 0 0.29919689572139718 -0.2259093999253004 0 0.28980269443792089 -0.24441540941917339 0 0.27119259750588409 -0.23479816903822789 0 0.29919689572139718 -0.2259093999253004 0 0.27119259750588409 -0.23479816903822789 0 0.28753367851941242 -0.20774142455002459 0 0.29919689572139718 -0.2259093999253004 0 0.27119259750588409 -0.23479816903822789 0 0.28980269443792089 -0.24441540941917339 0 0.27119259750588409 -0.23479816903822789 0 0.27687370214629448 -0.25966731273822641 0 0.27119259750588409 -0.23479816903822789 0 0.25225293073106908 -0.22626064684093161 0 0.24307935023810481 -0.2437568446794727 0 0.27119259750588409 -0.23479816903822789 0 0.2523709705495234 -0.25823779876646508 0 0.24307935023810481 -0.2437568446794727 0 0.27119259750588409 -0.23479816903822789 0 0.24307935023810481 -0.2437568446794727 0 0.27119259750588409 -0.23479816903822789 0 0.25225293073106908 -0.22626064684093161 0 0.26491739302095391 -0.21107547221628031 0 0.26491739302095391 -0.21107547221628031 0 0.25455447580017448 -0.195641949547112 0 0.24814039089817361 -0.21073456959679929 0 0.25225293073106908 -0.22626064684093161 0 0.26491739302095391 -0.21107547221628031 0 0.24814039089817361 -0.21073456959679929 0 0.28753367851941242 -0.20774142455002459 0 0.27119259750588409 -0.23479816903822789 0 0.26491739302095391 -0.21107547221628031 0 0.28753367851941242 -0.20774142455002459 0 0.26491739302095391 -0.21107547221628031 0 0.2745928082564798 -0.19366623618045689 0 0.2745928082564798 -0.19366623618045689 0 0.25455447580017448 -0.195641949547112 0 0.26570503946523411 -0.18272238778672509 0 0.26491739302095391 -0.21107547221628031 0 0.2745928082564798 -0.19366623618045689 0 0.25455447580017448 -0.195641949547112 0 0.25455447580017448 -0.195641949547112 0 0.26570503946523411 -0.18272238778672509 0 0.24898606286441441 -0.17831302270577401 0 0.27227855787008232 -0.1673451607229417 0 0.24898606286441441 -0.17831302270577401 0 0.25455447580017448 -0.195641949547112 0 0.24898606286441441 -0.17831302270577401 0 0.27227855787008232 -0.1673451607229417 0 0.26570503946523411 -0.18272238778672509 0 0.24898606286441441 -0.17831302270577401 0 0.25735247082516349 -0.16330024934565071 0 0.27227855787008232 -0.1673451607229417 0 0.24898606286441441 -0.17831302270577401 0 0.25735247082516349 -0.16330024934565071 0 0.25122934508301742 -0.15555925837644879 0 0.24263557323507251 -0.15855026957249371 0 0.25735247082516349 -0.16330024934565071 0 0.27227855787008232 -0.1673451607229417 0 0.27146304518624331 -0.15170454634930419 0 0.27227855787008232 -0.1673451607229417 0 0.27146304518624331 -0.15170454634930419 0 0.28520778604738761 -0.1633773942117647 0 0.27227855787008232 -0.1673451607229417 0 0.27925740179277703 -0.1786122917116654 0 0.28520778604738761 -0.1633773942117647 0 0.2745928082564798 -0.19366623618045689 0 0.27925740179277703 -0.1786122917116654 0 0.26570503946523411 -0.18272238778672509 0 0.27227855787008232 -0.1673451607229417 0 0.27925740179277703 -0.1786122917116654 0 0.26570503946523411 -0.18272238778672509 0 0.25881461920020682 -0.13179103064725881 0 0.25608039490528522 -0.14760167213325609 0 0.24839716721637611 -0.13801773356525041 0 0.25881461920020682 -0.13179103064725881 0 0.25608039490528522 -0.14760167213325609 0 0.26580367695627211 -0.14123547147361459 0 0.25881461920020682 -0.13179103064725881 0 0.24476529414343329 -0.12484218881723699 0 0.24839716721637611 -0.13801773356525041 0 0.25735247082516349 -0.16330024934565071 0 0.25608039490528522 -0.14760167213325609 0 0.25122934508301742 -0.15555925837644879 0 0.25735247082516349 -0.16330024934565071 0 0.25608039490528522 -0.14760167213325609 0 0.27146304518624331 -0.15170454634930419 0 0.25608039490528522 -0.14760167213325609 0 0.27146304518624331 -0.15170454634930419 0 0.26580367695627211 -0.14123547147361459 0 0.25608039490528522 -0.14760167213325609 0 0.24839716721637611 -0.13801773356525041 0 0.2469791200710095 -0.14784491633943569 0 0.25608039490528522 -0.14760167213325609 0 0.25122934508301742 -0.15555925837644879 0 0.2469791200710095 -0.14784491633943569 0 0.27146304518624331 -0.15170454634930419 0 0.26580367695627211 -0.14123547147361459 0 0.2768566485333529 -0.13384463676463959 0 0.27146304518624331 -0.15170454634930419 0 0.2768566485333529 -0.13384463676463959 0 0.29364746926643759 -0.14766890814510919 0 0.25881461920020682 -0.13179103064725881 0 0.26580367695627211 -0.14123547147361459 0 0.2768566485333529 -0.13384463676463959 0 0.26574953049771211 -0.1218931665137732 0 0.25881461920020682 -0.13179103064725881 0 0.2768566485333529 -0.13384463676463959 0 0.2768566485333529 -0.13384463676463959 0 0.29454271148567579 -0.13093475646224989 0 0.29364746926643759 -0.14766890814510919 0 0.28677341718949989 -0.1211026283107989 0 0.2768566485333529 -0.13384463676463959 0 0.29454271148567579 -0.13093475646224989 0 0.27146304518624331 -0.15170454634930419 0 0.29364746926643759 -0.14766890814510919 0 0.27146304518624331 -0.15170454634930419 0 0.29364746926643759 -0.14766890814510919 0 0.28520778604738761 -0.1633773942117647 0 0.29454271148567579 -0.13093475646224989 0 0.29364746926643759 -0.14766890814510919 0 0.31583189334663192 -0.1436332699409143 0 0.29364746926643759 -0.14766890814510919 0 0.31583189334663192 -0.1436332699409143 0 0.29364746926643759 -0.14766890814510919 0 0.31430809847388141 -0.15878303744236291 0 0.31583189334663192 -0.1436332699409143 0 0.29454271148567579 -0.13093475646224989 0 0.31030882871740822 -0.12792071700486321 0 0.31583189334663192 -0.1436332699409143 0 0.29239499279862341 -0.1890512529263545 0 0.2745928082564798 -0.19366623618045689 0 0.27925740179277703 -0.1786122917116654 0 0.29239499279862341 -0.1890512529263545 0 0.27925740179277703 -0.1786122917116654 0 0.29195529564353762 -0.17531963678345749 0 0.27925740179277703 -0.1786122917116654 0 0.29195529564353762 -0.17531963678345749 0 0.28520778604738761 -0.1633773942117647 0 0.29364746926643759 -0.14766890814510919 0 0.28520778604738761 -0.1633773942117647 0 0.30216367616266748 -0.16605329110528361 0 0.29195529564353762 -0.17531963678345749 0 0.28520778604738761 -0.1633773942117647 0 0.30216367616266748 -0.16605329110528361 0 0.29364746926643759 -0.14766890814510919 0 0.30216367616266748 -0.16605329110528361 0 0.31430809847388141 -0.15878303744236291 0 0.30216367616266748 -0.16605329110528361 0 0.31799435858669112 -0.17297547190498769 0 0.31430809847388141 -0.15878303744236291 0 0.29195529564353762 -0.17531963678345749 0 0.30216367616266748 -0.16605329110528361 0 0.30842868910566229 -0.18304869679499861 0 0.30216367616266748 -0.16605329110528361 0 0.30842868910566229 -0.18304869679499861 0 0.31799435858669112 -0.17297547190498769 0 0.29239499279862341 -0.1890512529263545 0 0.29195529564353762 -0.17531963678345749 0 0.30842868910566229 -0.18304869679499861 0 0.30842868910566229 -0.18304869679499861 0 0.32507485846299738 -0.1826440270953234 0 0.31389166376837813 -0.19117131697793799 0 0.30842868910566229 -0.18304869679499861 0 0.32507485846299738 -0.1826440270953234 0 0.31799435858669112 -0.17297547190498769 0 0.32507485846299738 -0.1826440270953234 0 0.31799435858669112 -0.17297547190498769 0 0.32968386236139591 -0.17561553619740741 0 0.31799435858669112 -0.17297547190498769 0 0.31430809847388141 -0.15878303744236291 0 0.32572643300644227 -0.16600714012938941 0 0.31430809847388141 -0.15878303744236291 0 0.32572643300644227 -0.16600714012938941 0 0.33048476047441833 -0.1563601434284933 0 0.31799435858669112 -0.17297547190498769 0 0.32572643300644227 -0.16600714012938941 0 0.32968386236139591 -0.17561553619740741 0 0.32572643300644227 -0.16600714012938941 0 0.33378694752990351 -0.16829869548741369 0 0.32968386236139591 -0.17561553619740741 0 0.32572643300644227 -0.16600714012938941 0 0.33378694752990351 -0.16829869548741369 0 0.33048476047441833 -0.1563601434284933 0 0.33378694752990351 -0.16829869548741369 0 0.33048476047441833 -0.1563601434284933 0 0.34224953267461161 -0.164114886704605 0 0.33048476047441833 -0.1563601434284933 0 0.34224953267461161 -0.164114886704605 0 0.34106331509831361 -0.1539924615840734 0 0.33378694752990351 -0.16829869548741369 0 0.34224953267461161 -0.164114886704605 0 0.34109373008990179 -0.1767432423109255 0 0.32507485846299738 -0.1826440270953234 0 0.32968386236139591 -0.17561553619740741 0 0.33300219975614959 -0.2011490272023834 0 0.34109373008990179 -0.1767432423109255 0 0.32968386236139591 -0.17561553619740741 0 0.34020217182135332 -0.1879433762820468 0 0.33378694752990351 -0.16829869548741369 0 0.34109373008990179 -0.1767432423109255 0 0.32968386236139591 -0.17561553619740741 0 0.31030882871740822 -0.12792071700486321 0 0.32539824185952049 -0.12631695411272251 0 0.31583189334663192 -0.1436332699409143 0 0.32539824185952049 -0.12631695411272251 0 0.31583189334663192 -0.1436332699409143 0 0.33801631742682631 -0.13959763173672021 0 0.31430809847388141 -0.15878303744236291 0 0.33048476047441833 -0.1563601434284933 0 0.31583189334663192 -0.1436332699409143 0 0.31583189334663192 -0.1436332699409143 0 0.33801631742682631 -0.13959763173672021 0 0.33048476047441833 -0.1563601434284933 0 0.31583189334663192 -0.1436332699409143 0 0.33801631742682631 -0.13959763173672021 0 0.33048476047441833 -0.1563601434284933 0 0.34106331509831361 -0.1539924615840734 0 0.33801631742682631 -0.13959763173672021 0 0.32539824185952049 -0.12631695411272251 0 0.33801631742682631 -0.13959763173672021 0 0.33801631742682631 -0.13959763173672021 0 0.34062532775838872 -0.1251148555094917 0 0.35243895871886849 -0.1285257506201691 0 0.32539824185952049 -0.12631695411272251 0 0.33801631742682631 -0.13959763173672021 0 0.34062532775838872 -0.1251148555094917 0 0.33801631742682631 -0.13959763173672021 0 0.35916249957517621 -0.13882121416050069 0 0.36572808081036101 -0.13455649789380619 0 0.33801631742682631 -0.13959763173672021 0 0.36572808081036101 -0.13455649789380619 0 0.33801631742682631 -0.13959763173672021 0 0.35243895871886849 -0.1285257506201691 0 0.36572808081036101 -0.13455649789380619 0 0.34106331509831361 -0.1539924615840734 0 0.33801631742682631 -0.13959763173672021 0 0.35350264981739832 -0.15589718446647499 0 0.33801631742682631 -0.13959763173672021 0 0.35916249957517621 -0.13882121416050069 0 0.35350264981739832 -0.15589718446647499 0 0.33801631742682631 -0.13959763173672021 0 0.35350264981739832 -0.15589718446647499 0 0.35916249957517621 -0.13882121416050069 0 0.36980922670667432 -0.1524891774535802 0 0.38330876824194698 -0.14135356816741909 0 0.35916249957517621 -0.13882121416050069 0 0.35350264981739832 -0.15589718446647499 0 0.36980922670667432 -0.1524891774535802 0 0.35916249957517621 -0.13882121416050069 0 0.38330876824194698 -0.14135356816741909 0 0.36572808081036101 -0.13455649789380619 0 0.37468118458843741 -0.1259833128596666 0 0.38330876824194698 -0.14135356816741909 0 0.35916249957517621 -0.13882121416050069 0 0.36572808081036101 -0.13455649789380619 0 0.38330876824194698 -0.14135356816741909 0 0.3632105854436658 -0.12386911710915841 0 0.36572808081036101 -0.13455649789380619 0 0.37468118458843741 -0.1259833128596666 0 0.3632105854436658 -0.12386911710915841 0 0.35243895871886849 -0.1285257506201691 0 0.36572808081036101 -0.13455649789380619 0 0.35038037257389087 -0.1859081851404395 0 0.35124305347275492 -0.17097204716373471 0 0.36898898220797161 -0.17219673719622849 0 0.34109373008990179 -0.1767432423109255 0 0.35038037257389087 -0.1859081851404395 0 0.34020217182135332 -0.1879433762820468 0 0.34109373008990179 -0.1767432423109255 0 0.35038037257389087 -0.1859081851404395 0 0.35124305347275492 -0.17097204716373471 0 0.34224953267461161 -0.164114886704605 0 0.34109373008990179 -0.1767432423109255 0 0.35124305347275492 -0.17097204716373471 0 0.35350264981739832 -0.15589718446647499 0 0.35124305347275492 -0.17097204716373471 0 0.36898898220797161 -0.17219673719622849 0 0.34224953267461161 -0.164114886704605 0 0.35350264981739832 -0.15589718446647499 0 0.35124305347275492 -0.17097204716373471 0 0.34224953267461161 -0.164114886704605 0 0.34106331509831361 -0.1539924615840734 0 0.35350264981739832 -0.15589718446647499 0 0.35350264981739832 -0.15589718446647499 0 0.36980922670667432 -0.1524891774535802 0 0.36898898220797161 -0.17219673719622849 0 0.36980922670667432 -0.1524891774535802 0 0.36898898220797161 -0.17219673719622849 0 0.38151297215007951 -0.1618289007378555 0 0.35350264981739832 -0.15589718446647499 0 0.36898898220797161 -0.17219673719622849 0 0.35038037257389087 -0.1859081851404395 0 0.36898898220797161 -0.17219673719622849 0 0.36427726526099807 -0.19582268980872791 0 0.36898898220797161 -0.17219673719622849 0 0.36427726526099807 -0.19582268980872791 0 0.38447531459854478 -0.18849628992598211 0 0.36427726526099807 -0.19582268980872791 0 0.37472661172600308 -0.20776456034850541 0 0.38447531459854478 -0.18849628992598211 0 0.37472661172600308 -0.20776456034850541 0 0.35684609963291819 -0.2105517404033993 0 0.36536951533292422 -0.22157978383196969 0 0.37472661172600308 -0.20776456034850541 0 0.36536951533292422 -0.22157978383196969 0 0.38162891403591709 -0.21791327145650641 0 0.36427726526099807 -0.19582268980872791 0 0.37472661172600308 -0.20776456034850541 0 0.35684609963291819 -0.2105517404033993 0 0.35684609963291819 -0.2105517404033993 0 0.35075884859986861 -0.21987872984549239 0 0.36536951533292422 -0.22157978383196969 0 0.35684609963291819 -0.2105517404033993 0 0.34390794913884221 -0.21193007658065591 0 0.34810267636402542 -0.1988841825696088 0 0.35684609963291819 -0.2105517404033993 0 0.34390794913884221 -0.21193007658065591 0 0.35075884859986861 -0.21987872984549239 0 0.36427726526099807 -0.19582268980872791 0 0.35684609963291819 -0.2105517404033993 0 0.34810267636402542 -0.1988841825696088 0 0.35038037257389087 -0.1859081851404395 0 0.36427726526099807 -0.19582268980872791 0 0.34810267636402542 -0.1988841825696088 0 0.35038037257389087 -0.1859081851404395 0 0.34810267636402542 -0.1988841825696088 0 0.34020217182135332 -0.1879433762820468 0 0.32507485846299738 -0.1826440270953234 0 0.33300219975614959 -0.2011490272023834 0 0.32715975360887523 -0.21152288055515139 0 0.32968386236139591 -0.17561553619740741 0 0.33300219975614959 -0.2011490272023834 0 0.32968386236139591 -0.17561553619740741 0 0.34020217182135332 -0.1879433762820468 0 0.33300219975614959 -0.2011490272023834 0 0.34810267636402542 -0.1988841825696088 0 0.34020217182135332 -0.1879433762820468 0 0.33300219975614959 -0.2011490272023834 0 0.34390794913884221 -0.21193007658065591 0 0.34810267636402542 -0.1988841825696088 0 0.33300219975614959 -0.2011490272023834 0 0.33300219975614959 -0.2011490272023834 0 0.33632053715090349 -0.22668251820735949 0 0.33300219975614959 -0.2011490272023834 0 0.32715975360887523 -0.21152288055515139 0 0.33632053715090349 -0.22668251820735949 0 0.34390794913884221 -0.21193007658065591 0 0.33300219975614959 -0.2011490272023834 0 0.33632053715090349 -0.22668251820735949 0 0.32755481797840602 -0.21699510109220571 0 0.32715975360887523 -0.21152288055515139 0 0.33632053715090349 -0.22668251820735949 0 0.31095467209756728 -0.21439406071993081 0 0.32755481797840602 -0.21699510109220571 0 0.31930255410163622 -0.21037816738613629 0 0.32715975360887523 -0.21152288055515139 0 0.31930255410163622 -0.21037816738613629 0 0.31724566271778082 -0.2011167874298174 0 0.32755481797840602 -0.21699510109220571 0 0.32715975360887523 -0.21152288055515139 0 0.31930255410163622 -0.21037816738613629 0 0.32755481797840602 -0.21699510109220571 0 0.32715975360887523 -0.21152288055515139 0 0.31095467209756728 -0.21439406071993081 0 0.31930255410163622 -0.21037816738613629 0 0.31724566271778082 -0.2011167874298174 0 0.32507485846299738 -0.1826440270953234 0 0.32715975360887523 -0.21152288055515139 0 0.32507485846299738 -0.1826440270953234 0 0.31724566271778082 -0.2011167874298174 0 0.31389166376837813 -0.19117131697793799 0 0.32507485846299738 -0.1826440270953234 0 0.32715975360887523 -0.21152288055515139 0 0.31724566271778082 -0.2011167874298174 0 0.30805485442002528 -0.24320141437427439 0 0.31542284104195012 -0.23154528263351121 0 0.32924464875475301 -0.24040173401497919 0 0.30805485442002528 -0.24320141437427439 0 0.32924464875475301 -0.24040173401497919 0 0.3157922650483046 -0.25654838301818278 0 0.29919689572139718 -0.2259093999253004 0 0.32755481797840602 -0.21699510109220571 0 0.31095467209756728 -0.21439406071993081 0 0.29919689572139718 -0.2259093999253004 0 0.32755481797840602 -0.21699510109220571 0 0.32755481797840602 -0.21699510109220571 0 0.31542284104195012 -0.23154528263351121 0 0.32924464875475301 -0.24040173401497919 0 0.29919689572139718 -0.2259093999253004 0 0.32755481797840602 -0.21699510109220571 0 0.31542284104195012 -0.23154528263351121 0 0.32755481797840602 -0.21699510109220571 0 0.33632053715090349 -0.22668251820735949 0 0.32924464875475301 -0.24040173401497919 0 0.32755481797840602 -0.21699510109220571 0 0.32924464875475301 -0.24040173401497919 0 0.34390794913884221 -0.21193007658065591 0 0.33632053715090349 -0.22668251820735949 0 0.35075884859986861 -0.21987872984549239 0 0.33632053715090349 -0.22668251820735949 0 0.32924464875475301 -0.24040173401497919 0 0.33963887454565722 -0.25221600921233539 0 0.33632053715090349 -0.22668251820735949 0 0.33963887454565722 -0.25221600921233539 0 0.33632053715090349 -0.22668251820735949 0 0.34690765777547211 -0.24060714328141619 0 0.33963887454565722 -0.25221600921233539 0 0.34690765777547211 -0.24060714328141619 0 0.35922468618612141 -0.24659811890942029 0 0.35396962050339181 -0.2308343214899968 0 0.34690765777547211 -0.24060714328141619 0 0.33963887454565722 -0.25221600921233539 0 0.35171200096815652 -0.25507102834379519 0 0.34690765777547211 -0.24060714328141619 0 0.35922468618612141 -0.24659811890942029 0 0.35171200096815652 -0.25507102834379519 0 0.33632053715090349 -0.22668251820735949 0 0.35075884859986861 -0.21987872984549239 0 0.35396962050339181 -0.2308343214899968 0 0.33632053715090349 -0.22668251820735949 0 0.34690765777547211 -0.24060714328141619 0 0.35396962050339181 -0.2308343214899968 0 0.35075884859986861 -0.21987872984549239 0 0.35396962050339181 -0.2308343214899968 0 0.36536951533292422 -0.22157978383196969 0 0.36536951533292422 -0.22157978383196969 0 0.37625687777307221 -0.23076140854471261 0 0.38162891403591709 -0.21791327145650641 0 0.35396962050339181 -0.2308343214899968 0 0.36536951533292422 -0.22157978383196969 0 0.36549844506158569 -0.23499558184867589 0 0.36536951533292422 -0.22157978383196969 0 0.36549844506158569 -0.23499558184867589 0 0.37625687777307221 -0.23076140854471261 0 0.35922468618612141 -0.24659811890942029 0 0.35396962050339181 -0.2308343214899968 0 0.36549844506158569 -0.23499558184867589 0 0.35922468618612141 -0.24659811890942029 0 0.37267152551241889 -0.24520427646727971 0 0.3695011402772479 -0.25301954681047728 0 0.35922468618612141 -0.24659811890942029 0 0.36549844506158569 -0.23499558184867589 0 0.37267152551241889 -0.24520427646727971 0 0.36549844506158569 -0.23499558184867589 0 0.37267152551241889 -0.24520427646727971 0 0.37625687777307221 -0.23076140854471261 0 0.37267152551241889 -0.24520427646727971 0 0.38586636544919972 -0.24100135907375481 0 0.38482050394253398 -0.25247324786277359 0 0.37267152551241889 -0.24520427646727971 0 0.38586636544919972 -0.24100135907375481 0 0.37625687777307221 -0.23076140854471261 0 0.38586636544919972 -0.24100135907375481 0 0.39469693994636129 -0.24787710556333731 0 0.38482050394253398 -0.25247324786277359 0 0.38586636544919972 -0.24100135907375481 0 0.39974806577773297 -0.23590058486317231 0 0.39004778400241308 -0.22729817302597621 0 0.38586636544919972 -0.24100135907375481 0 0.39469693994636129 -0.24787710556333731 0 0.39974806577773297 -0.23590058486317231 0 0.39974806577773297 -0.23590058486317231 0 0.40618229675393208 -0.2484953321196279 0 0.4125293879104146 -0.23320256058904609 0 0.39469693994636129 -0.24787710556333731 0 0.39974806577773297 -0.23590058486317231 0 0.40618229675393208 -0.2484953321196279 0 0.39974806577773297 -0.23590058486317231 0 0.40182153792410852 -0.22281551419928661 0 0.4125293879104146 -0.23320256058904609 0 0.39974806577773297 -0.23590058486317231 0 0.40182153792410852 -0.22281551419928661 0 0.39004778400241308 -0.22729817302597621 0 0.40182153792410852 -0.22281551419928661 0 0.39004778400241308 -0.22729817302597621 0 0.39316509136793037 -0.2164341091515268 0 0.39004778400241308 -0.22729817302597621 0 0.38162891403591709 -0.21791327145650641 0 0.39316509136793037 -0.2164341091515268 0 0.38586636544919972 -0.24100135907375481 0 0.39004778400241308 -0.22729817302597621 0 0.37625687777307221 -0.23076140854471261 0 0.39004778400241308 -0.22729817302597621 0 0.37625687777307221 -0.23076140854471261 0 0.38162891403591709 -0.21791327145650641 0 0.37472661172600308 -0.20776456034850541 0 0.38162891403591709 -0.21791327145650641 0 0.38903868920113233 -0.20286999793375551 0 0.38162891403591709 -0.21791327145650641 0 0.38903868920113233 -0.20286999793375551 0 0.39316509136793037 -0.2164341091515268 0 0.37472661172600308 -0.20776456034850541 0 0.38903868920113233 -0.20286999793375551 0 0.38447531459854478 -0.18849628992598211 0 0.38903868920113233 -0.20286999793375551 0 0.38447531459854478 -0.18849628992598211 0 0.3948881571613273 -0.1895808324104758 0 0.38903868920113233 -0.20286999793375551 0 0.3948881571613273 -0.1895808324104758 0 0.40205657940641748 -0.19775965954718791 0 0.3948881571613273 -0.1895808324104758 0 0.40205657940641748 -0.19775965954718791 0 0.4054178819131089 -0.18546832401848931 0 0.40205657940641748 -0.19775965954718791 0 0.40051961857882601 -0.21046096194044581 0 0.4149192799073339 -0.2135966956255522 0 0.38903868920113233 -0.20286999793375551 0 0.40205657940641748 -0.19775965954718791 0 0.40051961857882601 -0.21046096194044581 0 0.38903868920113233 -0.20286999793375551 0 0.39316509136793037 -0.2164341091515268 0 0.40051961857882601 -0.21046096194044581 0 0.40182153792410852 -0.22281551419928661 0 0.40051961857882601 -0.21046096194044581 0 0.4149192799073339 -0.2135966956255522 0 0.40182153792410852 -0.22281551419928661 0 0.39316509136793037 -0.2164341091515268 0 0.40051961857882601 -0.21046096194044581 0 0.40205657940641748 -0.19775965954718791 0 0.4149192799073339 -0.2135966956255522 0 0.41841041382591132 -0.20076121426068799 0 0.40205657940641748 -0.19775965954718791 0 0.4149192799073339 -0.2135966956255522 0 0.4149192799073339 -0.2135966956255522 0 0.41841041382591132 -0.20076121426068799 0 0.43140294573871463 -0.2160541045028859 0 0.40205657940641748 -0.19775965954718791 0 0.41841041382591132 -0.20076121426068799 0 0.4054178819131089 -0.18546832401848931 0 0.41841041382591132 -0.20076121426068799 0 0.4054178819131089 -0.18546832401848931 0 0.42093738260344288 -0.18071634611558771 0 0.41841041382591132 -0.20076121426068799 0 0.4054178819131089 -0.18546832401848931 0 0.41841041382591132 -0.20076121426068799 0 0.43140294573871463 -0.2160541045028859 0 0.43840446831716762 -0.1901831686087693 0 0.43140294573871463 -0.2160541045028859 0 0.43840446831716762 -0.1901831686087693 0 0.41841041382591132 -0.20076121426068799 0 0.42093738260344288 -0.18071634611558771 0 0.43840446831716762 -0.1901831686087693 0 0.41841041382591132 -0.20076121426068799 0 0.43140294573871463 -0.2160541045028859 0 0.4149192799073339 -0.2135966956255522 0 0.43140294573871463 -0.2160541045028859 0 0.42778198040825138 -0.22943373170391551 0 0.43140294573871463 -0.2160541045028859 0 0.42778198040825138 -0.22943373170391551 0 0.44942716302203439 -0.23726955184335111 0 0.43140294573871463 -0.2160541045028859 0 0.42778198040825138 -0.22943373170391551 0 0.42778198040825138 -0.22943373170391551 0 0.42245479567646649 -0.24911791512943621 0 0.43244165196748618 -0.25135026191707088 0 0.42778198040825138 -0.22943373170391551 0 0.44318282828080691 -0.2483958293892122 0 0.42778198040825138 -0.22943373170391551 0 0.42245479567646649 -0.24911791512943621 0 0.42778198040825138 -0.22943373170391551 0 0.44318282828080691 -0.2483958293892122 0 0.43244165196748618 -0.25135026191707088 0 0.40618229675393208 -0.2484953321196279 0 0.42245479567646649 -0.24911791512943621 0 0.4125293879104146 -0.23320256058904609 0 0.42778198040825138 -0.22943373170391551 0 0.42245479567646649 -0.24911791512943621 0 0.4125293879104146 -0.23320256058904609 0 0.40182153792410852 -0.22281551419928661 0 0.4149192799073339 -0.2135966956255522 0 0.4125293879104146 -0.23320256058904609 0 0.4149192799073339 -0.2135966956255522 0 0.42778198040825138 -0.22943373170391551 0 0.4149192799073339 -0.2135966956255522 0 0.42778198040825138 -0.22943373170391551 0 0.4125293879104146 -0.23320256058904609 0 0.40041758381191922 -0.13214362395743781 0 0.38330876824194698 -0.14135356816741909 0 0.40745503690871759 -0.1438859221743401 0 0.40425344987380668 -0.11544633234142961 0 0.40041758381191922 -0.13214362395743781 0 0.38810228100105498 -0.1277317144889617 0 0.40041758381191922 -0.13214362395743781 0 0.38810228100105498 -0.1277317144889617 0 0.38330876824194698 -0.14135356816741909 0 0.37468118458843741 -0.1259833128596666 0 0.38810228100105498 -0.1277317144889617 0 0.38330876824194698 -0.14135356816741909 0 0.36980922670667432 -0.1524891774535802 0 0.38330876824194698 -0.14135356816741909 0 0.38151297215007951 -0.1618289007378555 0 0.38330876824194698 -0.14135356816741909 0 0.39547940561769362 -0.1559364375877596 0 0.38151297215007951 -0.1618289007378555 0 0.38330876824194698 -0.14135356816741909 0 0.40745503690871759 -0.1438859221743401 0 0.38330876824194698 -0.14135356816741909 0 0.39547940561769362 -0.1559364375877596 0 0.40745503690871759 -0.1438859221743401 0 0.39547940561769362 -0.1559364375877596 0 0.41225470794769842 -0.15634993217680859 0 0.40745503690871759 -0.1438859221743401 0 0.39547940561769362 -0.1559364375877596 0 0.40745503690871759 -0.1438859221743401 0 0.39547940561769362 -0.1559364375877596 0 0.40701663398972349 -0.16982300059200139 0 0.41225470794769842 -0.15634993217680859 0 0.39547940561769362 -0.1559364375877596 0 0.39156211157743892 -0.17464956979178239 0 0.40701663398972349 -0.16982300059200139 0 0.36898898220797161 -0.17219673719622849 0 0.38151297215007951 -0.1618289007378555 0 0.39156211157743892 -0.17464956979178239 0 0.39547940561769362 -0.1559364375877596 0 0.38151297215007951 -0.1618289007378555 0 0.39156211157743892 -0.17464956979178239 0 0.36898898220797161 -0.17219673719622849 0 0.38447531459854478 -0.18849628992598211 0 0.39156211157743892 -0.17464956979178239 0 0.36898898220797161 -0.17219673719622849 0 0.38447531459854478 -0.18849628992598211 0 0.38447531459854478 -0.18849628992598211 0 0.3948881571613273 -0.1895808324104758 0 0.39156211157743892 -0.17464956979178239 0 0.39156211157743892 -0.17464956979178239 0 0.4054178819131089 -0.18546832401848931 0 0.40701663398972349 -0.16982300059200139 0 0.3948881571613273 -0.1895808324104758 0 0.39156211157743892 -0.17464956979178239 0 0.4054178819131089 -0.18546832401848931 0 0.4054178819131089 -0.18546832401848931 0 0.42093738260344288 -0.18071634611558771 0 0.40701663398972349 -0.16982300059200139 0 0.42093738260344288 -0.18071634611558771 0 0.42073118554081718 -0.16579195161304339 0 0.40701663398972349 -0.16982300059200139 0 0.42093738260344288 -0.18071634611558771 0 0.43534962167984248 -0.1699440171152965 0 0.43840446831716762 -0.1901831686087693 0 0.42093738260344288 -0.18071634611558771 0 0.43534962167984248 -0.1699440171152965 0 0.42073118554081718 -0.16579195161304339 0 0.43534962167984248 -0.1699440171152965 0 0.42073118554081718 -0.16579195161304339 0 0.43059127768153888 -0.14631234891689721 0 0.43534962167984248 -0.1699440171152965 0 0.43059127768153888 -0.14631234891689721 0 0.44521518817516098 -0.16000795464798109 0 0.42073118554081718 -0.16579195161304339 0 0.40701663398972349 -0.16982300059200139 0 0.41225470794769842 -0.15634993217680859 0 0.41225470794769842 -0.15634993217680859 0 0.40745503690871759 -0.1438859221743401 0 0.43059127768153888 -0.14631234891689721 0 0.40745503690871759 -0.1438859221743401 0 0.43059127768153888 -0.14631234891689721 0 0.41896838303406858 -0.13230058261503749 0 0.40745503690871759 -0.1438859221743401 0 0.43059127768153888 -0.14631234891689721 0 0.42073118554081718 -0.16579195161304339 0 0.41225470794769842 -0.15634993217680859 0 0.43059127768153888 -0.14631234891689721 0 0.43048172915942012 -0.12071524305573531 0 0.41896838303406858 -0.13230058261503749 0 0.43943049650456389 -0.13412429867300221 0 0.43059127768153888 -0.14631234891689721 0 0.41896838303406858 -0.13230058261503749 0 0.43943049650456389 -0.13412429867300221 0 0.43048172915942012 -0.12071524305573531 0 0.41896838303406858 -0.13230058261503749 0 0.40425344987380668 -0.11544633234142961 0 0.40041758381191922 -0.13214362395743781 0 0.41896838303406858 -0.13230058261503749 0 0.40041758381191922 -0.13214362395743781 0 0.40745503690871759 -0.1438859221743401 0 0.41896838303406858 -0.13230058261503749 0 0.40745503690871759 -0.1438859221743401 0 0.41896838303406858 -0.13230058261503749 0 0.44795773577491982 -0.12422593918250111 0 0.46543374239041979 -0.12773663530926591 0 0.45485633492307642 -0.13245290260838399 0 0.46497502753267073 -0.14026494405489959 0 0.45485633492307642 -0.13245290260838399 0 0.45372751845435982 -0.14873877565945681 0 0.44795773577491982 -0.12422593918250111 0 0.46543374239041979 -0.12773663530926591 0 0.46543374239041979 -0.12773663530926591 0 0.46522837161713021 -0.12967901504127319 0 0.45485633492307642 -0.13245290260838399 0 0.46543374239041979 -0.12773663530926591 0 0.46522837161713021 -0.12967901504127319 0 0.46522837161713021 -0.12967901504127319 0 0.46497502753267073 -0.14026494405489959 0 0.45485633492307642 -0.13245290260838399 0 0.46522837161713021 -0.12967901504127319 0 0.46497502753267073 -0.14026494405489959 0 0.47419915344160618 -0.13928882456336761 0 0.44795773577491982 -0.12422593918250111 0 0.43048172915942012 -0.12071524305573531 0 0.43943049650456389 -0.13412429867300221 0 0.45485633492307642 -0.13245290260838399 0 0.43943049650456389 -0.13412429867300221 0 0.45372751845435982 -0.14873877565945681 0 0.44795773577491982 -0.12422593918250111 0 0.45485633492307642 -0.13245290260838399 0 0.43943049650456389 -0.13412429867300221 0 0.43059127768153888 -0.14631234891689721 0 0.45372751845435982 -0.14873877565945681 0 0.43059127768153888 -0.14631234891689721 0 0.45372751845435982 -0.14873877565945681 0 0.44521518817516098 -0.16000795464798109 0 0.43059127768153888 -0.14631234891689721 0 0.43943049650456389 -0.13412429867300221 0 0.45372751845435982 -0.14873877565945681 0 0.45372751845435982 -0.14873877565945681 0 0.47686375922718072 -0.1511652024020165 0 0.45372751845435982 -0.14873877565945681 0 0.46838652854498508 -0.1625318475913041 0 0.47686375922718072 -0.1511652024020165 0 0.46497502753267073 -0.14026494405489959 0 0.45372751845435982 -0.14873877565945681 0 0.47686375922718072 -0.1511652024020165 0 0.45372751845435982 -0.14873877565945681 0 0.46838652854498508 -0.1625318475913041 0 0.45675328347854482 -0.16641292248215109 0 0.46838652854498508 -0.1625318475913041 0 0.45675328347854482 -0.16641292248215109 0 0.47019324315227801 -0.17775275666350221 0 0.43534962167984248 -0.1699440171152965 0 0.44521518817516098 -0.16000795464798109 0 0.44848998543567192 -0.17900135254582089 0 0.45675328347854482 -0.16641292248215109 0 0.44521518817516098 -0.16000795464798109 0 0.44848998543567192 -0.17900135254582089 0 0.45372751845435982 -0.14873877565945681 0 0.45675328347854482 -0.16641292248215109 0 0.44521518817516098 -0.16000795464798109 0 0.43534962167984248 -0.1699440171152965 0 0.44848998543567192 -0.17900135254582089 0 0.43840446831716762 -0.1901831686087693 0 0.45675328347854482 -0.16641292248215109 0 0.47019324315227801 -0.17775275666350221 0 0.45947718029348911 -0.1939717281951108 0 0.45675328347854482 -0.16641292248215109 0 0.44848998543567192 -0.17900135254582089 0 0.45947718029348911 -0.1939717281951108 0 0.45675328347854482 -0.16641292248215109 0 0.45947718029348911 -0.1939717281951108 0 0.47019324315227801 -0.17775275666350221 0 0.48103739911395038 -0.183430252065928 0 0.47347768016565239 -0.1919527481702869 0 0.48103739911395038 -0.183430252065928 0 0.48804724366498631 -0.17444443249033181 0 0.47965993622153152 -0.1678445022030714 0 0.47019324315227801 -0.17775275666350221 0 0.48103739911395038 -0.183430252065928 0 0.47965993622153152 -0.1678445022030714 0 0.48863938738143498 -0.1839521818213431 0 0.49530164548560701 -0.18399618991246541 0 0.48804724366498631 -0.17444443249033181 0 0.48103739911395038 -0.183430252065928 0 0.48863938738143498 -0.1839521818213431 0 0.4876157311256103 -0.18804233391224431 0 0.48103739911395038 -0.183430252065928 0 0.48863938738143498 -0.1839521818213431 0 0.48804724366498631 -0.17444443249033181 0 0.5 -0.18255591954119449 0 0.49530164548560701 -0.18399618991246541 0 0.49391890946564948 -0.1545594874252863 0 0.48863938738143498 -0.1839521818213431 0 0.49530164548560701 -0.18399618991246541 0 0.49119491751702071 -0.189847700725746 0 0.48863938738143498 -0.1839521818213431 0 0.49119491751702071 -0.189847700725746 0 0.4876157311256103 -0.18804233391224431 0 0.5 -0.18255591954119449 0 0.50000000000000155 -0.15359162914457619 0 0.49391890946564948 -0.1545594874252863 0 0.49530164548560701 -0.18399618991246541 0 0.49391890946564948 -0.1545594874252863 0 0.48804724366498631 -0.17444443249033181 0 0.47965993622153152 -0.1678445022030714 0 0.49391890946564948 -0.1545594874252863 0 0.49530164548560701 -0.18399618991246541 0 0.48804724366498631 -0.17444443249033181 0 0.49391890946564948 -0.1545594874252863 0 0.47965993622153152 -0.1678445022030714 0 0.47686375922718072 -0.1511652024020165 0 0.49391890946564948 -0.1545594874252863 0 0.46838652854498508 -0.1625318475913041 0 0.47965993622153152 -0.1678445022030714 0 0.47686375922718072 -0.1511652024020165 0 0.46838652854498508 -0.1625318475913041 0 0.47019324315227801 -0.17775275666350221 0 0.47965993622153152 -0.1678445022030714 0 0.46497502753267073 -0.14026494405489959 0 0.47686375922718072 -0.1511652024020165 0 0.47419915344160618 -0.13928882456336761 0 0.47686375922718072 -0.1511652024020165 0 0.48915113628260898 -0.14393234554712289 0 0.47419915344160618 -0.13928882456336761 0 0.47686375922718072 -0.1511652024020165 0 0.50000000000000155 -0.15359162914457619 0 0.50000000000000155 -0.15359162914457619 0 0.48915113628260898 -0.14393234554712289 0 0.499999999999996 -0.13468053441485681 0 0.47686375922718072 -0.1511652024020165 0 0.50000000000000155 -0.15359162914457619 0 0.49391890946564948 -0.1545594874252863 0 0.47686375922718072 -0.1511652024020165 0 0.50000000000000155 -0.15359162914457619 0 0.48915113628260898 -0.14393234554712289 0 0.48915113628260898 -0.14393234554712289 0 0.499999999999996 -0.13468053441485681 0 0.48271687119520779 -0.13120858486206169 0 0.48950034129267289 -0.11938602124465281 0 0.499999999999996 -0.13468053441485681 0 0.48271687119520779 -0.13120858486206169 0 0.499999999999996 -0.13468053441485681 0 0.48271687119520779 -0.13120858486206169 0 0.46543374239041979 -0.12773663530926591 0 0.48271687119520779 -0.13120858486206169 0 0.47738236537104339 -0.1178727916621924 0 0.46543374239041979 -0.12773663530926591 0 0.48271687119520779 -0.13120858486206169 0 0.46543374239041979 -0.12773663530926591 0 0.46522837161713021 -0.12967901504127319 0 0.48271687119520779 -0.13120858486206169 0 0.46522837161713021 -0.12967901504127319 0 0.48271687119520779 -0.13120858486206169 0 0.47419915344160618 -0.13928882456336761 0 0.48915113628260898 -0.14393234554712289 0 0.48271687119520779 -0.13120858486206169 0 0.47419915344160618 -0.13928882456336761 0 0.46220107710843328 -0.22153053390807051 0 0.46492497392337739 -0.24908933962103011 0 0.47094701832017011 -0.22848834416004579 0 0.46220107710843328 -0.22153053390807051 0 0.46492497392337739 -0.24908933962103011 0 0.44942716302203439 -0.23726955184335111 0 0.46492497392337739 -0.24908933962103011 0 0.44942716302203439 -0.23726955184335111 0 0.46745138030535499 -0.2584849991838154 0 0.46220107710843328 -0.22153053390807051 0 0.46492497392337739 -0.24908933962103011 0 0.44942716302203439 -0.23726955184335111 0 0.46745138030535499 -0.2584849991838154 0 0.44942716302203439 -0.23726955184335111 0 0.44318282828080691 -0.2483958293892122 0 0.45479280061138599 -0.25470157763641349 0 0.42778198040825138 -0.22943373170391551 0 0.44942716302203439 -0.23726955184335111 0 0.44318282828080691 -0.2483958293892122 0 0.43140294573871463 -0.2160541045028859 0 0.44942716302203439 -0.23726955184335111 0 0.46220107710843328 -0.22153053390807051 0 0.44942716302203439 -0.23726955184335111 0 0.44672540771155872 -0.22009987994449459 0 0.43140294573871463 -0.2160541045028859 0 0.44942716302203439 -0.23726955184335111 0 0.44672540771155872 -0.22009987994449459 0 0.43140294573871463 -0.2160541045028859 0 0.44672540771155872 -0.22009987994449459 0 0.44764221583387259 -0.20836788303186621 0 0.43140294573871463 -0.2160541045028859 0 0.44764221583387259 -0.20836788303186621 0 0.43840446831716762 -0.1901831686087693 0 0.46220107710843328 -0.22153053390807051 0 0.44672540771155872 -0.22009987994449459 0 0.44764221583387259 -0.20836788303186621 0 0.44848998543567192 -0.17900135254582089 0 0.43840446831716762 -0.1901831686087693 0 0.45947718029348911 -0.1939717281951108 0 0.44764221583387259 -0.20836788303186621 0 0.43840446831716762 -0.1901831686087693 0 0.45947718029348911 -0.1939717281951108 0 0.47019324315227801 -0.17775275666350221 0 0.45947718029348911 -0.1939717281951108 0 0.47347768016565239 -0.1919527481702869 0 0.45947718029348911 -0.1939717281951108 0 0.47317399652797509 -0.2065907873910503 0 0.47347768016565239 -0.1919527481702869 0 0.46220107710843328 -0.22153053390807051 0 0.44764221583387259 -0.20836788303186621 0 0.45947718029348911 -0.1939717281951108 0 0.46220107710843328 -0.22153053390807051 0 0.45947718029348911 -0.1939717281951108 0 0.47317399652797509 -0.2065907873910503 0 0.46220107710843328 -0.22153053390807051 0 0.45947718029348911 -0.1939717281951108 0 0.47375876252064941 -0.21851218376722159 0 0.47317399652797509 -0.2065907873910503 0 0.48139504108273828 -0.21398748668127329 0 0.46220107710843328 -0.22153053390807051 0 0.47375876252064941 -0.21851218376722159 0 0.47317399652797509 -0.2065907873910503 0 0.47317399652797509 -0.2065907873910503 0 0.48243550086879322 -0.20666632102318189 0 0.48139504108273828 -0.21398748668127329 0 0.47317399652797509 -0.2065907873910503 0 0.48243550086879322 -0.20666632102318189 0 0.48030416183794322 -0.19945149667300671 0 0.48243550086879322 -0.20666632102318189 0 0.48139504108273828 -0.21398748668127329 0 0.48876880583867011 -0.21394081056513531 0 0.48139504108273828 -0.21398748668127329 0 0.48876880583867011 -0.21394081056513531 0 0.48077095263187869 -0.22091575285629611 0 0.47375876252064941 -0.21851218376722159 0 0.48139504108273828 -0.21398748668127329 0 0.48077095263187869 -0.22091575285629611 0 0.47317399652797509 -0.2065907873910503 0 0.47347768016565239 -0.1919527481702869 0 0.48030416183794322 -0.19945149667300671 0 0.48243550086879322 -0.20666632102318189 0 0.48030416183794322 -0.19945149667300671 0 0.48680882855435298 -0.19975751557152749 0 0.48030416183794322 -0.19945149667300671 0 0.48305233848576867 -0.192771183410437 0 0.48680882855435298 -0.19975751557152749 0 0.47347768016565239 -0.1919527481702869 0 0.48030416183794322 -0.19945149667300671 0 0.48305233848576867 -0.192771183410437 0 0.48103739911395038 -0.183430252065928 0 0.48305233848576867 -0.192771183410437 0 0.4876157311256103 -0.18804233391224431 0 0.48103739911395038 -0.183430252065928 0 0.47347768016565239 -0.1919527481702869 0 0.48305233848576867 -0.192771183410437 0 0.49530164548560701 -0.18399618991246541 0 0.49119491751702071 -0.189847700725746 0 0.49366865281858968 -0.20081549488948361 0 0.49530164548560701 -0.18399618991246541 0 0.49668438150556449 -0.21343289239964491 0 0.5 -0.18255591954119449 0 0.49530164548560701 -0.18399618991246541 0 0.5 -0.2115202099378129 0 0.49530164548560701 -0.18399618991246541 0 0.49366865281858968 -0.20081549488948361 0 0.49668438150556449 -0.21343289239964491 0 0.49530164548560701 -0.18399618991246541 0 0.5 -0.2115202099378129 0 0.49668438150556449 -0.21343289239964491 0 0.49119491751702071 -0.189847700725746 0 0.48907023011710332 -0.19399275406962849 0 0.49366865281858968 -0.20081549488948361 0 0.49119491751702071 -0.189847700725746 0 0.4876157311256103 -0.18804233391224431 0 0.48907023011710332 -0.19399275406962849 0 0.48305233848576867 -0.192771183410437 0 0.4876157311256103 -0.18804233391224431 0 0.48907023011710332 -0.19399275406962849 0 0.48907023011710332 -0.19399275406962849 0 0.48680882855435298 -0.19975751557152749 0 0.49366865281858968 -0.20081549488948361 0 0.48305233848576867 -0.192771183410437 0 0.48907023011710332 -0.19399275406962849 0 0.48680882855435298 -0.19975751557152749 0 0.48680882855435298 -0.19975751557152749 0 0.49366865281858968 -0.20081549488948361 0 0.48895119769866752 -0.20590687253850529 0 0.48876880583867011 -0.21394081056513531 0 0.49234070449481598 -0.2180218829031933 0 0.48894234520003899 -0.22196177800041481 0 0.48243550086879322 -0.20666632102318189 0 0.48876880583867011 -0.21394081056513531 0 0.48895119769866752 -0.20590687253850529 0 0.48876880583867011 -0.21394081056513531 0 0.48895119769866752 -0.20590687253850529 0 0.49196214378851122 -0.20965481968290181 0 0.48243550086879322 -0.20666632102318189 0 0.48680882855435298 -0.19975751557152749 0 0.48895119769866752 -0.20590687253850529 0 0.49366865281858968 -0.20081549488948361 0 0.48895119769866752 -0.20590687253850529 0 0.49281659395283328 -0.20745251987763391 0 0.48895119769866752 -0.20590687253850529 0 0.49196214378851122 -0.20965481968290181 0 0.49281659395283328 -0.20745251987763391 0 0.49366865281858968 -0.20081549488948361 0 0.49281659395283328 -0.20745251987763391 0 0.49668438150556449 -0.21343289239964491 0 0.49196214378851122 -0.20965481968290181 0 0.49281659395283328 -0.20745251987763391 0 0.49668438150556449 -0.21343289239964491 0 0.49668438150556449 -0.21343289239964491 0 0.49234070449481598 -0.2180218829031933 0 0.49277041444275371 -0.22265362981430961 0 0.48876880583867011 -0.21394081056513531 0 0.49668438150556449 -0.21343289239964491 0 0.49234070449481598 -0.2180218829031933 0 0.48876880583867011 -0.21394081056513531 0 0.49196214378851122 -0.20965481968290181 0 0.49668438150556449 -0.21343289239964491 0 0.49668438150556449 -0.21343289239964491 0 0.5 -0.24048450033443111 0 0.49806711752552207 -0.24286959488682419 0 0.49668438150556449 -0.21343289239964491 0 0.49551542026361522 -0.23127611464126349 0 0.49806711752552207 -0.24286959488682419 0 0.49668438150556449 -0.21343289239964491 0 0.49277041444275371 -0.22265362981430961 0 0.49551542026361522 -0.23127611464126349 0 0.49668438150556449 -0.21343289239964491 0 0.49806711752552207 -0.24286959488682419 0 0.5 -0.2115202099378129 0 0.49668438150556449 -0.21343289239964491 0 0.5 -0.24048450033443111 0 0.49277041444275371 -0.22265362981430961 0 0.49551542026361522 -0.23127611464126349 0 0.49036922074973371 -0.22857548112703149 0 0.49551542026361522 -0.23127611464126349 0 0.49150113566458309 -0.2337524198736835 0 0.49300507923706771 -0.23739753224457749 0 0.49551542026361522 -0.23127611464126349 0 0.49150113566458309 -0.2337524198736835 0 0.49036922074973371 -0.22857548112703149 0 0.49036922074973371 -0.22857548112703149 0 0.48777605223256287 -0.23274015429264211 0 0.48211655097519318 -0.22886801697973919 0 0.49150113566458309 -0.2337524198736835 0 0.49036922074973371 -0.22857548112703149 0 0.48777605223256287 -0.23274015429264211 0 0.48876880583867011 -0.21394081056513531 0 0.48894234520003899 -0.22196177800041481 0 0.48077095263187869 -0.22091575285629611 0 0.49036922074973371 -0.22857548112703149 0 0.48894234520003899 -0.22196177800041481 0 0.48211655097519318 -0.22886801697973919 0 0.49234070449481598 -0.2180218829031933 0 0.49277041444275371 -0.22265362981430961 0 0.48894234520003899 -0.22196177800041481 0 0.49277041444275371 -0.22265362981430961 0 0.49036922074973371 -0.22857548112703149 0 0.48894234520003899 -0.22196177800041481 0 0.48077095263187869 -0.22091575285629611 0 0.48211655097519318 -0.22886801697973919 0 0.47094701832017011 -0.22848834416004579 0 0.48894234520003899 -0.22196177800041481 0 0.48077095263187869 -0.22091575285629611 0 0.48211655097519318 -0.22886801697973919 0 0.48211655097519318 -0.22886801697973919 0 0.47094701832017011 -0.22848834416004579 0 0.48106394654836437 -0.23526095667527991 0 0.48777605223256287 -0.23274015429264211 0 0.48211655097519318 -0.22886801697973919 0 0.48106394654836437 -0.23526095667527991 0 0.46220107710843328 -0.22153053390807051 0 0.47375876252064941 -0.21851218376722159 0 0.47094701832017011 -0.22848834416004579 0 0.47375876252064941 -0.21851218376722159 0 0.48077095263187869 -0.22091575285629611 0 0.47094701832017011 -0.22848834416004579 0 0.46492497392337739 -0.24908933962103011 0 0.47094701832017011 -0.22848834416004579 0 0.47206839012677437 -0.24303949421831769 0 0.46492497392337739 -0.24908933962103011 0 0.47206839012677437 -0.24303949421831769 0 0.47171582010417712 -0.25095712473665299 0 0.47206839012677437 -0.24303949421831769 0 0.47673215220644799 -0.24701667460854729 0 0.47171582010417712 -0.25095712473665299 0 0.47206839012677437 -0.24303949421831769 0 0.47602198607969959 -0.23964598796531239 0 0.47673215220644799 -0.24701667460854729 0 0.47094701832017011 -0.22848834416004579 0 0.47206839012677437 -0.24303949421831769 0 0.47602198607969959 -0.23964598796531239 0 0.47094701832017011 -0.22848834416004579 0 0.47602198607969959 -0.23964598796531239 0 0.48106394654836437 -0.23526095667527991 0 0.47602198607969959 -0.23964598796531239 0 0.48106394654836437 -0.23526095667527991 0 0.48067674811059241 -0.24238172722261711 0 0.48106394654836437 -0.23526095667527991 0 0.48067674811059241 -0.24238172722261711 0 0.48804683638509888 -0.23856811240916709 0 0.48067674811059241 -0.24238172722261711 0 0.48215555521959302 -0.24949368838824559 0 0.48610924852396048 -0.2450321991537662 0 0.47602198607969959 -0.23964598796531239 0 0.48067674811059241 -0.24238172722261711 0 0.47673215220644799 -0.24701667460854729 0 0.48067674811059241 -0.24238172722261711 0 0.47673215220644799 -0.24701667460854729 0 0.48215555521959302 -0.24949368838824559 0 0.48664092172074391 -0.24942399075819599 0 0.48610924852396048 -0.2450321991537662 0 0.49038830464560967 -0.24748091947849579 0 0.48215555521959302 -0.24949368838824559 0 0.48664092172074391 -0.24942399075819599 0 0.48610924852396048 -0.2450321991537662 0 0.48610924852396048 -0.2450321991537662 0 0.49038830464560967 -0.24748091947849579 0 0.4925346125694901 -0.24246236342363339 0 0.48777605223256287 -0.23274015429264211 0 0.48106394654836437 -0.23526095667527991 0 0.48804683638509888 -0.23856811240916709 0 0.48067674811059241 -0.24238172722261711 0 0.48610924852396048 -0.2450321991537662 0 0.48804683638509888 -0.23856811240916709 0 0.48610924852396048 -0.2450321991537662 0 0.48804683638509888 -0.23856811240916709 0 0.4925346125694901 -0.24246236342363339 0 0.48804683638509888 -0.23856811240916709 0 0.49300507923706771 -0.23739753224457749 0 0.4925346125694901 -0.24246236342363339 0 0.49150113566458309 -0.2337524198736835 0 0.48777605223256287 -0.23274015429264211 0 0.48804683638509888 -0.23856811240916709 0 0.49150113566458309 -0.2337524198736835 0 0.48804683638509888 -0.23856811240916709 0 0.49300507923706771 -0.23739753224457749 0 0.49551542026361522 -0.23127611464126349 0 0.49478055739892368 -0.2385014012990746 0 0.49806711752552207 -0.24286959488682419 0 0.49551542026361522 -0.23127611464126349 0 0.49300507923706771 -0.23739753224457749 0 0.49478055739892368 -0.2385014012990746 0 0.49478055739892368 -0.2385014012990746 0 0.4925346125694901 -0.24246236342363339 0 0.49806711752552207 -0.24286959488682419 0 0.49300507923706771 -0.23739753224457749 0 0.49478055739892368 -0.2385014012990746 0 0.4925346125694901 -0.24246236342363339 0 0.49038830464560967 -0.24748091947849579 0 0.49806711752552207 -0.24286959488682419 0 0.48862140824859868 -0.25647755714576259 0 0.49038830464560967 -0.24748091947849579 0 0.4925346125694901 -0.24246236342363339 0 0.49806711752552207 -0.24286959488682419 0 0.49806711752552207 -0.24286959488682419 0 0.48862140824859868 -0.25647755714576259 0 0.5 -0.26944879073104921 0 0.5 -0.24048450033443111 0 0.49806711752552207 -0.24286959488682419 0 0.5 -0.26944879073104921 0 0.48862140824859868 -0.25647755714576259 0 0.5 -0.26944879073104921 0 0.48040234917049818 -0.26514031204989053 0 0.48664092172074391 -0.24942399075819599 0 0.49038830464560967 -0.24748091947849579 0 0.48862140824859868 -0.25647755714576259 0 0.48215555521959302 -0.24949368838824559 0 0.48664092172074391 -0.24942399075819599 0 0.48862140824859868 -0.25647755714576259 0 0.5 -0.26944879073104921 0 0.48040234917049818 -0.26514031204989053 0 0.48557531498744061 -0.28339794446020239 0 0.47375019148157782 -0.27587273526012218 0 0.48040234917049818 -0.26514031204989053 0 0.48557531498744061 -0.28339794446020239 0 0.47375019148157782 -0.27587273526012218 0 0.48040234917049818 -0.26514031204989053 0 0.46701077651045231 -0.26753874190825161 0 0.47673215220644799 -0.24701667460854729 0 0.48215555521959302 -0.24949368838824559 0 0.47911323186731092 -0.25547628853569843 0 0.48215555521959302 -0.24949368838824559 0 0.48862140824859868 -0.25647755714576259 0 0.47911323186731092 -0.25547628853569843 0 0.48862140824859868 -0.25647755714576259 0 0.47911323186731092 -0.25547628853569843 0 0.48040234917049818 -0.26514031204989053 0 0.47911323186731092 -0.25547628853569843 0 0.48040234917049818 -0.26514031204989053 0 0.46745138030535499 -0.2584849991838154 0 0.48040234917049818 -0.26514031204989053 0 0.46745138030535499 -0.2584849991838154 0 0.46701077651045231 -0.26753874190825161 0 0.47911323186731092 -0.25547628853569843 0 0.47171582010417712 -0.25095712473665299 0 0.46745138030535499 -0.2584849991838154 0 0.47673215220644799 -0.24701667460854729 0 0.47911323186731092 -0.25547628853569843 0 0.47171582010417712 -0.25095712473665299 0 0.44942716302203439 -0.23726955184335111 0 0.45479280061138599 -0.25470157763641349 0 0.46745138030535499 -0.2584849991838154 0 0.46492497392337739 -0.24908933962103011 0 0.47171582010417712 -0.25095712473665299 0 0.46745138030535499 -0.2584849991838154 0 0.45479280061138599 -0.25470157763641349 0 0.46010169111721722 -0.26000734265118502 0 0.46745138030535499 -0.2584849991838154 0 0.45479280061138599 -0.25470157763641349 0 0.46010169111721722 -0.26000734265118502 0 0.45858367615336348 -0.26735792707450801 0 0.46010169111721722 -0.26000734265118502 0 0.46745138030535499 -0.2584849991838154 0 0.46701077651045231 -0.26753874190825161 0 0.46010169111721722 -0.26000734265118502 0 0.46701077651045231 -0.26753874190825161 0 0.45858367615336348 -0.26735792707450801 0 0.46701077651045231 -0.26753874190825161 0 0.46177537083470221 -0.27836913522998818 0 0.45858367615336348 -0.26735792707450801 0 0.47375019148157782 -0.27587273526012218 0 0.46701077651045231 -0.26753874190825161 0 0.46177537083470221 -0.27836913522998818 0 0.46177537083470221 -0.27836913522998818 0 0.45227375532364439 -0.27369890296504668 0 0.45047001967300782 -0.2832166879047619 0 0.46177537083470221 -0.27836913522998818 0 0.45858367615336348 -0.26735792707450801 0 0.45227375532364439 -0.27369890296504668 0 0.45227375532364439 -0.27369890296504668 0 0.44021357620273388 -0.28385361781858182 0 0.42827370139786869 -0.27517421336080938 0 0.45227375532364439 -0.27369890296504668 0 0.42827370139786869 -0.27517421336080938 0 0.45227375532364439 -0.27369890296504668 0 0.43962954403882393 -0.26395709668219142 0 0.44841745094915958 -0.26335243902773953 0 0.45858367615336348 -0.26735792707450801 0 0.45227375532364439 -0.27369890296504668 0 0.44841745094915958 -0.26335243902773953 0 0.45227375532364439 -0.27369890296504668 0 0.43962954403882393 -0.26395709668219142 0 0.42827370139786869 -0.27517421336080938 0 0.45227375532364439 -0.27369890296504668 0 0.44021357620273388 -0.28385361781858182 0 0.45047001967300782 -0.2832166879047619 0 0.44318282828080691 -0.2483958293892122 0 0.45858367615336348 -0.26735792707450801 0 0.44841745094915958 -0.26335243902773953 0 0.44318282828080691 -0.2483958293892122 0 0.43962954403882393 -0.26395709668219142 0 0.44841745094915958 -0.26335243902773953 0 0.44318282828080691 -0.2483958293892122 0 0.45479280061138599 -0.25470157763641349 0 0.45858367615336348 -0.26735792707450801 0 0.44318282828080691 -0.2483958293892122 0 0.45858367615336348 -0.26735792707450801 0 0.44318282828080691 -0.2483958293892122 0 0.43962954403882393 -0.26395709668219142 0 0.43244165196748618 -0.25135026191707088 0 0.44206111879732252 -0.29851539238140318 0 0.4489182723982848 -0.31464094406814769 0 0.4284410410004254 -0.31614583789952327 0 0.44206111879732252 -0.29851539238140318 0 0.45471845694755492 -0.302954980066591 0 0.4489182723982848 -0.31464094406814769 0 0.44206111879732252 -0.29851539238140318 0 0.45616115882294539 -0.2908233457895063 0 0.45471845694755492 -0.302954980066591 0 0.44206111879732252 -0.29851539238140318 0 0.44021357620273388 -0.28385361781858182 0 0.45047001967300782 -0.2832166879047619 0 0.44206111879732252 -0.29851539238140318 0 0.45047001967300782 -0.2832166879047619 0 0.45616115882294539 -0.2908233457895063 0 0.45616115882294539 -0.2908233457895063 0 0.45471845694755492 -0.302954980066591 0 0.47061285876916759 -0.29142343241350899 0 0.46177537083470221 -0.27836913522998818 0 0.45047001967300782 -0.2832166879047619 0 0.45616115882294539 -0.2908233457895063 0 0.46177537083470221 -0.27836913522998818 0 0.45616115882294539 -0.2908233457895063 0 0.47061285876916759 -0.29142343241350899 0 0.47375019148157782 -0.27587273526012218 0 0.46177537083470221 -0.27836913522998818 0 0.47061285876916759 -0.29142343241350899 0 0.46606196743205031 -0.31180147374384037 0 0.45471845694755492 -0.302954980066591 0 0.4489182723982848 -0.31464094406814769 0 0.46606196743205031 -0.31180147374384037 0 0.45471845694755492 -0.302954980066591 0 0.47061285876916759 -0.29142343241350899 0 0.46606196743205031 -0.31180147374384037 0 0.48264258893604489 -0.30686742203621781 0 0.47061285876916759 -0.29142343241350899 0 0.48264258893604489 -0.30686742203621781 0 0.47061285876916759 -0.29142343241350899 0 0.48557531498744061 -0.28339794446020239 0 0.47375019148157782 -0.27587273526012218 0 0.47061285876916759 -0.29142343241350899 0 0.48557531498744061 -0.28339794446020239 0 0.48264258893604489 -0.30686742203621781 0 0.48557531498744061 -0.28339794446020239 0 0.5 -0.29841308112766729 0 0.5 -0.26944879073104921 0 0.48557531498744061 -0.28339794446020239 0 0.5 -0.29841308112766729 0 0.48264258893604489 -0.30686742203621781 0 0.5 -0.29841308112766729 0 0.5 -0.32737737152428542 0 0.48264258893604489 -0.30686742203621781 0 0.5 -0.32737737152428542 0 0.47781657519825488 -0.32387994756668798 0 0.5 -0.32737737152428542 0 0.47727230135995441 -0.34093280179575569 0 0.50000000000000289 -0.3563416619209035 0 0.5 -0.32737737152428542 0 0.47727230135995441 -0.34093280179575569 0 0.47781657519825488 -0.32387994756668798 0 0.47727230135995441 -0.34093280179575569 0 0.47781657519825488 -0.32387994756668798 0 0.46084828636828218 -0.32777130441652452 0 0.46606196743205031 -0.31180147374384037 0 0.48264258893604489 -0.30686742203621781 0 0.47781657519825488 -0.32387994756668798 0 0.50000000000000289 -0.3563416619209035 0 0.47092940003783701 -0.3604067056252781 0 0.48377050712529751 -0.37534316021332881 0 0.50000000000000289 -0.3563416619209035 0 0.49999999999999989 -0.38483646019866041 0 0.48377050712529751 -0.37534316021332881 0 0.50000000000000289 -0.3563416619209035 0 0.48377050712529751 -0.37534316021332881 0 0.47727230135995441 -0.34093280179575569 0 0.50000000000000289 -0.3563416619209035 0 0.47092940003783701 -0.3604067056252781 0 0.47092940003783701 -0.3604067056252781 0 0.48377050712529751 -0.37534316021332881 0 0.45987569103288239 -0.37681905994978032 0 0.47092940003783701 -0.3604067056252781 0 0.45082692272481101 -0.3636371896257295 0 0.45987569103288239 -0.37681905994978032 0 0.47092940003783701 -0.3604067056252781 0 0.45136701223810671 -0.34595319598503421 0 0.45082692272481101 -0.3636371896257295 0 0.47727230135995441 -0.34093280179575569 0 0.47092940003783701 -0.3604067056252781 0 0.45136701223810671 -0.34595319598503421 0 0.45136701223810671 -0.34595319598503421 0 0.45082692272481101 -0.3636371896257295 0 0.42684971360891588 -0.35744125325474968 0 0.45082692272481101 -0.3636371896257295 0 0.43647739791666318 -0.37228506040722809 0 0.42684971360891588 -0.35744125325474968 0 0.45082692272481101 -0.3636371896257295 0 0.43647739791666318 -0.37228506040722809 0 0.45987569103288239 -0.37681905994978032 0 0.46606196743205031 -0.31180147374384037 0 0.47781657519825488 -0.32387994756668798 0 0.46084828636828218 -0.32777130441652452 0 0.46606196743205031 -0.31180147374384037 0 0.46084828636828218 -0.32777130441652452 0 0.4489182723982848 -0.31464094406814769 0 0.47727230135995441 -0.34093280179575569 0 0.45136701223810671 -0.34595319598503421 0 0.46084828636828218 -0.32777130441652452 0 0.45136701223810671 -0.34595319598503421 0 0.4436535895830423 -0.3294194633396812 0 0.43087289786658872 -0.33907843212899191 0 0.45136701223810671 -0.34595319598503421 0 0.46084828636828218 -0.32777130441652452 0 0.4436535895830423 -0.3294194633396812 0 0.46084828636828218 -0.32777130441652452 0 0.4436535895830423 -0.3294194633396812 0 0.4489182723982848 -0.31464094406814769 0 0.4436535895830423 -0.3294194633396812 0 0.4489182723982848 -0.31464094406814769 0 0.4284410410004254 -0.31614583789952327 0 0.4436535895830423 -0.3294194633396812 0 0.4284410410004254 -0.31614583789952327 0 0.43087289786658872 -0.33907843212899191 0 0.4284410410004254 -0.31614583789952327 0 0.43087289786658872 -0.33907843212899191 0 0.41325993507455239 -0.33690177948012201 0 0.4284410410004254 -0.31614583789952327 0 0.41325993507455239 -0.33690177948012201 0 0.41097121975868278 -0.31263042652369027 0 0.43647739791666318 -0.37228506040722809 0 0.42684971360891588 -0.35744125325474968 0 0.41360031601656683 -0.37836372079422642 0 0.43087289786658872 -0.33907843212899191 0 0.41325993507455239 -0.33690177948012201 0 0.42684971360891588 -0.35744125325474968 0 0.45136701223810671 -0.34595319598503421 0 0.43087289786658872 -0.33907843212899191 0 0.42684971360891588 -0.35744125325474968 0 0.41325993507455239 -0.33690177948012201 0 0.42684971360891588 -0.35744125325474968 0 0.40334249319948201 -0.35426942132414491 0 0.42684971360891588 -0.35744125325474968 0 0.40334249319948201 -0.35426942132414491 0 0.41360031601656683 -0.37836372079422642 0 0.39145270063040921 -0.36950291412473801 0 0.40334249319948201 -0.35426942132414491 0 0.41360031601656683 -0.37836372079422642 0 0.39145270063040921 -0.36950291412473801 0 0.40334249319948201 -0.35426942132414491 0 0.38292661064878891 -0.35074170560999951 0 0.40334249319948201 -0.35426942132414491 0 0.38292661064878891 -0.35074170560999951 0 0.39248875264489108 -0.32847447046405198 0 0.39145270063040921 -0.36950291412473801 0 0.38292661064878891 -0.35074170560999951 0 0.37199710439929801 -0.37182856659101238 0 0.41325993507455239 -0.33690177948012201 0 0.41097121975868278 -0.31263042652369027 0 0.39248875264489108 -0.32847447046405198 0 0.41097121975868278 -0.31263042652369027 0 0.39248875264489108 -0.32847447046405198 0 0.39333117830445141 -0.30670096559324889 0 0.41325993507455239 -0.33690177948012201 0 0.40334249319948201 -0.35426942132414491 0 0.39248875264489108 -0.32847447046405198 0 0.38292661064878891 -0.35074170560999951 0 0.39248875264489108 -0.32847447046405198 0 0.36600489806628628 -0.32751429925452907 0 0.39248875264489108 -0.32847447046405198 0 0.37787286746932369 -0.31061332594734697 0 0.36600489806628628 -0.32751429925452907 0 0.39248875264489108 -0.32847447046405198 0 0.37787286746932369 -0.31061332594734697 0 0.39333117830445141 -0.30670096559324889 0 0.39333117830445141 -0.30670096559324889 0 0.3931689940375081 -0.29195293611627859 0 0.37730634728848622 -0.29381879622271129 0 0.37787286746932369 -0.31061332594734697 0 0.39333117830445141 -0.30670096559324889 0 0.37730634728848622 -0.29381879622271129 0 0.41097121975868278 -0.31263042652369027 0 0.39333117830445141 -0.30670096559324889 0 0.40603127158991048 -0.29511247280001202 0 0.39333117830445141 -0.30670096559324889 0 0.40603127158991048 -0.29511247280001202 0 0.3931689940375081 -0.29195293611627859 0 0.40603127158991048 -0.29511247280001202 0 0.3931689940375081 -0.29195293611627859 0 0.40427364747209299 -0.27664952375657198 0 0.3931689940375081 -0.29195293611627859 0 0.38875564558610121 -0.28513652256197403 0 0.40427364747209299 -0.27664952375657198 0 0.38875564558610121 -0.28513652256197403 0 0.37730634728848622 -0.29381879622271129 0 0.38027359354631729 -0.27812483415233402 0 0.3931689940375081 -0.29195293611627859 0 0.38875564558610121 -0.28513652256197403 0 0.37730634728848622 -0.29381879622271129 0 0.38027359354631729 -0.27812483415233402 0 0.37498845812423048 -0.27844971739031948 0 0.38027359354631729 -0.27812483415233402 0 0.38200159102937781 -0.26497011504797369 0 0.39686746780840748 -0.26151500389735771 0 0.38027359354631729 -0.27812483415233402 0 0.39686746780840748 -0.26151500389735771 0 0.38027359354631729 -0.27812483415233402 0 0.37704127508774432 -0.27237775882451731 0 0.37498845812423048 -0.27844971739031948 0 0.38027359354631729 -0.27812483415233402 0 0.37704127508774432 -0.27237775882451731 0 0.38200159102937781 -0.26497011504797369 0 0.37704127508774432 -0.27237775882451731 0 0.37634753046096142 -0.26653686912663233 0 0.38200159102937781 -0.26497011504797369 0 0.37267152551241889 -0.24520427646727971 0 0.37636069659038868 -0.2576218141381611 0 0.38482050394253398 -0.25247324786277359 0 0.37634753046096142 -0.26653686912663233 0 0.37636069659038868 -0.2576218141381611 0 0.38200159102937781 -0.26497011504797369 0 0.37636069659038868 -0.2576218141381611 0 0.38200159102937781 -0.26497011504797369 0 0.38482050394253398 -0.25247324786277359 0 0.38200159102937781 -0.26497011504797369 0 0.38482050394253398 -0.25247324786277359 0 0.39686746780840748 -0.26151500389735771 0 0.39469693994636129 -0.24787710556333731 0 0.38482050394253398 -0.25247324786277359 0 0.39686746780840748 -0.26151500389735771 0 0.40618229675393208 -0.2484953321196279 0 0.39686746780840748 -0.26151500389735771 0 0.40848180089104508 -0.26103189277743161 0 0.39469693994636129 -0.24787710556333731 0 0.40618229675393208 -0.2484953321196279 0 0.39686746780840748 -0.26151500389735771 0 0.38027359354631729 -0.27812483415233402 0 0.39686746780840748 -0.26151500389735771 0 0.40427364747209299 -0.27664952375657198 0 0.38027359354631729 -0.27812483415233402 0 0.40427364747209299 -0.27664952375657198 0 0.38875564558610121 -0.28513652256197403 0 0.38027359354631729 -0.27812483415233402 0 0.40427364747209299 -0.27664952375657198 0 0.39686746780840748 -0.26151500389735771 0 0.40427364747209299 -0.27664952375657198 0 0.40848180089104508 -0.26103189277743161 0 0.40427364747209299 -0.27664952375657198 0 0.42827370139786869 -0.27517421336080938 0 0.40427364747209299 -0.27664952375657198 0 0.42827370139786869 -0.27517421336080938 0 0.41685706200611838 -0.28548814593901989 0 0.40427364747209299 -0.27664952375657198 0 0.41712761094468059 -0.26880209855495668 0 0.42827370139786869 -0.27517421336080938 0 0.40427364747209299 -0.27664952375657198 0 0.41712761094468059 -0.26880209855495668 0 0.40848180089104508 -0.26103189277743161 0 0.40618229675393208 -0.2484953321196279 0 0.42245479567646649 -0.24911791512943621 0 0.40848180089104508 -0.26103189277743161 0 0.42245479567646649 -0.24911791512943621 0 0.41712761094468059 -0.26880209855495668 0 0.42245479567646649 -0.24911791512943621 0 0.41712761094468059 -0.26880209855495668 0 0.40848180089104508 -0.26103189277743161 0 0.42245479567646649 -0.24911791512943621 0 0.41712761094468059 -0.26880209855495668 0 0.42809215631670311 -0.26205908254268451 0 0.42245479567646649 -0.24911791512943621 0 0.42809215631670311 -0.26205908254268451 0 0.43244165196748618 -0.25135026191707088 0 0.43962954403882393 -0.26395709668219142 0 0.42809215631670311 -0.26205908254268451 0 0.43244165196748618 -0.25135026191707088 0 0.41712761094468059 -0.26880209855495668 0 0.42809215631670311 -0.26205908254268451 0 0.42827370139786869 -0.27517421336080938 0 0.43962954403882393 -0.26395709668219142 0 0.42809215631670311 -0.26205908254268451 0 0.42827370139786869 -0.27517421336080938 0 0.44021357620273388 -0.28385361781858182 0 0.42827370139786869 -0.27517421336080938 0 0.42798928582182633 -0.28866289248088772 0 0.42827370139786869 -0.27517421336080938 0 0.42798928582182633 -0.28866289248088772 0 0.41685706200611838 -0.28548814593901989 0 0.42798928582182633 -0.28866289248088772 0 0.42944538987916148 -0.30102171610106482 0 0.4175855279606096 -0.29725283887126219 0 0.44206111879732252 -0.29851539238140318 0 0.44021357620273388 -0.28385361781858182 0 0.42798928582182633 -0.28866289248088772 0 0.44206111879732252 -0.29851539238140318 0 0.42798928582182633 -0.28866289248088772 0 0.42944538987916148 -0.30102171610106482 0 0.4284410410004254 -0.31614583789952327 0 0.42944538987916148 -0.30102171610106482 0 0.4175855279606096 -0.29725283887126219 0 0.44206111879732252 -0.29851539238140318 0 0.4284410410004254 -0.31614583789952327 0 0.42944538987916148 -0.30102171610106482 0 0.41097121975868278 -0.31263042652369027 0 0.40603127158991048 -0.29511247280001202 0 0.4175855279606096 -0.29725283887126219 0 0.4284410410004254 -0.31614583789952327 0 0.41097121975868278 -0.31263042652369027 0 0.4175855279606096 -0.29725283887126219 0 0.40603127158991048 -0.29511247280001202 0 0.4175855279606096 -0.29725283887126219 0 0.41685706200611838 -0.28548814593901989 0 0.40603127158991048 -0.29511247280001202 0 0.40427364747209299 -0.27664952375657198 0 0.41685706200611838 -0.28548814593901989 0 0.42798928582182633 -0.28866289248088772 0 0.4175855279606096 -0.29725283887126219 0 0.41685706200611838 -0.28548814593901989 0 0.44161509958834322 -0.48504728289172172 0 0.45133846396523358 -0.5 0 0.42169022298045122 -0.5 0 0.44161509958834322 -0.48504728289172172 0 0.45133846396523358 -0.5 0 0.46586296014446388 -0.48585379654003752 0 0.44161509958834322 -0.48504728289172172 0 0.45073921533891148 -0.47170759308007598 0 0.43504026729159478 -0.47073562887770293 0 0.44161509958834322 -0.48504728289172172 0 0.45073921533891148 -0.47170759308007598 0 0.46586296014446388 -0.48585379654003752 0 0.45073921533891148 -0.47170759308007598 0 0.46586296014446388 -0.48585379654003752 0 0.47149829741898319 -0.47162539776341361 0 0.45073921533891148 -0.47170759308007598 0 0.46586296014446388 -0.48585379654003752 0 0.45133846396523358 -0.5 0 0.46586296014446388 -0.48585379654003752 0 0.48098670495001589 -0.49999999999999928 0 0.5 -0.5 0 0.48378202562647671 -0.48045690043605571 0 0.5 -0.4619547050994558 0 0.46586296014446388 -0.48585379654003752 0 0.48098670495001589 -0.49999999999999928 0 0.48378202562647671 -0.48045690043605571 0 0.46586296014446388 -0.48585379654003752 0 0.48098670495001589 -0.49999999999999928 0 0.48098670495001589 -0.49999999999999928 0 0.5 -0.5 0 0.48378202562647671 -0.48045690043605571 0 0.48378202562647671 -0.48045690043605571 0 0.47149829741898319 -0.47162539776341361 0 0.48283680337764118 -0.46075849463280999 0 0.46586296014446388 -0.48585379654003752 0 0.48378202562647671 -0.48045690043605571 0 0.47149829741898319 -0.47162539776341361 0 0.5 -0.4619547050994558 0 0.49453854028028349 -0.45134883864530839 0 0.49624994192640698 -0.43050653643986447 0 0.47149829741898319 -0.47162539776341361 0 0.48283680337764118 -0.46075849463280999 0 0.46738323971340018 -0.45774076758312748 0 0.48283680337764118 -0.46075849463280999 0 0.47981871722670377 -0.44142435826949938 0 0.46738323971340018 -0.45774076758312748 0 0.48283680337764118 -0.46075849463280999 0 0.5 -0.4619547050994558 0 0.49453854028028349 -0.45134883864530839 0 0.48378202562647671 -0.48045690043605571 0 0.48283680337764118 -0.46075849463280999 0 0.5 -0.4619547050994558 0 0.49453854028028349 -0.45134883864530839 0 0.47981871722670377 -0.44142435826949938 0 0.49624994192640698 -0.43050653643986447 0 0.48283680337764118 -0.46075849463280999 0 0.49453854028028349 -0.45134883864530839 0 0.47981871722670377 -0.44142435826949938 0 0.49453854028028349 -0.45134883864530839 0 0.49624994192640698 -0.43050653643986447 0 0.47981871722670377 -0.44142435826949938 0 0.46597410762563651 -0.44309730907776879 0 0.46738323971340018 -0.45774076758312748 0 0.46597410762563651 -0.44309730907776879 0 0.45192490942476887 -0.45528244409457991 0 0.45269688147850817 -0.43883265841788388 0 0.46597410762563651 -0.44309730907776879 0 0.46738323971340018 -0.45774076758312748 0 0.45192490942476887 -0.45528244409457991 0 0.45073921533891148 -0.47170759308007598 0 0.46738323971340018 -0.45774076758312748 0 0.45192490942476887 -0.45528244409457991 0 0.45073921533891148 -0.47170759308007598 0 0.47149829741898319 -0.47162539776341361 0 0.46738323971340018 -0.45774076758312748 0 0.45073921533891148 -0.47170759308007598 0 0.43561547053335931 -0.45756138962011472 0 0.43504026729159478 -0.47073562887770293 0 0.45073921533891148 -0.47170759308007598 0 0.45192490942476887 -0.45528244409457991 0 0.43561547053335931 -0.45756138962011472 0 0.45073921533891148 -0.47170759308007598 0 0.43561547053335931 -0.45756138962011472 0 0.45269688147850817 -0.43883265841788388 0 0.43508202850117622 -0.43234765509060002 0 0.43006465043149672 -0.4534168705096156 0 0.45269688147850817 -0.43883265841788388 0 0.43006465043149672 -0.4534168705096156 0 0.45192490942476887 -0.45528244409457991 0 0.45269688147850817 -0.43883265841788388 0 0.43561547053335931 -0.45756138962011472 0 0.45269688147850817 -0.43883265841788388 0 0.43006465043149672 -0.4534168705096156 0 0.43561547053335931 -0.45756138962011472 0 0.45269688147850817 -0.43883265841788388 0 0.45131152137588332 -0.41334615679817632 0 0.43508202850117622 -0.43234765509060002 0 0.45131152137588332 -0.41334615679817632 0 0.43508202850117622 -0.43234765509060002 0 0.45131152137588332 -0.41334615679817632 0 0.43163467575983538 -0.41326584221716772 0 0.43508202850117622 -0.43234765509060002 0 0.45131152137588332 -0.41334615679817632 0 0.47532911252551963 -0.42424844632615222 0 0.47537807271995408 -0.40795688081942871 0 0.46597410762563651 -0.44309730907776879 0 0.45269688147850817 -0.43883265841788388 0 0.47532911252551963 -0.42424844632615222 0 0.45269688147850817 -0.43883265841788388 0 0.47532911252551963 -0.42424844632615222 0 0.45269688147850817 -0.43883265841788388 0 0.45131152137588332 -0.41334615679817632 0 0.47532911252551963 -0.42424844632615222 0 0.47981871722670377 -0.44142435826949938 0 0.46597410762563651 -0.44309730907776879 0 0.47532911252551963 -0.42424844632615222 0 0.47981871722670377 -0.44142435826949938 0 0.47532911252551963 -0.42424844632615222 0 0.49624994192640698 -0.43050653643986447 0 0.5 -0.4619547050994558 0 0.49624994192640698 -0.43050653643986447 0 0.49999999999999678 -0.40835052381592368 0 0.49624994192640698 -0.43050653643986447 0 0.49796134357253091 -0.40966423423442039 0 0.49999999999999678 -0.40835052381592368 0 0.47532911252551963 -0.42424844632615222 0 0.49624994192640698 -0.43050653643986447 0 0.49796134357253091 -0.40966423423442039 0 0.47532911252551963 -0.42424844632615222 0 0.49796134357253091 -0.40966423423442039 0 0.49624994192640698 -0.43050653643986447 0 0.49796134357253091 -0.40966423423442039 0 0.49796134357253091 -0.40966423423442039 0 0.49999999999999678 -0.40835052381592368 0 0.47532911252551963 -0.42424844632615222 0 0.49796134357253091 -0.40966423423442039 0 0.47537807271995408 -0.40795688081942871 0 0.47537807271995408 -0.40795688081942871 0 0.485298205916252 -0.39531018195400958 0 0.46754101425059041 -0.39434465850575251 0 0.49796134357253091 -0.40966423423442039 0 0.49999999999999989 -0.38483646019866041 0 0.49796134357253091 -0.40966423423442039 0 0.485298205916252 -0.39531018195400958 0 0.49999999999999989 -0.38483646019866041 0 0.49796134357253091 -0.40966423423442039 0 0.49999999999999678 -0.40835052381592368 0 0.49999999999999989 -0.38483646019866041 0 0.49796134357253091 -0.40966423423442039 0 0.47537807271995408 -0.40795688081942871 0 0.485298205916252 -0.39531018195400958 0 0.485298205916252 -0.39531018195400958 0 0.49999999999999989 -0.38483646019866041 0 0.48377050712529751 -0.37534316021332881 0 0.48377050712529751 -0.37534316021332881 0 0.46754101425059041 -0.39434465850575251 0 0.485298205916252 -0.39531018195400958 0 0.48377050712529751 -0.37534316021332881 0 0.46754101425059041 -0.39434465850575251 0 0.48377050712529751 -0.37534316021332881 0 0.45987569103288239 -0.37681905994978032 0 0.46754101425059041 -0.39434465850575251 0 0.45987569103288239 -0.37681905994978032 0 0.46754101425059041 -0.39434465850575251 0 0.4393269772790821 -0.39092252501981217 0 0.45131152137588332 -0.41334615679817632 0 0.46754101425059041 -0.39434465850575251 0 0.45131152137588332 -0.41334615679817632 0 0.47537807271995408 -0.40795688081942871 0 0.46754101425059041 -0.39434465850575251 0 0.45131152137588332 -0.41334615679817632 0 0.4393269772790821 -0.39092252501981217 0 0.43163467575983538 -0.41326584221716772 0 0.45131152137588332 -0.41334615679817632 0 0.46754101425059041 -0.39434465850575251 0 0.4393269772790821 -0.39092252501981217 0 0.43647739791666318 -0.37228506040722809 0 0.45987569103288239 -0.37681905994978032 0 0.4393269772790821 -0.39092252501981217 0 0.43647739791666318 -0.37228506040722809 0 0.4393269772790821 -0.39092252501981217 0 0.41360031601656683 -0.37836372079422642 0 0.4393269772790821 -0.39092252501981217 0 0.41535105588653409 -0.40269219832382552 0 0.41360031601656683 -0.37836372079422642 0 0.4393269772790821 -0.39092252501981217 0 0.41535105588653409 -0.40269219832382552 0 0.43163467575983538 -0.41326584221716772 0 0.41535105588653409 -0.40269219832382552 0 0.41360031601656683 -0.37836372079422642 0 0.3993825515714674 -0.40193766796968178 0 0.41535105588653409 -0.40269219832382552 0 0.41360031601656683 -0.37836372079422642 0 0.39145270063040921 -0.36950291412473801 0 0.41360031601656683 -0.37836372079422642 0 0.38626047907606909 -0.39026393061976172 0 0.41360031601656683 -0.37836372079422642 0 0.38626047907606909 -0.39026393061976172 0 0.3993825515714674 -0.40193766796968178 0 0.39145270063040921 -0.36950291412473801 0 0.38626047907606909 -0.39026393061976172 0 0.37199710439929801 -0.37182856659101238 0 0.38626047907606909 -0.39026393061976172 0 0.38263500623549718 -0.41503377693673971 0 0.36838823306953677 -0.40814327402863809 0 0.38626047907606909 -0.39026393061976172 0 0.3993825515714674 -0.40193766796968178 0 0.38263500623549718 -0.41503377693673971 0 0.3993825515714674 -0.40193766796968178 0 0.38263500623549718 -0.41503377693673971 0 0.3990659006426695 -0.42333471317385551 0 0.41535105588653409 -0.40269219832382552 0 0.3993825515714674 -0.40193766796968178 0 0.3990659006426695 -0.42333471317385551 0 0.38263500623549718 -0.41503377693673971 0 0.38398720066228148 -0.43279667736832811 0 0.3990659006426695 -0.42333471317385551 0 0.38263500623549718 -0.41503377693673971 0 0.38398720066228148 -0.43279667736832811 0 0.37107677197347372 -0.43023653897382241 0 0.38398720066228148 -0.43279667736832811 0 0.37133797449075101 -0.44250138131638228 0 0.37107677197347372 -0.43023653897382241 0 0.38398720066228148 -0.43279667736832811 0 0.3990659006426695 -0.42333471317385551 0 0.39598994534475879 -0.44128278122629611 0 0.3990659006426695 -0.42333471317385551 0 0.40620509386105291 -0.43724135935861058 0 0.39598994534475879 -0.44128278122629611 0 0.3990659006426695 -0.42333471317385551 0 0.40620509386105291 -0.43724135935861058 0 0.4171017957565013 -0.42702067585342451 0 0.40620509386105291 -0.43724135935861058 0 0.4171017957565013 -0.42702067585342451 0 0.41198786349982741 -0.44139537015609509 0 0.41535105588653409 -0.40269219832382552 0 0.4171017957565013 -0.42702067585342451 0 0.41535105588653409 -0.40269219832382552 0 0.3990659006426695 -0.42333471317385551 0 0.4171017957565013 -0.42702067585342451 0 0.41535105588653409 -0.40269219832382552 0 0.4171017957565013 -0.42702067585342451 0 0.43163467575983538 -0.41326584221716772 0 0.4171017957565013 -0.42702067585342451 0 0.43508202850117622 -0.43234765509060002 0 0.41885253562646901 -0.45134915338302362 0 0.4171017957565013 -0.42702067585342451 0 0.43163467575983538 -0.41326584221716772 0 0.43508202850117622 -0.43234765509060002 0 0.43508202850117622 -0.43234765509060002 0 0.43006465043149672 -0.4534168705096156 0 0.41885253562646901 -0.45134915338302362 0 0.43508202850117622 -0.43234765509060002 0 0.41885253562646901 -0.45134915338302362 0 0.43006465043149672 -0.4534168705096156 0 0.43561547053335931 -0.45756138962011472 0 0.42804456686140852 -0.46148323377297201 0 0.43561547053335931 -0.45756138962011472 0 0.42804456686140852 -0.46148323377297201 0 0.43504026729159478 -0.47073562887770293 0 0.42804456686140852 -0.46148323377297201 0 0.41945256504902928 -0.45968722951545321 0 0.42140424102194818 -0.46936042313245308 0 0.42804456686140852 -0.46148323377297201 0 0.42140424102194818 -0.46936042313245308 0 0.43504026729159478 -0.47073562887770293 0 0.43006465043149672 -0.4534168705096156 0 0.42804456686140852 -0.46148323377297201 0 0.42410357949210092 -0.4564841217952661 0 0.43006465043149672 -0.4534168705096156 0 0.42410357949210092 -0.4564841217952661 0 0.41885253562646901 -0.45134915338302362 0 0.42804456686140852 -0.46148323377297201 0 0.42410357949210092 -0.4564841217952661 0 0.41945256504902928 -0.45968722951545321 0 0.41945256504902928 -0.45968722951545321 0 0.41885253562646901 -0.45134915338302362 0 0.42410357949210092 -0.4564841217952661 0 0.41945256504902928 -0.45968722951545321 0 0.41885253562646901 -0.45134915338302362 0 0.40938672409846882 -0.46243173020623513 0 0.41885253562646901 -0.45134915338302362 0 0.41945256504902928 -0.45968722951545321 0 0.40938672409846882 -0.46243173020623513 0 0.41885253562646901 -0.45134915338302362 0 0.41945256504902928 -0.45968722951545321 0 0.40938672409846882 -0.46243173020623513 0 0.42140424102194818 -0.46936042313245308 0 0.40938672409846882 -0.46243173020623513 0 0.41885253562646901 -0.45134915338302362 0 0.40579202875528658 -0.44997029202932193 0 0.4171017957565013 -0.42702067585342451 0 0.41885253562646901 -0.45134915338302362 0 0.4171017957565013 -0.42702067585342451 0 0.41885253562646901 -0.45134915338302362 0 0.41198786349982741 -0.44139537015609509 0 0.41885253562646901 -0.45134915338302362 0 0.41198786349982741 -0.44139537015609509 0 0.40579202875528658 -0.44997029202932193 0 0.40620509386105291 -0.43724135935861058 0 0.41198786349982741 -0.44139537015609509 0 0.40579202875528658 -0.44997029202932193 0 0.40620509386105291 -0.43724135935861058 0 0.40579202875528658 -0.44997029202932193 0 0.39598994534475879 -0.44128278122629611 0 0.40579202875528658 -0.44997029202932193 0 0.39598994534475879 -0.44128278122629611 0 0.39269012494385408 -0.45542517028138169 0 0.39598994534475879 -0.44128278122629611 0 0.38395959931801249 -0.44472158823474039 0 0.39269012494385408 -0.45542517028138169 0 0.38395959931801249 -0.44472158823474039 0 0.37703093910286278 -0.45448577146560148 0 0.39269012494385408 -0.45542517028138169 0 0.38398720066228148 -0.43279667736832811 0 0.39598994534475879 -0.44128278122629611 0 0.38395959931801249 -0.44472158823474039 0 0.38395959931801249 -0.44472158823474039 0 0.37703093910286278 -0.45448577146560148 0 0.37133797449075101 -0.44250138131638228 0 0.38398720066228148 -0.43279667736832811 0 0.38395959931801249 -0.44472158823474039 0 0.37133797449075101 -0.44250138131638228 0 0.37703093910286278 -0.45448577146560148 0 0.39269012494385408 -0.45542517028138169 0 0.38361035564129681 -0.47008156829356562 0 0.37703093910286278 -0.45448577146560148 0 0.38361035564129681 -0.47008156829356562 0 0.36994446306350193 -0.46585420870481947 0 0.39269012494385408 -0.45542517028138169 0 0.39885162072173408 -0.4682823908126601 0 0.38361035564129681 -0.47008156829356562 0 0.39269012494385408 -0.45542517028138169 0 0.40178968765625278 -0.45865213509928371 0 0.39885162072173408 -0.4682823908126601 0 0.40579202875528658 -0.44997029202932193 0 0.39269012494385408 -0.45542517028138169 0 0.40178968765625278 -0.45865213509928371 0 0.40938672409846882 -0.46243173020623513 0 0.40579202875528658 -0.44997029202932193 0 0.40178968765625278 -0.45865213509928371 0 0.40938672409846882 -0.46243173020623513 0 0.40178968765625278 -0.45865213509928371 0 0.39885162072173408 -0.4682823908126601 0 0.39885162072173408 -0.4682823908126601 0 0.40084299903686321 -0.48071812036057832 0 0.41216036775805531 -0.47596660383477291 0 0.39176124715704103 -0.47681239227142608 0 0.38550107496868152 -0.48526469302405678 0 0.39552373053734952 -0.48827559161648132 0 0.40084299903686321 -0.48071812036057832 0 0.39176124715704103 -0.47681239227142608 0 0.39552373053734952 -0.48827559161648132 0 0.39885162072173408 -0.4682823908126601 0 0.39176124715704103 -0.47681239227142608 0 0.38361035564129681 -0.47008156829356562 0 0.39885162072173408 -0.4682823908126601 0 0.40084299903686321 -0.48071812036057832 0 0.39176124715704103 -0.47681239227142608 0 0.39176124715704103 -0.47681239227142608 0 0.38361035564129681 -0.47008156829356562 0 0.38550107496868152 -0.48526469302405678 0 0.38361035564129681 -0.47008156829356562 0 0.38550107496868152 -0.48526469302405678 0 0.3738104585717737 -0.48047860701528577 0 0.38361035564129681 -0.47008156829356562 0 0.3738104585717737 -0.48047860701528577 0 0.36994446306350193 -0.46585420870481947 0 0.37744660134086022 -0.49818990402203311 0 0.39204198199566892 -0.5 0 0.36239374101088662 -0.5 0 0.37744660134086022 -0.49818990402203311 0 0.38550107496868152 -0.48526469302405678 0 0.3738104585717737 -0.48047860701528577 0 0.37744660134086022 -0.49818990402203311 0 0.38550107496868152 -0.48526469302405678 0 0.39204198199566892 -0.5 0 0.39204198199566892 -0.5 0 0.39552373053734952 -0.48827559161648132 0 0.40787979501963212 -0.48782449911072417 0 0.38550107496868152 -0.48526469302405678 0 0.39204198199566892 -0.5 0 0.39552373053734952 -0.48827559161648132 0 0.40084299903686321 -0.48071812036057832 0 0.39552373053734952 -0.48827559161648132 0 0.40787979501963212 -0.48782449911072417 0 0.42169022298045122 -0.5 0 0.40787979501963212 -0.48782449911072417 0 0.42501946780940419 -0.48198667885251317 0 0.39204198199566892 -0.5 0 0.42169022298045122 -0.5 0 0.40787979501963212 -0.48782449911072417 0 0.40084299903686321 -0.48071812036057832 0 0.40787979501963212 -0.48782449911072417 0 0.41216036775805531 -0.47596660383477291 0 0.40787979501963212 -0.48782449911072417 0 0.41216036775805531 -0.47596660383477291 0 0.42501946780940419 -0.48198667885251317 0 0.40938672409846882 -0.46243173020623513 0 0.39885162072173408 -0.4682823908126601 0 0.41216036775805531 -0.47596660383477291 0 0.41216036775805531 -0.47596660383477291 0 0.42140424102194818 -0.46936042313245308 0 0.42501946780940419 -0.48198667885251317 0 0.40938672409846882 -0.46243173020623513 0 0.41216036775805531 -0.47596660383477291 0 0.42140424102194818 -0.46936042313245308 0 0.44161509958834322 -0.48504728289172172 0 0.42501946780940419 -0.48198667885251317 0 0.43504026729159478 -0.47073562887770293 0 0.42140424102194818 -0.46936042313245308 0 0.42501946780940419 -0.48198667885251317 0 0.43504026729159478 -0.47073562887770293 0 0.44161509958834322 -0.48504728289172172 0 0.42169022298045122 -0.5 0 0.42501946780940419 -0.48198667885251317 0 0.31693289895802967 -0.4760100539016926 0 0.33274550002610431 -0.49999999999999928 0 0.31693289895802967 -0.4760100539016926 0 0.33274550002610431 -0.49999999999999928 0 0.3086303997603842 -0.5 0 0.31693289895802967 -0.4760100539016926 0 0.32884189876891567 -0.47160869584807008 0 0.32315379637638719 -0.45976375774658079 0 0.31693289895802967 -0.4760100539016926 0 0.32884189876891567 -0.47160869584807008 0 0.33863862381663162 -0.4828389534966584 0 0.32884189876891567 -0.47160869584807008 0 0.33863862381663162 -0.4828389534966584 0 0.3366422759246141 -0.46782201824734859 0 0.31693289895802967 -0.4760100539016926 0 0.33863862381663162 -0.4828389534966584 0 0.33274550002610431 -0.49999999999999928 0 0.33863862381663162 -0.4828389534966584 0 0.36239374101088662 -0.5 0 0.3570444386327371 -0.48300596113469091 0 0.33863862381663162 -0.4828389534966584 0 0.33274550002610431 -0.49999999999999928 0 0.36239374101088662 -0.5 0 0.37744660134086022 -0.49818990402203311 0 0.36239374101088662 -0.5 0 0.3570444386327371 -0.48300596113469091 0 0.37744660134086022 -0.49818990402203311 0 0.3738104585717737 -0.48047860701528577 0 0.3570444386327371 -0.48300596113469091 0 0.37744660134086022 -0.49818990402203311 0 0.3570444386327371 -0.48300596113469091 0 0.3570444386327371 -0.48300596113469091 0 0.35791412105646619 -0.46053856994178111 0 0.36994446306350193 -0.46585420870481947 0 0.3738104585717737 -0.48047860701528577 0 0.3570444386327371 -0.48300596113469091 0 0.36994446306350193 -0.46585420870481947 0 0.3570444386327371 -0.48300596113469091 0 0.34932257055025961 -0.46712196440387799 0 0.35791412105646619 -0.46053856994178111 0 0.33863862381663162 -0.4828389534966584 0 0.3570444386327371 -0.48300596113469091 0 0.3366422759246141 -0.46782201824734859 0 0.3570444386327371 -0.48300596113469091 0 0.3366422759246141 -0.46782201824734859 0 0.3570444386327371 -0.48300596113469091 0 0.34932257055025961 -0.46712196440387799 0 0.3366422759246141 -0.46782201824734859 0 0.34932257055025961 -0.46712196440387799 0 0.34667023107793971 -0.45513925210810813 0 0.3366422759246141 -0.46782201824734859 0 0.34932257055025961 -0.46712196440387799 0 0.34667023107793971 -0.45513925210810813 0 0.35791412105646619 -0.46053856994178111 0 0.34667023107793971 -0.45513925210810813 0 0.35791412105646619 -0.46053856994178111 0 0.36078511119123369 -0.44866142761458749 0 0.35791412105646619 -0.46053856994178111 0 0.36994446306350193 -0.46585420870481947 0 0.36078511119123369 -0.44866142761458749 0 0.37703093910286278 -0.45448577146560148 0 0.36994446306350193 -0.46585420870481947 0 0.36078511119123369 -0.44866142761458749 0 0.37133797449075101 -0.44250138131638228 0 0.36078511119123369 -0.44866142761458749 0 0.35387800973422001 -0.43858169330872099 0 0.37703093910286278 -0.45448577146560148 0 0.37133797449075101 -0.44250138131638228 0 0.36078511119123369 -0.44866142761458749 0 0.34667023107793971 -0.45513925210810813 0 0.36078511119123369 -0.44866142761458749 0 0.35387800973422001 -0.43858169330872099 0 0.35387800973422001 -0.43858169330872099 0 0.3373853401151734 -0.44552475979361689 0 0.34198211329388511 -0.4347285355003101 0 0.34667023107793971 -0.45513925210810813 0 0.35387800973422001 -0.43858169330872099 0 0.3373853401151734 -0.44552475979361689 0 0.3373853401151734 -0.44552475979361689 0 0.33041938802640658 -0.43543110526204698 0 0.34198211329388511 -0.4347285355003101 0 0.3373853401151734 -0.44552475979361689 0 0.32455967567976929 -0.44495370932331679 0 0.33041938802640658 -0.43543110526204698 0 0.3373853401151734 -0.44552475979361689 0 0.33229952720279748 -0.45321556296647941 0 0.32455967567976929 -0.44495370932331679 0 0.34667023107793971 -0.45513925210810813 0 0.3373853401151734 -0.44552475979361689 0 0.33229952720279748 -0.45321556296647941 0 0.34667023107793971 -0.45513925210810813 0 0.3366422759246141 -0.46782201824734859 0 0.33229952720279748 -0.45321556296647941 0 0.3366422759246141 -0.46782201824734859 0 0.33229952720279748 -0.45321556296647941 0 0.31624011321649093 -0.45263807536000622 0 0.32884189876891567 -0.47160869584807008 0 0.3366422759246141 -0.46782201824734859 0 0.32315379637638719 -0.45976375774658079 0 0.3366422759246141 -0.46782201824734859 0 0.32315379637638719 -0.45976375774658079 0 0.31624011321649093 -0.45263807536000622 0 0.31693289895802967 -0.4760100539016926 0 0.32315379637638719 -0.45976375774658079 0 0.30112029788995481 -0.45202010780338597 0 0.3366422759246141 -0.46782201824734859 0 0.31624011321649093 -0.45263807536000622 0 0.31624011321649093 -0.45263807536000622 0 0.31328324881652808 -0.44235789022404032 0 0.32455967567976929 -0.44495370932331679 0 0.32315379637638719 -0.45976375774658079 0 0.30264864048453588 -0.44235161240619703 0 0.32315379637638719 -0.45976375774658079 0 0.31624011321649093 -0.45263807536000622 0 0.30264864048453588 -0.44235161240619703 0 0.33229952720279748 -0.45321556296647941 0 0.31624011321649093 -0.45263807536000622 0 0.32455967567976929 -0.44495370932331679 0 0.31328324881652808 -0.44235789022404032 0 0.32455967567976929 -0.44495370932331679 0 0.31762510875574251 -0.43668566728696412 0 0.32455967567976929 -0.44495370932331679 0 0.31762510875574251 -0.43668566728696412 0 0.33041938802640658 -0.43543110526204698 0 0.3229596131336418 -0.42644194063431867 0 0.31762510875574251 -0.43668566728696412 0 0.33041938802640658 -0.43543110526204698 0 0.3229596131336418 -0.42644194063431867 0 0.31762510875574251 -0.43668566728696412 0 0.30807327095220299 -0.43142317214239828 0 0.31328324881652808 -0.44235789022404032 0 0.31762510875574251 -0.43668566728696412 0 0.30807327095220299 -0.43142317214239828 0 0.3229596131336418 -0.42644194063431867 0 0.3145507933575078 -0.42078841120931282 0 0.30807327095220299 -0.43142317214239828 0 0.3145507933575078 -0.42078841120931282 0 0.32810128407915118 -0.41140260534326578 0 0.3106666405498717 -0.41121832987304191 0 0.3229596131336418 -0.42644194063431867 0 0.3145507933575078 -0.42078841120931282 0 0.32810128407915118 -0.41140260534326578 0 0.3229596131336418 -0.42644194063431867 0 0.32810128407915118 -0.41140260534326578 0 0.3389878336308399 -0.42292068256192428 0 0.32810128407915118 -0.41140260534326578 0 0.3389878336308399 -0.42292068256192428 0 0.34938387721370218 -0.40822205517308507 0 0.3229596131336418 -0.42644194063431867 0 0.3389878336308399 -0.42292068256192428 0 0.33041938802640658 -0.43543110526204698 0 0.3389878336308399 -0.42292068256192428 0 0.33041938802640658 -0.43543110526204698 0 0.34198211329388511 -0.4347285355003101 0 0.3389878336308399 -0.42292068256192428 0 0.34198211329388511 -0.4347285355003101 0 0.35812053736061772 -0.42253749387765949 0 0.35387800973422001 -0.43858169330872099 0 0.34198211329388511 -0.4347285355003101 0 0.35812053736061772 -0.42253749387765949 0 0.35387800973422001 -0.43858169330872099 0 0.35812053736061772 -0.42253749387765949 0 0.37107677197347372 -0.43023653897382241 0 0.38263500623549718 -0.41503377693673971 0 0.35812053736061772 -0.42253749387765949 0 0.37107677197347372 -0.43023653897382241 0 0.37133797449075101 -0.44250138131638228 0 0.35387800973422001 -0.43858169330872099 0 0.37107677197347372 -0.43023653897382241 0 0.38263500623549718 -0.41503377693673971 0 0.35812053736061772 -0.42253749387765949 0 0.36838823306953677 -0.40814327402863809 0 0.3389878336308399 -0.42292068256192428 0 0.35812053736061772 -0.42253749387765949 0 0.34938387721370218 -0.40822205517308507 0 0.35812053736061772 -0.42253749387765949 0 0.36838823306953677 -0.40814327402863809 0 0.34938387721370218 -0.40822205517308507 0 0.34938387721370218 -0.40822205517308507 0 0.36201627265171937 -0.39365715320894862 0 0.34068910249034828 -0.39067112201807441 0 0.38626047907606909 -0.39026393061976172 0 0.36838823306953677 -0.40814327402863809 0 0.36201627265171937 -0.39365715320894862 0 0.36838823306953677 -0.40814327402863809 0 0.34938387721370218 -0.40822205517308507 0 0.36201627265171937 -0.39365715320894862 0 0.36201627265171937 -0.39365715320894862 0 0.37199710439929801 -0.37182856659101238 0 0.34944369701462141 -0.37382267056657958 0 0.38626047907606909 -0.39026393061976172 0 0.36201627265171937 -0.39365715320894862 0 0.37199710439929801 -0.37182856659101238 0 0.36201627265171937 -0.39365715320894862 0 0.34068910249034828 -0.39067112201807441 0 0.34944369701462141 -0.37382267056657958 0 0.36201627265171937 -0.39365715320894862 0 0.34944369701462141 -0.37382267056657958 0 0.34068910249034828 -0.39067112201807441 0 0.34944369701462141 -0.37382267056657958 0 0.33114393492578259 -0.37137719138666259 0 0.34068910249034828 -0.39067112201807441 0 0.32353363268394431 -0.38564915576952868 0 0.33114393492578259 -0.37137719138666259 0 0.32810128407915118 -0.41140260534326578 0 0.34938387721370218 -0.40822205517308507 0 0.34068910249034828 -0.39067112201807441 0 0.32810128407915118 -0.41140260534326578 0 0.34068910249034828 -0.39067112201807441 0 0.32353363268394431 -0.38564915576952868 0 0.32810128407915118 -0.41140260534326578 0 0.32353363268394431 -0.38564915576952868 0 0.30845514998210383 -0.39602706583654851 0 0.32810128407915118 -0.41140260534326578 0 0.30845514998210383 -0.39602706583654851 0 0.3106666405498717 -0.41121832987304191 0 0.32353363268394431 -0.38564915576952868 0 0.33114393492578259 -0.37137719138666259 0 0.31331707887574939 -0.37488471638860671 0 0.32353363268394431 -0.38564915576952868 0 0.30845514998210383 -0.39602706583654851 0 0.31331707887574939 -0.37488471638860671 0 0.30023457006026572 -0.37852053515021372 0 0.30845514998210383 -0.39602706583654851 0 0.31331707887574939 -0.37488471638860671 0 0.30023457006026572 -0.37852053515021372 0 0.30845514998210383 -0.39602706583654851 0 0.28454188965281457 -0.38333603295033969 0 0.30845514998210383 -0.39602706583654851 0 0.29168036530357189 -0.39948405845913121 0 0.29910150741430802 -0.40855475835150751 0 0.30845514998210383 -0.39602706583654851 0 0.29910150741430802 -0.40855475835150751 0 0.3106666405498717 -0.41121832987304191 0 0.29168036530357189 -0.39948405845913121 0 0.28454188965281457 -0.38333603295033969 0 0.27559198756365599 -0.39360968183675932 0 0.29168036530357189 -0.39948405845913121 0 0.27559198756365599 -0.39360968183675932 0 0.29055534580378822 -0.41657436360938538 0 0.30845514998210383 -0.39602706583654851 0 0.29168036530357189 -0.39948405845913121 0 0.28454188965281457 -0.38333603295033969 0 0.27559198756365599 -0.39360968183675932 0 0.29055534580378822 -0.41657436360938538 0 0.30845514998210383 -0.39602706583654851 0 0.28454188965281457 -0.38333603295033969 0 0.30023457006026572 -0.37852053515021372 0 0.28454188965281457 -0.38333603295033969 0 0.29056393052202101 -0.36792075833073329 0 0.28454188965281457 -0.38333603295033969 0 0.26062862932352499 -0.37064500006413231 0 0.27559198756365599 -0.39360968183675932 0 0.26062862932352499 -0.37064500006413231 0 0.28454188965281457 -0.38333603295033969 0 0.27559198756365599 -0.39360968183675932 0 0.26062862932352499 -0.37064500006413231 0 0.26026333954693809 -0.38577774176019458 0 0.27559198756365599 -0.39360968183675932 0 0.26062862932352499 -0.37064500006413231 0 0.26026333954693809 -0.38577774176019458 0 0.25293207340178592 -0.37701931855389009 0 0.26062862932352499 -0.37064500006413231 0 0.26026333954693809 -0.38577774176019458 0 0.25055905470918488 -0.38570538598090348 0 0.25619817233623471 -0.39262585921576731 0 0.26026333954693809 -0.38577774176019458 0 0.25055905470918488 -0.38570538598090348 0 0.25293207340178592 -0.37701931855389009 0 0.25580367433597051 -0.40257277027760202 0 0.25619817233623471 -0.39262585921576731 0 0.24824630966125499 -0.39571575356211769 0 0.25055905470918488 -0.38570538598090348 0 0.25619817233623471 -0.39262585921576731 0 0.24824630966125499 -0.39571575356211769 0 0.26026333954693809 -0.38577774176019458 0 0.25619817233623471 -0.39262585921576731 0 0.26518557427490419 -0.39458919502020129 0 0.25580367433597051 -0.40257277027760202 0 0.25619817233623471 -0.39262585921576731 0 0.26518557427490419 -0.39458919502020129 0 0.26518557427490419 -0.39458919502020129 0 0.26966276932129268 -0.40135898831760808 0 0.26163832870083331 -0.40752732172542921 0 0.26518557427490419 -0.39458919502020129 0 0.26163832870083331 -0.40752732172542921 0 0.25580367433597051 -0.40257277027760202 0 0.26518557427490419 -0.39458919502020129 0 0.26163832870083331 -0.40752732172542921 0 0.25580367433597051 -0.40257277027760202 0 0.26163832870083331 -0.40752732172542921 0 0.27559198756365599 -0.39360968183675932 0 0.27590476392649282 -0.40735827231357941 0 0.29055534580378822 -0.41657436360938538 0 0.26966276932129268 -0.40135898831760808 0 0.27590476392649282 -0.40735827231357941 0 0.26163832870083331 -0.40752732172542921 0 0.26026333954693809 -0.38577774176019458 0 0.26518557427490419 -0.39458919502020129 0 0.27559198756365599 -0.39360968183675932 0 0.26518557427490419 -0.39458919502020129 0 0.26966276932129268 -0.40135898831760808 0 0.27559198756365599 -0.39360968183675932 0 0.26966276932129268 -0.40135898831760808 0 0.27559198756365599 -0.39360968183675932 0 0.27590476392649282 -0.40735827231357941 0 0.26163832870083331 -0.40752732172542921 0 0.26776627522400409 -0.42460084681423749 0 0.28214348459268462 -0.42493946706581309 0 0.27756048075594969 -0.41409985617855172 0 0.26163832870083331 -0.40752732172542921 0 0.28214348459268462 -0.42493946706581309 0 0.26163832870083331 -0.40752732172542921 0 0.28214348459268462 -0.42493946706581309 0 0.27590476392649282 -0.40735827231357941 0 0.27756048075594969 -0.41409985617855172 0 0.26163832870083331 -0.40752732172542921 0 0.26163832870083331 -0.40752732172542921 0 0.25530002126643092 -0.43064549129407159 0 0.26776627522400409 -0.42460084681423749 0 0.26163832870083331 -0.40752732172542921 0 0.25530002126643092 -0.43064549129407159 0 0.26163832870083331 -0.40752732172542921 0 0.25175158139876452 -0.4129460935534579 0 0.25530002126643092 -0.43064549129407159 0 0.25580367433597051 -0.40257277027760202 0 0.26163832870083331 -0.40752732172542921 0 0.25175158139876452 -0.4129460935534579 0 0.25580367433597051 -0.40257277027760202 0 0.25175158139876452 -0.4129460935534579 0 0.24455711249550149 -0.40593938102129001 0 0.25530002126643092 -0.43064549129407159 0 0.26776627522400409 -0.42460084681423749 0 0.26722886185689881 -0.43928862974375621 0 0.28214348459268462 -0.42493946706581309 0 0.28071722492534779 -0.4443929606337963 0 0.26722886185689881 -0.43928862974375621 0 0.26776627522400409 -0.42460084681423749 0 0.28214348459268462 -0.42493946706581309 0 0.26722886185689881 -0.43928862974375621 0 0.28214348459268462 -0.42493946706581309 0 0.29699176407835209 -0.42703394360106978 0 0.30264864048453588 -0.44235161240619703 0 0.28214348459268462 -0.42493946706581309 0 0.30264864048453588 -0.44235161240619703 0 0.28214348459268462 -0.42493946706581309 0 0.30264864048453588 -0.44235161240619703 0 0.29079227197566748 -0.44416779111870019 0 0.28214348459268462 -0.42493946706581309 0 0.29055534580378822 -0.41657436360938538 0 0.29699176407835209 -0.42703394360106978 0 0.27756048075594969 -0.41409985617855172 0 0.28214348459268462 -0.42493946706581309 0 0.29055534580378822 -0.41657436360938538 0 0.29168036530357189 -0.39948405845913121 0 0.29055534580378822 -0.41657436360938538 0 0.29910150741430802 -0.40855475835150751 0 0.27590476392649282 -0.40735827231357941 0 0.27756048075594969 -0.41409985617855172 0 0.29055534580378822 -0.41657436360938538 0 0.29055534580378822 -0.41657436360938538 0 0.3031244679162875 -0.41931880862457432 0 0.29699176407835209 -0.42703394360106978 0 0.29055534580378822 -0.41657436360938538 0 0.3031244679162875 -0.41931880862457432 0 0.29910150741430802 -0.40855475835150751 0 0.3031244679162875 -0.41931880862457432 0 0.29910150741430802 -0.40855475835150751 0 0.3106666405498717 -0.41121832987304191 0 0.3145507933575078 -0.42078841120931282 0 0.3031244679162875 -0.41931880862457432 0 0.3106666405498717 -0.41121832987304191 0 0.3145507933575078 -0.42078841120931282 0 0.3031244679162875 -0.41931880862457432 0 0.30807327095220299 -0.43142317214239828 0 0.30807327095220299 -0.43142317214239828 0 0.29699176407835209 -0.42703394360106978 0 0.30264864048453588 -0.44235161240619703 0 0.3031244679162875 -0.41931880862457432 0 0.30807327095220299 -0.43142317214239828 0 0.29699176407835209 -0.42703394360106978 0 0.32315379637638719 -0.45976375774658079 0 0.30112029788995481 -0.45202010780338597 0 0.30264864048453588 -0.44235161240619703 0 0.30112029788995481 -0.45202010780338597 0 0.30264864048453588 -0.44235161240619703 0 0.29079227197566748 -0.44416779111870019 0 0.31328324881652808 -0.44235789022404032 0 0.30807327095220299 -0.43142317214239828 0 0.30264864048453588 -0.44235161240619703 0 0.31624011321649093 -0.45263807536000622 0 0.31328324881652808 -0.44235789022404032 0 0.30264864048453588 -0.44235161240619703 0 0.31693289895802967 -0.4760100539016926 0 0.30112029788995481 -0.45202010780338597 0 0.29805833549607541 -0.47077919450775002 0 0.31693289895802967 -0.4760100539016926 0 0.30112029788995481 -0.45202010780338597 0 0.30112029788995481 -0.45202010780338597 0 0.28733171198581431 -0.45713480768430831 0 0.29805833549607541 -0.47077919450775002 0 0.28733171198581431 -0.45713480768430831 0 0.28090035140959652 -0.47238609486809202 0 0.29805833549607541 -0.47077919450775002 0 0.28733171198581431 -0.45713480768430831 0 0.29079227197566748 -0.44416779111870019 0 0.28071722492534779 -0.4443929606337963 0 0.28214348459268462 -0.42493946706581309 0 0.29079227197566748 -0.44416779111870019 0 0.28071722492534779 -0.4443929606337963 0 0.30112029788995481 -0.45202010780338597 0 0.28733171198581431 -0.45713480768430831 0 0.29079227197566748 -0.44416779111870019 0 0.28733171198581431 -0.45713480768430831 0 0.28071722492534779 -0.4443929606337963 0 0.26992940120765713 -0.45740720007636748 0 0.28071722492534779 -0.4443929606337963 0 0.26722886185689881 -0.43928862974375621 0 0.26992940120765713 -0.45740720007636748 0 0.25530002126643092 -0.43064549129407159 0 0.2489617138320285 -0.45376366086271391 0 0.25530002126643092 -0.43064549129407159 0 0.26722886185689881 -0.43928862974375621 0 0.2489617138320285 -0.45376366086271391 0 0.26722886185689881 -0.43928862974375621 0 0.26992940120765713 -0.45740720007636748 0 0.2489617138320285 -0.45376366086271391 0 0.26992940120765713 -0.45740720007636748 0 0.26252121615249208 -0.47576828286548201 0 0.2489617138320285 -0.45376366086271391 0 0.28733171198581431 -0.45713480768430831 0 0.26992940120765713 -0.45740720007636748 0 0.28090035140959652 -0.47238609486809202 0 0.26992940120765713 -0.45740720007636748 0 0.28090035140959652 -0.47238609486809202 0 0.26252121615249208 -0.47576828286548201 0 0.28090035140959652 -0.47238609486809202 0 0.26252121615249208 -0.47576828286548201 0 0.27470446919007119 -0.48692843388096602 0 0.26252121615249208 -0.47576828286548201 0 0.242623406397626 -0.47688183043135629 0 0.2489617138320285 -0.45376366086271391 0 0.26252121615249208 -0.47576828286548201 0 0.26040019922894397 -0.5 0 0.242623406397626 -0.47688183043135629 0 0.26252121615249208 -0.47576828286548201 0 0.26040019922894397 -0.5 0 0.27470446919007119 -0.48692843388096602 0 0.26040019922894397 -0.5 0 0.27470446919007119 -0.48692843388096602 0 0.28451529949466409 -0.5 0 0.27470446919007119 -0.48692843388096602 0 0.28451529949466409 -0.5 0 0.29200618830611408 -0.48537543648031328 0 0.28451529949466409 -0.5 0 0.29200618830611408 -0.48537543648031328 0 0.3086303997603842 -0.5 0 0.28090035140959652 -0.47238609486809202 0 0.29200618830611408 -0.48537543648031328 0 0.29805833549607541 -0.47077919450775002 0 0.28090035140959652 -0.47238609486809202 0 0.27470446919007119 -0.48692843388096602 0 0.29200618830611408 -0.48537543648031328 0 0.31693289895802967 -0.4760100539016926 0 0.30428447530322023 -0.48278909248033419 0 0.29805833549607541 -0.47077919450775002 0 0.29200618830611408 -0.48537543648031328 0 0.30428447530322023 -0.48278909248033419 0 0.29805833549607541 -0.47077919450775002 0 0.29200618830611408 -0.48537543648031328 0 0.30428447530322023 -0.48278909248033419 0 0.3086303997603842 -0.5 0 0.31693289895802967 -0.4760100539016926 0 0.30428447530322023 -0.48278909248033419 0 0.3086303997603842 -0.5 0 0.34071049501575179 -0.29779705387569733 0 0.32768156115408281 -0.28729927023954438 0 0.34631727744473523 -0.28255568389670288 0 0.34071049501575179 -0.29779705387569733 0 0.32498149719319691 -0.30685177580806339 0 0.32768156115408281 -0.28729927023954438 0 0.34071049501575179 -0.29779705387569733 0 0.32498149719319691 -0.30685177580806339 0 0.34295689500905702 -0.31547741490533948 0 0.32498149719319691 -0.30685177580806339 0 0.30845726121123312 -0.31333967905509102 0 0.31187859035975241 -0.29524785903399581 0 0.32768156115408281 -0.28729927023954438 0 0.31275458825711311 -0.27563546358556651 0 0.31187859035975241 -0.29524785903399581 0 0.32498149719319691 -0.30685177580806339 0 0.32768156115408281 -0.28729927023954438 0 0.31187859035975241 -0.29524785903399581 0 0.31275458825711311 -0.27563546358556651 0 0.3157922650483046 -0.25654838301818278 0 0.3313295439006308 -0.26928058747480688 0 0.32768156115408281 -0.28729927023954438 0 0.31275458825711311 -0.27563546358556651 0 0.3313295439006308 -0.26928058747480688 0 0.32924464875475301 -0.24040173401497919 0 0.3157922650483046 -0.25654838301818278 0 0.3313295439006308 -0.26928058747480688 0 0.33963887454565722 -0.25221600921233539 0 0.3313295439006308 -0.26928058747480688 0 0.34734212575130791 -0.26683467318103571 0 0.32924464875475301 -0.24040173401497919 0 0.33963887454565722 -0.25221600921233539 0 0.3313295439006308 -0.26928058747480688 0 0.32924464875475301 -0.24040173401497919 0 0.3313295439006308 -0.26928058747480688 0 0.3313295439006308 -0.26928058747480688 0 0.34734212575130791 -0.26683467318103571 0 0.34631727744473523 -0.28255568389670288 0 0.32768156115408281 -0.28729927023954438 0 0.3313295439006308 -0.26928058747480688 0 0.34631727744473523 -0.28255568389670288 0 0.34734212575130791 -0.26683467318103571 0 0.35559943557224177 -0.27370933890583099 0 0.34631727744473523 -0.28255568389670288 0 0.35559943557224177 -0.27370933890583099 0 0.36311648732092622 -0.28243481949406313 0 0.34631727744473523 -0.28255568389670288 0 0.35694066695792193 -0.26584386466491428 0 0.35559943557224177 -0.27370933890583099 0 0.3642806203863177 -0.27087765329243901 0 0.34734212575130791 -0.26683467318103571 0 0.35694066695792193 -0.26584386466491428 0 0.35559943557224177 -0.27370933890583099 0 0.33963887454565722 -0.25221600921233539 0 0.34734212575130791 -0.26683467318103571 0 0.35171200096815652 -0.25507102834379519 0 0.34734212575130791 -0.26683467318103571 0 0.35694066695792193 -0.26584386466491428 0 0.35171200096815652 -0.25507102834379519 0 0.35694066695792193 -0.26584386466491428 0 0.35171200096815652 -0.25507102834379519 0 0.36398513295180851 -0.25929914597844478 0 0.35922468618612141 -0.24659811890942029 0 0.35171200096815652 -0.25507102834379519 0 0.36398513295180851 -0.25929914597844478 0 0.35922468618612141 -0.24659811890942029 0 0.36398513295180851 -0.25929914597844478 0 0.3695011402772479 -0.25301954681047728 0 0.35694066695792193 -0.26584386466491428 0 0.36398513295180851 -0.25929914597844478 0 0.3642806203863177 -0.27087765329243901 0 0.36398513295180851 -0.25929914597844478 0 0.37034537207287138 -0.26541233104585149 0 0.3642806203863177 -0.27087765329243901 0 0.37636069659038868 -0.2576218141381611 0 0.36398513295180851 -0.25929914597844478 0 0.37034537207287138 -0.26541233104585149 0 0.37634753046096142 -0.26653686912663233 0 0.37636069659038868 -0.2576218141381611 0 0.37034537207287138 -0.26541233104585149 0 0.37267152551241889 -0.24520427646727971 0 0.37636069659038868 -0.2576218141381611 0 0.3695011402772479 -0.25301954681047728 0 0.37636069659038868 -0.2576218141381611 0 0.36398513295180851 -0.25929914597844478 0 0.3695011402772479 -0.25301954681047728 0 0.3642806203863177 -0.27087765329243901 0 0.37101995724217529 -0.27268152486230379 0 0.36311648732092622 -0.28243481949406313 0 0.35559943557224177 -0.27370933890583099 0 0.3642806203863177 -0.27087765329243901 0 0.36311648732092622 -0.28243481949406313 0 0.37034537207287138 -0.26541233104585149 0 0.3642806203863177 -0.27087765329243901 0 0.37101995724217529 -0.27268152486230379 0 0.37634753046096142 -0.26653686912663233 0 0.37034537207287138 -0.26541233104585149 0 0.37101995724217529 -0.27268152486230379 0 0.37704127508774432 -0.27237775882451731 0 0.37634753046096142 -0.26653686912663233 0 0.37101995724217529 -0.27268152486230379 0 0.37704127508774432 -0.27237775882451731 0 0.37101995724217529 -0.27268152486230379 0 0.37498845812423048 -0.27844971739031948 0 0.37101995724217529 -0.27268152486230379 0 0.37498845812423048 -0.27844971739031948 0 0.36311648732092622 -0.28243481949406313 0 0.38027359354631729 -0.27812483415233402 0 0.37498845812423048 -0.27844971739031948 0 0.36161524427768688 -0.29680112452883639 0 0.37498845812423048 -0.27844971739031948 0 0.36161524427768688 -0.29680112452883639 0 0.36311648732092622 -0.28243481949406313 0 0.37730634728848622 -0.29381879622271129 0 0.38027359354631729 -0.27812483415233402 0 0.36161524427768688 -0.29680112452883639 0 0.38027359354631729 -0.27812483415233402 0 0.36161524427768688 -0.29680112452883639 0 0.34071049501575179 -0.29779705387569733 0 0.36161524427768688 -0.29680112452883639 0 0.34631727744473523 -0.28255568389670288 0 0.36161524427768688 -0.29680112452883639 0 0.36311648732092622 -0.28243481949406313 0 0.34631727744473523 -0.28255568389670288 0 0.34071049501575179 -0.29779705387569733 0 0.36161524427768688 -0.29680112452883639 0 0.34295689500905702 -0.31547741490533948 0 0.36161524427768688 -0.29680112452883639 0 0.34295689500905702 -0.31547741490533948 0 0.37787286746932369 -0.31061332594734697 0 0.36161524427768688 -0.29680112452883639 0 0.36600489806628628 -0.32751429925452907 0 0.37787286746932369 -0.31061332594734697 0 0.37730634728848622 -0.29381879622271129 0 0.36161524427768688 -0.29680112452883639 0 0.38292661064878891 -0.35074170560999951 0 0.36600489806628628 -0.32751429925452907 0 0.35958714606258552 -0.35219389884006902 0 0.36600489806628628 -0.32751429925452907 0 0.34608921533231052 -0.33661860398793908 0 0.35958714606258552 -0.35219389884006902 0 0.36600489806628628 -0.32751429925452907 0 0.34608921533231052 -0.33661860398793908 0 0.34295689500905702 -0.31547741490533948 0 0.36161524427768688 -0.29680112452883639 0 0.36600489806628628 -0.32751429925452907 0 0.34295689500905702 -0.31547741490533948 0 0.37199710439929801 -0.37182856659101238 0 0.35958714606258552 -0.35219389884006902 0 0.34944369701462141 -0.37382267056657958 0 0.38292661064878891 -0.35074170560999951 0 0.37199710439929801 -0.37182856659101238 0 0.35958714606258552 -0.35219389884006902 0 0.34608921533231052 -0.33661860398793908 0 0.35958714606258552 -0.35219389884006902 0 0.33687112137752351 -0.35398818792421061 0 0.35958714606258552 -0.35219389884006902 0 0.34944369701462141 -0.37382267056657958 0 0.33687112137752351 -0.35398818792421061 0 0.34944369701462141 -0.37382267056657958 0 0.33114393492578259 -0.37137719138666259 0 0.33687112137752351 -0.35398818792421061 0 0.34944369701462141 -0.37382267056657958 0 0.33687112137752351 -0.35398818792421061 0 0.33114393492578259 -0.37137719138666259 0 0.33687112137752351 -0.35398818792421061 0 0.31907982873922408 -0.36070074801427682 0 0.33687112137752351 -0.35398818792421061 0 0.32429854574042588 -0.33415370528184141 0 0.33687112137752351 -0.35398818792421061 0 0.32248255567335959 -0.34920677511876819 0 0.32429854574042588 -0.33415370528184141 0 0.32248255567335959 -0.34920677511876819 0 0.32429854574042588 -0.33415370528184141 0 0.30743123813122408 -0.35103723180628799 0 0.33687112137752351 -0.35398818792421061 0 0.32248255567335959 -0.34920677511876819 0 0.31907982873922408 -0.36070074801427682 0 0.32248255567335959 -0.34920677511876819 0 0.31907982873922408 -0.36070074801427682 0 0.30743123813122408 -0.35103723180628799 0 0.33114393492578259 -0.37137719138666259 0 0.31907982873922408 -0.36070074801427682 0 0.31331707887574939 -0.37488471638860671 0 0.31907982873922408 -0.36070074801427682 0 0.31331707887574939 -0.37488471638860671 0 0.3059589176296007 -0.36696018923864338 0 0.34295689500905702 -0.31547741490533948 0 0.32429854574042588 -0.33415370528184141 0 0.34295689500905702 -0.31547741490533948 0 0.32429854574042588 -0.33415370528184141 0 0.31961029882493891 -0.32675753167728788 0 0.32498149719319691 -0.30685177580806339 0 0.34295689500905702 -0.31547741490533948 0 0.31961029882493891 -0.32675753167728788 0 0.34608921533231052 -0.33661860398793908 0 0.33687112137752351 -0.35398818792421061 0 0.32429854574042588 -0.33415370528184141 0 0.34608921533231052 -0.33661860398793908 0 0.34295689500905702 -0.31547741490533948 0 0.32429854574042588 -0.33415370528184141 0 0.32429854574042588 -0.33415370528184141 0 0.30743123813122408 -0.35103723180628799 0 0.32429854574042588 -0.33415370528184141 0 0.31481521429632048 -0.33264611377333592 0 0.30763813275824903 -0.34437145593704382 0 0.32429854574042588 -0.33415370528184141 0 0.30763813275824903 -0.34437145593704382 0 0.30743123813122408 -0.35103723180628799 0 0.32429854574042588 -0.33415370528184141 0 0.31961029882493891 -0.32675753167728788 0 0.31481521429632048 -0.33264611377333592 0 0.31961029882493891 -0.32675753167728788 0 0.30771387986166832 -0.32530176219717061 0 0.32429854574042588 -0.33415370528184141 0 0.31481521429632048 -0.33264611377333592 0 0.31961029882493891 -0.32675753167728788 0 0.32498149719319691 -0.30685177580806339 0 0.31961029882493891 -0.32675753167728788 0 0.30845726121123312 -0.31333967905509102 0 0.30845726121123312 -0.31333967905509102 0 0.29382134220606759 -0.32283804164439911 0 0.29744808101153292 -0.30327551351982251 0 0.30845726121123312 -0.31333967905509102 0 0.30771387986166832 -0.32530176219717061 0 0.29382134220606759 -0.32283804164439911 0 0.31961029882493891 -0.32675753167728788 0 0.30845726121123312 -0.31333967905509102 0 0.30771387986166832 -0.32530176219717061 0 0.31481521429632048 -0.33264611377333592 0 0.30771387986166832 -0.32530176219717061 0 0.30763813275824903 -0.34437145593704382 0 0.30771387986166832 -0.32530176219717061 0 0.29382134220606759 -0.32283804164439911 0 0.30763813275824903 -0.34437145593704382 0 0.29027803890574699 -0.33637107695098062 0 0.29382134220606759 -0.32283804164439911 0 0.30763813275824903 -0.34437145593704382 0 0.29027803890574699 -0.33637107695098062 0 0.30763813275824903 -0.34437145593704382 0 0.29744941706942862 -0.34739131386887401 0 0.29382134220606759 -0.32283804164439911 0 0.30763813275824903 -0.34437145593704382 0 0.29027803890574699 -0.33637107695098062 0 0.29382134220606759 -0.32283804164439911 0 0.2769160771486564 -0.32313343047256238 0 0.29382134220606759 -0.32283804164439911 0 0.2769160771486564 -0.32313343047256238 0 0.28000455165388621 -0.30130462735175428 0 0.30743123813122408 -0.35103723180628799 0 0.29056393052202101 -0.36792075833073329 0 0.31907982873922408 -0.36070074801427682 0 0.3059589176296007 -0.36696018923864338 0 0.30743123813122408 -0.35103723180628799 0 0.3059589176296007 -0.36696018923864338 0 0.30743123813122408 -0.35103723180628799 0 0.29056393052202101 -0.36792075833073329 0 0.30023457006026572 -0.37852053515021372 0 0.3059589176296007 -0.36696018923864338 0 0.29056393052202101 -0.36792075833073329 0 0.30023457006026572 -0.37852053515021372 0 0.31331707887574939 -0.37488471638860671 0 0.3059589176296007 -0.36696018923864338 0 0.30743123813122408 -0.35103723180628799 0 0.29744941706942862 -0.34739131386887401 0 0.291431003798372 -0.35452638906277939 0 0.30763813275824903 -0.34437145593704382 0 0.30743123813122408 -0.35103723180628799 0 0.29744941706942862 -0.34739131386887401 0 0.30743123813122408 -0.35103723180628799 0 0.291431003798372 -0.35452638906277939 0 0.29056393052202101 -0.36792075833073329 0 0.29744941706942862 -0.34739131386887401 0 0.28493026368754049 -0.34749123147484151 0 0.291431003798372 -0.35452638906277939 0 0.29027803890574699 -0.33637107695098062 0 0.29744941706942862 -0.34739131386887401 0 0.28493026368754049 -0.34749123147484151 0 0.28493026368754049 -0.34749123147484151 0 0.291431003798372 -0.35452638906277939 0 0.27678016958164559 -0.3587914098331601 0 0.291431003798372 -0.35452638906277939 0 0.29056393052202101 -0.36792075833073329 0 0.27678016958164559 -0.3587914098331601 0 0.29056393052202101 -0.36792075833073329 0 0.27812865477000132 -0.37017330029459161 0 0.27678016958164559 -0.3587914098331601 0 0.28454188965281457 -0.38333603295033969 0 0.29056393052202101 -0.36792075833073329 0 0.27812865477000132 -0.37017330029459161 0 0.28454188965281457 -0.38333603295033969 0 0.27812865477000132 -0.37017330029459161 0 0.26062862932352499 -0.37064500006413231 0 0.27812865477000132 -0.37017330029459161 0 0.27678016958164559 -0.3587914098331601 0 0.26062862932352499 -0.37064500006413231 0 0.27678016958164559 -0.3587914098331601 0 0.26417164904408891 -0.35578126165152418 0 0.26062862932352499 -0.37064500006413231 0 0.28493026368754049 -0.34749123147484151 0 0.27678016958164559 -0.3587914098331601 0 0.26811386293240153 -0.33756936709310398 0 0.27678016958164559 -0.3587914098331601 0 0.26417164904408891 -0.35578126165152418 0 0.26811386293240153 -0.33756936709310398 0 0.25116393433878559 -0.35611926961569929 0 0.26811386293240153 -0.33756936709310398 0 0.25116393433878559 -0.35611926961569929 0 0.26417164904408891 -0.35578126165152418 0 0.26811386293240153 -0.33756936709310398 0 0.25116393433878559 -0.35611926961569929 0 0.26811386293240153 -0.33756936709310398 0 0.25057261679667991 -0.34287007330936031 0 0.25116393433878559 -0.35611926961569929 0 0.25057261679667991 -0.34287007330936031 0 0.24832849232461249 -0.35176763795018517 0 0.25116393433878559 -0.35611926961569929 0 0.26417164904408891 -0.35578126165152418 0 0.26062862932352499 -0.37064500006413231 0 0.26062862932352499 -0.37064500006413231 0 0.24531649048950799 -0.36251867789706471 0 0.25116393433878559 -0.35611926961569929 0 0.26062862932352499 -0.37064500006413231 0 0.24531649048950799 -0.36251867789706471 0 0.25116393433878559 -0.35611926961569929 0 0.26062862932352499 -0.37064500006413231 0 0.25293207340178592 -0.37701931855389009 0 0.26062862932352499 -0.37064500006413231 0 0.24531649048950799 -0.36251867789706471 0 0.2769160771486564 -0.32313343047256238 0 0.26811386293240153 -0.33756936709310398 0 0.26337822424520491 -0.31300417679888848 0 0.29027803890574699 -0.33637107695098062 0 0.28493026368754049 -0.34749123147484151 0 0.26811386293240153 -0.33756936709310398 0 0.29027803890574699 -0.33637107695098062 0 0.2769160771486564 -0.32313343047256238 0 0.26811386293240153 -0.33756936709310398 0 0.26811386293240153 -0.33756936709310398 0 0.25057261679667991 -0.34287007330936031 0 0.25116877706030122 -0.3271479094322729 0 0.26811386293240153 -0.33756936709310398 0 0.25116877706030122 -0.3271479094322729 0 0.26337822424520491 -0.31300417679888848 0 0.25116877706030122 -0.3271479094322729 0 0.26337822424520491 -0.31300417679888848 0 0.25130522776372533 -0.31145250954397302 0 0.25130522776372533 -0.31145250954397302 0 0.25927173705505691 -0.29968764769357509 0 0.24697325018228419 -0.30044565935334588 0 0.26337822424520491 -0.31300417679888848 0 0.25130522776372533 -0.31145250954397302 0 0.25927173705505691 -0.29968764769357509 0 0.25927173705505691 -0.29968764769357509 0 0.26618776110170472 -0.27977121305910968 0 0.24876410043125799 -0.28848256383269483 0 0.25927173705505691 -0.29968764769357509 0 0.24876410043125799 -0.28848256383269483 0 0.24697325018228419 -0.30044565935334588 0 0.28000455165388621 -0.30130462735175428 0 0.26618776110170472 -0.27977121305910968 0 0.25927173705505691 -0.29968764769357509 0 0.28000455165388621 -0.30130462735175428 0 0.26618776110170472 -0.27977121305910968 0 0.28000455165388621 -0.30130462735175428 0 0.29307865962672569 -0.28364736051387263 0 0.26618776110170472 -0.27977121305910968 0 0.2769160771486564 -0.32313343047256238 0 0.26337822424520491 -0.31300417679888848 0 0.28000455165388621 -0.30130462735175428 0 0.26337822424520491 -0.31300417679888848 0 0.25927173705505691 -0.29968764769357509 0 0.28000455165388621 -0.30130462735175428 0 0.29382134220606759 -0.32283804164439911 0 0.28000455165388621 -0.30130462735175428 0 0.29382134220606759 -0.32283804164439911 0 0.28000455165388621 -0.30130462735175428 0 0.29744808101153292 -0.30327551351982251 0 0.28000455165388621 -0.30130462735175428 0 0.29307865962672569 -0.28364736051387263 0 0.29744808101153292 -0.30327551351982251 0 0.31275458825711311 -0.27563546358556651 0 0.29307865962672569 -0.28364736051387263 0 0.31187859035975241 -0.29524785903399581 0 0.29307865962672569 -0.28364736051387263 0 0.31187859035975241 -0.29524785903399581 0 0.29744808101153292 -0.30327551351982251 0 0.30845726121123312 -0.31333967905509102 0 0.31187859035975241 -0.29524785903399581 0 0.29744808101153292 -0.30327551351982251 0 0.30805485442002528 -0.24320141437427439 0 0.3157922650483046 -0.25654838301818278 0 0.29886978151582599 -0.26038827723449942 0 0.31275458825711311 -0.27563546358556651 0 0.3157922650483046 -0.25654838301818278 0 0.29886978151582599 -0.26038827723449942 0 0.31275458825711311 -0.27563546358556651 0 0.29307865962672569 -0.28364736051387263 0 0.29886978151582599 -0.26038827723449942 0 0.29307865962672569 -0.28364736051387263 0 0.29886978151582599 -0.26038827723449942 0 0.27687370214629448 -0.25966731273822641 0 0.28980269443792089 -0.24441540941917339 0 0.29886978151582599 -0.26038827723449942 0 0.27687370214629448 -0.25966731273822641 0 0.27119259750588409 -0.23479816903822789 0 0.27687370214629448 -0.25966731273822641 0 0.2523709705495234 -0.25823779876646508 0 0.29307865962672569 -0.28364736051387263 0 0.27687370214629448 -0.25966731273822641 0 0.26618776110170472 -0.27977121305910968 0 0.26618776110170472 -0.27977121305910968 0 0.2523709705495234 -0.25823779876646508 0 0.24582366204542319 -0.27409270086427839 0 0.26618776110170472 -0.27977121305910968 0 0.24582366204542319 -0.27409270086427839 0 0.24876410043125799 -0.28848256383269483 0 0.27687370214629448 -0.25966731273822641 0 0.26618776110170472 -0.27977121305910968 0 0.2523709705495234 -0.25823779876646508 0 0.26618776110170472 -0.27977121305910968 0 0.2523709705495234 -0.25823779876646508 0 0.2523709705495234 -0.25823779876646508 0 0.23558234788510701 -0.25381068229430048 0 0.24307935023810481 -0.2437568446794727 0 0.2523709705495234 -0.25823779876646508 0 0.2419518405017449 -0.26381674448315229 0 0.23558234788510701 -0.25381068229430048 0 0.2523709705495234 -0.25823779876646508 0 0.2419518405017449 -0.26381674448315229 0 0.24582366204542319 -0.27409270086427839 0 0.2523709705495234 -0.25823779876646508 0 0.24307935023810481 -0.2437568446794727 0 0.2419518405017449 -0.26381674448315229 0 0.23558234788510701 -0.25381068229430048 0 0.2340303815269259 -0.26912579600756542 0 0.2419518405017449 -0.26381674448315229 0 0.24582366204542319 -0.27409270086427839 0 0.2340303815269259 -0.26912579600756542 0 0.24582366204542319 -0.27409270086427839 0 0.2340303815269259 -0.26912579600756542 0 0.23766653691400369 -0.28204277756918411 0 0.218273341973372 -0.25517285907203202 0 0.22557977469607379 -0.28293142635204571 0 0.2340303815269259 -0.26912579600756542 0 0.218273341973372 -0.25517285907203202 0 0.22557977469607379 -0.28293142635204571 0 0.218273341973372 -0.25517285907203202 0 0.21496703867571329 -0.27904911333507409 0 0.22557977469607379 -0.28293142635204571 0 0.2340303815269259 -0.26912579600756542 0 0.22557977469607379 -0.28293142635204571 0 0.23766653691400369 -0.28204277756918411 0 0.23558234788510701 -0.25381068229430048 0 0.2340303815269259 -0.26912579600756542 0 0.218273341973372 -0.25517285907203202 0 0.23558234788510701 -0.25381068229430048 0 0.218273341973372 -0.25517285907203202 0 0.23143756797573109 -0.24427932738881311 0 0.218273341973372 -0.25517285907203202 0 0.21496703867571329 -0.27904911333507409 0 0.2022357946460244 -0.25456760560034031 0 0.21496703867571329 -0.27904911333507409 0 0.2006607069041916 -0.27017228869718118 0 0.2022357946460244 -0.25456760560034031 0 0.21496703867571329 -0.27904911333507409 0 0.2022357946460244 -0.25456760560034031 0 0.21496703867571329 -0.27904911333507409 0 0.2006607069041916 -0.27017228869718118 0 0.20146608456683021 -0.28242286048186049 0 0.2006607069041916 -0.27017228869718118 0 0.18968616143097389 -0.27342787035549831 0 0.20146608456683021 -0.28242286048186049 0 0.2006607069041916 -0.27017228869718118 0 0.18968616143097389 -0.27342787035549831 0 0.1931582269510341 -0.26340733509537689 0 0.18968616143097389 -0.27342787035549831 0 0.1931582269510341 -0.26340733509537689 0 0.18147988936778001 -0.25733079299806932 0 0.2022357946460244 -0.25456760560034031 0 0.18147988936778001 -0.25733079299806932 0 0.18027894216974 -0.24217292490884049 0 0.1931582269510341 -0.26340733509537689 0 0.2022357946460244 -0.25456760560034031 0 0.18147988936778001 -0.25733079299806932 0 0.2006607069041916 -0.27017228869718118 0 0.1931582269510341 -0.26340733509537689 0 0.2022357946460244 -0.25456760560034031 0 0.19300506127275899 -0.30630523734978482 0 0.2088539478092413 -0.31294471760363218 0 0.19300506127275899 -0.30630523734978482 0 0.2023835108264018 -0.29385648467552111 0 0.20902681882164531 -0.30195490785687401 0 0.19300506127275899 -0.30630523734978482 0 0.2088539478092413 -0.31294471760363218 0 0.18353772004955829 -0.31531990439534252 0 0.19300506127275899 -0.30630523734978482 0 0.18873792259390029 -0.28864334365380823 0 0.2023835108264018 -0.29385648467552111 0 0.18968616143097389 -0.27342787035549831 0 0.18873792259390029 -0.28864334365380823 0 0.20146608456683021 -0.28242286048186049 0 0.18873792259390029 -0.28864334365380823 0 0.20146608456683021 -0.28242286048186049 0 0.2023835108264018 -0.29385648467552111 0 0.2023835108264018 -0.29385648467552111 0 0.21236116696980051 -0.28938806217408047 0 0.20902681882164531 -0.30195490785687401 0 0.20146608456683021 -0.28242286048186049 0 0.2023835108264018 -0.29385648467552111 0 0.21236116696980051 -0.28938806217408047 0 0.21496703867571329 -0.27904911333507409 0 0.20146608456683021 -0.28242286048186049 0 0.21236116696980051 -0.28938806217408047 0 0.21496703867571329 -0.27904911333507409 0 0.21236116696980051 -0.28938806217408047 0 0.22557977469607379 -0.28293142635204571 0 0.21236116696980051 -0.28938806217408047 0 0.21858124271487281 -0.29764014639473191 0 0.20902681882164531 -0.30195490785687401 0 0.21858124271487281 -0.29764014639473191 0 0.20902681882164531 -0.30195490785687401 0 0.21607164792898009 -0.3075619883694925 0 0.19300506127275899 -0.30630523734978482 0 0.20902681882164531 -0.30195490785687401 0 0.2088539478092413 -0.31294471760363218 0 0.20902681882164531 -0.30195490785687401 0 0.21607164792898009 -0.3075619883694925 0 0.2088539478092413 -0.31294471760363218 0 0.22375910040173361 -0.3016622432960907 0 0.232886207418775 -0.31068999363205968 0 0.22557977469607379 -0.28293142635204571 0 0.21607164792898009 -0.3075619883694925 0 0.22375910040173361 -0.3016622432960907 0 0.232886207418775 -0.31068999363205968 0 0.232886207418775 -0.31068999363205968 0 0.2088539478092413 -0.31294471760363218 0 0.21607164792898009 -0.3075619883694925 0 0.232886207418775 -0.31068999363205968 0 0.2088539478092413 -0.31294471760363218 0 0.21858124271487281 -0.29764014639473191 0 0.21607164792898009 -0.3075619883694925 0 0.22375910040173361 -0.3016622432960907 0 0.232886207418775 -0.31068999363205968 0 0.22557977469607379 -0.28293142635204571 0 0.21858124271487281 -0.29764014639473191 0 0.22375910040173361 -0.3016622432960907 0 0.22557977469607379 -0.28293142635204571 0 0.232886207418775 -0.31068999363205968 0 0.22557977469607379 -0.28293142635204571 0 0.2366616552890756 -0.29485538445667558 0 0.21236116696980051 -0.28938806217408047 0 0.21858124271487281 -0.29764014639473191 0 0.22557977469607379 -0.28293142635204571 0 0.22557977469607379 -0.28293142635204571 0 0.23766653691400369 -0.28204277756918411 0 0.2366616552890756 -0.29485538445667558 0 0.23766653691400369 -0.28204277756918411 0 0.2366616552890756 -0.29485538445667558 0 0.24876410043125799 -0.28848256383269483 0 0.2366616552890756 -0.29485538445667558 0 0.24876410043125799 -0.28848256383269483 0 0.24697325018228419 -0.30044565935334588 0 0.24582366204542319 -0.27409270086427839 0 0.23766653691400369 -0.28204277756918411 0 0.24876410043125799 -0.28848256383269483 0 0.232886207418775 -0.31068999363205968 0 0.2366616552890756 -0.29485538445667558 0 0.23995940849224581 -0.30392561287639352 0 0.232886207418775 -0.31068999363205968 0 0.23995940849224581 -0.30392561287639352 0 0.24331652107884821 -0.30971141406349312 0 0.232886207418775 -0.31068999363205968 0 0.24331652107884821 -0.30971141406349312 0 0.23436054093049569 -0.31629127506877258 0 0.232886207418775 -0.31068999363205968 0 0.24331652107884821 -0.30971141406349312 0 0.2366616552890756 -0.29485538445667558 0 0.23995940849224581 -0.30392561287639352 0 0.24697325018228419 -0.30044565935334588 0 0.25130522776372533 -0.31145250954397302 0 0.24697325018228419 -0.30044565935334588 0 0.24331652107884821 -0.30971141406349312 0 0.23995940849224581 -0.30392561287639352 0 0.24697325018228419 -0.30044565935334588 0 0.24331652107884821 -0.30971141406349312 0 0.25116877706030122 -0.3271479094322729 0 0.25130522776372533 -0.31145250954397302 0 0.2437228569606569 -0.31871824992226228 0 0.25130522776372533 -0.31145250954397302 0 0.24331652107884821 -0.30971141406349312 0 0.2437228569606569 -0.31871824992226228 0 0.24331652107884821 -0.30971141406349312 0 0.2437228569606569 -0.31871824992226228 0 0.23436054093049569 -0.31629127506877258 0 0.2437228569606569 -0.31871824992226228 0 0.23691902159889819 -0.32604902161377591 0 0.23436054093049569 -0.31629127506877258 0 0.25116877706030122 -0.3271479094322729 0 0.2437228569606569 -0.31871824992226228 0 0.23691902159889819 -0.32604902161377591 0 0.25057261679667991 -0.34287007330936031 0 0.25116877706030122 -0.3271479094322729 0 0.2405266443689576 -0.33877820547510318 0 0.25116877706030122 -0.3271479094322729 0 0.23691902159889819 -0.32604902161377591 0 0.2405266443689576 -0.33877820547510318 0 0.25057261679667991 -0.34287007330936031 0 0.2405266443689576 -0.33877820547510318 0 0.24418923827115979 -0.34582001549263991 0 0.2405266443689576 -0.33877820547510318 0 0.2297848888941578 -0.34129537650356462 0 0.23795717632822189 -0.3496591545175099 0 0.23691902159889819 -0.32604902161377591 0 0.2405266443689576 -0.33877820547510318 0 0.22849955780080269 -0.33160528567514552 0 0.2297848888941578 -0.34129537650356462 0 0.21997863326846021 -0.33381909085995848 0 0.2215008054188215 -0.34987942928446719 0 0.2405266443689576 -0.33877820547510318 0 0.22849955780080269 -0.33160528567514552 0 0.2297848888941578 -0.34129537650356462 0 0.21997863326846021 -0.33381909085995848 0 0.22285267253317331 -0.32635139219613452 0 0.2177987107550991 -0.32539243834723369 0 0.22849955780080269 -0.33160528567514552 0 0.21997863326846021 -0.33381909085995848 0 0.22285267253317331 -0.32635139219613452 0 0.22849955780080269 -0.33160528567514552 0 0.2297848888941578 -0.34129537650356462 0 0.21997863326846021 -0.33381909085995848 0 0.22285267253317331 -0.32635139219613452 0 0.22193261781604851 -0.32184020434427307 0 0.2177987107550991 -0.32539243834723369 0 0.232886207418775 -0.31068999363205968 0 0.2088539478092413 -0.31294471760363218 0 0.21598964870272469 -0.31513843505384059 0 0.22849955780080269 -0.33160528567514552 0 0.22285267253317331 -0.32635139219613452 0 0.2282016720748653 -0.32115133000459528 0 0.232886207418775 -0.31068999363205968 0 0.2221817699449401 -0.3162679189061901 0 0.21598964870272469 -0.31513843505384059 0 0.22285267253317331 -0.32635139219613452 0 0.22193261781604851 -0.32184020434427307 0 0.2282016720748653 -0.32115133000459528 0 0.22193261781604851 -0.32184020434427307 0 0.22314000311656251 -0.31824794117203048 0 0.2282016720748653 -0.32115133000459528 0 0.22193261781604851 -0.32184020434427307 0 0.21827627828256541 -0.31892425390038298 0 0.2177987107550991 -0.32539243834723369 0 0.2221817699449401 -0.3162679189061901 0 0.22314000311656251 -0.31824794117203048 0 0.21827627828256541 -0.31892425390038298 0 0.22193261781604851 -0.32184020434427307 0 0.22314000311656251 -0.31824794117203048 0 0.21827627828256541 -0.31892425390038298 0 0.2221817699449401 -0.3162679189061901 0 0.22314000311656251 -0.31824794117203048 0 0.22751396709424371 -0.31645908478821339 0 0.22314000311656251 -0.31824794117203048 0 0.22751396709424371 -0.31645908478821339 0 0.2282016720748653 -0.32115133000459528 0 0.22751396709424371 -0.31645908478821339 0 0.23436054093049569 -0.31629127506877258 0 0.2282016720748653 -0.32115133000459528 0 0.232886207418775 -0.31068999363205968 0 0.2221817699449401 -0.3162679189061901 0 0.22751396709424371 -0.31645908478821339 0 0.232886207418775 -0.31068999363205968 0 0.22751396709424371 -0.31645908478821339 0 0.23436054093049569 -0.31629127506877258 0 0.232886207418775 -0.31068999363205968 0 0.23436054093049569 -0.31629127506877258 0 0.23691902159889819 -0.32604902161377591 0 0.23436054093049569 -0.31629127506877258 0 0.2282016720748653 -0.32115133000459528 0 0.23691902159889819 -0.32604902161377591 0 0.22849955780080269 -0.33160528567514552 0 0.2282016720748653 -0.32115133000459528 0 0.24531649048950799 -0.36251867789706471 0 0.24366761467697221 -0.37633386083059811 0 0.2306091243220203 -0.37861433324240312 0 0.24531649048950799 -0.36251867789706471 0 0.2306091243220203 -0.37861433324240312 0 0.24531649048950799 -0.36251867789706471 0 0.23207399292040651 -0.36615614120075662 0 0.2306091243220203 -0.37861433324240312 0 0.25293207340178592 -0.37701931855389009 0 0.24531649048950799 -0.36251867789706471 0 0.24366761467697221 -0.37633386083059811 0 0.24531649048950799 -0.36251867789706471 0 0.23795717632822189 -0.3496591545175099 0 0.2215008054188215 -0.34987942928446719 0 0.24531649048950799 -0.36251867789706471 0 0.24569152337028169 -0.35501618499511511 0 0.23795717632822189 -0.3496591545175099 0 0.24832849232461249 -0.35176763795018517 0 0.24569152337028169 -0.35501618499511511 0 0.23795717632822189 -0.3496591545175099 0 0.25116393433878559 -0.35611926961569929 0 0.24531649048950799 -0.36251867789706471 0 0.24569152337028169 -0.35501618499511511 0 0.25116393433878559 -0.35611926961569929 0 0.24531649048950799 -0.36251867789706471 0 0.25116393433878559 -0.35611926961569929 0 0.24832849232461249 -0.35176763795018517 0 0.25116393433878559 -0.35611926961569929 0 0.24832849232461249 -0.35176763795018517 0 0.24569152337028169 -0.35501618499511511 0 0.25057261679667991 -0.34287007330936031 0 0.24832849232461249 -0.35176763795018517 0 0.24418923827115979 -0.34582001549263991 0 0.24832849232461249 -0.35176763795018517 0 0.24418923827115979 -0.34582001549263991 0 0.23795717632822189 -0.3496591545175099 0 0.2405266443689576 -0.33877820547510318 0 0.24418923827115979 -0.34582001549263991 0 0.23795717632822189 -0.3496591545175099 0 0.2215008054188215 -0.34987942928446719 0 0.23207399292040651 -0.36615614120075662 0 0.21898192043851991 -0.36201971442175968 0 0.24531649048950799 -0.36251867789706471 0 0.2215008054188215 -0.34987942928446719 0 0.2297848888941578 -0.34129537650356462 0 0.23795717632822189 -0.3496591545175099 0 0.2215008054188215 -0.34987942928446719 0 0.23207399292040651 -0.36615614120075662 0 0.20738937124330431 -0.37382881450900513 0 0.21880805423363289 -0.38084781776899929 0 0.23207399292040651 -0.36615614120075662 0 0.21898192043851991 -0.36201971442175968 0 0.20738937124330431 -0.37382881450900513 0 0.24531649048950799 -0.36251867789706471 0 0.2215008054188215 -0.34987942928446719 0 0.23207399292040651 -0.36615614120075662 0 0.23207399292040651 -0.36615614120075662 0 0.20738937124330431 -0.37382881450900513 0 0.20738937124330431 -0.37382881450900513 0 0.21140955404427311 -0.35881359853680339 0 0.19824995833596279 -0.34949167837027512 0 0.21898192043851991 -0.36201971442175968 0 0.20738937124330431 -0.37382881450900513 0 0.21140955404427311 -0.35881359853680339 0 0.2215008054188215 -0.34987942928446719 0 0.19824995833596279 -0.34949167837027512 0 0.19768512034813551 -0.33724018067186912 0 0.2215008054188215 -0.34987942928446719 0 0.21140955404427311 -0.35881359853680339 0 0.19824995833596279 -0.34949167837027512 0 0.2215008054188215 -0.34987942928446719 0 0.21898192043851991 -0.36201971442175968 0 0.21140955404427311 -0.35881359853680339 0 0.19656622803863549 -0.3472792767950113 0 0.18648043614150811 -0.36322597471872342 0 0.18125068498021979 -0.34670805687674339 0 0.20738937124330431 -0.37382881450900513 0 0.19824995833596279 -0.34949167837027512 0 0.19656622803863549 -0.3472792767950113 0 0.19824995833596279 -0.34949167837027512 0 0.19656622803863549 -0.3472792767950113 0 0.19768512034813551 -0.33724018067186912 0 0.19824995833596279 -0.34949167837027512 0 0.19656622803863549 -0.3472792767950113 0 0.20738937124330431 -0.37382881450900513 0 0.19656622803863549 -0.3472792767950113 0 0.20738937124330431 -0.37382881450900513 0 0.18648043614150811 -0.36322597471872342 0 0.18230324672889309 -0.38162628616917099 0 0.20738937124330431 -0.37382881450900513 0 0.19656622803863549 -0.3472792767950113 0 0.18648043614150811 -0.36322597471872342 0 0.20828394772961109 -0.32248258614476089 0 0.20790414866969631 -0.33214043129589699 0 0.19848521679036721 -0.32389088336043281 0 0.20828394772961109 -0.32248258614476089 0 0.2124239196674029 -0.32783033664222949 0 0.20790414866969631 -0.33214043129589699 0 0.20828394772961109 -0.32248258614476089 0 0.2088539478092413 -0.31294471760363218 0 0.19848521679036721 -0.32389088336043281 0 0.20828394772961109 -0.32248258614476089 0 0.2088539478092413 -0.31294471760363218 0 0.21197359476614491 -0.31730767045911429 0 0.21197359476614491 -0.31730767045911429 0 0.2152845150547695 -0.31814780489061351 0 0.21407634576941101 -0.32149874160710018 0 0.21197359476614491 -0.31730767045911429 0 0.21598964870272469 -0.31513843505384059 0 0.2152845150547695 -0.31814780489061351 0 0.2088539478092413 -0.31294471760363218 0 0.21197359476614491 -0.31730767045911429 0 0.21598964870272469 -0.31513843505384059 0 0.21827627828256541 -0.31892425390038298 0 0.2152845150547695 -0.31814780489061351 0 0.21407634576941101 -0.32149874160710018 0 0.2221817699449401 -0.3162679189061901 0 0.21827627828256541 -0.31892425390038298 0 0.2152845150547695 -0.31814780489061351 0 0.2221817699449401 -0.3162679189061901 0 0.21598964870272469 -0.31513843505384059 0 0.2152845150547695 -0.31814780489061351 0 0.21827627828256541 -0.31892425390038298 0 0.21407634576941101 -0.32149874160710018 0 0.2177987107550991 -0.32539243834723369 0 0.20828394772961109 -0.32248258614476089 0 0.21407634576941101 -0.32149874160710018 0 0.2124239196674029 -0.32783033664222949 0 0.20828394772961109 -0.32248258614476089 0 0.21197359476614491 -0.31730767045911429 0 0.21407634576941101 -0.32149874160710018 0 0.21407634576941101 -0.32149874160710018 0 0.2124239196674029 -0.32783033664222949 0 0.2177987107550991 -0.32539243834723369 0 0.21997863326846021 -0.33381909085995848 0 0.2124239196674029 -0.32783033664222949 0 0.20790414866969631 -0.33214043129589699 0 0.21997863326846021 -0.33381909085995848 0 0.2215008054188215 -0.34987942928446719 0 0.20790414866969631 -0.33214043129589699 0 0.2215008054188215 -0.34987942928446719 0 0.20790414866969631 -0.33214043129589699 0 0.19768512034813551 -0.33724018067186912 0 0.21997863326846021 -0.33381909085995848 0 0.2124239196674029 -0.32783033664222949 0 0.2177987107550991 -0.32539243834723369 0 0.2215008054188215 -0.34987942928446719 0 0.19768512034813551 -0.33724018067186912 0 0.19656622803863549 -0.3472792767950113 0 0.19005197404409629 -0.33129959059517711 0 0.20790414866969631 -0.33214043129589699 0 0.19809009064677491 -0.33072651069813441 0 0.19848521679036721 -0.32389088336043281 0 0.19656622803863549 -0.3472792767950113 0 0.19768512034813551 -0.33724018067186912 0 0.19005197404409629 -0.33129959059517711 0 0.20790414866969631 -0.33214043129589699 0 0.19809009064677491 -0.33072651069813441 0 0.19768512034813551 -0.33724018067186912 0 0.19809009064677491 -0.33072651069813441 0 0.19005197404409629 -0.33129959059517711 0 0.19848521679036721 -0.32389088336043281 0 0.19656622803863549 -0.3472792767950113 0 0.19005197404409629 -0.33129959059517711 0 0.1847813479173839 -0.33179408454897708 0 0.19656622803863549 -0.3472792767950113 0 0.1847813479173839 -0.33179408454897708 0 0.19656622803863549 -0.3472792767950113 0 0.1847813479173839 -0.33179408454897708 0 0.18125068498021979 -0.34670805687674339 0 0.19809009064677491 -0.33072651069813441 0 0.19768512034813551 -0.33724018067186912 0 0.19005197404409629 -0.33129959059517711 0 0.19005197404409629 -0.33129959059517711 0 0.19848521679036721 -0.32389088336043281 0 0.18353772004955829 -0.31531990439534252 0 0.2088539478092413 -0.31294471760363218 0 0.19848521679036721 -0.32389088336043281 0 0.18353772004955829 -0.31531990439534252 0 0.2088539478092413 -0.31294471760363218 0 0.18353772004955829 -0.31531990439534252 0 0.18353772004955829 -0.31531990439534252 0 0.1729964677961302 -0.31630889230294451 0 0.1847813479173839 -0.33179408454897708 0 0.19005197404409629 -0.33129959059517711 0 0.18353772004955829 -0.31531990439534252 0 0.19005197404409629 -0.33129959059517711 0 0.18353772004955829 -0.31531990439534252 0 0.1847813479173839 -0.33179408454897708 0 0.18353772004955829 -0.31531990439534252 0 0.1729964677961302 -0.31630889230294451 0 0.1729964677961302 -0.31630889230294451 0 0.1847813479173839 -0.33179408454897708 0 0.1729964677961302 -0.31630889230294451 0 0.1847813479173839 -0.33179408454897708 0 0.16669797751042209 -0.33635473538506988 0 0.1847813479173839 -0.33179408454897708 0 0.16669797751042209 -0.33635473538506988 0 0.18125068498021979 -0.34670805687674339 0 0.1729964677961302 -0.31630889230294451 0 0.14683602857027719 -0.31876328362476558 0 0.1729964677961302 -0.31630889230294451 0 0.16669797751042209 -0.33635473538506988 0 0.14683602857027719 -0.31876328362476558 0 0.1729964677961302 -0.31630889230294451 0 0.14683602857027719 -0.31876328362476558 0 0.16272584119646141 -0.30281341116552501 0 0.18648043614150811 -0.36322597471872342 0 0.16905467477888281 -0.35598973164685482 0 0.18230324672889309 -0.38162628616917099 0 0.18648043614150811 -0.36322597471872342 0 0.18125068498021979 -0.34670805687674339 0 0.16905467477888281 -0.35598973164685482 0 0.16669797751042209 -0.33635473538506988 0 0.18125068498021979 -0.34670805687674339 0 0.16905467477888281 -0.35598973164685482 0 0.16905467477888281 -0.35598973164685482 0 0.15573382211082679 -0.3700859874345932 0 0.14526866101963781 -0.34856436331013502 0 0.16669797751042209 -0.33635473538506988 0 0.16905467477888281 -0.35598973164685482 0 0.14526866101963781 -0.34856436331013502 0 0.16905467477888281 -0.35598973164685482 0 0.15573382211082679 -0.3700859874345932 0 0.18230324672889309 -0.38162628616917099 0 0.15573382211082679 -0.3700859874345932 0 0.14526866101963781 -0.34856436331013502 0 0.1363519112786114 -0.37078675524883892 0 0.14526866101963781 -0.34856436331013502 0 0.12899662648242349 -0.33125051097259189 0 0.1154867003427411 -0.35214975266833898 0 0.14526866101963781 -0.34856436331013502 0 0.1363519112786114 -0.37078675524883892 0 0.1154867003427411 -0.35214975266833898 0 0.1363519112786114 -0.37078675524883892 0 0.1154867003427411 -0.35214975266833898 0 0.16669797751042209 -0.33635473538506988 0 0.14526866101963781 -0.34856436331013502 0 0.14683602857027719 -0.31876328362476558 0 0.14526866101963781 -0.34856436331013502 0 0.14683602857027719 -0.31876328362476558 0 0.12899662648242349 -0.33125051097259189 0 0.12899662648242349 -0.33125051097259189 0 0.13394518629819571 -0.31260494653966597 0 0.119588314502794 -0.32068578667559777 0 0.13394518629819571 -0.31260494653966597 0 0.12514459874877851 -0.30456750113675202 0 0.119588314502794 -0.32068578667559777 0 0.14683602857027719 -0.31876328362476558 0 0.12899662648242349 -0.33125051097259189 0 0.13394518629819571 -0.31260494653966597 0 0.13394518629819571 -0.31260494653966597 0 0.12514459874877851 -0.30456750113675202 0 0.1356146398854399 -0.29822388258468518 0 0.12514459874877851 -0.30456750113675202 0 0.1356146398854399 -0.29822388258468518 0 0.12753624447643111 -0.29350165522481297 0 0.13394518629819571 -0.31260494653966597 0 0.1356146398854399 -0.29822388258468518 0 0.14749090959946121 -0.30213871424360378 0 0.14683602857027719 -0.31876328362476558 0 0.13394518629819571 -0.31260494653966597 0 0.14749090959946121 -0.30213871424360378 0 0.14683602857027719 -0.31876328362476558 0 0.14749090959946121 -0.30213871424360378 0 0.16272584119646141 -0.30281341116552501 0 0.14749090959946121 -0.30213871424360378 0 0.15245521459679201 -0.28931793002810602 0 0.16272584119646141 -0.30281341116552501 0 0.15245521459679201 -0.28931793002810602 0 0.13116614799826701 -0.28039942733213419 0 0.14496353895490591 -0.2794739573812981 0 0.15245521459679201 -0.28931793002810602 0 0.14051485300360969 -0.29018164637904442 0 0.13116614799826701 -0.28039942733213419 0 0.15245521459679201 -0.28931793002810602 0 0.13116614799826701 -0.28039942733213419 0 0.15245521459679201 -0.28931793002810602 0 0.14496353895490591 -0.2794739573812981 0 0.15245521459679201 -0.28931793002810602 0 0.14496353895490591 -0.2794739573812981 0 0.15639664327712849 -0.27854561180450171 0 0.14749090959946121 -0.30213871424360378 0 0.15245521459679201 -0.28931793002810602 0 0.14051485300360969 -0.29018164637904442 0 0.1356146398854399 -0.29822388258468518 0 0.14749090959946121 -0.30213871424360378 0 0.14051485300360969 -0.29018164637904442 0 0.13380115159404221 -0.28813350379703212 0 0.14051485300360969 -0.29018164637904442 0 0.13116614799826701 -0.28039942733213419 0 0.1356146398854399 -0.29822388258468518 0 0.13380115159404221 -0.28813350379703212 0 0.14051485300360969 -0.29018164637904442 0 0.1356146398854399 -0.29822388258468518 0 0.13380115159404221 -0.28813350379703212 0 0.12753624447643111 -0.29350165522481297 0 0.13380115159404221 -0.28813350379703212 0 0.12753624447643111 -0.29350165522481297 0 0.12777572948434041 -0.28735357189101268 0 0.12753624447643111 -0.29350165522481297 0 0.12777572948434041 -0.28735357189101268 0 0.1204360816977062 -0.28774093147965191 0 0.13380115159404221 -0.28813350379703212 0 0.13022694358003509 -0.28246231072359268 0 0.13116614799826701 -0.28039942733213419 0 0.13380115159404221 -0.28813350379703212 0 0.13022694358003509 -0.28246231072359268 0 0.12777572948434041 -0.28735357189101268 0 0.13022694358003509 -0.28246231072359268 0 0.12777572948434041 -0.28735357189101268 0 0.123381600489071 -0.2838437564780541 0 0.13116614799826701 -0.28039942733213419 0 0.12887962750231 -0.27350094219248799 0 0.1202149512865935 -0.26948121387768381 0 0.13022694358003509 -0.28246231072359268 0 0.13116614799826701 -0.28039942733213419 0 0.11508764719420241 -0.27781821181795929 0 0.13116614799826701 -0.28039942733213419 0 0.12887962750231 -0.27350094219248799 0 0.13471441290594949 -0.27450019389384628 0 0.12887962750231 -0.27350094219248799 0 0.12942299781842981 -0.26962293366628781 0 0.1202149512865935 -0.26948121387768381 0 0.12942299781842981 -0.26962293366628781 0 0.1257346404674814 -0.26108653168471269 0 0.1202149512865935 -0.26948121387768381 0 0.12942299781842981 -0.26962293366628781 0 0.13825798664373051 -0.26699025850782271 0 0.1257346404674814 -0.26108653168471269 0 0.12887962750231 -0.27350094219248799 0 0.12942299781842981 -0.26962293366628781 0 0.13471441290594949 -0.27450019389384628 0 0.12942299781842981 -0.26962293366628781 0 0.13825798664373051 -0.26699025850782271 0 0.13471441290594949 -0.27450019389384628 0 0.13116614799826701 -0.28039942733213419 0 0.13471441290594949 -0.27450019389384628 0 0.14496353895490591 -0.2794739573812981 0 0.13825798664373051 -0.26699025850782271 0 0.13471441290594949 -0.27450019389384628 0 0.14496353895490591 -0.2794739573812981 0 0.1257346404674814 -0.26108653168471269 0 0.1187483127605843 -0.24257476342338349 0 0.13548853778208611 -0.2489901437217141 0 0.13825798664373051 -0.26699025850782271 0 0.1257346404674814 -0.26108653168471269 0 0.13548853778208611 -0.2489901437217141 0 0.13825798664373051 -0.26699025850782271 0 0.15299948200235519 -0.25853720833406968 0 0.13548853778208611 -0.2489901437217141 0 0.13825798664373051 -0.26699025850782271 0 0.15299948200235519 -0.25853720833406968 0 0.15081395494037231 -0.27049410634810728 0 0.13825798664373051 -0.26699025850782271 0 0.14496353895490591 -0.2794739573812981 0 0.15081395494037231 -0.27049410634810728 0 0.14496353895490591 -0.2794739573812981 0 0.15081395494037231 -0.27049410634810728 0 0.15639664327712849 -0.27854561180450171 0 0.15081395494037231 -0.27049410634810728 0 0.15639664327712849 -0.27854561180450171 0 0.16597108521972001 -0.27222835279123242 0 0.15299948200235519 -0.25853720833406968 0 0.15081395494037231 -0.27049410634810728 0 0.16597108521972001 -0.27222835279123242 0 0.16597108521972001 -0.27222835279123242 0 0.18147988936778001 -0.25733079299806932 0 0.16560790381563639 -0.24534065419496881 0 0.15299948200235519 -0.25853720833406968 0 0.16597108521972001 -0.27222835279123242 0 0.16560790381563639 -0.24534065419496881 0 0.18968616143097389 -0.27342787035549831 0 0.18873792259390029 -0.28864334365380823 0 0.16597108521972001 -0.27222835279123242 0 0.18968616143097389 -0.27342787035549831 0 0.16597108521972001 -0.27222835279123242 0 0.18147988936778001 -0.25733079299806932 0 0.18873792259390029 -0.28864334365380823 0 0.16597108521972001 -0.27222835279123242 0 0.17715617473627751 -0.29966575709593579 0 0.19300506127275899 -0.30630523734978482 0 0.18873792259390029 -0.28864334365380823 0 0.17715617473627751 -0.29966575709593579 0 0.19300506127275899 -0.30630523734978482 0 0.18353772004955829 -0.31531990439534252 0 0.17715617473627751 -0.29966575709593579 0 0.18353772004955829 -0.31531990439534252 0 0.1729964677961302 -0.31630889230294451 0 0.17715617473627751 -0.29966575709593579 0 0.18353772004955829 -0.31531990439534252 0 0.17715617473627751 -0.29966575709593579 0 0.19300506127275899 -0.30630523734978482 0 0.17715617473627751 -0.29966575709593579 0 0.15245521459679201 -0.28931793002810602 0 0.17715617473627751 -0.29966575709593579 0 0.16272584119646141 -0.30281341116552501 0 0.1729964677961302 -0.31630889230294451 0 0.17715617473627751 -0.29966575709593579 0 0.16272584119646141 -0.30281341116552501 0 0.1729964677961302 -0.31630889230294451 0 0.16272584119646141 -0.30281341116552501 0 0.15245521459679201 -0.28931793002810602 0 0.17715617473627751 -0.29966575709593579 0 0.15245521459679201 -0.28931793002810602 0 0.15639664327712849 -0.27854561180450171 0 0.17715617473627751 -0.29966575709593579 0 0.15639664327712849 -0.27854561180450171 0 0.16597108521972001 -0.27222835279123242 0 0.17715617473627751 -0.29966575709593579 0 0.15245521459679201 -0.28931793002810602 0 0.16272584119646141 -0.30281341116552501 0 0.16597108521972001 -0.27222835279123242 0 0.17715617473627751 -0.29966575709593579 0 0.19326204876453379 -0.48282610563596651 0 0.20695137961414839 -0.5 0 0.17761766026507289 -0.5 0 0.19326204876453379 -0.48282610563596651 0 0.21712458869651999 -0.47327135264059922 0 0.19423679141879341 -0.4617936794904321 0 0.19326204876453379 -0.48282610563596651 0 0.19423679141879341 -0.4617936794904321 0 0.17507196218776541 -0.46858410768456588 0 0.19326204876453379 -0.48282610563596651 0 0.21712458869651999 -0.47327135264059922 0 0.20695137961414839 -0.5 0 0.21712458869651999 -0.47327135264059922 0 0.20695137961414839 -0.5 0 0.23628509896322389 -0.49999999999999872 0 0.23628509896322389 -0.49999999999999872 0 0.242623406397626 -0.47688183043135629 0 0.26040019922894397 -0.5 0 0.23628509896322389 -0.49999999999999872 0 0.242623406397626 -0.47688183043135629 0 0.21712458869651999 -0.47327135264059922 0 0.242623406397626 -0.47688183043135629 0 0.23412271467973231 -0.46212322468755901 0 0.21712458869651999 -0.47327135264059922 0 0.23628509896322389 -0.49999999999999872 0 0.242623406397626 -0.47688183043135629 0 0.21712458869651999 -0.47327135264059922 0 0.23412271467973231 -0.46212322468755901 0 0.22360802465144081 -0.44872473608650959 0 0.242623406397626 -0.47688183043135629 0 0.23412271467973231 -0.46212322468755901 0 0.2489617138320285 -0.45376366086271391 0 0.242623406397626 -0.47688183043135629 0 0.2489617138320285 -0.45376366086271391 0 0.25530002126643092 -0.43064549129407159 0 0.2489617138320285 -0.45376366086271391 0 0.23774899672678809 -0.4381652308744397 0 0.23412271467973231 -0.46212322468755901 0 0.2489617138320285 -0.45376366086271391 0 0.23774899672678809 -0.4381652308744397 0 0.23412271467973231 -0.46212322468755901 0 0.23774899672678809 -0.4381652308744397 0 0.22360802465144081 -0.44872473608650959 0 0.22360802465144081 -0.44872473608650959 0 0.20734723507158839 -0.45184231126614682 0 0.2078985435896957 -0.43469287990322358 0 0.22360802465144081 -0.44872473608650959 0 0.2078985435896957 -0.43469287990322358 0 0.21712458869651999 -0.47327135264059922 0 0.22360802465144081 -0.44872473608650959 0 0.20734723507158839 -0.45184231126614682 0 0.21712458869651999 -0.47327135264059922 0 0.20734723507158839 -0.45184231126614682 0 0.19423679141879341 -0.4617936794904321 0 0.20734723507158839 -0.45184231126614682 0 0.19423679141879341 -0.4617936794904321 0 0.19386822700149231 -0.44072890820996979 0 0.20734723507158839 -0.45184231126614682 0 0.19386822700149231 -0.44072890820996979 0 0.2078985435896957 -0.43469287990322358 0 0.19386822700149231 -0.44072890820996979 0 0.19218906252795051 -0.42066102371993752 0 0.2078985435896957 -0.43469287990322358 0 0.19218906252795051 -0.42066102371993752 0 0.2078985435896957 -0.43469287990322358 0 0.19218906252795051 -0.42066102371993752 0 0.20972302883136101 -0.41848020573836742 0 0.20404541034124299 -0.4076855061538408 0 0.19218906252795051 -0.42066102371993752 0 0.20404541034124299 -0.4076855061538408 0 0.1900924277278927 -0.40263954844391481 0 0.19218906252795051 -0.42066102371993752 0 0.20404541034124299 -0.4076855061538408 0 0.20972302883136101 -0.41848020573836742 0 0.20404541034124299 -0.4076855061538408 0 0.22021525135138861 -0.40529113383762411 0 0.20972302883136101 -0.41848020573836742 0 0.2242668763465272 -0.42407048507721101 0 0.22021525135138861 -0.40529113383762411 0 0.19218906252795051 -0.42066102371993752 0 0.20972302883136101 -0.41848020573836742 0 0.2078985435896957 -0.43469287990322358 0 0.22360802465144081 -0.44872473608650959 0 0.2078985435896957 -0.43469287990322358 0 0.2242668763465272 -0.42407048507721101 0 0.20972302883136101 -0.41848020573836742 0 0.2078985435896957 -0.43469287990322358 0 0.2242668763465272 -0.42407048507721101 0 0.23774899672678809 -0.4381652308744397 0 0.2242668763465272 -0.42407048507721101 0 0.24098336482418159 -0.41943738479588383 0 0.23774899672678809 -0.4381652308744397 0 0.22360802465144081 -0.44872473608650959 0 0.2242668763465272 -0.42407048507721101 0 0.25530002126643092 -0.43064549129407159 0 0.23774899672678809 -0.4381652308744397 0 0.24098336482418159 -0.41943738479588383 0 0.25175158139876452 -0.4129460935534579 0 0.25530002126643092 -0.43064549129407159 0 0.24098336482418159 -0.41943738479588383 0 0.25175158139876452 -0.4129460935534579 0 0.24098336482418159 -0.41943738479588383 0 0.24455711249550149 -0.40593938102129001 0 0.24098336482418159 -0.41943738479588383 0 0.2326825362002061 -0.40845731636646038 0 0.24455711249550149 -0.40593938102129001 0 0.2242668763465272 -0.42407048507721101 0 0.2326825362002061 -0.40845731636646038 0 0.22021525135138861 -0.40529113383762411 0 0.2242668763465272 -0.42407048507721101 0 0.24098336482418159 -0.41943738479588383 0 0.2326825362002061 -0.40845731636646038 0 0.22021525135138861 -0.40529113383762411 0 0.22731408587819399 -0.39922329998964151 0 0.2159017581545353 -0.39470998858774398 0 0.23031809781928481 -0.3910140436688922 0 0.22731408587819399 -0.39922329998964151 0 0.2159017581545353 -0.39470998858774398 0 0.23031809781928481 -0.3910140436688922 0 0.22731408587819399 -0.39922329998964151 0 0.2374527858655559 -0.39664401748748712 0 0.2326825362002061 -0.40845731636646038 0 0.22021525135138861 -0.40529113383762411 0 0.22731408587819399 -0.39922329998964151 0 0.2326825362002061 -0.40845731636646038 0 0.22731408587819399 -0.39922329998964151 0 0.2374527858655559 -0.39664401748748712 0 0.2326825362002061 -0.40845731636646038 0 0.2374527858655559 -0.39664401748748712 0 0.24455711249550149 -0.40593938102129001 0 0.2374527858655559 -0.39664401748748712 0 0.24824630966125499 -0.39571575356211769 0 0.23933809370746309 -0.38617682881273718 0 0.23031809781928481 -0.3910140436688922 0 0.2374527858655559 -0.39664401748748712 0 0.23933809370746309 -0.38617682881273718 0 0.25580367433597051 -0.40257277027760202 0 0.24824630966125499 -0.39571575356211769 0 0.24455711249550149 -0.40593938102129001 0 0.2374527858655559 -0.39664401748748712 0 0.24824630966125499 -0.39571575356211769 0 0.24455711249550149 -0.40593938102129001 0 0.25055905470918488 -0.38570538598090348 0 0.24366761467697221 -0.37633386083059811 0 0.23933809370746309 -0.38617682881273718 0 0.25055905470918488 -0.38570538598090348 0 0.25293207340178592 -0.37701931855389009 0 0.24366761467697221 -0.37633386083059811 0 0.25055905470918488 -0.38570538598090348 0 0.24824630966125499 -0.39571575356211769 0 0.23933809370746309 -0.38617682881273718 0 0.24366761467697221 -0.37633386083059811 0 0.23933809370746309 -0.38617682881273718 0 0.2306091243220203 -0.37861433324240312 0 0.23207399292040651 -0.36615614120075662 0 0.2306091243220203 -0.37861433324240312 0 0.21880805423363289 -0.38084781776899929 0 0.2306091243220203 -0.37861433324240312 0 0.2159017581545353 -0.39470998858774398 0 0.23031809781928481 -0.3910140436688922 0 0.2306091243220203 -0.37861433324240312 0 0.2159017581545353 -0.39470998858774398 0 0.2306091243220203 -0.37861433324240312 0 0.21880805423363289 -0.38084781776899929 0 0.2159017581545353 -0.39470998858774398 0 0.23031809781928481 -0.3910140436688922 0 0.23933809370746309 -0.38617682881273718 0 0.2306091243220203 -0.37861433324240312 0 0.20738937124330431 -0.37382881450900513 0 0.2159017581545353 -0.39470998858774398 0 0.198627789676315 -0.39106555370685359 0 0.20738937124330431 -0.37382881450900513 0 0.2159017581545353 -0.39470998858774398 0 0.20738937124330431 -0.37382881450900513 0 0.21880805423363289 -0.38084781776899929 0 0.2159017581545353 -0.39470998858774398 0 0.20404541034124299 -0.4076855061538408 0 0.22021525135138861 -0.40529113383762411 0 0.2159017581545353 -0.39470998858774398 0 0.20404541034124299 -0.4076855061538408 0 0.2159017581545353 -0.39470998858774398 0 0.198627789676315 -0.39106555370685359 0 0.22021525135138861 -0.40529113383762411 0 0.2159017581545353 -0.39470998858774398 0 0.20404541034124299 -0.4076855061538408 0 0.2159017581545353 -0.39470998858774398 0 0.20404541034124299 -0.4076855061538408 0 0.198627789676315 -0.39106555370685359 0 0.1900924277278927 -0.40263954844391481 0 0.198627789676315 -0.39106555370685359 0 0.1900924277278927 -0.40263954844391481 0 0.18230324672889309 -0.38162628616917099 0 0.20738937124330431 -0.37382881450900513 0 0.198627789676315 -0.39106555370685359 0 0.18230324672889309 -0.38162628616917099 0 0.20738937124330431 -0.37382881450900513 0 0.18230324672889309 -0.38162628616917099 0 0.1900924277278927 -0.40263954844391481 0 0.18230324672889309 -0.38162628616917099 0 0.17470309237121609 -0.40504239077463822 0 0.18230324672889309 -0.38162628616917099 0 0.17470309237121609 -0.40504239077463822 0 0.1572171222144822 -0.38942375782933819 0 0.17470309237121609 -0.40504239077463822 0 0.15684982400856509 -0.39957370591924102 0 0.1572171222144822 -0.38942375782933819 0 0.17470309237121609 -0.40504239077463822 0 0.15684982400856509 -0.39957370591924102 0 0.15282982616562979 -0.40949437021021701 0 0.17470309237121609 -0.40504239077463822 0 0.1572171222144822 -0.38942375782933819 0 0.18230324672889309 -0.38162628616917099 0 0.1572171222144822 -0.38942375782933819 0 0.15573382211082679 -0.3700859874345932 0 0.18230324672889309 -0.38162628616917099 0 0.1572171222144822 -0.38942375782933819 0 0.1363519112786114 -0.37078675524883892 0 0.1572171222144822 -0.38942375782933819 0 0.1363519112786114 -0.37078675524883892 0 0.13514724129501071 -0.39135552778104188 0 0.15079337294074671 -0.39142043941660981 0 0.15573382211082679 -0.3700859874345932 0 0.1363519112786114 -0.37078675524883892 0 0.1572171222144822 -0.38942375782933819 0 0.1363519112786114 -0.37078675524883892 0 0.1572171222144822 -0.38942375782933819 0 0.15079337294074671 -0.39142043941660981 0 0.1572171222144822 -0.38942375782933819 0 0.15079337294074671 -0.39142043941660981 0 0.1363519112786114 -0.37078675524883892 0 0.13514724129501071 -0.39135552778104188 0 0.1193359304157096 -0.38755472265807511 0 0.13514724129501071 -0.39135552778104188 0 0.1238650235983335 -0.40183420303178591 0 0.1193359304157096 -0.38755472265807511 0 0.13514724129501071 -0.39135552778104188 0 0.13624539588569901 -0.40617474381616092 0 0.1238650235983335 -0.40183420303178591 0 0.13514724129501071 -0.39135552778104188 0 0.13624539588569901 -0.40617474381616092 0 0.143988246152042 -0.39862506404925968 0 0.13624539588569901 -0.40617474381616092 0 0.143988246152042 -0.39862506404925968 0 0.15282982616562979 -0.40949437021021701 0 0.13514724129501071 -0.39135552778104188 0 0.143988246152042 -0.39862506404925968 0 0.15079337294074671 -0.39142043941660981 0 0.15684982400856509 -0.39957370591924102 0 0.143988246152042 -0.39862506404925968 0 0.15079337294074671 -0.39142043941660981 0 0.15684982400856509 -0.39957370591924102 0 0.1572171222144822 -0.38942375782933819 0 0.15079337294074671 -0.39142043941660981 0 0.15684982400856509 -0.39957370591924102 0 0.143988246152042 -0.39862506404925968 0 0.15282982616562979 -0.40949437021021701 0 0.13624539588569901 -0.40617474381616092 0 0.15282982616562979 -0.40949437021021701 0 0.14223345083834879 -0.42434746057250511 0 0.15282982616562979 -0.40949437021021701 0 0.14223345083834879 -0.42434746057250511 0 0.1651428041922704 -0.422935815036102 0 0.13624539588569901 -0.40617474381616092 0 0.12661891918342921 -0.41740421695718899 0 0.14223345083834879 -0.42434746057250511 0 0.13624539588569901 -0.40617474381616092 0 0.12661891918342921 -0.41740421695718899 0 0.1238650235983335 -0.40183420303178591 0 0.12661891918342921 -0.41740421695718899 0 0.14223345083834879 -0.42434746057250511 0 0.1228296266238602 -0.43259387335050647 0 0.14223345083834879 -0.42434746057250511 0 0.13794050951072409 -0.44350370602683942 0 0.1228296266238602 -0.43259387335050647 0 0.14223345083834879 -0.42434746057250511 0 0.1651428041922704 -0.422935815036102 0 0.15498313013336659 -0.43812649113893509 0 0.14223345083834879 -0.42434746057250511 0 0.15498313013336659 -0.43812649113893509 0 0.13794050951072409 -0.44350370602683942 0 0.1651428041922704 -0.422935815036102 0 0.17395142241921949 -0.44062019017840742 0 0.15498313013336659 -0.43812649113893509 0 0.17470309237121609 -0.40504239077463822 0 0.15282982616562979 -0.40949437021021701 0 0.1651428041922704 -0.422935815036102 0 0.19218906252795051 -0.42066102371993752 0 0.1900924277278927 -0.40263954844391481 0 0.17470309237121609 -0.40504239077463822 0 0.19218906252795051 -0.42066102371993752 0 0.17470309237121609 -0.40504239077463822 0 0.19218906252795051 -0.42066102371993752 0 0.17470309237121609 -0.40504239077463822 0 0.1651428041922704 -0.422935815036102 0 0.19218906252795051 -0.42066102371993752 0 0.1651428041922704 -0.422935815036102 0 0.17395142241921949 -0.44062019017840742 0 0.19386822700149231 -0.44072890820996979 0 0.19218906252795051 -0.42066102371993752 0 0.17395142241921949 -0.44062019017840742 0 0.19218906252795051 -0.42066102371993752 0 0.17395142241921949 -0.44062019017840742 0 0.19423679141879341 -0.4617936794904321 0 0.19386822700149231 -0.44072890820996979 0 0.17395142241921949 -0.44062019017840742 0 0.19423679141879341 -0.4617936794904321 0 0.17395142241921949 -0.44062019017840742 0 0.17507196218776541 -0.46858410768456588 0 0.17395142241921949 -0.44062019017840742 0 0.17507196218776541 -0.46858410768456588 0 0.15571378231048791 -0.46057935663687688 0 0.17395142241921949 -0.44062019017840742 0 0.15571378231048791 -0.46057935663687688 0 0.17395142241921949 -0.44062019017840742 0 0.15498313013336659 -0.43812649113893509 0 0.15571378231048791 -0.46057935663687688 0 0.15498313013336659 -0.43812649113893509 0 0.13794050951072409 -0.44350370602683942 0 0.15571378231048791 -0.46057935663687688 0 0.13794050951072409 -0.44350370602683942 0 0.13101425788141849 -0.46083214390676108 0 0.118324664217416 -0.4462885040211938 0 0.13794050951072409 -0.44350370602683942 0 0.118324664217416 -0.4462885040211938 0 0.1228296266238602 -0.43259387335050647 0 0.13101425788141849 -0.46083214390676108 0 0.15571378231048791 -0.46057935663687688 0 0.13747614220175641 -0.48053852309534639 0 0.13794050951072409 -0.44350370602683942 0 0.13101425788141849 -0.46083214390676108 0 0.15571378231048791 -0.46057935663687688 0 0.15571378231048791 -0.46057935663687688 0 0.13747614220175641 -0.48053852309534639 0 0.15883269757621599 -0.48194039748335787 0 0.15571378231048791 -0.46057935663687688 0 0.13747614220175641 -0.48053852309534639 0 0.13101425788141849 -0.46083214390676108 0 0.13747614220175641 -0.48053852309534639 0 0.12094209836323599 -0.47643555663316361 0 0.13747614220175641 -0.48053852309534639 0 0.14828394091599731 -0.5 0 0.1189502215669217 -0.5 0 0.13747614220175641 -0.48053852309534639 0 0.1189502215669217 -0.5 0 0.12094209836323599 -0.47643555663316361 0 0.13747614220175641 -0.48053852309534639 0 0.14828394091599731 -0.5 0 0.15883269757621599 -0.48194039748335787 0 0.19326204876453379 -0.48282610563596651 0 0.17507196218776541 -0.46858410768456588 0 0.17761766026507289 -0.5 0 0.17507196218776541 -0.46858410768456588 0 0.15883269757621599 -0.48194039748335787 0 0.17761766026507289 -0.5 0 0.14828394091599731 -0.5 0 0.15883269757621599 -0.48194039748335787 0 0.17761766026507289 -0.5 0 0.17507196218776541 -0.46858410768456588 0 0.15571378231048791 -0.46057935663687688 0 0.15883269757621599 -0.48194039748335787 0 0.07107007051256331 -0.48229442229200009 0 0.089616502217846117 -0.50000000000000155 0 0.06146353949262473 -0.5 0 0.07107007051256331 -0.48229442229200009 0 0.089293976118488494 -0.48169613416874402 0 0.091999107104028241 -0.46437948964210218 0 0.07107007051256331 -0.48229442229200009 0 0.089616502217846117 -0.50000000000000155 0 0.07107007051256331 -0.48229442229200009 0 0.089293976118488494 -0.48169613416874402 0 0.089616502217846117 -0.50000000000000155 0 0.089616502217846117 -0.50000000000000155 0 0.1189502215669217 -0.5 0 0.10449022463951629 -0.48011062474087413 0 0.089293976118488494 -0.48169613416874402 0 0.089616502217846117 -0.50000000000000155 0 0.10449022463951629 -0.48011062474087413 0 0.1189502215669217 -0.5 0 0.12094209836323599 -0.47643555663316361 0 0.10449022463951629 -0.48011062474087413 0 0.12094209836323599 -0.47643555663316361 0 0.10449022463951629 -0.48011062474087413 0 0.1117413955258756 -0.46289026661050298 0 0.10449022463951629 -0.48011062474087413 0 0.1117413955258756 -0.46289026661050298 0 0.091999107104028241 -0.46437948964210218 0 0.089293976118488494 -0.48169613416874402 0 0.10449022463951629 -0.48011062474087413 0 0.091999107104028241 -0.46437948964210218 0 0.1117413955258756 -0.46289026661050298 0 0.1036780209496386 -0.44929528071892322 0 0.091999107104028241 -0.46437948964210218 0 0.13101425788141849 -0.46083214390676108 0 0.12094209836323599 -0.47643555663316361 0 0.1117413955258756 -0.46289026661050298 0 0.13101425788141849 -0.46083214390676108 0 0.1117413955258756 -0.46289026661050298 0 0.118324664217416 -0.4462885040211938 0 0.1117413955258756 -0.46289026661050298 0 0.118324664217416 -0.4462885040211938 0 0.1036780209496386 -0.44929528071892322 0 0.1036780209496386 -0.44929528071892322 0 0.086383167003939734 -0.43933379277020518 0 0.118324664217416 -0.4462885040211938 0 0.1036780209496386 -0.44929528071892322 0 0.1047493946981963 -0.42672532242167233 0 0.1036780209496386 -0.44929528071892322 0 0.086383167003939734 -0.43933379277020518 0 0.1047493946981963 -0.42672532242167233 0 0.1036780209496386 -0.44929528071892322 0 0.086383167003939734 -0.43933379277020518 0 0.091999107104028241 -0.46437948964210218 0 0.086383167003939734 -0.43933379277020518 0 0.091999107104028241 -0.46437948964210218 0 0.073841610934613 -0.45852835981026951 0 0.07107007051256331 -0.48229442229200009 0 0.091999107104028241 -0.46437948964210218 0 0.073841610934613 -0.45852835981026951 0 0.07107007051256331 -0.48229442229200009 0 0.073841610934613 -0.45852835981026951 0 0.05252363880728126 -0.46458884458399791 0 0.073841610934613 -0.45852835981026951 0 0.069088313058240522 -0.4293723048214878 0 0.051602749893341113 -0.44021439327996098 0 0.086383167003939734 -0.43933379277020518 0 0.073841610934613 -0.45852835981026951 0 0.069088313058240522 -0.4293723048214878 0 0.073841610934613 -0.45852835981026951 0 0.069088313058240522 -0.4293723048214878 0 0.086383167003939734 -0.43933379277020518 0 0.069088313058240522 -0.4293723048214878 0 0.069088313058240522 -0.4293723048214878 0 0.064339751794182817 -0.40024530354083149 0 0.069088313058240522 -0.4293723048214878 0 0.086527275640990775 -0.41260201243493699 0 0.064339751794182817 -0.40024530354083149 0 0.086383167003939734 -0.43933379277020518 0 0.069088313058240522 -0.4293723048214878 0 0.086527275640990775 -0.41260201243493699 0 0.086383167003939734 -0.43933379277020518 0 0.086527275640990775 -0.41260201243493699 0 0.1047493946981963 -0.42672532242167233 0 0.1047493946981963 -0.42672532242167233 0 0.1228296266238602 -0.43259387335050647 0 0.11722570068992361 -0.42172001018148653 0 0.118324664217416 -0.4462885040211938 0 0.1047493946981963 -0.42672532242167233 0 0.1228296266238602 -0.43259387335050647 0 0.12661891918342921 -0.41740421695718899 0 0.1228296266238602 -0.43259387335050647 0 0.11722570068992361 -0.42172001018148653 0 0.1047493946981963 -0.42672532242167233 0 0.11722570068992361 -0.42172001018148653 0 0.1147048622542086 -0.41015662799657809 0 0.12661891918342921 -0.41740421695718899 0 0.1147048622542086 -0.41015662799657809 0 0.1238650235983335 -0.40183420303178591 0 0.12661891918342921 -0.41740421695718899 0 0.11722570068992361 -0.42172001018148653 0 0.1147048622542086 -0.41015662799657809 0 0.1047493946981963 -0.42672532242167233 0 0.1147048622542086 -0.41015662799657809 0 0.1019522183349298 -0.40790608312815541 0 0.086527275640990775 -0.41260201243493699 0 0.1047493946981963 -0.42672532242167233 0 0.1019522183349298 -0.40790608312815541 0 0.086527275640990775 -0.41260201243493699 0 0.1019522183349298 -0.40790608312815541 0 0.099884251613128375 -0.39254063206119288 0 0.1019522183349298 -0.40790608312815541 0 0.099884251613128375 -0.39254063206119288 0 0.111948457243262 -0.39999845377515753 0 0.1147048622542086 -0.41015662799657809 0 0.111948457243262 -0.39999845377515753 0 0.1238650235983335 -0.40183420303178591 0 0.1147048622542086 -0.41015662799657809 0 0.1019522183349298 -0.40790608312815541 0 0.111948457243262 -0.39999845377515753 0 0.099884251613128375 -0.39254063206119288 0 0.111948457243262 -0.39999845377515753 0 0.1193359304157096 -0.38755472265807511 0 0.111948457243262 -0.39999845377515753 0 0.1238650235983335 -0.40183420303178591 0 0.1193359304157096 -0.38755472265807511 0 0.099884251613128375 -0.39254063206119288 0 0.1193359304157096 -0.38755472265807511 0 0.10969951405159981 -0.37145014088489642 0 0.1363519112786114 -0.37078675524883892 0 0.1193359304157096 -0.38755472265807511 0 0.10969951405159981 -0.37145014088489642 0 0.099884251613128375 -0.39254063206119288 0 0.10969951405159981 -0.37145014088489642 0 0.091015024995175733 -0.37436403778277089 0 0.099884251613128375 -0.39254063206119288 0 0.079507837512708152 -0.38664504617601492 0 0.091015024995175733 -0.37436403778277089 0 0.079507837512708152 -0.38664504617601492 0 0.091015024995175733 -0.37436403778277089 0 0.076693934748934628 -0.36867994852456948 0 0.086527275640990775 -0.41260201243493699 0 0.099884251613128375 -0.39254063206119288 0 0.079507837512708152 -0.38664504617601492 0 0.086527275640990775 -0.41260201243493699 0 0.079507837512708152 -0.38664504617601492 0 0.064339751794182817 -0.40024530354083149 0 0.079507837512708152 -0.38664504617601492 0 0.064339751794182817 -0.40024530354083149 0 0.059591190530125362 -0.37111830226017523 0 0.079507837512708152 -0.38664504617601492 0 0.076693934748934628 -0.36867994852456948 0 0.059591190530125362 -0.37111830226017523 0 0.064339751794182817 -0.40024530354083149 0 0.059591190530125362 -0.37111830226017523 0 0.064339751794182817 -0.40024530354083149 0 0.059986274676251658 -0.38218646601197559 0 0.059591190530125362 -0.37111830226017523 0 0.048916362579005092 -0.38881112041881383 0 0.049389828188708393 -0.37770809466735661 0 0.059986274676251658 -0.38218646601197559 0 0.048916362579005092 -0.38881112041881383 0 0.059986274676251658 -0.38218646601197559 0 0.05421712426743968 -0.39434730760686909 0 0.059986274676251658 -0.38218646601197559 0 0.059591190530125362 -0.37111830226017523 0 0.049389828188708393 -0.37770809466735661 0 0.059986274676251658 -0.38218646601197559 0 0.059591190530125362 -0.37111830226017523 0 0.064339751794182817 -0.40024530354083149 0 0.059986274676251658 -0.38218646601197559 0 0.05421712426743968 -0.39434730760686909 0 0.064339751794182817 -0.40024530354083149 0 0.04740268498940961 -0.4006795903994777 0 0.047942296551725688 -0.41717378459785182 0 0.064339751794182817 -0.40024530354083149 0 0.04740268498940961 -0.4006795903994777 0 0.05421712426743968 -0.39434730760686909 0 0.04740268498940961 -0.4006795903994777 0 0.05421712426743968 -0.39434730760686909 0 0.048614758788854788 -0.39510615700080293 0 0.048916362579005092 -0.38881112041881383 0 0.048614758788854788 -0.39510615700080293 0 0.044246190256057527 -0.39268679047995608 0 0.048916362579005092 -0.38881112041881383 0 0.05421712426743968 -0.39434730760686909 0 0.048614758788854788 -0.39510615700080293 0 0.04740268498940961 -0.4006795903994777 0 0.044246190256057527 -0.39268679047995608 0 0.036927755038086769 -0.39357581233756622 0 0.04740268498940961 -0.4006795903994777 0 0.036927755038086769 -0.39357581233756622 0 0.034427003754224222 -0.3946934542042726 0 0.04740268498940961 -0.4006795903994777 0 0.034427003754224222 -0.3946934542042726 0 0.047942296551725688 -0.41717378459785182 0 0.034427003754224222 -0.3946934542042726 0 0.047942296551725688 -0.41717378459785182 0 0.04740268498940961 -0.4006795903994777 0 0.048614758788854788 -0.39510615700080293 0 0.044246190256057527 -0.39268679047995608 0 0.036927755038086769 -0.39357581233756622 0 0.034427003754224222 -0.3946934542042726 0 0.039397835737311433 -0.38491817160456271 0 0.036927755038086769 -0.39357581233756622 0 0.034427003754224222 -0.3946934542042726 0 0.039397835737311433 -0.38491817160456271 0 0.039986479633718312 -0.372888239232952 0 0.021017609511414629 -0.37238926757119112 0 0.034427003754224222 -0.3946934542042726 0 0.039397835737311433 -0.38491817160456271 0 0.021017609511414629 -0.37238926757119112 0 0.048916362579005092 -0.38881112041881383 0 0.049389828188708393 -0.37770809466735661 0 0.039397835737311433 -0.38491817160456271 0 0.048916362579005092 -0.38881112041881383 0 0.044246190256057527 -0.39268679047995608 0 0.039397835737311433 -0.38491817160456271 0 0.044246190256057527 -0.39268679047995608 0 0.036927755038086769 -0.39357581233756622 0 0.039397835737311433 -0.38491817160456271 0 0.049389828188708393 -0.37770809466735661 0 0.039397835737311433 -0.38491817160456271 0 0.039986479633718312 -0.372888239232952 0 0.034427003754224222 -0.3946934542042726 0 0.01434435273790243 -0.3888653556416507 0 0.021017609511414629 -0.37238926757119112 0 0.034427003754224222 -0.3946934542042726 0 0.021017609511414629 -0.37238926757119112 0 0.0098455405846293934 -0.38059512271634249 0 0.0023635328741784898 -0.38376298102461831 0 0.015714879624140522 -0.36356910202687659 0 0.0098455405846293934 -0.38059512271634249 0 0.01434435273790243 -0.3888653556416507 0 0.021017609511414629 -0.37238926757119112 0 0.0098455405846293934 -0.38059512271634249 0 0.021017609511414629 -0.37238926757119112 0 0.0098455405846293934 -0.38059512271634249 0 0.01434435273790243 -0.3888653556416507 0 0.0023635328741784898 -0.38376298102461831 0 0.01434435273790243 -0.3888653556416507 0 0.0023635328741784898 -0.38376298102461831 0 0.0027567559801378091 -0.3986685255013519 0 -0.0031156563085633598 -0.41147211145998969 0 0.0027567559801378091 -0.3986685255013519 0 0.015655673722829281 -0.40308278283212873 0 0.01434435273790243 -0.3888653556416507 0 0.0027567559801378091 -0.3986685255013519 0 0.015655673722829281 -0.40308278283212873 0 0.034427003754224222 -0.3946934542042726 0 0.01434435273790243 -0.3888653556416507 0 0.015655673722829281 -0.40308278283212873 0 0.034427003754224222 -0.3946934542042726 0 0.015655673722829281 -0.40308278283212873 0 0.034427003754224222 -0.3946934542042726 0 0.015655673722829281 -0.40308278283212873 0 0.03090247187900123 -0.40737802849438048 0 0.03090247187900123 -0.40737802849438048 0 0.01844280242152942 -0.41545584421961118 0 0.033340747417664282 -0.42616860914356208 0 0.015655673722829281 -0.40308278283212873 0 0.03090247187900123 -0.40737802849438048 0 0.01844280242152942 -0.41545584421961118 0 -0.0031156563085633598 -0.41147211145998969 0 0.015655673722829281 -0.40308278283212873 0 -0.0031156563085633598 -0.41147211145998969 0 0.01543077539671716 -0.42917768916799348 0 -0.0031156563085633598 -0.41147211145998969 0 0.01844280242152942 -0.41545584421961118 0 0.01543077539671716 -0.42917768916799348 0 -0.0031156563085633598 -0.41147211145998969 0 0.015655673722829281 -0.40308278283212873 0 0.01844280242152942 -0.41545584421961118 0 -0.0031156563085633598 -0.41147211145998969 0 -0.003411726204252417 -0.4281130985062615 0 0.01543077539671716 -0.42917768916799348 0 -0.003411726204252417 -0.4281130985062615 0 -0.0017067506219875339 -0.44426652496461272 0 0.01543077539671716 -0.42917768916799348 0 0.01543077539671716 -0.42917768916799348 0 0.033340747417664282 -0.42616860914356208 0 0.033977207101999217 -0.44688326687599572 0 0.01844280242152942 -0.41545584421961118 0 0.01543077539671716 -0.42917768916799348 0 0.033340747417664282 -0.42616860914356208 0 0.033340747417664282 -0.42616860914356208 0 0.047942296551725688 -0.41717378459785182 0 0.051602749893341113 -0.44021439327996098 0 0.034427003754224222 -0.3946934542042726 0 0.03090247187900123 -0.40737802849438048 0 0.047942296551725688 -0.41717378459785182 0 0.03090247187900123 -0.40737802849438048 0 0.033340747417664282 -0.42616860914356208 0 0.047942296551725688 -0.41717378459785182 0 0.03090247187900123 -0.40737802849438048 0 0.047942296551725688 -0.41717378459785182 0 0.069088313058240522 -0.4293723048214878 0 0.064339751794182817 -0.40024530354083149 0 0.047942296551725688 -0.41717378459785182 0 0.069088313058240522 -0.4293723048214878 0 0.047942296551725688 -0.41717378459785182 0 0.069088313058240522 -0.4293723048214878 0 0.047942296551725688 -0.41717378459785182 0 0.051602749893341113 -0.44021439327996098 0 0.073841610934613 -0.45852835981026951 0 0.051602749893341113 -0.44021439327996098 0 0.05252363880728126 -0.46458884458399791 0 0.05252363880728126 -0.46458884458399791 0 0.033977207101999217 -0.44688326687599572 0 0.05252363880728126 -0.46458884458399791 0 0.033977207101999217 -0.44688326687599572 0 0.029664461332031631 -0.47014722124433828 0 0.051602749893341113 -0.44021439327996098 0 0.05252363880728126 -0.46458884458399791 0 0.033977207101999217 -0.44688326687599572 0 0.033340747417664282 -0.42616860914356208 0 0.051602749893341113 -0.44021439327996098 0 0.033977207101999217 -0.44688326687599572 0 0.01543077539671716 -0.42917768916799348 0 0.033977207101999217 -0.44688326687599572 0 0.01543077539671716 -0.42917768916799348 0 0.033977207101999217 -0.44688326687599572 0 0.016000794380077898 -0.44710170932922078 0 -0.0017067506219875339 -0.44426652496461272 0 0.016000794380077898 -0.44710170932922078 0 0.0056529891247713224 -0.46174815418043758 0 -0.0017067506219875339 -0.44426652496461272 0 0.01543077539671716 -0.42917768916799348 0 0.016000794380077898 -0.44710170932922078 0 0.033977207101999217 -0.44688326687599572 0 0.016000794380077898 -0.44710170932922078 0 0.029664461332031631 -0.47014722124433828 0 0.016000794380077898 -0.44710170932922078 0 0.0056529891247713224 -0.46174815418043758 0 0.029664461332031631 -0.47014722124433828 0 0.0056529891247713224 -0.46174815418043758 0 0.029664461332031631 -0.47014722124433828 0 0.029664461332031631 -0.47014722124433828 0 0.01633056710247591 -0.48248400311155631 0 0.038204996714354837 -0.48425316106870309 0 0.0056529891247713224 -0.46174815418043758 0 0.029664461332031631 -0.47014722124433828 0 0.01633056710247591 -0.48248400311155631 0 -0.0045879208912677329 -0.48240172148887189 0 0.0056529891247713224 -0.46174815418043758 0 0.01633056710247591 -0.48248400311155631 0 -0.0045879208912677329 -0.48240172148887189 0 0.01633056710247591 -0.48248400311155631 0 0.0051576140421821792 -0.5 0 0.01633056710247591 -0.48248400311155631 0 0.0051576140421821792 -0.5 0 0.033310576767403337 -0.5 0 0.01633056710247591 -0.48248400311155631 0 0.033310576767403337 -0.5 0 0.038204996714354837 -0.48425316106870309 0 0.033310576767403337 -0.5 0 0.038204996714354837 -0.48425316106870309 0 0.06146353949262473 -0.5 0 0.029664461332031631 -0.47014722124433828 0 0.038204996714354837 -0.48425316106870309 0 0.053675933539291842 -0.47854628830823898 0 0.029664461332031631 -0.47014722124433828 0 0.053675933539291842 -0.47854628830823898 0 0.05252363880728126 -0.46458884458399791 0 0.029664461332031631 -0.47014722124433828 0 0.053675933539291842 -0.47854628830823898 0 0.07107007051256331 -0.48229442229200009 0 0.05252363880728126 -0.46458884458399791 0 0.07107007051256331 -0.48229442229200009 0 0.05252363880728126 -0.46458884458399791 0 0.053675933539291842 -0.47854628830823898 0 0.038204996714354837 -0.48425316106870309 0 0.053675933539291842 -0.47854628830823898 0 0.06146353949262473 -0.5 0 0.07107007051256331 -0.48229442229200009 0 0.053675933539291842 -0.47854628830823898 0 0.06146353949262473 -0.5 0 0.083968755815035698 -0.29580056399076171 0 0.075898596495194426 -0.30245382875364868 0 0.076155935568561983 -0.29027411255816798 0 0.083968755815035698 -0.29580056399076171 0 0.084190943464994075 -0.28429138387147318 0 0.076155935568561983 -0.29027411255816798 0 0.083968755815035698 -0.29580056399076171 0 0.084190943464994075 -0.28429138387147318 0 0.098172730341204856 -0.29328699197083008 0 0.086613969432703219 -0.30609420212528909 0 0.098172730341204856 -0.29328699197083008 0 0.096397109874038156 -0.31339987102933442 0 0.083968755815035698 -0.29580056399076171 0 0.086613969432703219 -0.30609420212528909 0 0.098172730341204856 -0.29328699197083008 0 0.086613969432703219 -0.30609420212528909 0 0.096397109874038156 -0.31339987102933442 0 0.088238049869359209 -0.31501091322657487 0 0.086613969432703219 -0.30609420212528909 0 0.076819310509264147 -0.30913204605143418 0 0.079923930501579823 -0.31521373398378499 0 0.086613969432703219 -0.30609420212528909 0 0.079923930501579823 -0.31521373398378499 0 0.088238049869359209 -0.31501091322657487 0 0.086613969432703219 -0.30609420212528909 0 0.075898596495194426 -0.30245382875364868 0 0.076819310509264147 -0.30913204605143418 0 0.083968755815035698 -0.29580056399076171 0 0.086613969432703219 -0.30609420212528909 0 0.075898596495194426 -0.30245382875364868 0 0.075898596495194426 -0.30245382875364868 0 0.050290581514745622 -0.29386924248562529 0 0.075898596495194426 -0.30245382875364868 0 0.06289452038485413 -0.31036586722536391 0 0.057170171420209921 -0.30329417867156128 0 0.075898596495194426 -0.30245382875364868 0 0.076819310509264147 -0.30913204605143418 0 0.069417438538643364 -0.31100025488642807 0 0.076819310509264147 -0.30913204605143418 0 0.069417438538643364 -0.31100025488642807 0 0.079923930501579823 -0.31521373398378499 0 0.075898596495194426 -0.30245382875364868 0 0.069417438538643364 -0.31100025488642807 0 0.06289452038485413 -0.31036586722536391 0 0.075898596495194426 -0.30245382875364868 0 0.065690906579929847 -0.28978768124518212 0 0.050290581514745622 -0.29386924248562529 0 0.075898596495194426 -0.30245382875364868 0 0.065690906579929847 -0.28978768124518212 0 0.076155935568561983 -0.29027411255816798 0 0.084190943464994075 -0.28429138387147318 0 0.076155935568561983 -0.29027411255816798 0 0.071030475487655814 -0.27903710492977429 0 0.065690906579929847 -0.28978768124518212 0 0.076155935568561983 -0.29027411255816798 0 0.071030475487655814 -0.27903710492977429 0 0.065690906579929847 -0.28978768124518212 0 0.071030475487655814 -0.27903710492977429 0 0.056698790101966393 -0.277870989625425 0 0.071030475487655814 -0.27903710492977429 0 0.063106998689185151 -0.26187273676522382 0 0.081527674748777479 -0.26752342483877489 0 0.071030475487655814 -0.27903710492977429 0 0.063106998689185151 -0.26187273676522382 0 0.056698790101966393 -0.277870989625425 0 0.063106998689185151 -0.26187273676522382 0 0.081527674748777479 -0.26752342483877489 0 0.063106998689185151 -0.26187273676522382 0 0.076020673793273791 -0.25820577428868963 0 0.081527674748777479 -0.26752342483877489 0 0.063106998689185151 -0.26187273676522382 0 0.075587721577906081 -0.25065551029161159 0 0.070169446765414104 -0.24424115867320481 0 0.063106998689185151 -0.26187273676522382 0 0.070169446765414104 -0.24424115867320481 0 0.063106998689185151 -0.26187273676522382 0 0.054984617670660228 -0.25938113214649278 0 0.070169446765414104 -0.24424115867320481 0 0.063106998689185151 -0.26187273676522382 0 0.076020673793273791 -0.25820577428868963 0 0.075587721577906081 -0.25065551029161159 0 0.086664472708870802 -0.25689926019652343 0 0.085219798962378565 -0.24605459337095839 0 0.1022481395899182 -0.24712385359245981 0 0.076020673793273791 -0.25820577428868963 0 0.075587721577906081 -0.25065551029161159 0 0.086664472708870802 -0.25689926019652343 0 0.075587721577906081 -0.25065551029161159 0 0.086664472708870802 -0.25689926019652343 0 0.085219798962378565 -0.24605459337095839 0 0.076020673793273791 -0.25820577428868963 0 0.086664472708870802 -0.25689926019652343 0 0.081527674748777479 -0.26752342483877489 0 0.086664472708870802 -0.25689926019652343 0 0.081527674748777479 -0.26752342483877489 0 0.099948350808369849 -0.27317411291232557 0 0.084190943464994075 -0.28429138387147318 0 0.081527674748777479 -0.26752342483877489 0 0.099948350808369849 -0.27317411291232557 0 0.081527674748777479 -0.26752342483877489 0 0.099948350808369849 -0.27317411291232557 0 0.084190943464994075 -0.28429138387147318 0 0.071030475487655814 -0.27903710492977429 0 0.081527674748777479 -0.26752342483877489 0 0.099948350808369849 -0.27317411291232557 0 0.11272778288285661 -0.26053240904118519 0 0.1098770813997418 -0.27148092463616269 0 0.099948350808369849 -0.27317411291232557 0 0.11508764719420241 -0.27781821181795929 0 0.1061964446598431 -0.2817983553362709 0 0.099948350808369849 -0.27317411291232557 0 0.11508764719420241 -0.27781821181795929 0 0.1098770813997418 -0.27148092463616269 0 0.099948350808369849 -0.27317411291232557 0 0.11508764719420241 -0.27781821181795929 0 0.086664472708870802 -0.25689926019652343 0 0.099948350808369849 -0.27317411291232557 0 0.1022481395899182 -0.24712385359245981 0 0.099948350808369849 -0.27317411291232557 0 0.1022481395899182 -0.24712385359245981 0 0.099948350808369849 -0.27317411291232557 0 0.11272778288285661 -0.26053240904118519 0 0.1022481395899182 -0.24712385359245981 0 0.1257346404674814 -0.26108653168471269 0 0.11272778288285661 -0.26053240904118519 0 0.1187483127605843 -0.24257476342338349 0 0.11272778288285661 -0.26053240904118519 0 0.1187483127605843 -0.24257476342338349 0 0.1022481395899182 -0.24712385359245981 0 0.1257346404674814 -0.26108653168471269 0 0.11272778288285661 -0.26053240904118519 0 0.1202149512865935 -0.26948121387768381 0 0.13116614799826701 -0.28039942733213419 0 0.1098770813997418 -0.27148092463616269 0 0.1202149512865935 -0.26948121387768381 0 0.13116614799826701 -0.28039942733213419 0 0.1098770813997418 -0.27148092463616269 0 0.13116614799826701 -0.28039942733213419 0 0.11508764719420241 -0.27781821181795929 0 0.1098770813997418 -0.27148092463616269 0 0.11272778288285661 -0.26053240904118519 0 0.1098770813997418 -0.27148092463616269 0 0.1202149512865935 -0.26948121387768381 0 0.13022694358003509 -0.28246231072359268 0 0.11508764719420241 -0.27781821181795929 0 0.13022694358003509 -0.28246231072359268 0 0.11508764719420241 -0.27781821181795929 0 0.123381600489071 -0.2838437564780541 0 0.11508764719420241 -0.27781821181795929 0 0.123381600489071 -0.2838437564780541 0 0.1204360816977062 -0.28774093147965191 0 0.12777572948434041 -0.28735357189101268 0 0.123381600489071 -0.2838437564780541 0 0.1204360816977062 -0.28774093147965191 0 0.12753624447643111 -0.29350165522481297 0 0.1204360816977062 -0.28774093147965191 0 0.1165328842382222 -0.29663026261774811 0 0.1204360816977062 -0.28774093147965191 0 0.1165328842382222 -0.29663026261774811 0 0.1113175901450535 -0.2869504121999894 0 0.11508764719420241 -0.27781821181795929 0 0.1113175901450535 -0.2869504121999894 0 0.1061964446598431 -0.2817983553362709 0 0.11508764719420241 -0.27781821181795929 0 0.1204360816977062 -0.28774093147965191 0 0.1113175901450535 -0.2869504121999894 0 0.1165328842382222 -0.29663026261774811 0 0.1113175901450535 -0.2869504121999894 0 0.098172730341204856 -0.29328699197083008 0 0.084190943464994075 -0.28429138387147318 0 0.099948350808369849 -0.27317411291232557 0 0.098172730341204856 -0.29328699197083008 0 0.099948350808369849 -0.27317411291232557 0 0.098172730341204856 -0.29328699197083008 0 0.1113175901450535 -0.2869504121999894 0 0.1061964446598431 -0.2817983553362709 0 0.098172730341204856 -0.29328699197083008 0 0.099948350808369849 -0.27317411291232557 0 0.1061964446598431 -0.2817983553362709 0 0.098172730341204856 -0.29328699197083008 0 0.1165328842382222 -0.29663026261774811 0 0.098172730341204856 -0.29328699197083008 0 0.1099969420328533 -0.30879819950166543 0 0.098172730341204856 -0.29328699197083008 0 0.1099969420328533 -0.30879819950166543 0 0.096397109874038156 -0.31339987102933442 0 0.098172730341204856 -0.29328699197083008 0 0.096397109874038156 -0.31339987102933442 0 0.12514459874877851 -0.30456750113675202 0 0.1099969420328533 -0.30879819950166543 0 0.119588314502794 -0.32068578667559777 0 0.12514459874877851 -0.30456750113675202 0 0.12753624447643111 -0.29350165522481297 0 0.1165328842382222 -0.29663026261774811 0 0.12514459874877851 -0.30456750113675202 0 0.1165328842382222 -0.29663026261774811 0 0.1099969420328533 -0.30879819950166543 0 0.1099969420328533 -0.30879819950166543 0 0.119588314502794 -0.32068578667559777 0 0.10665437189726081 -0.32197126721079239 0 0.119588314502794 -0.32068578667559777 0 0.1126680036697478 -0.33345972875952518 0 0.10665437189726081 -0.32197126721079239 0 0.12899662648242349 -0.33125051097259189 0 0.1126680036697478 -0.33345972875952518 0 0.1154867003427411 -0.35214975266833898 0 0.12899662648242349 -0.33125051097259189 0 0.119588314502794 -0.32068578667559777 0 0.1126680036697478 -0.33345972875952518 0 0.094621489406870901 -0.33351275008783859 0 0.1154867003427411 -0.35214975266833898 0 0.1126680036697478 -0.33345972875952518 0 0.094621489406870901 -0.33351275008783859 0 0.1154867003427411 -0.35214975266833898 0 0.1126680036697478 -0.33345972875952518 0 0.094621489406870901 -0.33351275008783859 0 0.10665437189726081 -0.32197126721079239 0 0.094621489406870901 -0.33351275008783859 0 0.096397109874038156 -0.31339987102933442 0 0.094621489406870901 -0.33351275008783859 0 0.096397109874038156 -0.31339987102933442 0 0.10665437189726081 -0.32197126721079239 0 0.1099969420328533 -0.30879819950166543 0 0.096397109874038156 -0.31339987102933442 0 0.10665437189726081 -0.32197126721079239 0 0.1363519112786114 -0.37078675524883892 0 0.10969951405159981 -0.37145014088489642 0 0.1154867003427411 -0.35214975266833898 0 0.094621489406870901 -0.33351275008783859 0 0.1154867003427411 -0.35214975266833898 0 0.092818257201023588 -0.35393839393530491 0 0.10969951405159981 -0.37145014088489642 0 0.1154867003427411 -0.35214975266833898 0 0.092818257201023588 -0.35393839393530491 0 0.10969951405159981 -0.37145014088489642 0 0.091015024995175733 -0.37436403778277089 0 0.092818257201023588 -0.35393839393530491 0 0.091015024995175733 -0.37436403778277089 0 0.092818257201023588 -0.35393839393530491 0 0.076693934748934628 -0.36867994852456948 0 0.091015024995175733 -0.37436403778277089 0 0.092818257201023588 -0.35393839393530491 0 0.092818257201023588 -0.35393839393530491 0 0.074807939036908758 -0.35278682773207071 0 0.083807519367124134 -0.34221720208105189 0 0.092818257201023588 -0.35393839393530491 0 0.074807939036908758 -0.35278682773207071 0 0.076693934748934628 -0.36867994852456948 0 0.074807939036908758 -0.35278682773207071 0 0.071971054952864294 -0.3349640963536662 0 0.058649904135253519 -0.34474844647649472 0 0.074807939036908758 -0.35278682773207071 0 0.059591190530125362 -0.37111830226017523 0 0.058649904135253519 -0.34474844647649472 0 0.074807939036908758 -0.35278682773207071 0 0.076693934748934628 -0.36867994852456948 0 0.059591190530125362 -0.37111830226017523 0 0.069417438538643364 -0.31100025488642807 0 0.08529220577047672 -0.32517974623084001 0 0.079923930501579823 -0.31521373398378499 0 0.094621489406870901 -0.33351275008783859 0 0.096397109874038156 -0.31339987102933442 0 0.08782777147758658 -0.32331737990997828 0 0.079923930501579823 -0.31521373398378499 0 0.08532048940475051 -0.31968044333779461 0 0.088238049869359209 -0.31501091322657487 0 0.08529220577047672 -0.32517974623084001 0 0.079923930501579823 -0.31521373398378499 0 0.08532048940475051 -0.31968044333779461 0 0.08532048940475051 -0.31968044333779461 0 0.088238049869359209 -0.31501091322657487 0 0.08782777147758658 -0.32331737990997828 0 0.096397109874038156 -0.31339987102933442 0 0.088238049869359209 -0.31501091322657487 0 0.08782777147758658 -0.32331737990997828 0 0.094621489406870901 -0.33351275008783859 0 0.08529220577047672 -0.32517974623084001 0 0.08782777147758658 -0.32331737990997828 0 0.08529220577047672 -0.32517974623084001 0 0.08532048940475051 -0.31968044333779461 0 0.08782777147758658 -0.32331737990997828 0 0.08529220577047672 -0.32517974623084001 0 0.08782777147758658 -0.32331737990997828 0 0.08529220577047672 -0.32517974623084001 0 0.083807519367124134 -0.34221720208105189 0 0.071971054952864294 -0.3349640963536662 0 0.094621489406870901 -0.33351275008783859 0 0.08529220577047672 -0.32517974623084001 0 0.083807519367124134 -0.34221720208105189 0 0.094621489406870901 -0.33351275008783859 0 0.092818257201023588 -0.35393839393530491 0 0.094621489406870901 -0.33351275008783859 0 0.092818257201023588 -0.35393839393530491 0 0.083807519367124134 -0.34221720208105189 0 0.094621489406870901 -0.33351275008783859 0 0.08529220577047672 -0.32517974623084001 0 0.08529220577047672 -0.32517974623084001 0 0.071971054952864294 -0.3349640963536662 0 0.074807939036908758 -0.35278682773207071 0 0.083807519367124134 -0.34221720208105189 0 0.071971054952864294 -0.3349640963536662 0 0.071971054952864294 -0.3349640963536662 0 0.058649904135253519 -0.34474844647649472 0 0.071971054952864294 -0.3349640963536662 0 0.064319131158621146 -0.33187473462862183 0 0.058649904135253519 -0.34474844647649472 0 0.071971054952864294 -0.3349640963536662 0 0.064319131158621146 -0.33187473462862183 0 0.068745527768634934 -0.32376508311029878 0 0.068745527768634934 -0.32376508311029878 0 0.064444625726580537 -0.31711454059150801 0 0.057910037777732147 -0.32402131257402789 0 0.064319131158621146 -0.33187473462862183 0 0.068745527768634934 -0.32376508311029878 0 0.057910037777732147 -0.32402131257402789 0 0.069417438538643364 -0.31100025488642807 0 0.08529220577047672 -0.32517974623084001 0 0.068745527768634934 -0.32376508311029878 0 0.069417438538643364 -0.31100025488642807 0 0.08529220577047672 -0.32517974623084001 0 0.08529220577047672 -0.32517974623084001 0 0.071971054952864294 -0.3349640963536662 0 0.068745527768634934 -0.32376508311029878 0 0.069417438538643364 -0.31100025488642807 0 0.068745527768634934 -0.32376508311029878 0 0.064444625726580537 -0.31711454059150801 0 0.069417438538643364 -0.31100025488642807 0 0.06289452038485413 -0.31036586722536391 0 0.064444625726580537 -0.31711454059150801 0 0.057910037777732147 -0.32402131257402789 0 0.057170171420209921 -0.30329417867156128 0 0.051800583007083588 -0.32333182069610522 0 0.057910037777732147 -0.32402131257402789 0 0.057170171420209921 -0.30329417867156128 0 0.06289452038485413 -0.31036586722536391 0 0.057910037777732147 -0.32402131257402789 0 0.057170171420209921 -0.30329417867156128 0 0.06289452038485413 -0.31036586722536391 0 0.064444625726580537 -0.31711454059150801 0 0.057910037777732147 -0.32402131257402789 0 0.051800583007083588 -0.32333182069610522 0 0.057910037777732147 -0.32402131257402789 0 0.058649904135253519 -0.34474844647649472 0 0.064319131158621146 -0.33187473462862183 0 0.057910037777732147 -0.32402131257402789 0 0.058649904135253519 -0.34474844647649472 0 0.057910037777732147 -0.32402131257402789 0 0.058649904135253519 -0.34474844647649472 0 0.051800583007083588 -0.32333182069610522 0 0.058649904135253519 -0.34474844647649472 0 0.055651204014496879 -0.34695098380202732 0 0.051800583007083588 -0.32333182069610522 0 0.04262065682998406 -0.34014720074657329 0 0.055651204014496879 -0.34695098380202732 0 0.051800583007083588 -0.32333182069610522 0 0.055651204014496879 -0.34695098380202732 0 0.04262065682998406 -0.34014720074657329 0 0.038422350788351149 -0.32349857704610252 0 0.02889473957703274 -0.34728449650202231 0 0.038422350788351149 -0.32349857704610252 0 0.02889473957703274 -0.34728449650202231 0 0.051800583007083588 -0.32333182069610522 0 0.04262065682998406 -0.34014720074657329 0 0.038422350788351149 -0.32349857704610252 0 0.051800583007083588 -0.32333182069610522 0 0.038422350788351149 -0.32349857704610252 0 0.047949961999670207 -0.29971265759018312 0 0.038422350788351149 -0.32349857704610252 0 0.028866395355208539 -0.31391652142708337 0 0.038874502923122931 -0.30300876726513892 0 0.059591190530125362 -0.37111830226017523 0 0.048590621826000997 -0.36566714912982412 0 0.055651204014496879 -0.34695098380202732 0 0.049389828188708393 -0.37770809466735661 0 0.059591190530125362 -0.37111830226017523 0 0.048590621826000997 -0.36566714912982412 0 0.059591190530125362 -0.37111830226017523 0 0.058649904135253519 -0.34474844647649472 0 0.059591190530125362 -0.37111830226017523 0 0.055651204014496879 -0.34695098380202732 0 0.059591190530125362 -0.37111830226017523 0 0.058649904135253519 -0.34474844647649472 0 0.055651204014496879 -0.34695098380202732 0 0.048590621826000997 -0.36566714912982412 0 0.055651204014496879 -0.34695098380202732 0 0.038334406762955783 -0.35967012568660922 0 0.055651204014496879 -0.34695098380202732 0 0.038334406762955783 -0.35967012568660922 0 0.058649904135253519 -0.34474844647649472 0 0.055651204014496879 -0.34695098380202732 0 0.04262065682998406 -0.34014720074657329 0 0.055651204014496879 -0.34695098380202732 0 0.038334406762955783 -0.35967012568660922 0 0.04262065682998406 -0.34014720074657329 0 0.038334406762955783 -0.35967012568660922 0 0.02889473957703274 -0.34728449650202231 0 0.038334406762955783 -0.35967012568660922 0 0.0274401033278877 -0.35714031067674329 0 0.02889473957703274 -0.34728449650202231 0 0.038334406762955783 -0.35967012568660922 0 0.039986479633718312 -0.372888239232952 0 0.021017609511414629 -0.37238926757119112 0 0.048590621826000997 -0.36566714912982412 0 0.038334406762955783 -0.35967012568660922 0 0.039986479633718312 -0.372888239232952 0 0.049389828188708393 -0.37770809466735661 0 0.048590621826000997 -0.36566714912982412 0 0.039986479633718312 -0.372888239232952 0 0.038334406762955783 -0.35967012568660922 0 0.021017609511414629 -0.37238926757119112 0 0.038334406762955783 -0.35967012568660922 0 0.021017609511414629 -0.37238926757119112 0 0.0274401033278877 -0.35714031067674329 0 0.021017609511414629 -0.37238926757119112 0 0.015714879624140522 -0.36356910202687659 0 0.021017609511414629 -0.37238926757119112 0 0.015714879624140522 -0.36356910202687659 0 0.019035783298557679 -0.35854624341790958 0 0.021017609511414629 -0.37238926757119112 0 0.019035783298557679 -0.35854624341790958 0 0.0274401033278877 -0.35714031067674329 0 0.015714879624140522 -0.36356910202687659 0 0.019035783298557679 -0.35854624341790958 0 0.019035783298557679 -0.35854624341790958 0 0.0274401033278877 -0.35714031067674329 0 0.018065851454718219 -0.34775080485951021 0 0.0274401033278877 -0.35714031067674329 0 0.02889473957703274 -0.34728449650202231 0 0.018065851454718219 -0.34775080485951021 0 0.018065851454718219 -0.34775080485951021 0 0.0074156934516920051 -0.34976485450150879 0 0.015930963659068018 -0.33586541332061948 0 0.019035783298557679 -0.35854624341790958 0 0.018065851454718219 -0.34775080485951021 0 0.0074156934516920051 -0.34976485450150879 0 0.015714879624140522 -0.36356910202687659 0 0.019035783298557679 -0.35854624341790958 0 0.0074156934516920051 -0.34976485450150879 0 0.015714879624140522 -0.36356910202687659 0 0.0074156934516920051 -0.34976485450150879 0 -0.00033496341424846639 -0.36651781080672008 0 0.015714879624140522 -0.36356910202687659 0 0.0074156934516920051 -0.34976485450150879 0 -0.00033496341424846639 -0.36651781080672008 0 0.0023635328741784898 -0.38376298102461831 0 0.015714879624140522 -0.36356910202687659 0 0.0098455405846293934 -0.38059512271634249 0 0.021017609511414629 -0.37238926757119112 0 0.015714879624140522 -0.36356910202687659 0 0.0023635328741784898 -0.38376298102461831 0 0.015714879624140522 -0.36356910202687659 0 0.02495188545471147 -0.32700405814344857 0 0.015930963659068018 -0.33586541332061948 0 0.01264497789389689 -0.31445528242141552 0 0.028866395355208539 -0.31391652142708337 0 0.02495188545471147 -0.32700405814344857 0 0.01264497789389689 -0.31445528242141552 0 0.038422350788351149 -0.32349857704610252 0 0.028866395355208539 -0.31391652142708337 0 0.02495188545471147 -0.32700405814344857 0 0.038422350788351149 -0.32349857704610252 0 0.02889473957703274 -0.34728449650202231 0 0.02495188545471147 -0.32700405814344857 0 0.02889473957703274 -0.34728449650202231 0 0.02495188545471147 -0.32700405814344857 0 0.015930963659068018 -0.33586541332061948 0 0.02889473957703274 -0.34728449650202231 0 0.018065851454718219 -0.34775080485951021 0 0.015930963659068018 -0.33586541332061948 0 -0.00088349272075888274 -0.33596060697614238 0 0.015930963659068018 -0.33586541332061948 0 0.01264497789389689 -0.31445528242141552 0 -0.00088349272075888274 -0.33596060697614238 0 0.0074156934516920051 -0.34976485450150879 0 0.015930963659068018 -0.33586541332061948 0 -0.00088349272075888274 -0.33596060697614238 0 0.0074156934516920051 -0.34976485450150879 0 -0.00088349272075888274 -0.33596060697614238 0 0.01264497789389689 -0.31445528242141552 0 -0.00088349272075888274 -0.33596060697614238 0 0.0017655166743713159 -0.3211237752102743 0 0.01264497789389689 -0.31445528242141552 0 0.0017655166743713159 -0.3211237752102743 0 0.01264497789389689 -0.31445528242141552 0 0.0019941613485998069 -0.30778267017866417 0 -0.0074595032905925441 -0.29135361764572232 0 0.0019941613485998069 -0.30778267017866417 0 0.0074050378680541032 -0.29365710722007582 0 0.0019941613485998069 -0.30778267017866417 0 0.0074050378680541032 -0.29365710722007582 0 0.02264552921693655 -0.29015596403207128 0 0.01264497789389689 -0.31445528242141552 0 0.0019941613485998069 -0.30778267017866417 0 0.02264552921693655 -0.29015596403207128 0 0.0019941613485998069 -0.30778267017866417 0 0.02264552921693655 -0.29015596403207128 0 -0.0074595032905925441 -0.29135361764572232 0 0.014735273267875279 -0.28389130644638338 0 0.01048492816642939 -0.2805251755837368 0 -0.0074595032905925441 -0.29135361764572232 0 0.0074050378680541032 -0.29365710722007582 0 0.014735273267875279 -0.28389130644638338 0 -0.0074595032905925441 -0.29135361764572232 0 0.014735273267875279 -0.28389130644638338 0 0.0074050378680541032 -0.29365710722007582 0 0.014735273267875279 -0.28389130644638338 0 0.02264552921693655 -0.29015596403207128 0 0.014735273267875279 -0.28389130644638338 0 0.01048492816642939 -0.2805251755837368 0 0.017626458989094668 -0.28291923414234471 0 0.01048492816642939 -0.2805251755837368 0 0.014735273267875279 -0.28389130644638338 0 0.017626458989094668 -0.28291923414234471 0 0.01048492816642939 -0.2805251755837368 0 0.014735273267875279 -0.28389130644638338 0 0.02264552921693655 -0.29015596403207128 0 0.017626458989094668 -0.28291923414234471 0 0.027317750735394119 -0.28616805019107627 0 0.014735273267875279 -0.28389130644638338 0 0.017626458989094668 -0.28291923414234471 0 0.02264552921693655 -0.29015596403207128 0 0.017626458989094668 -0.28291923414234471 0 0.02264552921693655 -0.29015596403207128 0 0.027317750735394119 -0.28616805019107627 0 0.014735273267875279 -0.28389130644638338 0 0.017626458989094668 -0.28291923414234471 0 0.02617344850855292 -0.29294995786668881 0 0.031509774792273848 -0.28757334428284709 0 0.02617344850855292 -0.29294995786668881 0 0.029896053765107101 -0.28703237586413871 0 0.026297420795374931 -0.28925768944990088 0 0.02617344850855292 -0.29294995786668881 0 0.029896053765107101 -0.28703237586413871 0 0.02617344850855292 -0.29294995786668881 0 0.029896053765107101 -0.28703237586413871 0 0.031509774792273848 -0.28757334428284709 0 0.02264552921693655 -0.29015596403207128 0 0.02617344850855292 -0.29294995786668881 0 0.02264552921693655 -0.29015596403207128 0 0.026297420795374931 -0.28925768944990088 0 0.02617344850855292 -0.29294995786668881 0 0.017626458989094668 -0.28291923414234471 0 0.027317750735394119 -0.28616805019107627 0 0.025739110361276921 -0.27700608523124759 0 0.02264552921693655 -0.29015596403207128 0 0.027317750735394119 -0.28616805019107627 0 0.02264552921693655 -0.29015596403207128 0 0.026297420795374931 -0.28925768944990088 0 0.027317750735394119 -0.28616805019107627 0 0.026297420795374931 -0.28925768944990088 0 0.027317750735394119 -0.28616805019107627 0 0.029896053765107101 -0.28703237586413871 0 0.029896053765107101 -0.28703237586413871 0 0.031509774792273848 -0.28757334428284709 0 0.027317750735394119 -0.28616805019107627 0 0.029896053765107101 -0.28703237586413871 0 0.027317750735394119 -0.28616805019107627 0 0.03405990743744379 -0.2804133701263446 0 0.027317750735394119 -0.28616805019107627 0 0.029896053765107101 -0.28703237586413871 0 0.03405990743744379 -0.2804133701263446 0 0.01264497789389689 -0.31445528242141552 0 0.02264552921693655 -0.29015596403207128 0 0.02617344850855292 -0.29294995786668881 0 0.01264497789389689 -0.31445528242141552 0 0.02617344850855292 -0.29294995786668881 0 0.026639831170195419 -0.3060826322450817 0 0.01264497789389689 -0.31445528242141552 0 0.02617344850855292 -0.29294995786668881 0 0.028866395355208539 -0.31391652142708337 0 0.01264497789389689 -0.31445528242141552 0 0.026639831170195419 -0.3060826322450817 0 0.02617344850855292 -0.29294995786668881 0 0.026639831170195419 -0.3060826322450817 0 0.038874502923122931 -0.30300876726513892 0 0.038422350788351149 -0.32349857704610252 0 0.038874502923122931 -0.30300876726513892 0 0.047949961999670207 -0.29971265759018312 0 0.038422350788351149 -0.32349857704610252 0 0.047949961999670207 -0.29971265759018312 0 0.028866395355208539 -0.31391652142708337 0 0.026639831170195419 -0.3060826322450817 0 0.038874502923122931 -0.30300876726513892 0 0.042685129599283188 -0.29752732743043298 0 0.038874502923122931 -0.30300876726513892 0 0.037109131233016117 -0.2946864710306793 0 0.042685129599283188 -0.29752732743043298 0 0.038874502923122931 -0.30300876726513892 0 0.047949961999670207 -0.29971265759018312 0 0.02617344850855292 -0.29294995786668881 0 0.038874502923122931 -0.30300876726513892 0 0.02617344850855292 -0.29294995786668881 0 0.038874502923122931 -0.30300876726513892 0 0.037109131233016117 -0.2946864710306793 0 0.037109131233016117 -0.2946864710306793 0 0.031509774792273848 -0.28757334428284709 0 0.046806922241322838 -0.29270141383573089 0 0.02617344850855292 -0.29294995786668881 0 0.037109131233016117 -0.2946864710306793 0 0.031509774792273848 -0.28757334428284709 0 0.029896053765107101 -0.28703237586413871 0 0.03405990743744379 -0.2804133701263446 0 0.029896053765107101 -0.28703237586413871 0 0.031509774792273848 -0.28757334428284709 0 0.03405990743744379 -0.2804133701263446 0 0.046806922241322838 -0.29270141383573089 0 0.044653699307115768 -0.27949384976008312 0 0.031509774792273848 -0.28757334428284709 0 0.046806922241322838 -0.29270141383573089 0 0.044653699307115768 -0.27949384976008312 0 0.031509774792273848 -0.28757334428284709 0 0.046806922241322838 -0.29270141383573089 0 0.042685129599283188 -0.29752732743043298 0 0.037109131233016117 -0.2946864710306793 0 0.046806922241322838 -0.29270141383573089 0 0.042685129599283188 -0.29752732743043298 0 0.046806922241322838 -0.29270141383573089 0 0.047949961999670207 -0.29971265759018312 0 0.046806922241322838 -0.29270141383573089 0 0.050290581514745622 -0.29386924248562529 0 0.047949961999670207 -0.29971265759018312 0 0.065690906579929847 -0.28978768124518212 0 0.050290581514745622 -0.29386924248562529 0 0.056698790101966393 -0.277870989625425 0 0.046806922241322838 -0.29270141383573089 0 0.047949961999670207 -0.29971265759018312 0 0.050290581514745622 -0.29386924248562529 0 0.056698790101966393 -0.277870989625425 0 0.044653699307115768 -0.27949384976008312 0 0.050290581514745622 -0.29386924248562529 0 0.047949961999670207 -0.29971265759018312 0 0.050290581514745622 -0.29386924248562529 0 0.056698790101966393 -0.277870989625425 0 0.046806922241322838 -0.29270141383573089 0 0.050290581514745622 -0.29386924248562529 0 0.046806922241322838 -0.29270141383573089 0 0.050290581514745622 -0.29386924248562529 0 0.044653699307115768 -0.27949384976008312 0 0.051800583007083588 -0.32333182069610522 0 0.047949961999670207 -0.29971265759018312 0 0.051800583007083588 -0.32333182069610522 0 0.057170171420209921 -0.30329417867156128 0 0.047949961999670207 -0.29971265759018312 0 0.075898596495194426 -0.30245382875364868 0 0.050290581514745622 -0.29386924248562529 0 0.057170171420209921 -0.30329417867156128 0 0.050290581514745622 -0.29386924248562529 0 0.057170171420209921 -0.30329417867156128 0 0.047949961999670207 -0.29971265759018312 0 0.048535317278507691 -0.25740275824258269 0 0.054984617670660228 -0.25938113214649278 0 0.05760072083646512 -0.2429920793649378 0 0.054984617670660228 -0.25938113214649278 0 0.045853741470809312 -0.27034689665237421 0 0.048535317278507691 -0.25740275824258269 0 0.054984617670660228 -0.25938113214649278 0 0.045853741470809312 -0.27034689665237421 0 0.048535317278507691 -0.25740275824258269 0 0.054984617670660228 -0.25938113214649278 0 0.048535317278507691 -0.25740275824258269 0 0.05760072083646512 -0.2429920793649378 0 0.063106998689185151 -0.26187273676522382 0 0.054984617670660228 -0.25938113214649278 0 0.063106998689185151 -0.26187273676522382 0 0.054984617670660228 -0.25938113214649278 0 0.048692031751504383 -0.26792431094010932 0 0.063106998689185151 -0.26187273676522382 0 0.056698790101966393 -0.277870989625425 0 0.051384571099849313 -0.27395283443640178 0 0.063106998689185151 -0.26187273676522382 0 0.056698790101966393 -0.277870989625425 0 0.056698790101966393 -0.277870989625425 0 0.051384571099849313 -0.27395283443640178 0 0.044653699307115768 -0.27949384976008312 0 0.051384571099849313 -0.27395283443640178 0 0.045853741470809312 -0.27034689665237421 0 0.044653699307115768 -0.27949384976008312 0 0.063106998689185151 -0.26187273676522382 0 0.051384571099849313 -0.27395283443640178 0 0.048692031751504383 -0.26792431094010932 0 0.054984617670660228 -0.25938113214649278 0 0.048692031751504383 -0.26792431094010932 0 0.045853741470809312 -0.27034689665237421 0 0.051384571099849313 -0.27395283443640178 0 0.048692031751504383 -0.26792431094010932 0 0.045853741470809312 -0.27034689665237421 0 0.048692031751504383 -0.26792431094010932 0 0.045853741470809312 -0.27034689665237421 0 0.031509774792273848 -0.28757334428284709 0 0.045853741470809312 -0.27034689665237421 0 0.044653699307115768 -0.27949384976008312 0 0.048535317278507691 -0.25740275824258269 0 0.03405990743744379 -0.2804133701263446 0 0.031509774792273848 -0.28757334428284709 0 0.045853741470809312 -0.27034689665237421 0 0.031509774792273848 -0.28757334428284709 0 0.045853741470809312 -0.27034689665237421 0 0.03405990743744379 -0.2804133701263446 0 0.048535317278507691 -0.25740275824258269 0 0.03405990743744379 -0.2804133701263446 0 0.032737435985618291 -0.26932209643772292 0 0.048535317278507691 -0.25740275824258269 0 0.045853741470809312 -0.27034689665237421 0 0.03405990743744379 -0.2804133701263446 0 0.045853741470809312 -0.27034689665237421 0 0.03405990743744379 -0.2804133701263446 0 0.048535317278507691 -0.25740275824258269 0 0.032734595245714392 -0.26088786242702772 0 0.035239310454955423 -0.25332410298907082 0 0.048535317278507691 -0.25740275824258269 0 0.032737435985618291 -0.26932209643772292 0 0.032734595245714392 -0.26088786242702772 0 0.048535317278507691 -0.25740275824258269 0 0.035239310454955423 -0.25332410298907082 0 0.043708754316485909 -0.2461811372233394 0 0.048535317278507691 -0.25740275824258269 0 0.035239310454955423 -0.25332410298907082 0 0.032734595245714392 -0.26088786242702772 0 0.035239310454955423 -0.25332410298907082 0 0.02313545401842626 -0.2575872094308459 0 0.02313545401842626 -0.2575872094308459 0 0.0095018751099297406 -0.25072185375926792 0 0.0259993756876153 -0.24635993548940291 0 0.035239310454955423 -0.25332410298907082 0 0.02313545401842626 -0.2575872094308459 0 0.0259993756876153 -0.24635993548940291 0 0.032734595245714392 -0.26088786242702772 0 0.02313545401842626 -0.2575872094308459 0 0.02402545849106438 -0.26680314503491592 0 0.02313545401842626 -0.2575872094308459 0 0.02402545849106438 -0.26680314503491592 0 0.013010671480122259 -0.26573831014905991 0 0.03405990743744379 -0.2804133701263446 0 0.032737435985618291 -0.26932209643772292 0 0.025739110361276921 -0.27700608523124759 0 0.027317750735394119 -0.28616805019107627 0 0.03405990743744379 -0.2804133701263446 0 0.025739110361276921 -0.27700608523124759 0 0.032737435985618291 -0.26932209643772292 0 0.032734595245714392 -0.26088786242702772 0 0.02402545849106438 -0.26680314503491592 0 0.032737435985618291 -0.26932209643772292 0 0.025739110361276921 -0.27700608523124759 0 0.02402545849106438 -0.26680314503491592 0 0.025739110361276921 -0.27700608523124759 0 0.02402545849106438 -0.26680314503491592 0 0.018081482667566741 -0.27535410985709369 0 0.02402545849106438 -0.26680314503491592 0 0.018081482667566741 -0.27535410985709369 0 0.013010671480122259 -0.26573831014905991 0 0.017626458989094668 -0.28291923414234471 0 0.025739110361276921 -0.27700608523124759 0 0.018081482667566741 -0.27535410985709369 0 -0.0096632591649378104 -0.2645684865187804 0 0.01048492816642939 -0.2805251755837368 0 0.013010671480122259 -0.26573831014905991 0 -0.0096632591649378104 -0.2645684865187804 0 0.01048492816642939 -0.2805251755837368 0 0.018081482667566741 -0.27535410985709369 0 0.01048492816642939 -0.2805251755837368 0 0.013010671480122259 -0.26573831014905991 0 0.017626458989094668 -0.28291923414234471 0 0.018081482667566741 -0.27535410985709369 0 0.01048492816642939 -0.2805251755837368 0 -0.0096632591649378104 -0.2645684865187804 0 0.013010671480122259 -0.26573831014905991 0 0.0095018751099297406 -0.25072185375926792 0 0.02313545401842626 -0.2575872094308459 0 0.013010671480122259 -0.26573831014905991 0 0.0095018751099297406 -0.25072185375926792 0 0.0095018751099297406 -0.25072185375926792 0 0.0081146322869257107 -0.22319810270693111 0 0.014973394720799629 -0.23285645027159049 0 -0.0028941976110883291 -0.2375498012394118 0 0.0095018751099297406 -0.25072185375926792 0 0.0081146322869257107 -0.22319810270693111 0 0.0095018751099297406 -0.25072185375926792 0 0.0081146322869257107 -0.22319810270693111 0 -0.0028941976110883291 -0.2375498012394118 0 -0.004663156443558988 -0.22414970022455549 0 0.0081146322869257107 -0.22319810270693111 0 0.0081146322869257107 -0.22319810270693111 0 0.014973394720799629 -0.23285645027159049 0 0.01967961437768774 -0.22198083942452401 0 0.0081146322869257107 -0.22319810270693111 0 0.01967961437768774 -0.22198083942452401 0 0.010785272534781251 -0.21448942942106911 0 0.014973394720799629 -0.23285645027159049 0 0.01967961437768774 -0.22198083942452401 0 0.022597457108655308 -0.23552500519563879 0 0.01967961437768774 -0.22198083942452401 0 0.030797448319407991 -0.22539028352916571 0 0.026180919204912639 -0.21536699645498281 0 0.01967961437768774 -0.22198083942452401 0 0.030797448319407991 -0.22539028352916571 0 0.022597457108655308 -0.23552500519563879 0 0.030797448319407991 -0.22539028352916571 0 0.022597457108655308 -0.23552500519563879 0 0.034966191635010031 -0.23904746427689999 0 0.0095018751099297406 -0.25072185375926792 0 0.014973394720799629 -0.23285645027159049 0 0.022597457108655308 -0.23552500519563879 0 0.0259993756876153 -0.24635993548940291 0 0.022597457108655308 -0.23552500519563879 0 0.034966191635010031 -0.23904746427689999 0 0.0095018751099297406 -0.25072185375926792 0 0.0259993756876153 -0.24635993548940291 0 0.022597457108655308 -0.23552500519563879 0 0.0081146322869257107 -0.22319810270693111 0 0.0067273894639216826 -0.1956743516545944 0 -0.0064250330942206548 -0.21013409082178189 0 0.0081146322869257107 -0.22319810270693111 0 0.0067273894639216826 -0.1956743516545944 0 0.0081146322869257107 -0.22319810270693111 0 0.0067273894639216826 -0.1956743516545944 0 0.010785272534781251 -0.21448942942106911 0 0.0067273894639216826 -0.1956743516545944 0 0.010785272534781251 -0.21448942942106911 0 0.030747385844336748 -0.2009838307420708 0 0.010785272534781251 -0.21448942942106911 0 0.026180919204912639 -0.21536699645498281 0 0.030747385844336748 -0.2009838307420708 0 0.010785272534781251 -0.21448942942106911 0 0.030747385844336748 -0.2009838307420708 0 0.01967961437768774 -0.22198083942452401 0 0.010785272534781251 -0.21448942942106911 0 0.026180919204912639 -0.21536699645498281 0 0.0067273894639216826 -0.1956743516545944 0 0.030747385844336748 -0.2009838307420708 0 0.023519631010559879 -0.1830148850260277 0 0.030747385844336748 -0.2009838307420708 0 0.036326335428888787 -0.18365448959348751 0 0.023519631010559879 -0.1830148850260277 0 0.030747385844336748 -0.2009838307420708 0 0.050709499153892251 -0.18747823206307249 0 0.030747385844336748 -0.2009838307420708 0 0.044495571640152741 -0.20127246732188001 0 0.050709499153892251 -0.18747823206307249 0 0.030747385844336748 -0.2009838307420708 0 0.050709499153892251 -0.18747823206307249 0 0.036326335428888787 -0.18365448959348751 0 0.044495571640152741 -0.20127246732188001 0 0.038894874948349478 -0.2139905991580846 0 0.056887695750897062 -0.21683296774190511 0 0.026180919204912639 -0.21536699645498281 0 0.030747385844336748 -0.2009838307420708 0 0.038894874948349478 -0.2139905991580846 0 0.030747385844336748 -0.2009838307420708 0 0.044495571640152741 -0.20127246732188001 0 0.038894874948349478 -0.2139905991580846 0 0.030797448319407991 -0.22539028352916571 0 0.026180919204912639 -0.21536699645498281 0 0.038894874948349478 -0.2139905991580846 0 0.056887695750897062 -0.21683296774190511 0 0.06453259568756875 -0.1948933892268303 0 0.044495571640152741 -0.20127246732188001 0 0.056887695750897062 -0.21683296774190511 0 0.054808767794736007 -0.1937152692116606 0 0.056887695750897062 -0.21683296774190511 0 0.054808767794736007 -0.1937152692116606 0 0.06453259568756875 -0.1948933892268303 0 0.054808767794736007 -0.1937152692116606 0 0.06453259568756875 -0.1948933892268303 0 0.050709499153892251 -0.18747823206307249 0 0.044495571640152741 -0.20127246732188001 0 0.054808767794736007 -0.1937152692116606 0 0.050709499153892251 -0.18747823206307249 0 0.054808767794736007 -0.1937152692116606 0 0.050709499153892251 -0.18747823206307249 0 0.034966191635010031 -0.23904746427689999 0 0.042658145656857049 -0.2267394794155066 0 0.049242795814225367 -0.23877254625697991 0 0.043708754316485909 -0.2461811372233394 0 0.034966191635010031 -0.23904746427689999 0 0.049242795814225367 -0.23877254625697991 0 0.035239310454955423 -0.25332410298907082 0 0.043708754316485909 -0.2461811372233394 0 0.034966191635010031 -0.23904746427689999 0 0.035239310454955423 -0.25332410298907082 0 0.0259993756876153 -0.24635993548940291 0 0.034966191635010031 -0.23904746427689999 0 0.030797448319407991 -0.22539028352916571 0 0.034966191635010031 -0.23904746427689999 0 0.042658145656857049 -0.2267394794155066 0 0.038894874948349478 -0.2139905991580846 0 0.056887695750897062 -0.21683296774190511 0 0.042658145656857049 -0.2267394794155066 0 0.030797448319407991 -0.22539028352916571 0 0.038894874948349478 -0.2139905991580846 0 0.042658145656857049 -0.2267394794155066 0 0.056887695750897062 -0.21683296774190511 0 0.049242795814225367 -0.23877254625697991 0 0.056887695750897062 -0.21683296774190511 0 0.061828704459307153 -0.22978756285835319 0 0.049242795814225367 -0.23877254625697991 0 0.056887695750897062 -0.21683296774190511 0 0.042658145656857049 -0.2267394794155066 0 0.049242795814225367 -0.23877254625697991 0 0.054984617670660228 -0.25938113214649278 0 0.05760072083646512 -0.2429920793649378 0 0.070883323071118082 -0.24028751445263849 0 0.049242795814225367 -0.23877254625697991 0 0.05760072083646512 -0.2429920793649378 0 0.063414233339755904 -0.2375743789021402 0 0.061828704459307153 -0.22978756285835319 0 0.049242795814225367 -0.23877254625697991 0 0.063414233339755904 -0.2375743789021402 0 0.048535317278507691 -0.25740275824258269 0 0.043708754316485909 -0.2461811372233394 0 0.05760072083646512 -0.2429920793649378 0 0.043708754316485909 -0.2461811372233394 0 0.049242795814225367 -0.23877254625697991 0 0.05760072083646512 -0.2429920793649378 0 0.054984617670660228 -0.25938113214649278 0 0.070169446765414104 -0.24424115867320481 0 0.070883323071118082 -0.24028751445263849 0 0.054984617670660228 -0.25938113214649278 0 0.070883323071118082 -0.24028751445263849 0 0.05760072083646512 -0.2429920793649378 0 0.063414233339755904 -0.2375743789021402 0 0.070883323071118082 -0.24028751445263849 0 0.063414233339755904 -0.2375743789021402 0 0.070883323071118082 -0.24028751445263849 0 0.067498677441997501 -0.23384942867694439 0 0.070169446765414104 -0.24424115867320481 0 0.070883323071118082 -0.24028751445263849 0 0.0779487918637779 -0.24339474811229969 0 0.075587721577906081 -0.25065551029161159 0 0.070169446765414104 -0.24424115867320481 0 0.0779487918637779 -0.24339474811229969 0 0.085219798962378565 -0.24605459337095839 0 0.085627329813530592 -0.23434763751045939 0 0.1022481395899182 -0.24712385359245981 0 0.075587721577906081 -0.25065551029161159 0 0.0779487918637779 -0.24339474811229969 0 0.085219798962378565 -0.24605459337095839 0 0.0779487918637779 -0.24339474811229969 0 0.085219798962378565 -0.24605459337095839 0 0.085627329813530592 -0.23434763751045939 0 0.070883323071118082 -0.24028751445263849 0 0.0779487918637779 -0.24339474811229969 0 0.085627329813530592 -0.23434763751045939 0 0.070883323071118082 -0.24028751445263849 0 0.086782028471576816 -0.22119389675878509 0 0.086782028471576816 -0.22119389675878509 0 0.085627329813530592 -0.23434763751045939 0 0.104547928371465 -0.22107359427259371 0 0.070883323071118082 -0.24028751445263849 0 0.086782028471576816 -0.22119389675878509 0 0.085627329813530592 -0.23434763751045939 0 0.070883323071118082 -0.24028751445263849 0 0.086782028471576816 -0.22119389675878509 0 0.073868448897808886 -0.22774825849464569 0 0.086782028471576816 -0.22119389675878509 0 0.073868448897808886 -0.22774825849464569 0 0.072599746766212683 -0.2173187230448812 0 0.056887695750897062 -0.21683296774190511 0 0.061828704459307153 -0.22978756285835319 0 0.072599746766212683 -0.2173187230448812 0 0.070883323071118082 -0.24028751445263849 0 0.073868448897808886 -0.22774825849464569 0 0.067498677441997501 -0.23384942867694439 0 0.061828704459307153 -0.22978756285835319 0 0.073868448897808886 -0.22774825849464569 0 0.067498677441997501 -0.23384942867694439 0 0.061828704459307153 -0.22978756285835319 0 0.063414233339755904 -0.2375743789021402 0 0.067498677441997501 -0.23384942867694439 0 0.061828704459307153 -0.22978756285835319 0 0.073868448897808886 -0.22774825849464569 0 0.072599746766212683 -0.2173187230448812 0 0.056887695750897062 -0.21683296774190511 0 0.070444113148088391 -0.2059761565779224 0 0.06453259568756875 -0.1948933892268303 0 0.056887695750897062 -0.21683296774190511 0 0.070444113148088391 -0.2059761565779224 0 0.072599746766212683 -0.2173187230448812 0 0.070444113148088391 -0.2059761565779224 0 0.072599746766212683 -0.2173187230448812 0 0.080188280418874325 -0.20654887479994971 0 0.070444113148088391 -0.2059761565779224 0 0.06453259568756875 -0.1948933892268303 0 0.075679243179087696 -0.19602656931032669 0 0.070444113148088391 -0.2059761565779224 0 0.075679243179087696 -0.19602656931032669 0 0.080188280418874325 -0.20654887479994971 0 0.06453259568756875 -0.1948933892268303 0 0.075679243179087696 -0.19602656931032669 0 0.076567412544486207 -0.18499522787351941 0 0.075679243179087696 -0.19602656931032669 0 0.085706499713739462 -0.1875258343988789 0 0.085119059893162541 -0.19710423930583229 0 0.075679243179087696 -0.19602656931032669 0 0.085706499713739462 -0.1875258343988789 0 0.076567412544486207 -0.18499522787351941 0 0.085119059893162541 -0.19710423930583229 0 0.080188280418874325 -0.20654887479994971 0 0.089957658337298185 -0.20421483319232539 0 0.075679243179087696 -0.19602656931032669 0 0.085119059893162541 -0.19710423930583229 0 0.080188280418874325 -0.20654887479994971 0 0.085119059893162541 -0.19710423930583229 0 0.089957658337298185 -0.20421483319232539 0 0.095018189030841652 -0.19412687603212861 0 0.085706499713739462 -0.1875258343988789 0 0.085119059893162541 -0.19710423930583229 0 0.095018189030841652 -0.19412687603212861 0 0.086782028471576816 -0.22119389675878509 0 0.089957658337298185 -0.20421483319232539 0 0.10268073387203561 -0.20210027906493161 0 0.086782028471576816 -0.22119389675878509 0 0.080188280418874325 -0.20654887479994971 0 0.089957658337298185 -0.20421483319232539 0 0.086782028471576816 -0.22119389675878509 0 0.072599746766212683 -0.2173187230448812 0 0.080188280418874325 -0.20654887479994971 0 0.086782028471576816 -0.22119389675878509 0 0.10268073387203561 -0.20210027906493161 0 0.086782028471576816 -0.22119389675878509 0 0.10268073387203561 -0.20210027906493161 0 0.104547928371465 -0.22107359427259371 0 0.10268073387203561 -0.20210027906493161 0 0.1068477171530117 -0.1950233349527275 0 0.104547928371465 -0.22107359427259371 0 0.1068477171530117 -0.1950233349527275 0 0.104547928371465 -0.22107359427259371 0 0.095018189030841652 -0.19412687603212861 0 0.1068477171530117 -0.1950233349527275 0 0.096952231013144929 -0.179523479520665 0 0.095018189030841652 -0.19412687603212861 0 0.10268073387203561 -0.20210027906493161 0 0.1068477171530117 -0.1950233349527275 0 0.089957658337298185 -0.20421483319232539 0 0.095018189030841652 -0.19412687603212861 0 0.10268073387203561 -0.20210027906493161 0 0.1068477171530117 -0.1950233349527275 0 0.1184670003310951 -0.20981538024285901 0 0.12889855170471529 -0.19881143854025091 0 0.1068477171530117 -0.1950233349527275 0 0.12025026980471989 -0.1830799037767375 0 0.12889855170471529 -0.19881143854025091 0 0.1068477171530117 -0.1950233349527275 0 0.1184670003310951 -0.20981538024285901 0 0.104547928371465 -0.22107359427259371 0 0.1184670003310951 -0.20981538024285901 0 0.104547928371465 -0.22107359427259371 0 0.12819588272033389 -0.22582934579285421 0 0.1187483127605843 -0.24257476342338349 0 0.104547928371465 -0.22107359427259371 0 0.12819588272033389 -0.22582934579285421 0 0.1187483127605843 -0.24257476342338349 0 0.1022481395899182 -0.24712385359245981 0 0.104547928371465 -0.22107359427259371 0 0.1022481395899182 -0.24712385359245981 0 0.104547928371465 -0.22107359427259371 0 0.085627329813530592 -0.23434763751045939 0 0.1022481395899182 -0.24712385359245981 0 0.104547928371465 -0.22107359427259371 0 0.093895065346407819 -0.1453909563928073 0 0.1084713820125771 -0.14839876203224731 0 0.090324438818409375 -0.16067628637200199 0 0.1084713820125771 -0.14839876203224731 0 0.090324438818409375 -0.16067628637200199 0 0.093895065346407819 -0.1453909563928073 0 0.1084713820125771 -0.14839876203224731 0 0.1053746869845122 -0.1252557325435959 0 0.093895065346407819 -0.1453909563928073 0 0.1053746869845122 -0.1252557325435959 0 0.09025148061776124 -0.12923125189361551 0 0.1053746869845122 -0.1252557325435959 0 0.1229176245917567 -0.1177169729416012 0 0.12552378978607959 -0.1389071642224522 0 0.1084713820125771 -0.14839876203224731 0 0.1053746869845122 -0.1252557325435959 0 0.12552378978607959 -0.1389071642224522 0 0.1053746869845122 -0.1252557325435959 0 0.12552378978607959 -0.1389071642224522 0 0.1084713820125771 -0.14839876203224731 0 0.12649409813850049 -0.16054693265833461 0 0.12552378978607959 -0.1389071642224522 0 0.12025026980471989 -0.1830799037767375 0 0.10914750593455839 -0.16897307563286129 0 0.12649409813850049 -0.16054693265833461 0 0.1084713820125771 -0.14839876203224731 0 0.10914750593455839 -0.16897307563286129 0 0.12649409813850049 -0.16054693265833461 0 0.1068477171530117 -0.1950233349527275 0 0.12025026980471989 -0.1830799037767375 0 0.10914750593455839 -0.16897307563286129 0 0.1068477171530117 -0.1950233349527275 0 0.10914750593455839 -0.16897307563286129 0 0.1068477171530117 -0.1950233349527275 0 0.096952231013144929 -0.179523479520665 0 0.10914750593455839 -0.16897307563286129 0 0.096952231013144929 -0.179523479520665 0 0.10914750593455839 -0.16897307563286129 0 0.090324438818409375 -0.16067628637200199 0 0.1084713820125771 -0.14839876203224731 0 0.10914750593455839 -0.16897307563286129 0 0.090324438818409375 -0.16067628637200199 0 0.090324438818409375 -0.16067628637200199 0 0.08587136917375858 -0.1736442894739082 0 0.072177495624241167 -0.17295381071175589 0 0.090324438818409375 -0.16067628637200199 0 0.072177495624241167 -0.17295381071175589 0 0.096952231013144929 -0.179523479520665 0 0.090324438818409375 -0.16067628637200199 0 0.08587136917375858 -0.1736442894739082 0 0.090324438818409375 -0.16067628637200199 0 0.072177495624241167 -0.17295381071175589 0 0.078001417782109339 -0.15624013250710961 0 0.085706499713739462 -0.1875258343988789 0 0.095018189030841652 -0.19412687603212861 0 0.096952231013144929 -0.179523479520665 0 0.085706499713739462 -0.1875258343988789 0 0.096952231013144929 -0.179523479520665 0 0.08587136917375858 -0.1736442894739082 0 0.08587136917375858 -0.1736442894739082 0 0.076567412544486207 -0.18499522787351941 0 0.072177495624241167 -0.17295381071175589 0 0.085706499713739462 -0.1875258343988789 0 0.08587136917375858 -0.1736442894739082 0 0.076567412544486207 -0.18499522787351941 0 0.06453259568756875 -0.1948933892268303 0 0.072177495624241167 -0.17295381071175589 0 0.06453259568756875 -0.1948933892268303 0 0.076567412544486207 -0.18499522787351941 0 0.072177495624241167 -0.17295381071175589 0 0.072177495624241167 -0.17295381071175589 0 0.078001417782109339 -0.15624013250710961 0 0.072177495624241167 -0.17295381071175589 0 0.078001417782109339 -0.15624013250710961 0 0.059533371337278582 -0.15818538131915069 0 0.078001417782109339 -0.15624013250710961 0 0.069368485874034991 -0.14561197801496259 0 0.083825339939978247 -0.13952645430246369 0 0.078001417782109339 -0.15624013250710961 0 0.069368485874034991 -0.14561197801496259 0 0.059533371337278582 -0.15818538131915069 0 0.093895065346407819 -0.1453909563928073 0 0.090324438818409375 -0.16067628637200199 0 0.078001417782109339 -0.15624013250710961 0 0.093895065346407819 -0.1453909563928073 0 0.078001417782109339 -0.15624013250710961 0 0.083825339939978247 -0.13952645430246369 0 0.078001417782109339 -0.15624013250710961 0 0.083825339939978247 -0.13952645430246369 0 0.093895065346407819 -0.1453909563928073 0 0.09025148061776124 -0.12923125189361551 0 0.083825339939978247 -0.13952645430246369 0 0.09025148061776124 -0.12923125189361551 0 0.083825339939978247 -0.13952645430246369 0 0.079027985489634231 -0.12528968932274759 0 0.079027985489634231 -0.12528968932274759 0 0.068484606991721111 -0.13258723859451491 0 0.064409538489784979 -0.11921822234389449 0 0.083825339939978247 -0.13952645430246369 0 0.079027985489634231 -0.12528968932274759 0 0.068484606991721111 -0.13258723859451491 0 0.069368485874034991 -0.14561197801496259 0 0.083825339939978247 -0.13952645430246369 0 0.068484606991721111 -0.13258723859451491 0 0.069368485874034991 -0.14561197801496259 0 0.068484606991721111 -0.13258723859451491 0 0.056761424129532508 -0.14170533478559599 0 0.068484606991721111 -0.13258723859451491 0 0.053486572853121958 -0.12731998588692089 0 0.064409538489784979 -0.11921822234389449 0 0.053486572853121958 -0.12731998588692089 0 0.056761424129532508 -0.14170533478559599 0 0.041462133994620273 -0.13724097912134819 0 0.068484606991721111 -0.13258723859451491 0 0.053486572853121958 -0.12731998588692089 0 0.056761424129532508 -0.14170533478559599 0 0.056761424129532508 -0.14170533478559599 0 0.044643452669539153 -0.15054115310684821 0 0.059533371337278582 -0.15818538131915069 0 0.069368485874034991 -0.14561197801496259 0 0.056761424129532508 -0.14170533478559599 0 0.059533371337278582 -0.15818538131915069 0 0.056761424129532508 -0.14170533478559599 0 0.044643452669539153 -0.15054115310684821 0 0.041462133994620273 -0.13724097912134819 0 0.044643452669539153 -0.15054115310684821 0 0.041462133994620273 -0.13724097912134819 0 0.024886037018088579 -0.14818783498065891 0 0.044643452669539153 -0.15054115310684821 0 0.037797768085990967 -0.16783303352186529 0 0.024886037018088579 -0.14818783498065891 0 0.041462133994620273 -0.13724097912134819 0 0.029198344172543571 -0.13136957833147739 0 0.024886037018088579 -0.14818783498065891 0 0.041462133994620273 -0.13724097912134819 0 0.029198344172543571 -0.13136957833147739 0 0.039796973124895878 -0.12432198763658781 0 0.053486572853121958 -0.12731998588692089 0 0.041462133994620273 -0.13724097912134819 0 0.039796973124895878 -0.12432198763658781 0 0.055670234865450897 -0.1722826939681775 0 0.050709499153892251 -0.18747823206307249 0 0.037797768085990967 -0.16783303352186529 0 0.072177495624241167 -0.17295381071175589 0 0.055670234865450897 -0.1722826939681775 0 0.050709499153892251 -0.18747823206307249 0 0.072177495624241167 -0.17295381071175589 0 0.050709499153892251 -0.18747823206307249 0 0.06453259568756875 -0.1948933892268303 0 0.072177495624241167 -0.17295381071175589 0 0.050709499153892251 -0.18747823206307249 0 0.072177495624241167 -0.17295381071175589 0 0.055670234865450897 -0.1722826939681775 0 0.059533371337278582 -0.15818538131915069 0 0.055670234865450897 -0.1722826939681775 0 0.059533371337278582 -0.15818538131915069 0 0.037797768085990967 -0.16783303352186529 0 0.044643452669539153 -0.15054115310684821 0 0.059533371337278582 -0.15818538131915069 0 0.037797768085990967 -0.16783303352186529 0 0.037797768085990967 -0.16783303352186529 0 0.024886037018088579 -0.14818783498065891 0 0.050709499153892251 -0.18747823206307249 0 0.037797768085990967 -0.16783303352186529 0 0.037797768085990967 -0.16783303352186529 0 0.036326335428888787 -0.18365448959348751 0 0.023519631010559879 -0.1830148850260277 0 0.050709499153892251 -0.18747823206307249 0 0.037797768085990967 -0.16783303352186529 0 0.036326335428888787 -0.18365448959348751 0 0.037797768085990967 -0.16783303352186529 0 0.023519631010559879 -0.1830148850260277 0 0.0053401466409176528 -0.16815060060225759 0 0.037797768085990967 -0.16783303352186529 0 0.0053401466409176528 -0.16815060060225759 0 0.024886037018088579 -0.14818783498065891 0 0.0067273894639216826 -0.1956743516545944 0 0.023519631010559879 -0.1830148850260277 0 0.0053401466409176528 -0.16815060060225759 0 0.0067273894639216826 -0.1956743516545944 0 0.0053401466409176528 -0.16815060060225759 0 0.029198344172543571 -0.13136957833147739 0 0.024886037018088579 -0.14818783498065891 0 0.011974305950186189 -0.12854263643945241 0 0.024886037018088579 -0.14818783498065891 0 0.011974305950186189 -0.12854263643945241 0 0.029198344172543571 -0.13136957833147739 0 0.011974305950186189 -0.12854263643945241 0 0.025095741992742091 -0.11900125167371819 0 -0.006198427009351748 -0.14933585989375531 0 0.0053401466409176528 -0.16815060060225759 0 0.0039529038179136186 -0.14062684954992069 0 0.0053401466409176528 -0.16815060060225759 0 0.024886037018088579 -0.14818783498065891 0 0.0039529038179136186 -0.14062684954992069 0 0.0053401466409176528 -0.16815060060225759 0 0.0039529038179136186 -0.14062684954992069 0 -0.00320301459519353 -0.1231720439733197 0 0.0039529038179136186 -0.14062684954992069 0 0.0025656609949095939 -0.113103098497584 0 0.0039529038179136186 -0.14062684954992069 0 0.011974305950186189 -0.12854263643945241 0 0.0052926860001538262 -0.12102726337512459 0 0.0039529038179136186 -0.14062684954992069 0 0.0025656609949095939 -0.113103098497584 0 0.024886037018088579 -0.14818783498065891 0 0.0039529038179136186 -0.14062684954992069 0 0.011974305950186189 -0.12854263643945241 0 0.0052926860001538262 -0.12102726337512459 0 0.0025656609949095939 -0.113103098497584 0 0.01763094473622371 -0.1032474721443848 0 0.0052926860001538262 -0.12102726337512459 0 0.015005504186836891 -0.1191198502742537 0 0.01763094473622371 -0.1032474721443848 0 0.0052926860001538262 -0.12102726337512459 0 0.01763094473622371 -0.1032474721443848 0 0.0039529038179136186 -0.14062684954992069 0 0.0052926860001538262 -0.12102726337512459 0 0.0025656609949095939 -0.113103098497584 0 0.011974305950186189 -0.12854263643945241 0 0.0052926860001538262 -0.12102726337512459 0 0.015005504186836891 -0.1191198502742537 0 0.015005504186836891 -0.1191198502742537 0 0.025095741992742091 -0.11900125167371819 0 0.01763094473622371 -0.1032474721443848 0 0.011974305950186189 -0.12854263643945241 0 0.015005504186836891 -0.1191198502742537 0 0.025095741992742091 -0.11900125167371819 0 0.025095741992742091 -0.11900125167371819 0 0.030827639855992212 -0.1088361824338181 0 0.01763094473622371 -0.1032474721443848 0 0.025095741992742091 -0.11900125167371819 0 0.030827639855992212 -0.1088361824338181 0 0.035356786875466263 -0.11494468253901639 0 0.01763094473622371 -0.1032474721443848 0 0.02996920347229012 -0.085467680913642541 0 0.01763094473622371 -0.1032474721443848 0 0.02996920347229012 -0.085467680913642541 0 0.032422261953866612 -0.09881494080008657 0 0.030827639855992212 -0.1088361824338181 0 0.01763094473622371 -0.1032474721443848 0 0.032422261953866612 -0.09881494080008657 0 0.01763094473622371 -0.1032474721443848 0 0.0081143249078706719 -0.098695288762989317 0 0.01108227572844382 -0.092851236964741027 0 0.0025656609949095939 -0.113103098497584 0 0.0081143249078706719 -0.098695288762989317 0 0.0011784181719055719 -0.085579347445247422 0 -0.00068194533298980564 -0.1059050996909678 0 0.0025656609949095939 -0.113103098497584 0 0.0011784181719055719 -0.085579347445247422 0 0.0025656609949095939 -0.113103098497584 0 0.0011784181719055719 -0.085579347445247422 0 0.0025656609949095939 -0.113103098497584 0 0.01763094473622371 -0.1032474721443848 0 0.0081143249078706719 -0.098695288762989317 0 0.0081143249078706719 -0.098695288762989317 0 0.0011784181719055719 -0.085579347445247422 0 0.01108227572844382 -0.092851236964741027 0 0.0011784181719055719 -0.085579347445247422 0 0.0094006945670157931 -0.083415521124567696 0 0.01108227572844382 -0.092851236964741027 0 0.0011784181719055719 -0.085579347445247422 0 0.0094006945670157931 -0.083415521124567696 0 0.0048544287811922923 -0.074383379176027678 0 0.0094006945670157931 -0.083415521124567696 0 0.0090474270369462553 -0.070483051741384792 0 0.018303678724991099 -0.082910507089858698 0 0.0094006945670157931 -0.083415521124567696 0 0.01108227572844382 -0.092851236964741027 0 0.018303678724991099 -0.082910507089858698 0 -0.00020882465109851411 -0.05805559639291083 0 0.0011784181719055719 -0.085579347445247422 0 -0.00020882465109851411 -0.05805559639291083 0 0.0048544287811922923 -0.074383379176027678 0 0.0090474270369462553 -0.070483051741384792 0 -0.00020882465109851411 -0.05805559639291083 0 0.0011784181719055719 -0.085579347445247422 0 0.0048544287811922923 -0.074383379176027678 0 -0.00020882465109851411 -0.05805559639291083 0 0.0090474270369462553 -0.070483051741384792 0 0.0094006945670157931 -0.083415521124567696 0 0.0048544287811922923 -0.074383379176027678 0 0.0090474270369462553 -0.070483051741384792 0 0.0090474270369462553 -0.070483051741384792 0 0.014685574649030199 -0.067900362055014804 0 0.018303678724991099 -0.082910507089858698 0 0.0090474270369462553 -0.070483051741384792 0 0.018303678724991099 -0.082910507089858698 0 -0.00020882465109851411 -0.05805559639291083 0 0.0090474270369462553 -0.070483051741384792 0 0.014685574649030199 -0.067900362055014804 0 0.014685574649030199 -0.067900362055014804 0 0.025230497585901051 -0.070819765180057739 0 0.02996920347229012 -0.085467680913642541 0 0.014685574649030199 -0.067900362055014804 0 0.02996920347229012 -0.085467680913642541 0 0.014685574649030199 -0.067900362055014804 0 0.025230497585901051 -0.070819765180057739 0 0.02328013224298325 -0.061172736681843212 0 0.03065503926197723 -0.071924958339989839 0 0.025230497585901051 -0.070819765180057739 0 0.02996920347229012 -0.085467680913642541 0 0.025230497585901051 -0.070819765180057739 0 0.029376537607686149 -0.066407879603206738 0 0.02328013224298325 -0.061172736681843212 0 0.03065503926197723 -0.071924958339989839 0 0.025230497585901051 -0.070819765180057739 0 0.029376537607686149 -0.066407879603206738 0 0.014685574649030199 -0.067900362055014804 0 0.018303678724991099 -0.082910507089858698 0 0.02996920347229012 -0.085467680913642541 0 0.01763094473622371 -0.1032474721443848 0 0.01108227572844382 -0.092851236964741027 0 0.018303678724991099 -0.082910507089858698 0 0.01763094473622371 -0.1032474721443848 0 0.018303678724991099 -0.082910507089858698 0 0.02996920347229012 -0.085467680913642541 0 0.035303378232980097 -0.077780979275913237 0 0.052785316096120673 -0.073447987666056605 0 0.050189929807178763 -0.087866924230898244 0 0.02996920347229012 -0.085467680913642541 0 0.036545917956618212 -0.093027092472535586 0 0.038207415302072868 -0.085820240607738796 0 0.02996920347229012 -0.085467680913642541 0 0.036545917956618212 -0.093027092472535586 0 0.032422261953866612 -0.09881494080008657 0 0.036545917956618212 -0.093027092472535586 0 0.038207415302072868 -0.085820240607738796 0 0.041786298792538257 -0.090353370277567971 0 0.02996920347229012 -0.085467680913642541 0 0.036545917956618212 -0.093027092472535586 0 0.02996920347229012 -0.085467680913642541 0 0.033728905611810689 -0.076714241683187634 0 0.035303378232980097 -0.077780979275913237 0 0.02996920347229012 -0.085467680913642541 0 0.038207415302072868 -0.085820240607738796 0 0.035303378232980097 -0.077780979275913237 0 0.02996920347229012 -0.085467680913642541 0 0.035303378232980097 -0.077780979275913237 0 0.038207415302072868 -0.085820240607738796 0 0.035303378232980097 -0.077780979275913237 0 0.050189929807178763 -0.087866924230898244 0 0.035303378232980097 -0.077780979275913237 0 0.050189929807178763 -0.087866924230898244 0 0.041786298792538257 -0.090353370277567971 0 0.050189929807178763 -0.087866924230898244 0 0.041028295021018908 -0.096207960329566841 0 0.038207415302072868 -0.085820240607738796 0 0.041786298792538257 -0.090353370277567971 0 0.050189929807178763 -0.087866924230898244 0 0.036545917956618212 -0.093027092472535586 0 0.041786298792538257 -0.090353370277567971 0 0.041028295021018908 -0.096207960329566841 0 0.035030960196180468 -0.068729103219955651 0 0.035303378232980097 -0.077780979275913237 0 0.048146783446262102 -0.059273257216530699 0 0.035303378232980097 -0.077780979275913237 0 0.048146783446262102 -0.059273257216530699 0 0.035303378232980097 -0.077780979275913237 0 0.052785316096120673 -0.073447987666056605 0 0.048146783446262102 -0.059273257216530699 0 0.029376537607686149 -0.066407879603206738 0 0.035030960196180468 -0.068729103219955651 0 0.03268605875138874 -0.059392834594187219 0 0.03065503926197723 -0.071924958339989839 0 0.029376537607686149 -0.066407879603206738 0 0.035030960196180468 -0.068729103219955651 0 0.035030960196180468 -0.068729103219955651 0 0.033728905611810689 -0.076714241683187634 0 0.035303378232980097 -0.077780979275913237 0 0.03065503926197723 -0.071924958339989839 0 0.02996920347229012 -0.085467680913642541 0 0.033728905611810689 -0.076714241683187634 0 0.03065503926197723 -0.071924958339989839 0 0.035030960196180468 -0.068729103219955651 0 0.033728905611810689 -0.076714241683187634 0 0.033728905611810689 -0.076714241683187634 0 0.035303378232980097 -0.077780979275913237 0 0.052785316096120673 -0.073447987666056605 0 0.064944615411906603 -0.061756734158408218 0 0.066046810092791328 -0.07936409005217604 0 0.052785316096120673 -0.073447987666056605 0 0.048146783446262102 -0.059273257216530699 0 0.064944615411906603 -0.061756734158408218 0 0.052785316096120673 -0.073447987666056605 0 0.050189929807178763 -0.087866924230898244 0 0.066046810092791328 -0.07936409005217604 0 0.050189929807178763 -0.087866924230898244 0 0.06507648138137756 -0.097952869185883029 0 0.066046810092791328 -0.07936409005217604 0 0.050189929807178763 -0.087866924230898244 0 0.06507648138137756 -0.097952869185883029 0 0.050189929807178763 -0.087866924230898244 0 0.041028295021018908 -0.096207960329566841 0 0.06507648138137756 -0.097952869185883029 0 0.05035489564483716 -0.1107004194010086 0 0.041028295021018908 -0.096207960329566841 0 0.06507648138137756 -0.097952869185883029 0 0.041028295021018908 -0.096207960329566841 0 0.06507648138137756 -0.097952869185883029 0 0.05035489564483716 -0.1107004194010086 0 0.063288182244386093 -0.10967689148196989 0 0.06507648138137756 -0.097952869185883029 0 0.05035489564483716 -0.1107004194010086 0 0.064409538489784979 -0.11921822234389449 0 0.063288182244386093 -0.10967689148196989 0 0.053486572853121958 -0.12731998588692089 0 0.05035489564483716 -0.1107004194010086 0 0.064409538489784979 -0.11921822234389449 0 0.053486572853121958 -0.12731998588692089 0 0.05035489564483716 -0.1107004194010086 0 0.039796973124895878 -0.12432198763658781 0 0.05035489564483716 -0.1107004194010086 0 0.039796973124895878 -0.12432198763658781 0 0.035356786875466263 -0.11494468253901639 0 0.05035489564483716 -0.1107004194010086 0 0.035356786875466263 -0.11494468253901639 0 0.038531570681056532 -0.1061032565065716 0 0.025095741992742091 -0.11900125167371819 0 0.039796973124895878 -0.12432198763658781 0 0.035356786875466263 -0.11494468253901639 0 0.029198344172543571 -0.13136957833147739 0 0.025095741992742091 -0.11900125167371819 0 0.039796973124895878 -0.12432198763658781 0 0.030827639855992212 -0.1088361824338181 0 0.035356786875466263 -0.11494468253901639 0 0.038531570681056532 -0.1061032565065716 0 0.030827639855992212 -0.1088361824338181 0 0.038531570681056532 -0.1061032565065716 0 0.032422261953866612 -0.09881494080008657 0 0.038531570681056532 -0.1061032565065716 0 0.032422261953866612 -0.09881494080008657 0 0.041028295021018908 -0.096207960329566841 0 0.036545917956618212 -0.093027092472535586 0 0.032422261953866612 -0.09881494080008657 0 0.041028295021018908 -0.096207960329566841 0 0.05035489564483716 -0.1107004194010086 0 0.038531570681056532 -0.1061032565065716 0 0.041028295021018908 -0.096207960329566841 0 0.017498307405520871 0.003689520573570085 0 0.017868204313968319 -0.024093983635964909 0 0.036772556779789092 -0.009653954259329885 0 -0.0020884286449010898 -0.020763096807024262 0 -0.0035788031155632172 0.0088068495823422216 0 0.017498307405520871 0.003689520573570085 0 -0.0020884286449010898 -0.020763096807024262 0 0.017498307405520871 0.003689520573570085 0 0.017868204313968319 -0.024093983635964909 0 -0.0020884286449010898 -0.020763096807024262 0 0.017868204313968319 -0.024093983635964909 0 0.01426618388652906 -0.047438722398355851 0 0.017868204313968319 -0.024093983635964909 0 0.027462506592128118 -0.04177370450815672 0 0.039545596135633118 -0.03039373860098207 0 0.017868204313968319 -0.024093983635964909 0 0.027462506592128118 -0.04177370450815672 0 0.01426618388652906 -0.047438722398355851 0 0.027462506592128118 -0.04177370450815672 0 0.027294266409445281 -0.051413130382242933 0 0.038776450574197242 -0.047287653728671643 0 -0.0020884286449010898 -0.020763096807024262 0 -0.00059805417423383265 -0.050333043196390682 0 0.01426618388652906 -0.047438722398355851 0 -0.00059805417423383265 -0.050333043196390682 0 0.014685574649030199 -0.067900362055014804 0 0.01426618388652906 -0.047438722398355851 0 -0.00059805417423383265 -0.050333043196390682 0 0.014685574649030199 -0.067900362055014804 0 -0.00059805417423383265 -0.050333043196390682 0 -0.00020882465109851411 -0.05805559639291083 0 0.014685574649030199 -0.067900362055014804 0 0.014685574649030199 -0.067900362055014804 0 0.01426618388652906 -0.047438722398355851 0 0.02328013224298325 -0.061172736681843212 0 0.027462506592128118 -0.04177370450815672 0 0.01426618388652906 -0.047438722398355851 0 0.027294266409445281 -0.051413130382242933 0 0.01426618388652906 -0.047438722398355851 0 0.02328013224298325 -0.061172736681843212 0 0.027294266409445281 -0.051413130382242933 0 0.029376537607686149 -0.066407879603206738 0 0.02328013224298325 -0.061172736681843212 0 0.03268605875138874 -0.059392834594187219 0 0.02328013224298325 -0.061172736681843212 0 0.027294266409445281 -0.051413130382242933 0 0.03268605875138874 -0.059392834594187219 0 0.035030960196180468 -0.068729103219955651 0 0.03268605875138874 -0.059392834594187219 0 0.048146783446262102 -0.059273257216530699 0 0.027294266409445281 -0.051413130382242933 0 0.03268605875138874 -0.059392834594187219 0 0.038776450574197242 -0.047287653728671643 0 0.03268605875138874 -0.059392834594187219 0 0.038776450574197242 -0.047287653728671643 0 0.048146783446262102 -0.059273257216530699 0 0.038776450574197242 -0.047287653728671643 0 0.048146783446262102 -0.059273257216530699 0 0.060990188659543428 -0.040765535157147578 0 0.048146783446262102 -0.059273257216530699 0 0.060990188659543428 -0.040765535157147578 0 0.064944615411906603 -0.061756734158408218 0 0.048146783446262102 -0.059273257216530699 0 0.060990188659543428 -0.040765535157147578 0 0.038776450574197242 -0.047287653728671643 0 0.060990188659543428 -0.040765535157147578 0 0.039545596135633118 -0.03039373860098207 0 0.027462506592128118 -0.04177370450815672 0 0.038776450574197242 -0.047287653728671643 0 0.039545596135633118 -0.03039373860098207 0 0.039545596135633118 -0.03039373860098207 0 0.055274728793436312 -0.017558855351495491 0 0.036772556779789092 -0.009653954259329885 0 0.017868204313968319 -0.024093983635964909 0 0.039545596135633118 -0.03039373860098207 0 0.036772556779789092 -0.009653954259329885 0 0.060990188659543428 -0.040765535157147578 0 0.039545596135633118 -0.03039373860098207 0 0.055274728793436312 -0.017558855351495491 0 0.051714549557673253 0.0036585163983099841 0 0.055274728793436312 -0.017558855351495491 0 0.065205363816759107 -0.003033070089499003 0 0.051714549557673253 0.0036585163983099841 0 0.055274728793436312 -0.017558855351495491 0 0.036772556779789092 -0.009653954259329885 0 0.091275198319642536 -0.0069625100838386546 0 0.077997013933224543 -0.0029127428828892511 0 0.073833593872824774 -0.022257813097764419 0 0.084078622079250126 0.0031954465041538322 0 0.09274923451769547 0.0029019504056667931 0 0.091275198319642536 -0.0069625100838386546 0 0.084078622079250126 0.0031954465041538322 0 0.091275198319642536 -0.0069625100838386546 0 0.077997013933224543 -0.0029127428828892511 0 0.074313593998642458 0.0047384520713399381 0 0.077997013933224543 -0.0029127428828892511 0 0.065205363816759107 -0.003033070089499003 0 0.077997013933224543 -0.0029127428828892511 0 0.065205363816759107 -0.003033070089499003 0 0.073833593872824774 -0.022257813097764419 0 0.055274728793436312 -0.017558855351495491 0 0.065205363816759107 -0.003033070089499003 0 0.073833593872824774 -0.022257813097764419 0 0.060990188659543428 -0.040765535157147578 0 0.055274728793436312 -0.017558855351495491 0 0.073833593872824774 -0.022257813097764419 0 0.091275198319642536 -0.0069625100838386546 0 0.073833593872824774 -0.022257813097764419 0 0.1001755202028054 -0.019247183493662948 0 0.073833593872824774 -0.022257813097764419 0 0.097175021623146562 -0.035377384604997231 0 0.1001755202028054 -0.019247183493662948 0 0.079824678157080137 -0.047863186401769467 0 0.097635909174744767 -0.056847039535278317 0 0.097175021623146562 -0.035377384604997231 0 0.073833593872824774 -0.022257813097764419 0 0.079824678157080137 -0.047863186401769467 0 0.097175021623146562 -0.035377384604997231 0 0.060990188659543428 -0.040765535157147578 0 0.073833593872824774 -0.022257813097764419 0 0.060990188659543428 -0.040765535157147578 0 0.073833593872824774 -0.022257813097764419 0 0.079824678157080137 -0.047863186401769467 0 0.064944615411906603 -0.061756734158408218 0 0.079824678157080137 -0.047863186401769467 0 0.081873916019642001 -0.069826348456768939 0 0.060990188659543428 -0.040765535157147578 0 0.064944615411906603 -0.061756734158408218 0 0.079824678157080137 -0.047863186401769467 0 0.079824678157080137 -0.047863186401769467 0 0.097635909174744767 -0.056847039535278317 0 0.081873916019642001 -0.069826348456768939 0 0.097635909174744767 -0.056847039535278317 0 0.10965374073415229 -0.045408667091000693 0 0.1160110724720566 -0.065447770563102969 0 0.10965374073415229 -0.045408667091000693 0 0.1160110724720566 -0.065447770563102969 0 0.1263403851901278 -0.042262781299202072 0 0.1160110724720566 -0.065447770563102969 0 0.1263403851901278 -0.042262781299202072 0 0.10965374073415229 -0.045408667091000693 0 0.1183638343724826 -0.026452833945224481 0 0.1263403851901278 -0.042262781299202072 0 0.10965374073415229 -0.045408667091000693 0 0.097175021623146562 -0.035377384604997231 0 0.1183638343724826 -0.026452833945224481 0 0.097635909174744767 -0.056847039535278317 0 0.10965374073415229 -0.045408667091000693 0 0.097175021623146562 -0.035377384604997231 0 0.097175021623146562 -0.035377384604997231 0 0.1001755202028054 -0.019247183493662948 0 0.1183638343724826 -0.026452833945224481 0 0.1001755202028054 -0.019247183493662948 0 0.1183638343724826 -0.026452833945224481 0 0.1128149745115762 -0.01246973751004977 0 0.1183638343724826 -0.026452833945224481 0 0.1128149745115762 -0.01246973751004977 0 0.12544001059357909 -0.012166141760775229 0 0.1128149745115762 -0.01246973751004977 0 0.1166930633044361 -0.002524768829776927 0 0.12544001059357909 -0.012166141760775229 0 0.1166930633044361 -0.002524768829776927 0 0.12864883577299299 -0.00035703598269560502 0 0.12544001059357909 -0.012166141760775229 0 0.1128149745115762 -0.01246973751004977 0 0.1166930633044361 -0.002524768829776927 0 0.1032950776262675 -0.002938979832029905 0 0.091275198319642536 -0.0069625100838386546 0 0.1001755202028054 -0.019247183493662948 0 0.1032950776262675 -0.002938979832029905 0 0.1001755202028054 -0.019247183493662948 0 0.1128149745115762 -0.01246973751004977 0 0.1032950776262675 -0.002938979832029905 0 0.09274923451769547 0.0029019504056667931 0 0.091275198319642536 -0.0069625100838386546 0 0.1032950776262675 -0.002938979832029905 0 0.089016491593712457 -0.09968992890480835 0 0.085225584182944861 -0.1116043008647396 0 0.06507648138137756 -0.097952869185883029 0 0.089016491593712457 -0.09968992890480835 0 0.085225584182944861 -0.1116043008647396 0 0.1004572719521452 -0.1099537496127134 0 0.1053746869845122 -0.1252557325435959 0 0.09025148061776124 -0.12923125189361551 0 0.085225584182944861 -0.1116043008647396 0 0.09025148061776124 -0.12923125189361551 0 0.079027985489634231 -0.12528968932274759 0 0.085225584182944861 -0.1116043008647396 0 0.079027985489634231 -0.12528968932274759 0 0.085225584182944861 -0.1116043008647396 0 0.071405554357625536 -0.1127483946398469 0 0.079027985489634231 -0.12528968932274759 0 0.071405554357625536 -0.1127483946398469 0 0.064409538489784979 -0.11921822234389449 0 0.071405554357625536 -0.1127483946398469 0 0.064409538489784979 -0.11921822234389449 0 0.063288182244386093 -0.10967689148196989 0 0.089016491593712457 -0.09968992890480835 0 0.06507648138137756 -0.097952869185883029 0 0.079433629842631193 -0.088674455376992603 0 0.089016491593712457 -0.09968992890480835 0 0.06507648138137756 -0.097952869185883029 0 0.071405554357625536 -0.1127483946398469 0 0.063288182244386093 -0.10967689148196989 0 0.06507648138137756 -0.097952869185883029 0 0.085225584182944861 -0.1116043008647396 0 0.06507648138137756 -0.097952869185883029 0 0.085225584182944861 -0.1116043008647396 0 0.071405554357625536 -0.1127483946398469 0 0.06507648138137756 -0.097952869185883029 0 0.06507648138137756 -0.097952869185883029 0 0.066046810092791328 -0.07936409005217604 0 0.079433629842631193 -0.088674455376992603 0 0.066046810092791328 -0.07936409005217604 0 0.081873916019642001 -0.069826348456768939 0 0.079433629842631193 -0.088674455376992603 0 0.064944615411906603 -0.061756734158408218 0 0.066046810092791328 -0.07936409005217604 0 0.081873916019642001 -0.069826348456768939 0 0.097635909174744767 -0.056847039535278317 0 0.081873916019642001 -0.069826348456768939 0 0.098148225469935804 -0.072628622196320311 0 0.081873916019642001 -0.069826348456768939 0 0.089538469929250436 -0.082389192599447367 0 0.098148225469935804 -0.072628622196320311 0 0.089016491593712457 -0.09968992890480835 0 0.079433629842631193 -0.088674455376992603 0 0.095400435502867212 -0.091224295648265896 0 0.081873916019642001 -0.069826348456768939 0 0.079433629842631193 -0.088674455376992603 0 0.089538469929250436 -0.082389192599447367 0 0.079433629842631193 -0.088674455376992603 0 0.089538469929250436 -0.082389192599447367 0 0.095400435502867212 -0.091224295648265896 0 0.089538469929250436 -0.082389192599447367 0 0.1056817597539853 -0.088632759827003971 0 0.095400435502867212 -0.091224295648265896 0 0.089538469929250436 -0.082389192599447367 0 0.1056817597539853 -0.088632759827003971 0 0.098148225469935804 -0.072628622196320311 0 0.097635909174744767 -0.056847039535278317 0 0.098148225469935804 -0.072628622196320311 0 0.1160110724720566 -0.065447770563102969 0 0.1056817597539853 -0.088632759827003971 0 0.098148225469935804 -0.072628622196320311 0 0.1160110724720566 -0.065447770563102969 0 0.1056817597539853 -0.088632759827003971 0 0.1160110724720566 -0.065447770563102969 0 0.1056817597539853 -0.088632759827003971 0 0.1160110724720566 -0.065447770563102969 0 0.12614799625929379 -0.085461055554415952 0 0.1056817597539853 -0.088632759827003971 0 0.1129565018060473 -0.101426988623734 0 0.12614799625929379 -0.085461055554415952 0 0.1129565018060473 -0.101426988623734 0 0.1368965120183821 -0.1031640483426596 0 0.1129565018060473 -0.101426988623734 0 0.1229176245917567 -0.1177169729416012 0 0.1368965120183821 -0.1031640483426596 0 0.089016491593712457 -0.09968992890480835 0 0.1129565018060473 -0.101426988623734 0 0.089016491593712457 -0.09968992890480835 0 0.095400435502867212 -0.091224295648265896 0 0.1129565018060473 -0.101426988623734 0 0.089016491593712457 -0.09968992890480835 0 0.1129565018060473 -0.101426988623734 0 0.1004572719521452 -0.1099537496127134 0 0.1056817597539853 -0.088632759827003971 0 0.095400435502867212 -0.091224295648265896 0 0.1129565018060473 -0.101426988623734 0 0.1129565018060473 -0.101426988623734 0 0.1004572719521452 -0.1099537496127134 0 0.1104265213336154 -0.11358836093041109 0 0.1053746869845122 -0.1252557325435959 0 0.085225584182944861 -0.1116043008647396 0 0.1004572719521452 -0.1099537496127134 0 0.1053746869845122 -0.1252557325435959 0 0.085225584182944861 -0.1116043008647396 0 0.1053746869845122 -0.1252557325435959 0 0.1004572719521452 -0.1099537496127134 0 0.1104265213336154 -0.11358836093041109 0 0.1129565018060473 -0.101426988623734 0 0.1229176245917567 -0.1177169729416012 0 0.1104265213336154 -0.11358836093041109 0 0.1053746869845122 -0.1252557325435959 0 0.1229176245917567 -0.1177169729416012 0 0.1104265213336154 -0.11358836093041109 0 0.1229176245917567 -0.1177169729416012 0 0.14396773151254871 -0.1240822401411133 0 0.1368965120183821 -0.1031640483426596 0 0.14396773151254871 -0.1240822401411133 0 0.1368965120183821 -0.1031640483426596 0 0.16083652223071701 -0.1049011080615852 0 0.14396773151254871 -0.1240822401411133 0 0.16318052139797559 -0.1229913059367379 0 0.16083652223071701 -0.1049011080615852 0 0.1368965120183821 -0.1031640483426596 0 0.16083652223071701 -0.1049011080615852 0 0.1368965120183821 -0.1031640483426596 0 0.15040360321717189 -0.082848587603701271 0 0.16083652223071701 -0.1049011080615852 0 0.1129565018060473 -0.101426988623734 0 0.1368965120183821 -0.1031640483426596 0 0.12614799625929379 -0.085461055554415952 0 0.1368965120183821 -0.1031640483426596 0 0.12614799625929379 -0.085461055554415952 0 0.15040360321717189 -0.082848587603701271 0 0.12614799625929379 -0.085461055554415952 0 0.13432696112343309 -0.067726776627345359 0 0.15040360321717189 -0.082848587603701271 0 0.1160110724720566 -0.065447770563102969 0 0.12614799625929379 -0.085461055554415952 0 0.13432696112343309 -0.067726776627345359 0 0.15040360321717189 -0.082848587603701271 0 0.16797342709037349 -0.064073642196963612 0 0.14762200419384811 -0.055642319868009757 0 0.13432696112343309 -0.067726776627345359 0 0.15040360321717189 -0.082848587603701271 0 0.14762200419384811 -0.055642319868009757 0 0.15040360321717189 -0.082848587603701271 0 0.16797342709037349 -0.064073642196963612 0 0.17493922800384129 -0.090538082595475272 0 0.15040360321717189 -0.082848587603701271 0 0.17493922800384129 -0.090538082595475272 0 0.16083652223071701 -0.1049011080615852 0 0.16797342709037349 -0.064073642196963612 0 0.17493922800384129 -0.090538082595475272 0 0.16797342709037349 -0.064073642196963612 0 0.17493922800384129 -0.090538082595475272 0 0.18981215338351681 -0.069506839799235415 0 0.17493922800384129 -0.090538082595475272 0 0.181905028917309 -0.1170025229939869 0 0.17493922800384129 -0.090538082595475272 0 0.181905028917309 -0.1170025229939869 0 0.19600961134386569 -0.1069291792496925 0 0.17493922800384129 -0.090538082595475272 0 0.181905028917309 -0.1170025229939869 0 0.16083652223071701 -0.1049011080615852 0 0.181905028917309 -0.1170025229939869 0 0.16318052139797559 -0.1229913059367379 0 0.17332717406295789 -0.13420892561415021 0 0.181905028917309 -0.1170025229939869 0 0.16318052139797559 -0.1229913059367379 0 0.16083652223071701 -0.1049011080615852 0 0.14196380943428469 -0.0042950747795691404 0 0.1540418252634381 -0.01114476139994058 0 0.13666969790819911 -0.019077792035301178 0 0.15571558637930261 0.0047442849742679941 0 0.14196380943428469 -0.0042950747795691404 0 0.1540418252634381 -0.01114476139994058 0 0.14196380943428469 -0.0042950747795691404 0 0.12544001059357909 -0.012166141760775229 0 0.13666969790819911 -0.019077792035301178 0 0.14196380943428469 -0.0042950747795691404 0 0.12864883577299299 -0.00035703598269560502 0 0.12544001059357909 -0.012166141760775229 0 0.1183638343724826 -0.026452833945224481 0 0.13666969790819911 -0.019077792035301178 0 0.1263403851901278 -0.042262781299202072 0 0.13666969790819911 -0.019077792035301178 0 0.1263403851901278 -0.042262781299202072 0 0.1183638343724826 -0.026452833945224481 0 0.12544001059357909 -0.012166141760775229 0 0.13666969790819911 -0.019077792035301178 0 0.1540418252634381 -0.01114476139994058 0 0.13666969790819911 -0.019077792035301178 0 0.14871107489282159 -0.025919750197985161 0 0.1540418252634381 -0.01114476139994058 0 0.14871107489282159 -0.025919750197985161 0 0.16100762617690581 -0.037609201798452077 0 0.13666969790819911 -0.019077792035301178 0 0.14871107489282159 -0.025919750197985161 0 0.1431251502227435 -0.03584724555824681 0 0.1431251502227435 -0.03584724555824681 0 0.14762200419384811 -0.055642319868009757 0 0.16100762617690581 -0.037609201798452077 0 0.14871107489282159 -0.025919750197985161 0 0.1431251502227435 -0.03584724555824681 0 0.16100762617690581 -0.037609201798452077 0 0.13666969790819911 -0.019077792035301178 0 0.1431251502227435 -0.03584724555824681 0 0.1263403851901278 -0.042262781299202072 0 0.1431251502227435 -0.03584724555824681 0 0.1263403851901278 -0.042262781299202072 0 0.14762200419384811 -0.055642319868009757 0 0.1160110724720566 -0.065447770563102969 0 0.13432696112343309 -0.067726776627345359 0 0.1263403851901278 -0.042262781299202072 0 0.13432696112343309 -0.067726776627345359 0 0.1263403851901278 -0.042262781299202072 0 0.14762200419384811 -0.055642319868009757 0 0.16797342709037349 -0.064073642196963612 0 0.16100762617690581 -0.037609201798452077 0 0.16797342709037349 -0.064073642196963612 0 0.14762200419384811 -0.055642319868009757 0 0.16100762617690581 -0.037609201798452077 0 0.16797342709037349 -0.064073642196963612 0 0.17899770931297859 -0.047219555301769869 0 0.16100762617690581 -0.037609201798452077 0 0.16797342709037349 -0.064073642196963612 0 0.17899770931297859 -0.047219555301769869 0 0.18981215338351681 -0.069506839799235415 0 0.17899770931297859 -0.047219555301769869 0 0.18330910898408001 -0.034575228565943548 0 0.1689073434945049 -0.02970170524418566 0 0.17899770931297859 -0.047219555301769869 0 0.16100762617690581 -0.037609201798452077 0 0.1689073434945049 -0.02970170524418566 0 0.1540418252634381 -0.01114476139994058 0 0.16100762617690581 -0.037609201798452077 0 0.1540418252634381 -0.01114476139994058 0 0.1689073434945049 -0.02970170524418566 0 0.16647861665498781 -0.01191960829465526 0 0.1540418252634381 -0.01114476139994058 0 0.16100762617690581 -0.037609201798452077 0 0.1689073434945049 -0.02970170524418566 0 0.1689073434945049 -0.02970170524418566 0 0.17888462137645811 -0.0049602184923681659 0 0.18330910898408001 -0.034575228565943548 0 0.1689073434945049 -0.02970170524418566 0 0.19270996805394211 -0.0249179094298928 0 0.1689073434945049 -0.02970170524418566 0 0.17888462137645811 -0.0049602184923681659 0 0.19270996805394211 -0.0249179094298928 0 0.1689073434945049 -0.02970170524418566 0 0.17888462137645811 -0.0049602184923681659 0 0.16647861665498781 -0.01191960829465526 0 0.15571558637930261 0.0047442849742679941 0 0.1540418252634381 -0.01114476139994058 0 0.16408067648555019 -0.0018717480421266311 0 0.1722705241799124 0.0044736429529750668 0 0.17888462137645811 -0.0049602184923681659 0 0.16408067648555019 -0.0018717480421266311 0 0.17888462137645811 -0.0049602184923681659 0 0.16408067648555019 -0.0018717480421266311 0 0.16647861665498781 -0.01191960829465526 0 0.1540418252634381 -0.01114476139994058 0 0.16408067648555019 -0.0018717480421266311 0 0.16647861665498781 -0.01191960829465526 0 0.2286594600101986 0.00065470291791329134 0 0.204440525045432 -0.001660647373823296 0 0.2227757403614409 -0.024887369582507941 0 0.17888462137645811 -0.0049602184923681659 0 0.204440525045432 -0.001660647373823296 0 0.19270996805394211 -0.0249179094298928 0 0.204440525045432 -0.001660647373823296 0 0.19270996805394211 -0.0249179094298928 0 0.2227757403614409 -0.024887369582507941 0 0.19270996805394211 -0.0249179094298928 0 0.20618443433549 -0.045114156525276589 0 0.2227757403614409 -0.024887369582507941 0 0.17899770931297859 -0.047219555301769869 0 0.18330910898408001 -0.034575228565943548 0 0.20618443433549 -0.045114156525276589 0 0.18330910898408001 -0.034575228565943548 0 0.19270996805394211 -0.0249179094298928 0 0.20618443433549 -0.045114156525276589 0 0.17899770931297859 -0.047219555301769869 0 0.20618443433549 -0.045114156525276589 0 0.18981215338351681 -0.069506839799235415 0 0.20618443433549 -0.045114156525276589 0 0.23104421407419881 -0.051079661581349647 0 0.21463277693533059 -0.07140543781712444 0 0.20618443433549 -0.045114156525276589 0 0.21463277693533059 -0.07140543781712444 0 0.20618443433549 -0.045114156525276589 0 0.18981215338351681 -0.069506839799235415 0 0.21463277693533059 -0.07140543781712444 0 0.2578069212616747 -0.054360598826842452 0 0.23104421407419881 -0.051079661581349647 0 0.2404440203984225 -0.076028658967907267 0 0.2578069212616747 -0.054360598826842452 0 0.23104421407419881 -0.051079661581349647 0 0.2459607450064917 -0.036233690560893039 0 0.20618443433549 -0.045114156525276589 0 0.23104421407419881 -0.051079661581349647 0 0.2227757403614409 -0.024887369582507941 0 0.23104421407419881 -0.051079661581349647 0 0.2459607450064917 -0.036233690560893039 0 0.2227757403614409 -0.024887369582507941 0 0.25000261356975351 -0.01488422752578606 0 0.2459607450064917 -0.036233690560893039 0 0.2227757403614409 -0.024887369582507941 0 0.2286594600101986 0.00065470291791329134 0 0.25612269832549522 0.0072301428781907408 0 0.25000261356975351 -0.01488422752578606 0 0.2286594600101986 0.00065470291791329134 0 0.25000261356975351 -0.01488422752578606 0 0.2227757403614409 -0.024887369582507941 0 0.21302053070527879 -0.11025184716836151 0 0.19600961134386569 -0.1069291792496925 0 0.20098034164341441 -0.09029548077398554 0 0.21302053070527879 -0.11025184716836151 0 0.20098034164341441 -0.09029548077398554 0 0.22308111953517051 -0.097696719108972443 0 0.21302053070527879 -0.11025184716836151 0 0.22308111953517051 -0.097696719108972443 0 0.21302053070527879 -0.11025184716836151 0 0.2029599418753873 -0.1228069752277508 0 0.19600961134386569 -0.1069291792496925 0 0.21302053070527879 -0.11025184716836151 0 0.21589413965847909 -0.1222941240307984 0 0.2029599418753873 -0.1228069752277508 0 0.21302053070527879 -0.11025184716836151 0 0.2029599418753873 -0.1228069752277508 0 0.181905028917309 -0.1170025229939869 0 0.2029599418753873 -0.1228069752277508 0 0.19600961134386569 -0.1069291792496925 0 0.17493922800384129 -0.090538082595475272 0 0.19600961134386569 -0.1069291792496925 0 0.20098034164341441 -0.09029548077398554 0 0.17493922800384129 -0.090538082595475272 0 0.20098034164341441 -0.09029548077398554 0 0.18981215338351681 -0.069506839799235415 0 0.20098034164341441 -0.09029548077398554 0 0.18981215338351681 -0.069506839799235415 0 0.21463277693533059 -0.07140543781712444 0 0.20098034164341441 -0.09029548077398554 0 0.21463277693533059 -0.07140543781712444 0 0.22308111953517051 -0.097696719108972443 0 0.21463277693533059 -0.07140543781712444 0 0.22308111953517051 -0.097696719108972443 0 0.2404440203984225 -0.076028658967907267 0 0.22308111953517051 -0.097696719108972443 0 0.21463277693533059 -0.07140543781712444 0 0.2404440203984225 -0.076028658967907267 0 0.22308111953517051 -0.097696719108972443 0 0.23104421407419881 -0.051079661581349647 0 0.21463277693533059 -0.07140543781712444 0 0.2404440203984225 -0.076028658967907267 0 0.2578069212616747 -0.054360598826842452 0 0.2404440203984225 -0.076028658967907267 0 0.25205260541919938 -0.089026744033824351 0 0.2404440203984225 -0.076028658967907267 0 0.24099359969779161 -0.1040257536698791 0 0.2404440203984225 -0.076028658967907267 0 0.24099359969779161 -0.1040257536698791 0 0.22308111953517051 -0.097696719108972443 0 0.25205260541919938 -0.089026744033824351 0 0.24099359969779161 -0.1040257536698791 0 0.22308111953517051 -0.097696719108972443 0 0.22993459397638449 -0.1190247633059346 0 0.21302053070527879 -0.11025184716836151 0 0.22308111953517051 -0.097696719108972443 0 0.22993459397638449 -0.1190247633059346 0 0.24099359969779161 -0.1040257536698791 0 0.22308111953517051 -0.097696719108972443 0 0.22993459397638449 -0.1190247633059346 0 0.21302053070527879 -0.11025184716836151 0 0.21589413965847909 -0.1222941240307984 0 0.22993459397638449 -0.1190247633059346 0 0.24099359969779161 -0.1040257536698791 0 0.22993459397638449 -0.1190247633059346 0 0.24476529414343329 -0.12484218881723699 0 0.25759961101203199 -0.11296906871701271 0 0.24099359969779161 -0.1040257536698791 0 0.24476529414343329 -0.12484218881723699 0 0.24099359969779161 -0.1040257536698791 0 0.22993459397638449 -0.1190247633059346 0 0.22993459397638449 -0.1190247633059346 0 0.24476529414343329 -0.12484218881723699 0 0.23628508360572939 -0.13878751643921389 0 0.24476529414343329 -0.12484218881723699 0 0.24839716721637611 -0.13801773356525041 0 0.23628508360572939 -0.13878751643921389 0 0.23628508360572939 -0.13878751643921389 0 0.24263557323507251 -0.15855026957249371 0 0.23628508360572939 -0.13878751643921389 0 0.23388364646434959 -0.1535162459037944 0 0.24263557323507251 -0.15855026957249371 0 0.23628508360572939 -0.13878751643921389 0 0.2469791200710095 -0.14784491633943569 0 0.24263557323507251 -0.15855026957249371 0 0.25122934508301742 -0.15555925837644879 0 0.2469791200710095 -0.14784491633943569 0 0.24263557323507251 -0.15855026957249371 0 0.24839716721637611 -0.13801773356525041 0 0.23628508360572939 -0.13878751643921389 0 0.2469791200710095 -0.14784491633943569 0 0.23388364646434959 -0.1535162459037944 0 0.22042922548100041 -0.14960702763076761 0 0.21486013860429881 -0.16172382484740511 0 0.23388364646434959 -0.1535162459037944 0 0.22700548622478831 -0.1444758311333228 0 0.22042922548100041 -0.14960702763076761 0 0.23628508360572939 -0.13878751643921389 0 0.23388364646434959 -0.1535162459037944 0 0.22700548622478831 -0.1444758311333228 0 0.22700548622478831 -0.1444758311333228 0 0.22042922548100041 -0.14960702763076761 0 0.21742398934807361 -0.13599253455951521 0 0.22993459397638449 -0.1190247633059346 0 0.23628508360572939 -0.13878751643921389 0 0.23628508360572939 -0.13878751643921389 0 0.22700548622478831 -0.1444758311333228 0 0.21742398934807361 -0.13599253455951521 0 0.22993459397638449 -0.1190247633059346 0 0.23628508360572939 -0.13878751643921389 0 0.21742398934807361 -0.13599253455951521 0 0.22993459397638449 -0.1190247633059346 0 0.21742398934807361 -0.13599253455951521 0 0.21589413965847909 -0.1222941240307984 0 0.22993459397638449 -0.1190247633059346 0 0.21742398934807361 -0.13599253455951521 0 0.2029599418753873 -0.1228069752277508 0 0.20354203644350019 -0.13880669474821519 0 0.21742398934807361 -0.13599253455951521 0 0.21589413965847909 -0.1222941240307984 0 0.2029599418753873 -0.1228069752277508 0 0.21742398934807361 -0.13599253455951521 0 0.21742398934807361 -0.13599253455951521 0 0.20491338471976339 -0.15296030581309639 0 0.22042922548100041 -0.14960702763076761 0 0.21742398934807361 -0.13599253455951521 0 0.20491338471976339 -0.15296030581309639 0 0.20354203644350019 -0.13880669474821519 0 0.21742398934807361 -0.13599253455951521 0 0.20491338471976339 -0.15296030581309639 0 0.22042922548100041 -0.14960702763076761 0 0.20491338471976339 -0.15296030581309639 0 0.21486013860429881 -0.16172382484740511 0 0.20491338471976339 -0.15296030581309639 0 0.18887082983077669 -0.14346696339249851 0 0.1958366307442454 -0.16993140379100991 0 0.20354203644350019 -0.13880669474821519 0 0.20491338471976339 -0.15296030581309639 0 0.18887082983077669 -0.14346696339249851 0 0.181905028917309 -0.1170025229939869 0 0.2029599418753873 -0.1228069752277508 0 0.18887082983077669 -0.14346696339249851 0 0.2029599418753873 -0.1228069752277508 0 0.20354203644350019 -0.13880669474821519 0 0.18887082983077669 -0.14346696339249851 0 0.1997485536361065 -0.1847935641515073 0 0.1958366307442454 -0.16993140379100991 0 0.18658246468124751 -0.19129826378029671 0 0.1997485536361065 -0.1847935641515073 0 0.1958366307442454 -0.16993140379100991 0 0.2085440314873748 -0.17503008862590599 0 0.1997485536361065 -0.1847935641515073 0 0.1958366307442454 -0.16993140379100991 0 0.18887082983077669 -0.14346696339249851 0 0.1958366307442454 -0.16993140379100991 0 0.18887082983077669 -0.14346696339249851 0 0.1958366307442454 -0.16993140379100991 0 0.18208719325812131 -0.1624393652289208 0 0.1958366307442454 -0.16993140379100991 0 0.21486013860429881 -0.16172382484740511 0 0.20491338471976339 -0.15296030581309639 0 0.1958366307442454 -0.16993140379100991 0 0.21486013860429881 -0.16172382484740511 0 0.1958366307442454 -0.16993140379100991 0 0.21486013860429881 -0.16172382484740511 0 0.2085440314873748 -0.17503008862590599 0 0.21486013860429881 -0.16172382484740511 0 0.21842240114734279 -0.17494141237108879 0 0.2085440314873748 -0.17503008862590599 0 0.21842240114734279 -0.17494141237108879 0 0.2085440314873748 -0.17503008862590599 0 0.21151510199411119 -0.1839788677380591 0 0.1997485536361065 -0.1847935641515073 0 0.2085440314873748 -0.17503008862590599 0 0.21151510199411119 -0.1839788677380591 0 0.21842240114734279 -0.17494141237108879 0 0.22911590900359199 -0.1720115561933854 0 0.2263232696961909 -0.18898437360888909 0 0.21842240114734279 -0.17494141237108879 0 0.21151510199411119 -0.1839788677380591 0 0.2263232696961909 -0.18898437360888909 0 0.23388364646434959 -0.1535162459037944 0 0.21486013860429881 -0.16172382484740511 0 0.23418057422351349 -0.1637390756845912 0 0.23388364646434959 -0.1535162459037944 0 0.21486013860429881 -0.16172382484740511 0 0.21486013860429881 -0.16172382484740511 0 0.22911590900359199 -0.1720115561933854 0 0.23418057422351349 -0.1637390756845912 0 0.21486013860429881 -0.16172382484740511 0 0.21842240114734279 -0.17494141237108879 0 0.22911590900359199 -0.1720115561933854 0 0.23418057422351349 -0.1637390756845912 0 0.24263557323507251 -0.15855026957249371 0 0.24898606286441441 -0.17831302270577401 0 0.25735247082516349 -0.16330024934565071 0 0.24263557323507251 -0.15855026957249371 0 0.24898606286441441 -0.17831302270577401 0 0.22911590900359199 -0.1720115561933854 0 0.23418057422351349 -0.1637390756845912 0 0.24898606286441441 -0.17831302270577401 0 0.24263557323507251 -0.15855026957249371 0 0.24898606286441441 -0.17831302270577401 0 0.23388364646434959 -0.1535162459037944 0 0.23418057422351349 -0.1637390756845912 0 0.24263557323507251 -0.15855026957249371 0 0.24898606286441441 -0.17831302270577401 0 0.2263232696961909 -0.18898437360888909 0 0.22911590900359199 -0.1720115561933854 0 0.24898606286441441 -0.17831302270577401 0 0.2263232696961909 -0.18898437360888909 0 0.25455447580017448 -0.195641949547112 0 0.24898606286441441 -0.17831302270577401 0 0.24046296594830049 -0.19767342103277369 0 0.24898606286441441 -0.17831302270577401 0 0.24046296594830049 -0.19767342103277369 0 0.2263232696961909 -0.18898437360888909 0 0.25455447580017448 -0.195641949547112 0 0.24046296594830049 -0.19767342103277369 0 0.24814039089817361 -0.21073456959679929 0 0.24814039089817361 -0.21073456959679929 0 0.2358003177324472 -0.21198278365802331 0 0.24085426215609601 -0.22177314428567499 0 0.24046296594830049 -0.19767342103277369 0 0.24814039089817361 -0.21073456959679929 0 0.2358003177324472 -0.21198278365802331 0 0.24046296594830049 -0.19767342103277369 0 0.2358003177324472 -0.21198278365802331 0 0.22744146372865809 -0.20214739742409191 0 0.2358003177324472 -0.21198278365802331 0 0.22744146372865809 -0.20214739742409191 0 0.2178330329774042 -0.2107661746648391 0 0.2358003177324472 -0.21198278365802331 0 0.22799167645170351 -0.2249469072028473 0 0.2178330329774042 -0.2107661746648391 0 0.2263232696961909 -0.18898437360888909 0 0.22744146372865809 -0.20214739742409191 0 0.20366047652796759 -0.1996557245120045 0 0.24046296594830049 -0.19767342103277369 0 0.2263232696961909 -0.18898437360888909 0 0.22744146372865809 -0.20214739742409191 0 0.23558234788510701 -0.25381068229430048 0 0.24307935023810481 -0.2437568446794727 0 0.23855417999734199 -0.23670438447382039 0 0.25225293073106908 -0.22626064684093161 0 0.24307935023810481 -0.2437568446794727 0 0.23855417999734199 -0.23670438447382039 0 0.23558234788510701 -0.25381068229430048 0 0.23855417999734199 -0.23670438447382039 0 0.23143756797573109 -0.24427932738881311 0 0.24307935023810481 -0.2437568446794727 0 0.23855417999734199 -0.23670438447382039 0 0.23855417999734199 -0.23670438447382039 0 0.24085426215609601 -0.22177314428567499 0 0.22799167645170351 -0.2249469072028473 0 0.25225293073106908 -0.22626064684093161 0 0.23855417999734199 -0.23670438447382039 0 0.24085426215609601 -0.22177314428567499 0 0.25225293073106908 -0.22626064684093161 0 0.24814039089817361 -0.21073456959679929 0 0.24085426215609601 -0.22177314428567499 0 0.2358003177324472 -0.21198278365802331 0 0.24085426215609601 -0.22177314428567499 0 0.22799167645170351 -0.2249469072028473 0 0.22799167645170351 -0.2249469072028473 0 0.2235012142463815 -0.2387216018865341 0 0.21096690925067019 -0.22741429179201811 0 0.22799167645170351 -0.2249469072028473 0 0.21096690925067019 -0.22741429179201811 0 0.2178330329774042 -0.2107661746648391 0 0.23855417999734199 -0.23670438447382039 0 0.22799167645170351 -0.2249469072028473 0 0.2235012142463815 -0.2387216018865341 0 0.218273341973372 -0.25517285907203202 0 0.2235012142463815 -0.2387216018865341 0 0.23143756797573109 -0.24427932738881311 0 0.23855417999734199 -0.23670438447382039 0 0.2235012142463815 -0.2387216018865341 0 0.23143756797573109 -0.24427932738881311 0 0.218273341973372 -0.25517285907203202 0 0.2022357946460244 -0.25456760560034031 0 0.21096690925067019 -0.22741429179201811 0 0.218273341973372 -0.25517285907203202 0 0.2235012142463815 -0.2387216018865341 0 0.21096690925067019 -0.22741429179201811 0 0.218273341973372 -0.25517285907203202 0 0.21096690925067019 -0.22741429179201811 0 0.21096690925067019 -0.22741429179201811 0 0.18950455061633539 -0.23008609786560641 0 0.19659558776942629 -0.21444106635793 0 0.2022357946460244 -0.25456760560034031 0 0.18950455061633539 -0.23008609786560641 0 0.18027894216974 -0.24217292490884049 0 0.2022357946460244 -0.25456760560034031 0 0.18950455061633539 -0.23008609786560641 0 0.2022357946460244 -0.25456760560034031 0 0.21096690925067019 -0.22741429179201811 0 0.18950455061633539 -0.23008609786560641 0 0.2263232696961909 -0.18898437360888909 0 0.20366047652796759 -0.1996557245120045 0 0.21151510199411119 -0.1839788677380591 0 0.2263232696961909 -0.18898437360888909 0 0.20366047652796759 -0.1996557245120045 0 0.1997485536361065 -0.1847935641515073 0 0.21151510199411119 -0.1839788677380591 0 0.20366047652796759 -0.1996557245120045 0 0.21096690925067019 -0.22741429179201811 0 0.20366047652796759 -0.1996557245120045 0 0.22744146372865809 -0.20214739742409191 0 0.20366047652796759 -0.1996557245120045 0 0.2178330329774042 -0.2107661746648391 0 0.21096690925067019 -0.22741429179201811 0 0.20366047652796759 -0.1996557245120045 0 0.19659558776942629 -0.21444106635793 0 0.21096690925067019 -0.22741429179201811 0 0.20366047652796759 -0.1996557245120045 0 0.2178330329774042 -0.2107661746648391 0 0.18950455061633539 -0.23008609786560641 0 0.19659558776942629 -0.21444106635793 0 0.17677330658664639 -0.20560459013087251 0 0.19659558776942629 -0.21444106635793 0 0.1974976922588535 -0.20255762777643199 0 0.17677330658664639 -0.20560459013087251 0 0.20366047652796759 -0.1996557245120045 0 0.19659558776942629 -0.21444106635793 0 0.1974976922588535 -0.20255762777643199 0 0.1974976922588535 -0.20255762777643199 0 0.1969820594134066 -0.19346765893984891 0 0.18658246468124751 -0.19129826378029671 0 0.20366047652796759 -0.1996557245120045 0 0.1974976922588535 -0.20255762777643199 0 0.1969820594134066 -0.19346765893984891 0 0.20366047652796759 -0.1996557245120045 0 0.1974976922588535 -0.20255762777643199 0 0.1997485536361065 -0.1847935641515073 0 0.20366047652796759 -0.1996557245120045 0 0.1969820594134066 -0.19346765893984891 0 0.1997485536361065 -0.1847935641515073 0 0.20366047652796759 -0.1996557245120045 0 0.1997485536361065 -0.1847935641515073 0 0.1969820594134066 -0.19346765893984891 0 0.18658246468124751 -0.19129826378029671 0 0.1974976922588535 -0.20255762777643199 0 0.18658246468124751 -0.19129826378029671 0 0.17677330658664639 -0.20560459013087251 0 0.18658246468124751 -0.19129826378029671 0 0.17677330658664639 -0.20560459013087251 0 0.17352393773107039 -0.17955808204076079 0 0.18950455061633539 -0.23008609786560641 0 0.17677330658664639 -0.20560459013087251 0 0.17677330658664639 -0.20560459013087251 0 0.15908103308319371 -0.2050403991690791 0 0.16909360834632839 -0.22532793320494099 0 0.15908103308319371 -0.2050403991690791 0 0.16909360834632839 -0.22532793320494099 0 0.15025667880087781 -0.2203852883724105 0 0.15908103308319371 -0.2050403991690791 0 0.1512112447178928 -0.18918476029050579 0 0.17352393773107039 -0.17955808204076079 0 0.17677330658664639 -0.20560459013087251 0 0.15908103308319371 -0.2050403991690791 0 0.17352393773107039 -0.17955808204076079 0 0.18147988936778001 -0.25733079299806932 0 0.18027894216974 -0.24217292490884049 0 0.16560790381563639 -0.24534065419496881 0 0.18950455061633539 -0.23008609786560641 0 0.18027894216974 -0.24217292490884049 0 0.16909360834632839 -0.22532793320494099 0 0.18950455061633539 -0.23008609786560641 0 0.17677330658664639 -0.20560459013087251 0 0.16909360834632839 -0.22532793320494099 0 0.16909360834632839 -0.22532793320494099 0 0.14969587190250291 -0.23732312596953131 0 0.15025667880087781 -0.2203852883724105 0 0.16909360834632839 -0.22532793320494099 0 0.16560790381563639 -0.24534065419496881 0 0.14969587190250291 -0.23732312596953131 0 0.18027894216974 -0.24217292490884049 0 0.16909360834632839 -0.22532793320494099 0 0.16560790381563639 -0.24534065419496881 0 0.15299948200235519 -0.25853720833406968 0 0.14969587190250291 -0.23732312596953131 0 0.13548853778208611 -0.2489901437217141 0 0.15299948200235519 -0.25853720833406968 0 0.16560790381563639 -0.24534065419496881 0 0.14969587190250291 -0.23732312596953131 0 0.14969587190250291 -0.23732312596953131 0 0.15025667880087781 -0.2203852883724105 0 0.12819588272033389 -0.22582934579285421 0 0.1187483127605843 -0.24257476342338349 0 0.12819588272033389 -0.22582934579285421 0 0.13548853778208611 -0.2489901437217141 0 0.14969587190250291 -0.23732312596953131 0 0.12819588272033389 -0.22582934579285421 0 0.13548853778208611 -0.2489901437217141 0 0.15908103308319371 -0.2050403991690791 0 0.1512112447178928 -0.18918476029050579 0 0.13935173189301811 -0.2081777687346599 0 0.15908103308319371 -0.2050403991690791 0 0.15025667880087781 -0.2203852883724105 0 0.13935173189301811 -0.2081777687346599 0 0.1184670003310951 -0.20981538024285901 0 0.13935173189301811 -0.2081777687346599 0 0.12889855170471529 -0.19881143854025091 0 0.1184670003310951 -0.20981538024285901 0 0.12819588272033389 -0.22582934579285421 0 0.13935173189301811 -0.2081777687346599 0 0.15025667880087781 -0.2203852883724105 0 0.12819588272033389 -0.22582934579285421 0 0.13935173189301811 -0.2081777687346599 0 0.1512112447178928 -0.18918476029050579 0 0.13935173189301811 -0.2081777687346599 0 0.12889855170471529 -0.19881143854025091 0 0.1512112447178928 -0.18918476029050579 0 0.12889855170471529 -0.19881143854025091 0 0.13720411986888539 -0.17866012648245419 0 0.1512112447178928 -0.18918476029050579 0 0.12889855170471529 -0.19881143854025091 0 0.12025026980471989 -0.1830799037767375 0 0.12889855170471529 -0.19881143854025091 0 0.13720411986888539 -0.17866012648245419 0 0.12025026980471989 -0.1830799037767375 0 0.13720411986888539 -0.17866012648245419 0 0.12649409813850049 -0.16054693265833461 0 0.1512112447178928 -0.18918476029050579 0 0.13720411986888539 -0.17866012648245419 0 0.15745118972346461 -0.1700669308457981 0 0.13720411986888539 -0.17866012648245419 0 0.1431037789740203 -0.1610886231912271 0 0.15745118972346461 -0.1700669308457981 0 0.1431037789740203 -0.1610886231912271 0 0.15399879553487739 -0.15421217943395019 0 0.15745118972346461 -0.1700669308457981 0 0.13720411986888539 -0.17866012648245419 0 0.1431037789740203 -0.1610886231912271 0 0.12649409813850049 -0.16054693265833461 0 0.12649409813850049 -0.16054693265833461 0 0.12552378978607959 -0.1389071642224522 0 0.14186516456832071 -0.1455176478893776 0 0.1431037789740203 -0.1610886231912271 0 0.12649409813850049 -0.16054693265833461 0 0.14186516456832071 -0.1455176478893776 0 0.14396773151254871 -0.1240822401411133 0 0.12552378978607959 -0.1389071642224522 0 0.14186516456832071 -0.1455176478893776 0 0.1229176245917567 -0.1177169729416012 0 0.14396773151254871 -0.1240822401411133 0 0.12552378978607959 -0.1389071642224522 0 0.14396773151254871 -0.1240822401411133 0 0.14186516456832071 -0.1455176478893776 0 0.1574564696821884 -0.13758668355193429 0 0.14396773151254871 -0.1240822401411133 0 0.16318052139797559 -0.1229913059367379 0 0.1574564696821884 -0.13758668355193429 0 0.14186516456832071 -0.1455176478893776 0 0.15399879553487739 -0.15421217943395019 0 0.1574564696821884 -0.13758668355193429 0 0.1431037789740203 -0.1610886231912271 0 0.14186516456832071 -0.1455176478893776 0 0.15399879553487739 -0.15421217943395019 0 0.15399879553487739 -0.15421217943395019 0 0.1574564696821884 -0.13758668355193429 0 0.17011737472639271 -0.15680101169141389 0 0.1574564696821884 -0.13758668355193429 0 0.17332717406295789 -0.13420892561415021 0 0.17011737472639271 -0.15680101169141389 0 0.16318052139797559 -0.1229913059367379 0 0.1574564696821884 -0.13758668355193429 0 0.17332717406295789 -0.13420892561415021 0 0.181905028917309 -0.1170025229939869 0 0.18887082983077669 -0.14346696339249851 0 0.17332717406295789 -0.13420892561415021 0 0.181905028917309 -0.1170025229939869 0 0.18887082983077669 -0.14346696339249851 0 0.18887082983077669 -0.14346696339249851 0 0.17332717406295789 -0.13420892561415021 0 0.17011737472639271 -0.15680101169141389 0 0.18887082983077669 -0.14346696339249851 0 0.18208719325812131 -0.1624393652289208 0 0.17011737472639271 -0.15680101169141389 0 0.1958366307442454 -0.16993140379100991 0 0.18208719325812131 -0.1624393652289208 0 0.17352393773107039 -0.17955808204076079 0 0.18208719325812131 -0.1624393652289208 0 0.17352393773107039 -0.17955808204076079 0 0.17011737472639271 -0.15680101169141389 0 0.1958366307442454 -0.16993140379100991 0 0.18658246468124751 -0.19129826378029671 0 0.17352393773107039 -0.17955808204076079 0 0.1958366307442454 -0.16993140379100991 0 0.17352393773107039 -0.17955808204076079 0 0.1512112447178928 -0.18918476029050579 0 0.17352393773107039 -0.17955808204076079 0 0.1512112447178928 -0.18918476029050579 0 0.17352393773107039 -0.17955808204076079 0 0.15745118972346461 -0.1700669308457981 0 0.17352393773107039 -0.17955808204076079 0 0.15745118972346461 -0.1700669308457981 0 0.17011737472639271 -0.15680101169141389 0 0.15399879553487739 -0.15421217943395019 0 0.15745118972346461 -0.1700669308457981 0 0.17011737472639271 -0.15680101169141389 0 
</DataArray>
</Points>
<Cells>
<DataArray type="UInt32" Name="connectivity" format="ascii">
0 1 2 3 4 5 6 7 8 9 10 11 12 13 14 15 16 17 18 19 20 21 22 23 24 25 26 27 28 29 30 31 32 33 34 35 36 37 38 39 40 41 42 43 44 45 46 47 48 49 50 51 52 53 54 55 56 57 58 59 60 61 62 63 64 65 66 67 68 69 70 71 72 73 74 75 76 77 78 79 80 81 82 83 84 85 86 87 88 89 90 91 92 93 94 95 96 97 98 99 100 101 102 103 104 105 106 107 108 109 110 111 112 113 114 115 116 117 118 119 120 121 122 123 124 125 126 127 128 129 130 131 132 133 134 135 136 137 138 139 140 141 142 143 144 145 146 147 148 149 150 151 152 153 154 155 156 157 158 159 160 161 162 163 164 165 166 167 168 169 170 171 172 173 174 175 176 177 178 179 180 181 182 183 184 185 186 187 188 189 190 191 192 193 194 195 196 197 198 199 200 201 202 203 204 205 206 207 208 209 210 211 212 213 214 215 216 217 218 219 220 221 222 223 224 225 226 227 228 229 230 231 232 233 234 235 236 237 238 239 240 241 242 243 244 245 246 247 248 249 250 251 252 253 254 255 256 257 258 259 260 261 262 263 264 265 266 267 268 269 270 271 272 273 274 275 276 277 278 279 280 281 282 283 284 285 286 287 288 289 290 291 292 293 294 295 296 297 298 299 300 301 302 303 304 305 306 307 308 309 310 311 312 313 314 315 316 317 318 319 320 321 322 323 324 325 326 327 328 329 330 331 332 333 334 335 336 337 338 339 340 341 342 343 344 345 346 347 348 349 350 351 352 353 354 355 356 357 358 359 360 361 362 363 364 365 366 367 368 369 370 371 372 373 374 375 376 377 378 379 380 381 382 383 384 385 386 387 388 389 390 391 392 393 394 395 396 397 398 399 400 401 402 403 404 405 406 407 408 409 410 411 412 413 414 415 416 417 418 419 420 421 422 423 424 425 426 427 428 429 430 431 432 433 434 435 436 437 438 439 440 441 442 443 444 445 446 447 448 449 450 451 452 453 454 455 456 457 458 459 460 461 462 463 464 465 466 467 468 469 470 471 472 473 474 475 476 477 478 479 480 481 482 483 484 485 486 487 488 489 490 491 492 493 494 495 496 497 498 499 500 501 502 503 504 505 506 507 508 509 510 511 512 513 514 515 516 517 518 519 520 521 522 523 524 525 526 527 528 529 530 531 532 533 534 535 536 537 538 539 540 541 542 543 544 545 546 547 548 549 550 551 552 553 554 555 556 557 558 559 560 561 562 563 564 565 566 567 568 569 570 571 572 573 574 575 576 577 578 579 580 581 582 583 584 585 586 587 588 589 590 591 592 593 594 595 596 597 598 599 600 601 602 603 604 605 606 607 608 609 610 611 612 613 614 615 616 617 618 619 620 621 622 623 624 625 626 627 628 629 630 631 632 633 634 635 636 637 638 639 640 641 642 643 644 645 646 647 648 649 650 651 652 653 654 655 656 657 658 659 660 661 662 663 664 665 666 667 668 669 670 671 672 673 674 675 676 677 678 679 680 681 682 683 684 685 686 687 688 689 690 691 692 693 694 695 696 697 698 699 700 701 702 703 704 705 706 707 708 709 710 711 712 713 714 715 716 717 718 719 720 721 722 723 724 725 726 727 728 729 730 731 732 733 734 735 736 737 738 739 740 741 742 743 744 745 746 747 748 749 750 751 752 753 754 755 756 757 758 759 760 761 762 763 764 765 766 767 768 769 770 771 772 773 774 775 776 777 778 779 780 781 782 783 784 785 786 787 788 789 790 791 792 793 794 795 796 797 798 799 800 801 802 803 804 805 806 807 808 809 810 811 812 813 814 815 816 817 818 819 820 821 822 823 824 825 826 827 828 829 830 831 832 833 834 835 836 837 838 839 840 841 842 843 844 845 846 847 848 849 850 851 852 853 854 855 856 857 858 859 860 861 862 863 864 865 866 867 868 869 870 871 872 873 874 875 876 877 878 879 880 881 882 883 884 885 886 887 888 889 890 891 892 893 894 895 896 897 898 899 900 901 902 903 904 905 906 907 908 909 910 911 912 913 914 915 916 917 918 919 920 921 922 923 924 925 926 927 928 929 930 931 932 933 934 935 936 937 938 939 940 941 942 943 944 945 946 947 948 949 950 951 952 953 954 955 956 957 958 959 960 961 962 963 964 965 966 967 968 969 970 971 972 973 974 975 976 977 978 979 980 981 982 983 984 985 986 987 988 989 990 991 992 993 994 995 996 997 998 999 1000 1001 1002 1003 1004 1005 1006 1007 1008 1009 1010 1011 1012 1013 1014 1015 1016 1017 1018 1019 1020 1021 1022 1023 1024 1025 1026 1027 1028 1029 1030 1031 1032 1033 1034 1035 1036 1037 1038 1039 1040 1041 1042 1043 1044 1045 1046 1047 1048 1049 1050 1051 1052 1053 1054 1055 1056 1057 1058 1059 1060 1061 1062 1063 1064 1065 1066 1067 1068 1069 1070 1071 1072 1073 1074 1075 1076 1077 1078 1079 1080 1081 1082 1083 1084 1085 1086 1087 1088 1089 1090 1091 1092 1093 1094 1095 1096 1097 1098 1099 1100 1101 1102 1103 1104 1105 1106 1107 1108 1109 1110 1111 1112 1113 1114 1115 1116 1117 1118 1119 1120 1121 1122 1123 1124 1125 1126 1127 1128 1129 1130 1131 1132 1133 1134 1135 1136 1137 1138 1139 1140 1141 1142 1143 1144 1145 1146 1147 1148 1149 1150 1151 1152 1153 1154 1155 1156 1157 1158 1159 1160 1161 1162 1163 1164 1165 1166 1167 1168 1169 1170 1171 1172 1173 1174 1175 1176 1177 1178 1179 1180 1181 1182 1183 1184 1185 1186 1187 1188 1189 1190 1191 1192 1193 1194 1195 1196 1197 1198 1199 1200 1201 1202 1203 1204 1205 1206 1207 1208 1209 1210 1211 1212 1213 1214 1215 1216 1217 1218 1219 1220 1221 1222 1223 1224 1225 1226 1227 1228 1229 1230 1231 1232 1233 1234 1235 1236 1237 1238 1239 1240 1241 1242 1243 1244 1245 1246 1247 1248 1249 1250 1251 1252 1253 1254 1255 1256 1257 1258 1259 1260 1261 1262 1263 1264 1265 1266 1267 1268 1269 1270 1271 1272 1273 1274 1275 1276 1277 1278 1279 1280 1281 1282 1283 1284 1285 1286 1287 1288 1289 1290 1291 1292 1293 1294 1295 1296 1297 1298 1299 1300 1301 1302 1303 1304 1305 1306 1307 1308 1309 1310 1311 1312 1313 1314 1315 1316 1317 1318 1319 1320 1321 1322 1323 1324 1325 1326 1327 1328 1329 1330 1331 1332 1333 1334 1335 1336 1337 1338 1339 1340 1341 1342 1343 1344 1345 1346 1347 1348 1349 1350 1351 1352 1353 1354 1355 1356 1357 1358 1359 1360 1361 1362 1363 1364 1365 1366 1367 1368 1369 1370 1371 1372 1373 1374 1375 1376 1377 1378 1379 1380 1381 1382 1383 1384 1385 1386 1387 1388 1389 1390 1391 1392 1393 1394 1395 1396 1397 1398 1399 1400 1401 1402 1403 1404 1405 1406 1407 1408 1409 1410 1411 1412 1413 1414 1415 1416 1417 1418 1419 1420 1421 1422 1423 1424 1425 1426 1427 1428 1429 1430 1431 1432 1433 1434 1435 1436 1437 1438 1439 1440 1441 1442 1443 1444 1445 1446 1447 1448 1449 1450 1451 1452 1453 1454 1455 1456 1457 1458 1459 1460 1461 1462 1463 1464 1465 1466 1467 1468 1469 1470 1471 1472 1473 1474 1475 1476 1477 1478 1479 1480 1481 1482 1483 1484 1485 1486 1487 1488 1489 1490 1491 1492 1493 1494 1495 1496 1497 1498 1499 1500 1501 1502 1503 1504 1505 1506 1507 1508 1509 1510 1511 1512 1513 1514 1515 1516 1517 1518 1519 1520 1521 1522 1523 1524 1525 1526 1527 1528 1529 1530 1531 1532 1533 1534 1535 1536 1537 1538 1539 1540 1541 1542 1543 1544 1545 1546 1547 1548 1549 1550 1551 1552 1553 1554 1555 1556 1557 1558 1559 1560 1561 1562 1563 1564 1565 1566 1567 1568 1569 1570 1571 1572 1573 1574 1575 1576 1577 1578 1579 1580 1581 1582 1583 1584 1585 1586 1587 1588 1589 1590 1591 1592 1593 1594 1595 1596 1597 1598 1599 1600 1601 1602 1603 1604 1605 1606 1607 1608 1609 1610 1611 1612 1613 1614 1615 1616 1617 1618 1619 1620 1621 1622 1623 1624 1625 1626 1627 1628 1629 1630 1631 1632 1633 1634 1635 1636 1637 1638 1639 1640 1641 1642 1643 1644 1645 1646 1647 1648 1649 1650 1651 1652 1653 1654 1655 1656 1657 1658 1659 1660 1661 1662 1663 1664 1665 1666 1667 1668 1669 1670 1671 1672 1673 1674 1675 1676 1677 1678 1679 1680 1681 1682 1683 1684 1685 1686 1687 1688 1689 1690 1691 1692 1693 1694 1695 1696 1697 1698 1699 1700 1701 1702 1703 1704 1705 1706 1707 1708 1709 1710 1711 1712 1713 1714 1715 1716 1717 1718 1719 1720 1721 1722 1723 1724 1725 1726 1727 1728 1729 1730 1731 1732 1733 1734 1735 1736 1737 1738 1739 1740 1741 1742 1743 1744 1745 1746 1747 1748 1749 1750 1751 1752 1753 1754 1755 1756 1757 1758 1759 1760 1761 1762 1763 1764 1765 1766 1767 1768 1769 1770 1771 1772 1773 1774 1775 1776 1777 1778 1779 1780 1781 1782 1783 1784 1785 1786 1787 1788 1789 1790 1791 1792 1793 1794 1795 1796 1797 1798 1799 1800 1801 1802 1803 1804 1805 1806 1807 1808 1809 1810 1811 1812 1813 1814 1815 1816 1817 1818 1819 1820 1821 1822 1823 1824 1825 1826 1827 1828 1829 1830 1831 1832 1833 1834 1835 1836 1837 1838 1839 1840 1841 1842 1843 1844 1845 1846 1847 1848 1849 1850 1851 1852 1853 1854 1855 1856 1857 1858 1859 1860 1861 1862 1863 1864 1865 1866 1867 1868 1869 1870 1871 1872 1873 1874 1875 1876 1877 1878 1879 1880 1881 1882 1883 1884 1885 1886 1887 1888 1889 1890 1891 1892 1893 1894 1895 1896 1897 1898 1899 1900 1901 1902 1903 1904 1905 1906 1907 1908 1909 1910 1911 1912 1913 1914 1915 1916 1917 1918 1919 1920 1921 1922 1923 1924 1925 1926 1927 1928 1929 1930 1931 1932 1933 1934 1935 1936 1937 1938 1939 1940 1941 1942 1943 1944 1945 1946 1947 1948 1949 1950 1951 1952 1953 1954 1955 1956 1957 1958 1959 1960 1961 1962 1963 1964 1965 1966 1967 1968 1969 1970 1971 1972 1973 1974 1975 1976 1977 1978 1979 1980 1981 1982 1983 1984 1985 1986 1987 1988 1989 1990 1991 1992 1993 1994 1995 1996 1997 1998 1999 2000 2001 2002 2003 2004 2005 2006 2007 2008 2009 2010 2011 2012 2013 2014 2015 2016 2017 2018 2019 2020 2021 2022 2023 2024 2025 2026 2027 2028 2029 2030 2031 2032 2033 2034 2035 2036 2037 2038 2039 2040 2041 2042 2043 2044 2045 2046 2047 2048 2049 2050 2051 2052 2053 2054 2055 2056 2057 2058 2059 2060 2061 2062 2063 2064 2065 2066 2067 2068 2069 2070 2071 2072 2073 2074 2075 2076 2077 2078 2079 2080 2081 2082 2083 2084 2085 2086 2087 2088 2089 2090 2091 2092 2093 2094 2095 2096 2097 2098 2099 2100 2101 2102 2103 2104 2105 2106 2107 2108 2109 2110 2111 2112 2113 2114 2115 2116 2117 2118 2119 2120 2121 2122 2123 2124 2125 2126 2127 2128 2129 2130 2131 2132 2133 2134 2135 2136 2137 2138 2139 2140 2141 2142 2143 2144 2145 2146 2147 2148 2149 2150 2151 2152 2153 2154 2155 2156 2157 2158 2159 2160 2161 2162 2163 2164 2165 2166 2167 2168 2169 2170 2171 2172 2173 2174 2175 2176 2177 2178 2179 2180 2181 2182 2183 2184 2185 2186 2187 2188 2189 2190 2191 2192 2193 2194 2195 2196 2197 2198 2199 2200 2201 2202 2203 2204 2205 2206 2207 2208 2209 2210 2211 2212 2213 2214 2215 2216 2217 2218 2219 2220 2221 2222 2223 2224 2225 2226 2227 2228 2229 2230 2231 2232 2233 2234 2235 2236 2237 2238 2239 2240 2241 2242 2243 2244 2245 2246 2247 2248 2249 2250 2251 2252 2253 2254 2255 2256 2257 2258 2259 2260 2261 2262 2263 2264 2265 2266 2267 2268 2269 2270 2271 2272 2273 2274 2275 2276 2277 2278 2279 2280 2281 2282 2283 2284 2285 2286 2287 2288 2289 2290 2291 2292 2293 2294 2295 2296 2297 2298 2299 2300 2301 2302 2303 2304 2305 2306 2307 2308 2309 2310 2311 2312 2313 2314 2315 2316 2317 2318 2319 2320 2321 2322 2323 2324 2325 2326 2327 2328 2329 2330 2331 2332 2333 2334 2335 2336 2337 2338 2339 2340 2341 2342 2343 2344 2345 2346 2347 2348 2349 2350 2351 2352 2353 2354 2355 2356 2357 2358 2359 2360 2361 2362 2363 2364 2365 2366 2367 2368 2369 2370 2371 2372 2373 2374 2375 2376 2377 2378 2379 2380 2381 2382 2383 2384 2385 2386 2387 2388 2389 2390 2391 2392 2393 2394 2395 2396 2397 2398 2399 2400 2401 2402 2403 2404 2405 2406 2407 2408 2409 2410 2411 2412 2413 2414 2415 2416 2417 2418 2419 2420 2421 2422 2423 2424 2425 2426 2427 2428 2429 2430 2431 2432 2433 2434 2435 2436 2437 2438 2439 2440 2441 2442 2443 2444 2445 2446 2447 2448 2449 2450 2451 2452 2453 2454 2455 2456 2457 2458 2459 2460 2461 2462 2463 2464 2465 2466 2467 2468 2469 2470 2471 2472 2473 2474 2475 2476 2477 2478 2479 2480 2481 2482 2483 2484 2485 2486 2487 2488 2489 2490 2491 2492 2493 2494 2495 2496 2497 2498 2499 2500 2501 2502 2503 2504 2505 2506 2507 2508 2509 2510 2511 2512 2513 2514 2515 2516 2517 2518 2519 2520 2521 2522 2523 2524 2525 2526 2527 2528 2529 2530 2531 2532 2533 2534 2535 2536 2537 2538 2539 2540 2541 2542 2543 2544 2545 2546 2547 2548 2549 2550 2551 2552 2553 2554 2555 2556 2557 2558 2559 2560 2561 2562 2563 2564 2565 2566 2567 2568 2569 2570 2571 2572 2573 2574 2575 2576 2577 2578 2579 2580 2581 2582 2583 2584 2585 2586 2587 2588 2589 2590 2591 2592 2593 2594 2595 2596 2597 2598 2599 2600 2601 2602 2603 2604 2605 2606 2607 2608 2609 2610 2611 2612 2613 2614 2615 2616 2617 2618 2619 2620 2621 2622 2623 2624 2625 2626 2627 2628 2629 2630 2631 2632 2633 2634 2635 2636 2637 2638 2639 2640 2641 2642 2643 2644 2645 2646 2647 2648 2649 2650 2651 2652 2653 2654 2655 2656 2657 2658 2659 2660 2661 2662 2663 2664 2665 2666 2667 2668 2669 2670 2671 2672 2673 2674 2675 2676 2677 2678 2679 2680 2681 2682 2683 2684 2685 2686 2687 2688 2689 2690 2691 2692 2693 2694 2695 2696 2697 2698 2699 2700 2701 2702 2703 2704 2705 2706 2707 2708 2709 2710 2711 2712 2713 2714 2715 2716 2717 2718 2719 2720 2721 2722 2723 2724 2725 2726 2727 2728 2729 2730 2731 2732 2733 2734 2735 2736 2737 2738 2739 2740 2741 2742 2743 2744 2745 2746 2747 2748 2749 2750 2751 2752 2753 2754 2755 2756 2757 2758 2759 2760 2761 2762 2763 2764 2765 2766 2767 2768 2769 2770 2771 2772 2773 2774 2775 2776 2777 2778 2779 2780 2781 2782 2783 2784 2785 2786 2787 2788 2789 2790 2791 2792 2793 2794 2795 2796 2797 2798 2799 2800 2801 2802 2803 2804 2805 2806 2807 2808 2809 2810 2811 2812 2813 2814 2815 2816 2817 2818 2819 2820 2821 2822 2823 2824 2825 2826 2827 2828 2829 2830 2831 2832 2833 2834 2835 2836 2837 2838 2839 2840 2841 2842 2843 2844 2845 2846 2847 2848 2849 2850 2851 2852 2853 2854 2855 2856 2857 2858 2859 2860 2861 2862 2863 2864 2865 2866 2867 2868 2869 2870 2871 2872 2873 2874 2875 2876 2877 2878 2879 2880 2881 2882 2883 2884 2885 2886 2887 2888 2889 2890 2891 2892 2893 2894 2895 2896 2897 2898 2899 2900 2901 2902 2903 2904 2905 2906 2907 2908 2909 2910 2911 2912 2913 2914 2915 2916 2917 2918 2919 2920 2921 2922 2923 2924 2925 2926 2927 2928 2929 2930 2931 2932 2933 2934 2935 2936 2937 2938 2939 2940 2941 2942 2943 2944 2945 2946 2947 2948 2949 2950 2951 2952 2953 2954 2955 2956 2957 2958 2959 2960 2961 2962 2963 2964 2965 2966 2967 2968 2969 2970 2971 2972 2973 2974 2975 2976 2977 2978 2979 2980 2981 2982 2983 2984 2985 2986 2987 2988 2989 2990 2991 2992 2993 2994 2995 2996 2997 2998 2999 3000 3001 3002 3003 3004 3005 3006 3007 3008 3009 3010 3011 3012 3013 3014 3015 3016 3017 3018 3019 3020 3021 3022 3023 3024 3025 3026 3027 3028 3029 3030 3031 3032 3033 3034 3035 3036 3037 3038 3039 3040 3041 3042 3043 3044 3045 3046 3047 3048 3049 3050 3051 3052 3053 3054 3055 3056 3057 3058 3059 3060 3061 3062 3063 3064 3065 3066 3067 3068 3069 3070 3071 3072 3073 3074 3075 3076 3077 3078 3079 3080 3081 3082 3083 3084 3085 3086 3087 3088 3089 3090 3091 3092 3093 3094 3095 3096 3097 3098 3099 3100 3101 3102 3103 3104 3105 3106 3107 3108 3109 3110 3111 3112 3113 3114 3115 3116 3117 3118 3119 3120 3121 3122 3123 3124 3125 3126 3127 3128 3129 3130 3131 3132 3133 3134 3135 3136 3137 3138 3139 3140 3141 3142 3143 3144 3145 3146 3147 3148 3149 3150 3151 3152 3153 3154 3155 3156 3157 3158 3159 3160 3161 3162 3163 3164 3165 3166 3167 3168 3169 3170 3171 3172 3173 3174 3175 3176 3177 3178 3179 3180 3181 3182 3183 3184 3185 3186 3187 3188 3189 3190 3191 3192 3193 3194 3195 3196 3197 3198 3199 3200 3201 3202 3203 3204 3205 3206 3207 3208 3209 3210 3211 3212 3213 3214 3215 3216 3217 3218 3219 3220 3221 3222 3223 3224 3225 3226 3227 3228 3229 3230 3231 3232 3233 3234 3235 3236 3237 3238 3239 3240 3241 3242 3243 3244 3245 3246 3247 3248 3249 3250 3251 3252 3253 3254 3255 3256 3257 3258 3259 3260 3261 3262 3263 3264 3265 3266 3267 3268 3269 3270 3271 3272 3273 3274 3275 3276 3277 3278 3279 3280 3281 3282 3283 3284 3285 3286 3287 3288 3289 3290 3291 3292 3293 3294 3295 3296 3297 3298 3299 3300 3301 3302 3303 3304 3305 3306 3307 3308 3309 3310 3311 3312 3313 3314 3315 3316 3317 3318 3319 3320 3321 3322 3323 3324 3325 3326 3327 3328 3329 3330 3331 3332 3333 3334 3335 3336 3337 3338 3339 3340 3341 3342 3343 3344 3345 3346 3347 3348 3349 3350 3351 3352 3353 3354 3355 3356 3357 3358 3359 3360 3361 3362 3363 3364 3365 3366 3367 3368 3369 3370 3371 3372 3373 3374 3375 3376 3377 3378 3379 3380 3381 3382 3383 3384 3385 3386 3387 3388 3389 3390 3391 3392 3393 3394 3395 3396 3397 3398 3399 3400 3401 3402 3403 3404 3405 3406 3407 3408 3409 3410 3411 3412 3413 3414 3415 3416 3417 3418 3419 3420 3421 3422 3423 3424 3425 3426 3427 3428 3429 3430 3431 3432 3433 3434 3435 3436 3437 3438 3439 3440 3441 3442 3443 3444 3445 3446 3447 3448 3449 3450 3451 3452 3453 3454 3455 3456 3457 3458 3459 3460 3461 3462 3463 3464 3465 3466 3467 3468 3469 3470 3471 3472 3473 3474 3475 3476 3477 3478 3479 3480 3481 3482 3483 3484 3485 3486 3487 3488 3489 3490 3491 3492 3493 3494 3495 3496 3497 3498 3499 3500 3501 3502 3503 3504 3505 3506 3507 3508 3509 3510 3511 3512 3513 3514 3515 3516 3517 3518 3519 3520 3521 3522 3523 3524 3525 3526 3527 3528 3529 3530 3531 3532 3533 3534 3535 3536 3537 3538 3539 3540 3541 3542 3543 3544 3545 3546 3547 3548 3549 3550 3551 3552 3553 3554 3555 3556 3557 3558 3559 3560 3561 3562 3563 3564 3565 3566 3567 3568 3569 3570 3571 3572 3573 3574 3575 3576 3577 3578 3579 3580 3581 3582 3583 3584 3585 3586 3587 3588 3589 3590 3591 3592 3593 3594 3595 3596 3597 3598 3599 3600 3601 3602 3603 3604 3605 3606 3607 3608 3609 3610 3611 3612 3613 3614 3615 3616 3617 3618 3619 3620 3621 3622 3623 3624 3625 3626 3627 3628 3629 3630 3631 3632 3633 3634 3635 3636 3637 3638 3639 3640 3641 3642 3643 3644 3645 3646 3647 3648 3649 3650 3651 3652 3653 3654 3655 3656 3657 3658 3659 3660 3661 3662 3663 3664 3665 3666 3667 3668 3669 3670 3671 3672 3673 3674 3675 3676 3677 3678 3679 3680 3681 3682 3683 3684 3685 3686 3687 3688 3689 3690 3691 3692 3693 3694 3695 3696 3697 3698 3699 3700 3701 3702 3703 3704 3705 3706 3707 3708 3709 3710 3711 3712 3713 3714 3715 3716 3717 3718 3719 3720 3721 3722 3723 3724 3725 3726 3727 3728 3729 3730 3731 3732 3733 3734 3735 3736 3737 3738 3739 3740 3741 3742 3743 3744 3745 3746 3747 3748 3749 3750 3751 3752 3753 3754 3755 3756 3757 3758 3759 3760 3761 3762 3763 3764 3765 3766 3767 3768 3769 3770 3771 3772 3773 3774 3775 3776 3777 3778 3779 3780 3781 3782 3783 3784 3785 3786 3787 3788 3789 3790 3791 3792 3793 3794 3795 3796 3797 3798 3799 3800 3801 3802 3803 3804 3805 3806 3807 3808 3809 3810 3811 3812 3813 3814 3815 3816 3817 3818 3819 3820 3821 3822 3823 3824 3825 3826 3827 3828 3829 3830 3831 3832 3833 3834 3835 3836 3837 3838 3839 3840 3841 3842 3843 3844 3845 3846 3847 3848 3849 3850 3851 3852 3853 3854 3855 3856 3857 3858 3859 3860 3861 3862 3863 3864 3865 3866 3867 3868 3869 3870 3871 3872 3873 3874 3875 3876 3877 3878 3879 3880 3881 3882 3883 3884 3885 3886 3887 3888 3889 3890 3891 3892 3893 3894 3895 3896 3897 3898 3899 3900 3901 3902 3903 3904 3905 3906 3907 3908 3909 3910 3911 3912 3913 3914 3915 3916 3917 3918 3919 3920 3921 3922 3923 3924 3925 3926 3927 3928 3929 3930 3931 3932 3933 3934 3935 3936 3937 3938 3939 3940 3941 3942 3943 3944 3945 3946 3947 3948 3949 3950 3951 3952 3953 3954 3955 3956 3957 3958 3959 3960 3961 3962 3963 3964 3965 3966 3967 3968 3969 3970 3971 3972 3973 3974 3975 3976 3977 3978 3979 3980 3981 3982 3983 3984 3985 3986 3987 3988 3989 3990 3991 3992 3993 3994 3995 3996 3997 3998 3999 4000 4001 4002 4003 4004 4005 4006 4007 4008 4009 4010 4011 4012 4013 4014 4015 4016 4017 4018 4019 4020 4021 4022 4023 4024 4025 4026 4027 4028 4029 4030 4031 4032 4033 4034 4035 4036 4037 4038 4039 4040 4041 4042 4043 4044 4045 4046 4047 4048 4049 4050 4051 4052 4053 4054 4055 4056 4057 4058 4059 4060 4061 4062 4063 4064 4065 4066 4067 4068 4069 4070 4071 4072 4073 4074 4075 4076 4077 4078 4079 4080 4081 4082 4083 4084 4085 4086 4087 4088 4089 4090 4091 4092 4093 4094 4095 4096 4097 4098 4099 4100 4101 4102 4103 4104 4105 4106 4107 4108 4109 4110 4111 4112 4113 4114 4115 4116 4117 4118 4119 4120 4121 4122 4123 4124 4125 4126 4127 4128 4129 4130 4131 4132 4133 4134 4135 4136 4137 4138 4139 4140 4141 4142 4143 4144 4145 4146 4147 4148 4149 4150 4151 4152 4153 4154 4155 4156 4157 4158 4159 4160 4161 4162 4163 4164 4165 4166 4167 4168 4169 4170 4171 4172 4173 4174 4175 4176 4177 4178 4179 4180 4181 4182 4183 4184 4185 4186 4187 4188 4189 4190 4191 4192 4193 4194 4195 4196 4197 4198 4199 4200 4201 4202 4203 4204 4205 4206 4207 4208 4209 4210 4211 4212 4213 4214 4215 4216 4217 4218 4219 4220 4221 4222 4223 4224 4225 4226 4227 4228 4229 4230 4231 4232 4233 4234 4235 4236 4237 4238 4239 4240 4241 4242 4243 4244 4245 4246 4247 4248 4249 4250 4251 4252 4253 4254 4255 4256 4257 4258 4259 4260 4261 4262 4263 4264 4265 4266 4267 4268 4269 4270 4271 4272 4273 4274 4275 4276 4277 4278 4279 4280 4281 4282 4283 4284 4285 4286 4287 4288 4289 4290 4291 4292 4293 4294 4295 4296 4297 4298 4299 4300 4301 4302 4303 4304 4305 4306 4307 4308 4309 4310 4311 4312 4313 4314 4315 4316 4317 4318 4319 4320 4321 4322 4323 4324 4325 4326 4327 4328 4329 4330 4331 4332 4333 4334 4335 4336 4337 4338 4339 4340 4341 4342 4343 4344 4345 4346 4347 4348 4349 4350 4351 4352 4353 4354 4355 4356 4357 4358 4359 4360 4361 4362 4363 4364 4365 4366 4367 4368 4369 4370 4371 4372 4373 4374 4375 4376 4377 4378 4379 4380 4381 4382 4383 4384 4385 4386 4387 4388 4389 4390 4391 4392 4393 4394 4395 4396 4397 4398 4399 4400 4401 4402 4403 4404 4405 4406 4407 4408 4409 4410 4411 4412 4413 4414 4415 4416 4417 4418 4419 4420 4421 4422 4423 4424 4425 4426 4427 4428 4429 4430 4431 4432 4433 4434 4435 4436 4437 4438 4439 4440 4441 4442 4443 4444 4445 4446 4447 4448 4449 4450 4451 4452 4453 4454 4455 4456 4457 4458 4459 4460 4461 4462 4463 4464 4465 4466 4467 4468 4469 4470 4471 4472 4473 4474 4475 4476 4477 4478 4479 4480 4481 4482 4483 4484 4485 4486 4487 4488 4489 4490 4491 4492 4493 4494 4495 4496 4497 4498 4499 4500 4501 4502 4503 4504 4505 4506 4507 4508 4509 4510 4511 4512 4513 4514 4515 4516 4517 4518 4519 4520 4521 4522 4523 4524 4525 4526 4527 4528 4529 4530 4531 4532 4533 4534 4535 4536 4537 4538 4539 4540 4541 4542 4543 4544 4545 4546 4547 4548 4549 4550 4551 4552 4553 4554 4555 4556 4557 4558 4559 4560 4561 4562 4563 4564 4565 4566 4567 4568 4569 4570 4571 4572 4573 4574 4575 4576 4577 4578 4579 4580 4581 4582 4583 4584 4585 4586 4587 4588 4589 4590 4591 4592 4593 4594 4595 4596 4597 4598 4599 4600 4601 4602 4603 4604 4605 4606 4607 4608 4609 4610 4611 4612 4613 4614 4615 4616 4617 4618 4619 4620 4621 4622 4623 4624 4625 4626 4627 4628 4629 4630 4631 4632 4633 4634 4635 4636 4637 4638 4639 4640 4641 4642 4643 4644 4645 4646 4647 4648 4649 4650 4651 4652 4653 4654 4655 4656 4657 4658 4659 4660 4661 4662 4663 4664 4665 4666 4667 4668 4669 4670 4671 4672 4673 4674 4675 4676 4677 4678 4679 4680 4681 4682 4683 4684 4685 4686 4687 4688 4689 4690 4691 4692 4693 4694 4695 4696 4697 4698 4699 4700 4701 4702 4703 4704 4705 4706 4707 4708 4709 4710 4711 4712 4713 4714 4715 4716 4717 4718 4719 4720 4721 4722 4723 4724 4725 4726 4727 4728 4729 4730 4731 4732 4733 4734 4735 4736 4737 4738 4739 4740 4741 4742 4743 4744 4745 4746 4747 4748 4749 4750 4751 4752 4753 4754 4755 4756 4757 4758 4759 4760 4761 4762 4763 4764 4765 4766 4767 4768 4769 4770 4771 4772 4773 4774 4775 4776 4777 4778 4779 4780 4781 4782 4783 4784 4785 4786 4787 4788 4789 4790 4791 4792 4793 4794 4795 4796 4797 4798 4799 4800 4801 4802 4803 4804 4805 4806 4807 4808 4809 4810 4811 4812 4813 4814 4815 4816 4817 4818 4819 4820 4821 4822 4823 4824 4825 4826 4827 4828 4829 4830 4831 4832 4833 4834 4835 4836 4837 4838 4839 4840 4841 4842 4843 4844 4845 4846 4847 4848 4849 4850 4851 4852 4853 4854 4855 4856 4857 4858 4859 4860 4861 4862 4863 4864 4865 4866 4867 4868 4869 4870 4871 4872 4873 4874 4875 4876 4877 4878 4879 4880 4881 4882 4883 4884 4885 4886 4887 4888 4889 4890 4891 4892 4893 4894 4895 4896 4897 4898 4899 4900 4901 4902 4903 4904 4905 4906 4907 4908 4909 4910 4911 4912 4913 4914 4915 4916 4917 4918 4919 4920 4921 4922 4923 4924 4925 4926 4927 4928 4929 4930 4931 4932 4933 4934 4935 4936 4937 4938 4939 4940 4941 4942 4943 4944 4945 4946 4947 4948 4949 4950 4951 4952 4953 4954 4955 4956 4957 4958 4959 4960 4961 4962 4963 4964 4965 4966 4967 4968 4969 4970 4971 4972 4973 4974 4975 4976 4977 4978 4979 4980 4981 4982 4983 4984 4985 4986 4987 4988 4989 4990 4991 4992 4993 4994 4995 4996 4997 4998 4999 5000 5001 5002 5003 5004 5005 5006 5007 5008 5009 5010 5011 5012 5013 5014 5015 5016 5017 5018 5019 5020 5021 5022 5023 5024 5025 5026 5027 5028 5029 5030 5031 5032 5033 5034 5035 5036 5037 5038 5039 5040 5041 5042 5043 5044 5045 5046 5047 5048 5049 5050 5051 5052 5053 5054 5055 5056 5057 5058 5059 5060 5061 5062 5063 5064 5065 5066 5067 5068 5069 5070 5071 5072 5073 5074 5075 5076 5077 5078 5079 5080 5081 5082 5083 5084 5085 5086 5087 5088 5089 5090 5091 5092 5093 5094 5095 5096 5097 5098 5099 5100 5101 5102 5103 5104 5105 5106 5107 5108 5109 5110 5111 5112 5113 5114 5115 5116 5117 5118 5119 5120 5121 5122 5123 5124 5125 5126 5127 5128 5129 5130 5131 5132 5133 5134 5135 5136 5137 5138 5139 5140 5141 5142 5143 5144 5145 5146 5147 5148 5149 5150 5151 5152 5153 5154 5155 5156 5157 5158 5159 5160 5161 5162 5163 5164 5165 5166 5167 5168 5169 5170 5171 5172 5173 5174 5175 5176 5177 5178 5179 5180 5181 5182 5183 5184 5185 5186 5187 5188 5189 5190 5191 5192 5193 5194 5195 5196 5197 5198 5199 5200 5201 5202 5203 5204 5205 5206 5207 5208 5209 5210 5211 5212 5213 5214 5215 5216 5217 5218 5219 5220 5221 5222 5223 5224 5225 5226 5227 5228 5229 5230 5231 5232 5233 5234 5235 5236 5237 5238 5239 5240 5241 5242 5243 5244 5245 5246 5247 5248 5249 5250 5251 5252 5253 5254 5255 5256 5257 5258 5259 5260 5261 5262 5263 5264 5265 5266 5267 5268 5269 5270 5271 5272 5273 5274 5275 5276 5277 5278 5279 5280 5281 5282 5283 5284 5285 5286 5287 5288 5289 5290 5291 5292 5293 5294 5295 5296 5297 5298 5299 5300 5301 5302 5303 5304 5305 5306 5307 5308 5309 5310 5311 5312 5313 5314 5315 5316 5317 5318 5319 5320 5321 5322 5323 5324 5325 5326 5327 5328 5329 5330 5331 5332 5333 5334 5335 5336 5337 5338 5339 5340 5341 5342 5343 5344 5345 5346 5347 5348 5349 5350 5351 5352 5353 5354 5355 5356 5357 5358 5359 5360 5361 5362 5363 5364 5365 5366 5367 5368 5369 5370 5371 5372 5373 5374 5375 5376 5377 5378 5379 5380 5381 5382 5383 5384 5385 5386 5387 5388 5389 5390 5391 5392 5393 5394 5395 5396 5397 5398 5399 5400 5401 5402 5403 5404 5405 5406 5407 5408 5409 5410 5411 5412 5413 5414 5415 5416 5417 5418 5419 5420 5421 5422 5423 5424 5425 5426 5427 5428 5429 5430 5431 5432 5433 5434 5435 5436 5437 5438 5439 5440 5441 5442 5443 5444 5445 5446 5447 5448 5449 5450 5451 5452 5453 5454 5455 5456 5457 5458 5459 5460 5461 5462 5463 5464 5465 5466 5467 5468 5469 5470 5471 5472 5473 5474 5475 5476 5477 5478 5479 5480 5481 5482 5483 5484 5485 5486 5487 5488 5489 5490 5491 5492 5493 5494 5495 5496 5497 5498 5499 5500 5501 5502 5503 5504 5505 5506 5507 5508 5509 5510 5511 5512 5513 5514 5515 5516 5517 5518 5519 5520 5521 5522 5523 5524 5525 5526 5527 5528 5529 5530 5531 5532 5533 5534 5535 5536 5537 5538 5539 5540 5541 5542 5543 5544 5545 5546 5547 5548 5549 5550 5551 5552 5553 5554 5555 5556 5557 5558 5559 5560 5561 5562 5563 5564 5565 5566 5567 5568 5569 5570 5571 5572 5573 5574 5575 5576 5577 5578 5579 5580 5581 5582 5583 5584 5585 5586 5587 5588 5589 5590 5591 5592 5593 5594 5595 5596 5597 5598 5599 5600 5601 5602 5603 5604 5605 5606 5607 5608 5609 5610 5611 5612 5613 5614 5615 5616 5617 5618 5619 5620 5621 5622 5623 5624 5625 5626 5627 5628 5629 5630 5631 5632 5633 5634 5635 5636 5637 5638 5639 5640 5641 5642 5643 5644 5645 5646 5647 5648 5649 5650 5651 5652 5653 5654 5655 5656 5657 5658 5659 5660 5661 5662 5663 5664 5665 5666 5667 5668 5669 5670 5671 5672 5673 5674 5675 5676 5677 5678 5679 5680 5681 5682 5683 5684 5685 5686 5687 5688 5689 5690 5691 5692 5693 5694 5695 5696 5697 5698 5699 5700 5701 5702 5703 5704 5705 5706 5707 5708 5709 5710 5711 5712 5713 5714 5715 5716 5717 5718 5719 5720 5721 5722 5723 5724 5725 5726 5727 5728 5729 5730 5731 5732 5733 5734 5735 5736 5737 5738 5739 5740 5741 5742 5743 5744 5745 5746 5747 5748 5749 5750 5751 5752 5753 5754 5755 5756 5757 5758 5759 5760 5761 5762 5763 5764 5765 5766 5767 5768 5769 5770 5771 5772 5773 5774 5775 5776 5777 5778 5779 5780 5781 5782 5783 5784 5785 5786 5787 5788 5789 5790 5791 5792 5793 5794 5795 5796 5797 5798 5799 5800 5801 5802 5803 5804 5805 5806 5807 5808 5809 5810 5811 5812 5813 5814 5815 5816 5817 5818 5819 5820 5821 5822 5823 5824 5825 5826 5827 5828 5829 5830 5831 5832 5833 5834 5835 5836 5837 5838 5839 5840 5841 5842 5843 5844 5845 5846 5847 5848 5849 5850 5851 5852 5853 5854 5855 5856 5857 5858 5859 5860 5861 5862 5863 5864 5865 5866 5867 5868 5869 5870 5871 5872 5873 5874 5875 5876 5877 5878 5879 5880 5881 5882 5883 5884 5885 5886 5887 5888 5889 5890 5891 5892 5893 5894 5895 5896 5897 5898 5899 5900 5901 5902 5903 5904 5905 5906 5907 5908 5909 5910 5911 5912 5913 5914 5915 5916 5917 5918 5919 5920 5921 5922 5923 5924 5925 5926 5927 5928 5929 5930 5931 5932 5933 5934 5935 5936 5937 5938 5939 5940 5941 5942 5943 5944 5945 5946 5947 5948 5949 5950 5951 5952 5953 5954 5955 5956 5957 5958 5959 5960 5961 5962 5963 5964 5965 5966 5967 5968 5969 5970 5971 5972 5973 5974 5975 5976 5977 5978 5979 5980 5981 5982 5983 5984 5985 5986 5987 5988 5989 5990 5991 5992 5993 5994 5995 5996 5997 5998 5999 6000 6001 6002 6003 6004 6005 6006 6007 6008 6009 6010 6011 6012 6013 6014 6015 6016 6017 6018 6019 6020 6021 6022 6023 6024 6025 6026 6027 6028 6029 6030 6031 6032 6033 6034 6035 6036 6037 6038 6039 6040 6041 6042 6043 6044 6045 6046 6047 6048 6049 6050 6051 6052 6053 6054 6055 6056 6057 6058 6059 6060 6061 6062 6063 6064 6065 6066 6067 6068 6069 6070 6071 6072 6073 6074 6075 6076 6077 6078 6079 6080 6081 6082 6083 6084 6085 6086 6087 6088 6089 6090 6091 6092 6093 6094 6095 6096 6097 6098 6099 6100 6101 6102 6103 6104 6105 6106 6107 6108 6109 6110 6111 6112 6113 6114 6115 6116 6117 6118 6119 6120 6121 6122 6123 6124 6125 6126 6127 6128 6129 6130 6131 6132 6133 6134 6135 6136 6137 6138 6139 6140 6141 6142 6143 6144 6145 6146 6147 6148 6149 6150 6151 6152 6153 6154 6155 6156 6157 6158 6159 6160 6161 6162 6163 6164 6165 6166 6167 6168 6169 6170 6171 6172 6173 6174 6175 6176 6177 6178 6179 6180 6181 6182 6183 6184 6185 6186 6187 6188 6189 6190 6191 6192 6193 6194 6195 6196 6197 6198 6199 6200 6201 6202 6203 6204 6205 6206 6207 6208 6209 6210 6211 6212 6213 6214 6215 6216 6217 6218 6219 6220 6221 6222 6223 6224 6225 6226 6227 6228 6229 6230 6231 6232 6233 6234 6235 6236 6237 6238 6239 6240 6241 6242 6243 6244 6245 6246 6247 6248 6249 6250 6251 6252 6253 6254 6255 6256 6257 6258 6259 6260 6261 6262 6263 6264 6265 6266 6267 6268 6269 6270 6271 6272 6273 6274 6275 6276 6277 6278 6279 6280 6281 6282 6283 6284 6285 6286 6287 6288 6289 6290 6291 6292 6293 6294 6295 6296 6297 6298 6299 6300 6301 6302 6303 6304 6305 6306 6307 6308 6309 6310 6311 6312 6313 6314 6315 6316 6317 6318 6319 6320 6321 6322 6323 6324 6325 6326 6327 6328 6329 6330 6331 6332 6333 6334 6335 6336 6337 6338 6339 6340 6341 6342 6343 6344 6345 6346 6347 6348 6349 6350 6351 6352 6353 6354 6355 6356 6357 6358 6359 6360 6361 6362 6363 6364 6365 6366 6367 6368 6369 6370 6371 6372 6373 6374 6375 6376 6377 6378 6379 6380 6381 6382 6383 6384 6385 6386 6387 6388 6389 6390 6391 6392 6393 6394 6395 6396 6397 6398 6399 6400 6401 6402 6403 6404 6405 6406 6407 6408 6409 6410 6411 6412 6413 6414 6415 6416 6417 6418 6419 6420 6421 6422 6423 6424 6425 6426 6427 6428 6429 6430 6431 6432 6433 6434 6435 6436 6437 6438 6439 6440 6441 6442 6443 6444 6445 6446 6447 6448 6449 6450 6451 6452 6453 6454 6455 6456 6457 6458 6459 6460 6461 6462 6463 6464 6465 6466 6467 6468 6469 6470 6471 6472 6473 6474 6475 6476 6477 6478 6479 6480 6481 6482 6483 6484 6485 6486 6487 6488 6489 6490 6491 6492 6493 6494 6495 6496 6497 6498 6499 6500 6501 6502 6503 6504 6505 6506 6507 6508 6509 6510 6511 6512 6513 6514 6515 6516 6517 6518 6519 6520 6521 6522 6523 6524 6525 6526 6527 6528 6529 6530 6531 6532 6533 6534 6535 6536 6537 6538 6539 6540 6541 6542 6543 6544 6545 6546 6547 6548 6549 6550 6551 6552 6553 6554 6555 6556 6557 6558 6559 6560 6561 6562 6563 6564 6565 6566 6567 6568 6569 6570 6571 6572 6573 6574 6575 6576 6577 6578 6579 6580 6581 6582 6583 6584 6585 6586 6587 6588 6589 6590 6591 6592 6593 6594 6595 6596 6597 6598 6599 6600 6601 6602 6603 6604 6605 6606 6607 6608 6609 6610 6611 6612 6613 6614 6615 6616 6617 6618 6619 6620 6621 6622 6623 6624 6625 6626 6627 6628 6629 6630 6631 6632 6633 6634 6635 6636 6637 6638 6639 6640 6641 6642 6643 6644 6645 6646 6647 6648 6649 6650 6651 6652 6653 6654 6655 6656 6657 6658 6659 6660 6661 6662 6663 6664 6665 6666 6667 6668 6669 6670 6671 6672 6673 6674 6675 6676 6677 6678 6679 6680 6681 6682 6683 6684 6685 6686 6687 6688 6689 6690 6691 6692 6693 6694 6695 6696 6697 6698 6699 6700 6701 6702 6703 6704 6705 6706 6707 6708 6709 6710 6711 6712 6713 6714 6715 6716 6717 6718 6719 6720 6721 6722 6723 6724 6725 6726 6727 6728 6729 6730 6731 6732 6733 6734 6735 6736 6737 6738 6739 6740 6741 6742 6743 6744 6745 6746 6747 6748 6749 6750 6751 6752 6753 6754 6755 6756 6757 6758 6759 6760 6761 6762 6763 6764 6765 6766 6767 6768 6769 6770 6771 6772 6773 6774 6775 6776 6777 6778 6779 6780 6781 6782 6783 6784 6785 6786 6787 6788 6789 6790 6791 6792 6793 6794 6795 6796 6797 6798 6799 6800 6801 6802 6803 6804 6805 6806 6807 6808 6809 6810 6811 6812 6813 6814 6815 6816 6817 6818 6819 6820 6821 6822 6823 6824 6825 6826 6827 6828 6829 6830 6831 6832 6833 6834 6835 6836 6837 6838 6839 6840 6841 6842 6843 6844 6845 6846 6847 6848 6849 6850 6851 6852 6853 6854 6855 6856 6857 6858 6859 6860 6861 6862 6863 6864 6865 6866 6867 6868 6869 6870 6871 6872 6873 6874 6875 6876 6877 6878 6879 6880 6881 6882 6883 6884 6885 6886 6887 6888 6889 6890 6891 6892 6893 6894 6895 6896 6897 6898 6899 6900 6901 6902 6903 6904 6905 6906 6907 6908 6909 6910 6911 6912 6913 6914 6915 6916 6917 6918 6919 6920 6921 6922 6923 6924 6925 6926 6927 6928 6929 6930 6931 6932 6933 6934 6935 6936 6937 6938 6939 6940 6941 6942 6943 6944 6945 6946 6947 6948 6949 6950 6951 6952 6953 6954 6955 6956 6957 6958 6959 6960 6961 6962 6963 6964 6965 6966 6967 6968 6969 6970 6971 6972 6973 6974 6975 6976 6977 6978 6979 6980 6981 6982 6983 6984 6985 6986 6987 6988 6989 6990 6991 6992 6993 6994 6995 6996 6997 6998 6999 7000 7001 7002 7003 7004 7005 7006 7007 7008 7009 7010 7011 7012 7013 7014 7015 7016 7017 7018 7019 7020 7021 7022 7023 7024 7025 7026 7027 7028 7029 7030 7031 7032 7033 7034 7035 7036 7037 7038 7039 7040 7041 7042 7043 7044 7045 7046 7047 7048 7049 7050 7051 7052 7053 7054 7055 7056 7057 7058 7059 7060 7061 7062 7063 7064 7065 7066 7067 7068 7069 7070 7071 7072 7073 7074 7075 7076 7077 7078 7079 7080 7081 7082 7083 7084 7085 7086 7087 7088 7089 7090 7091 7092 7093 7094 7095 7096 7097 7098 7099 7100 7101 7102 7103 7104 7105 7106 7107 7108 7109 7110 7111 7112 7113 7114 7115 7116 7117 7118 7119 7120 7121 7122 7123 7124 7125 7126 7127 7128 7129 7130 7131 7132 7133 7134 7135 7136 7137 7138 7139 7140 7141 7142 7143 7144 7145 7146 7147 7148 7149 7150 7151 7152 7153 7154 7155 7156 7157 7158 7159 7160 7161 7162 7163 7164 7165 7166 7167 7168 7169 7170 7171 7172 7173 7174 7175 7176 7177 7178 7179 7180 7181 7182 7183 7184 7185 7186 7187 7188 7189 7190 7191 7192 7193 7194 7195 7196 7197 7198 7199 7200 7201 7202 7203 7204 7205 7206 7207 7208 7209 7210 7211 7212 7213 7214 7215 7216 7217 7218 7219 7220 7221 7222 7223 7224 7225 7226 7227 7228 7229 7230 7231 7232 7233 7234 7235 7236 7237 7238 7239 7240 7241 7242 7243 7244 7245 7246 7247 7248 7249 7250 7251 7252 7253 7254 7255 7256 7257 7258 7259 7260 7261 7262 7263 7264 7265 7266 7267 7268 7269 7270 7271 7272 7273 7274 7275 7276 7277 7278 7279 7280 7281 7282 7283 7284 7285 7286 7287 7288 7289 7290 7291 7292 7293 7294 7295 7296 7297 7298 7299 7300 7301 7302 7303 7304 7305 7306 7307 7308 7309 7310 7311 7312 7313 7314 7315 7316 7317 7318 7319 7320 7321 7322 7323 7324 7325 7326 7327 7328 7329 7330 7331 7332 7333 7334 7335 7336 7337 7338 7339 7340 7341 7342 7343 7344 7345 7346 7347 7348 7349 7350 7351 7352 7353 7354 7355 7356 7357 7358 7359 7360 7361 7362 7363 7364 7365 7366 7367 7368 7369 7370 7371 7372 7373 7374 7375 7376 7377 7378 7379 7380 7381 7382 7383 7384 7385 7386 7387 7388 7389 7390 7391 7392 7393 7394 7395 7396 7397 7398 7399 7400 7401 7402 7403 7404 7405 7406 7407 7408 7409 7410 7411 7412 7413 7414 7415 7416 7417 7418 7419 7420 7421 7422 7423 7424 7425 7426 7427 7428 7429 7430 7431 7432 7433 7434 7435 7436 7437 7438 7439 7440 7441 7442 7443 7444 7445 7446 7447 7448 7449 7450 7451 7452 7453 7454 7455 7456 7457 7458 7459 7460 7461 7462 7463 7464 7465 7466 7467 7468 7469 7470 7471 7472 7473 7474 7475 7476 7477 7478 7479 7480 7481 7482 7483 7484 7485 7486 7487 7488 7489 7490 7491 7492 7493 7494 7495 7496 7497 7498 7499 7500 7501 7502 7503 7504 7505 7506 7507 7508 7509 7510 7511 7512 7513 7514 7515 7516 7517 7518 7519 7520 7521 7522 7523 7524 7525 7526 7527 7528 7529 7530 7531 7532 7533 7534 7535 7536 7537 7538 7539 7540 7541 7542 7543 7544 7545 7546 7547 7548 7549 7550 7551 7552 7553 7554 7555 7556 7557 7558 7559 7560 7561 7562 7563 7564 7565 7566 7567 7568 7569 7570 7571 7572 7573 7574 7575 7576 7577 7578 7579 7580 7581 7582 7583 7584 7585 7586 7587 7588 7589 7590 7591 7592 7593 7594 7595 7596 7597 7598 7599 7600 7601 7602 7603 7604 7605 7606 7607 7608 7609 7610 7611 7612 7613 7614 7615 7616 7617 7618 7619 7620 7621 7622 7623 7624 7625 7626 7627 7628 7629 7630 7631 7632 7633 7634 7635 7636 7637 7638 7639 7640 7641 7642 7643 7644 7645 7646 7647 7648 7649 7650 7651 7652 7653 7654 7655 7656 7657 7658 7659 7660 7661 7662 7663 7664 7665 7666 7667 7668 7669 7670 7671 7672 7673 7674 7675 7676 7677 7678 7679 7680 7681 7682 7683 7684 7685 7686 7687 7688 7689 7690 7691 7692 7693 7694 7695 7696 7697 7698 7699 7700 7701 7702 7703 7704 7705 7706 7707 7708 7709 7710 7711 7712 7713 7714 7715 7716 7717 7718 7719 7720 7721 7722 7723 7724 7725 7726 7727 7728 7729 7730 7731 7732 7733 7734 7735 7736 7737 7738 7739 7740 7741 7742 7743 7744 7745 7746 7747 7748 7749 7750 7751 7752 7753 7754 7755 7756 7757 7758 7759 7760 7761 7762 7763 7764 7765 7766 7767 7768 7769 7770 7771 7772 7773 7774 7775 7776 7777 7778 7779 7780 7781 7782 7783 7784 7785 7786 7787 7788 7789 7790 7791 7792 7793 7794 7795 7796 7797 7798 7799 7800 7801 7802 7803 7804 7805 7806 7807 7808 7809 7810 7811 7812 7813 7814 7815 7816 7817 7818 7819 7820 7821 7822 7823 7824 7825 7826 7827 7828 7829 7830 7831 7832 7833 7834 7835 7836 7837 7838 7839 7840 7841 7842 7843 7844 7845 7846 7847 7848 7849 7850 7851 7852 7853 7854 7855 7856 7857 7858 7859 7860 7861 7862 7863 7864 7865 7866 7867 7868 7869 7870 7871 7872 7873 7874 7875 7876 7877 7878 7879 7880 7881 7882 7883 7884 7885 7886 7887 7888 7889 7890 7891 7892 7893 7894 7895 7896 7897 7898 7899 7900 7901 7902 7903 7904 7905 7906 7907 7908 7909 7910 7911 7912 7913 7914 7915 7916 7917 7918 7919 7920 7921 7922 7923 7924 7925 7926 7927 7928 7929 7930 7931 7932 7933 7934 7935 7936 7937 7938 7939 7940 7941 7942 7943 7944 7945 7946 7947 7948 7949 7950 7951 7952 7953 7954 7955 7956 7957 7958 7959 7960 7961 7962 7963 7964 7965 7966 7967 7968 7969 7970 7971 7972 7973 7974 7975 7976 7977 7978 7979 7980 7981 7982 7983 7984 7985 7986 7987 7988 7989 7990 7991 7992 7993 7994 7995 7996 7997 7998 7999 8000 8001 8002 8003 8004 8005 8006 8007 8008 8009 8010 8011 8012 8013 8014 8015 8016 8017 8018 8019 8020 8021 8022 8023 8024 8025 8026 8027 8028 8029 8030 8031 8032 8033 8034 8035 8036 8037 8038 8039 8040 8041 8042 8043 8044 8045 8046 8047 8048 8049 8050 8051 8052 8053 8054 8055 8056 8057 8058 8059 8060 8061 8062 8063 8064 8065 8066 8067 8068 8069 8070 8071 8072 8073 8074 8075 8076 8077 8078 8079 8080 8081 8082 8083 8084 8085 8086 8087 8088 8089 8090 8091 8092 8093 8094 8095 8096 8097 8098 8099 8100 8101 8102 8103 8104 8105 8106 8107 8108 8109 8110 8111 8112 8113 8114 8115 8116 8117 8118 8119 8120 8121 8122 8123 8124 8125 8126 8127 8128 8129 8130 8131 8132 8133 8134 8135 8136 8137 8138 8139 8140 8141 8142 8143 8144 8145 8146 8147 8148 8149 8150 8151 8152 8153 8154 8155 8156 8157 8158 8159 8160 8161 8162 8163 8164 8165 8166 8167 8168 8169 8170 8171 8172 8173 8174 8175 8176 8177 8178 8179 8180 8181 8182 8183 8184 8185 8186 8187 8188 8189 8190 8191 8192 8193 8194 8195 8196 8197 8198 8199 8200 8201 8202 8203 8204 8205 8206 8207 8208 8209 8210 8211 8212 8213 8214 8215 8216 8217 8218 8219 8220 8221 8222 8223 8224 8225 8226 8227 8228 8229 8230 8231 8232 8233 8234 8235 8236 8237 8238 8239 8240 8241 8242 8243 8244 8245 8246 8247 8248 8249 8250 8251 8252 8253 8254 8255 8256 8257 8258 8259 8260 8261 8262 8263 8264 8265 8266 8267 8268 8269 8270 8271 8272 8273 8274 8275 8276 8277 8278 8279 8280 8281 8282 8283 8284 8285 8286 8287 8288 8289 8290 8291 8292 8293 8294 8295 8296 8297 8298 8299 8300 8301 8302 8303 8304 8305 8306 8307 8308 8309 8310 8311 8312 8313 8314 8315 8316 8317 8318 8319 8320 8321 8322 8323 8324 8325 8326 8327 8328 8329 8330 8331 8332 8333 8334 8335 8336 8337 8338 8339 8340 8341 8342 8343 8344 8345 8346 8347 8348 8349 8350 8351 8352 8353 8354 8355 8356 8357 8358 8359 8360 8361 8362 8363 8364 8365 8366 8367 8368 8369 8370 8371 8372 8373 8374 8375 8376 8377 8378 8379 8380 8381 8382 8383 8384 8385 8386 8387 8388 8389 8390 8391 8392 8393 8394 8395 8396 8397 8398 8399 8400 8401 8402 8403 8404 8405 8406 8407 8408 8409 8410 8411 8412 8413 8414 8415 8416 8417 8418 8419 8420 8421 8422 8423 8424 8425 8426 8427 8428 8429 8430 8431 8432 8433 8434 8435 8436 8437 8438 8439 8440 8441 8442 8443 8444 8445 8446 8447 8448 8449 8450 8451 8452 8453 8454 8455 8456 8457 8458 8459 8460 8461 8462 8463 8464 8465 8466 8467 8468 8469 8470 8471 8472 8473 8474 8475 8476 8477 8478 8479 8480 8481 8482 8483 8484 8485 8486 8487 8488 8489 8490 8491 8492 8493 8494 8495 8496 8497 8498 8499 8500 8501 8502 8503 8504 8505 8506 8507 8508 8509 8510 8511 8512 8513 8514 8515 8516 8517 8518 8519 8520 8521 8522 8523 8524 8525 8526 8527 8528 8529 8530 8531 8532 8533 8534 8535 8536 8537 8538 8539 8540 8541 8542 8543 8544 8545 8546 8547 8548 8549 8550 8551 8552 8553 8554 8555 8556 8557 8558 8559 8560 8561 8562 8563 8564 8565 8566 8567 8568 8569 8570 8571 8572 8573 8574 8575 8576 8577 8578 8579 8580 8581 8582 8583 8584 8585 8586 8587 8588 8589 8590 8591 8592 8593 8594 8595 8596 8597 8598 8599 8600 8601 8602 8603 8604 8605 8606 8607 8608 8609 8610 8611 8612 8613 8614 8615 8616 8617 8618 8619 8620 8621 8622 8623 8624 8625 8626 8627 8628 8629 8630 8631 8632 8633 8634 8635 8636 8637 8638 8639 8640 8641 8642 8643 8644 8645 8646 8647 8648 8649 8650 8651 8652 8653 8654 8655 8656 8657 8658 8659 8660 8661 8662 8663 8664 8665 8666 8667 8668 8669 8670 8671 8672 8673 8674 8675 8676 8677 8678 8679 8680 8681 8682 8683 8684 8685 8686 8687 8688 8689 8690 8691 8692 8693 8694 8695 8696 8697 8698 8699 8700 8701 8702 8703 8704 8705 8706 8707 8708 8709 8710 8711 8712 8713 8714 8715 8716 8717 8718 8719 8720 8721 8722 8723 8724 8725 8726 8727 8728 8729 8730 8731 8732 8733 8734 8735 8736 8737 8738 8739 8740 8741 8742 8743 8744 8745 8746 8747 8748 8749 8750 8751 8752 8753 8754 8755 8756 8757 8758 8759 8760 8761 8762 8763 8764 8765 8766 8767 8768 8769 8770 8771 8772 8773 8774 8775 8776 8777 8778 8779 8780 8781 8782 8783 8784 8785 8786 8787 8788 8789 8790 8791 8792 8793 8794 8795 8796 8797 8798 8799 8800 8801 8802 8803 8804 8805 8806 8807 8808 8809 8810 8811 8812 8813 8814 8815 8816 8817 8818 8819 8820 8821 8822 8823 8824 8825 8826 8827 8828 8829 8830 8831 8832 8833 8834 8835 8836 8837 8838 8839 8840 8841 8842 8843 8844 8845 8846 8847 8848 8849 8850 8851 8852 8853 8854 8855 8856 8857 8858 8859 8860 8861 8862 8863 8864 8865 8866 8867 8868 8869 8870 8871 8872 8873 8874 8875 8876 8877 8878 8879 8880 8881 8882 8883 8884 8885 8886 8887 8888 8889 8890 8891 8892 8893 8894 8895 8896 8897 8898 8899 8900 8901 8902 8903 8904 8905 8906 8907 8908 8909 8910 8911 8912 8913 8914 8915 8916 8917 8918 8919 8920 8921 8922 8923 8924 8925 8926 8927 8928 8929 8930 8931 8932 8933 8934 8935 8936 8937 8938 8939 8940 8941 8942 8943 8944 8945 8946 8947 8948 8949 8950 8951 8952 8953 8954 8955 8956 8957 8958 8959 8960 8961 8962 8963 8964 8965 8966 8967 8968 8969 8970 8971 8972 8973 8974 8975 8976 8977 8978 8979 8980 8981 8982 8983 8984 8985 8986 8987 8988 8989 8990 8991 8992 8993 8994 8995 8996 8997 8998 8999 9000 9001 9002 9003 9004 9005 9006 9007 9008 9009 9010 9011 9012 9013 9014 9015 9016 9017 9018 9019 9020 9021 9022 9023 9024 9025 9026 9027 9028 9029 9030 9031 9032 9033 9034 9035 9036 9037 9038 9039 9040 9041 9042 9043 9044 9045 9046 9047 9048 9049 9050 9051 9052 9053 9054 9055 9056 9057 9058 9059 9060 9061 9062 9063 9064 9065 9066 9067 9068 9069 9070 9071 9072 9073 9074 9075 9076 9077 9078 9079 9080 9081 9082 9083 9084 9085 9086 9087 9088 9089 9090 9091 9092 9093 9094 9095 9096 9097 9098 9099 9100 9101 9102 9103 9104 9105 9106 9107 9108 9109 9110 9111 9112 9113 9114 9115 9116 9117 9118 9119 9120 9121 9122 9123 9124 9125 9126 9127 9128 9129 9130 9131 9132 9133 9134 9135 9136 9137 9138 9139 9140 9141 9142 9143 9144 9145 9146 9147 9148 9149 9150 9151 9152 9153 9154 9155 9156 9157 9158 9159 9160 9161 9162 9163 9164 9165 9166 9167 9168 9169 9170 9171 9172 9173 9174 9175 9176 9177 9178 9179 9180 9181 9182 9183 9184 9185 9186 9187 9188 9189 9190 9191 9192 9193 9194 9195 9196 9197 9198 9199 9200 9201 9202 9203 9204 9205 9206 9207 9208 9209 9210 9211 9212 9213 9214 9215 9216 9217 9218 9219 9220 9221 9222 9223 9224 9225 9226 9227 9228 9229 9230 9231 9232 9233 9234 9235 9236 9237 9238 9239 9240 9241 9242 9243 9244 9245 9246 9247 9248 9249 9250 9251 9252 9253 9254 9255 9256 9257 9258 9259 9260 9261 9262 9263 9264 9265 9266 9267 9268 9269 9270 9271 9272 9273 9274 9275 9276 9277 9278 9279 9280 9281 9282 9283 9284 9285 9286 9287 9288 9289 9290 9291 9292 9293 9294 9295 9296 9297 9298 9299 9300 9301 9302 9303 9304 9305 9306 9307 9308 9309 9310 9311 9312 9313 9314 9315 9316 9317 9318 9319 9320 9321 9322 9323 9324 9325 9326 9327 9328 9329 9330 9331 9332 9333 9334 9335 9336 9337 9338 9339 9340 9341 9342 9343 9344 9345 9346 9347 9348 9349 9350 9351 9352 9353 9354 9355 9356 9357 9358 9359 9360 9361 9362 9363 9364 9365 9366 9367 9368 9369 9370 9371 9372 9373 9374 9375 9376 9377 9378 9379 9380 9381 9382 9383 9384 9385 9386 9387 9388 9389 9390 9391 9392 9393 9394 9395 9396 9397 9398 9399 9400 9401 9402 9403 9404 9405 9406 9407 9408 9409 9410 9411 9412 9413 9414 9415 9416 9417 9418 9419 9420 9421 9422 9423 9424 9425 9426 9427 9428 9429 9430 9431 9432 9433 9434 9435 9436 9437 9438 9439 9440 9441 9442 9443 9444 9445 9446 9447 9448 9449 9450 9451 9452 9453 9454 9455 9456 9457 9458 9459 9460 9461 9462 9463 9464 9465 9466 9467 9468 9469 9470 9471 9472 9473 9474 9475 9476 9477 9478 9479 9480 9481 9482 9483 9484 9485 9486 9487 9488 9489 9490 9491 9492 9493 9494 9495 9496 9497 9498 9499 9500 9501 9502 9503 9504 9505 9506 9507 9508 9509 9510 9511 9512 9513 9514 9515 9516 9517 9518 9519 9520 9521 9522 9523 9524 9525 9526 9527 9528 9529 9530 9531 9532 9533 9534 9535 9536 9537 9538 9539 9540 9541 9542 9543 9544 9545 9546 9547 9548 9549 9550 9551 9552 9553 9554 9555 9556 9557 9558 9559 9560 9561 9562 9563 9564 9565 9566 9567 9568 9569 9570 9571 9572 9573 9574 9575 9576 9577 9578 9579 9580 9581 9582 9583 9584 9585 9586 9587 9588 9589 9590 9591 9592 9593 9594 9595 9596 9597 9598 9599 9600 9601 9602 9603 9604 9605 9606 9607 9608 9609 9610 9611 9612 9613 9614 9615 9616 9617 9618 9619 9620 9621 9622 9623 9624 9625 9626 9627 9628 9629 9630 9631 9632 9633 9634 9635 9636 9637 9638 9639 9640 9641 9642 9643 9644 9645 9646 9647 9648 9649 9650 9651 9652 9653 9654 9655 9656 9657 9658 9659 9660 9661 9662 9663 9664 9665 9666 9667 9668 9669 9670 9671 9672 9673 9674 9675 9676 9677 9678 9679 9680 9681 9682 9683 9684 9685 9686 9687 9688 9689 9690 9691 9692 9693 9694 9695 9696 9697 9698 9699 9700 9701 9702 9703 9704 9705 9706 9707 9708 9709 9710 9711 9712 9713 9714 9715 9716 9717 9718 9719 9720 9721 9722 9723 9724 9725 9726 9727 9728 9729 9730 9731 9732 9733 9734 9735 9736 9737 9738 9739 9740 9741 9742 9743 9744 9745 9746 9747 9748 9749 9750 9751 9752 9753 9754 9755 9756 9757 9758 9759 9760 9761 9762 9763 9764 9765 9766 9767 9768 9769 9770 9771 9772 9773 9774 9775 9776 9777 9778 9779 9780 9781 9782 9783 9784 9785 9786 9787 9788 9789 9790 9791 9792 9793 9794 9795 9796 9797 9798 9799 9800 9801 9802 9803 9804 9805 9806 9807 9808 9809 9810 9811 9812 9813 9814 9815 9816 9817 9818 9819 9820 9821 9822 9823 9824 9825 9826 9827 9828 9829 9830 9831 9832 9833 9834 9835 9836 9837 9838 9839 9840 9841 9842 9843 9844 9845 9846 9847 9848 9849 9850 9851 9852 9853 9854 9855 9856 9857 9858 9859 9860 9861 9862 9863 9864 9865 9866 9867 9868 9869 9870 9871 9872 9873 9874 9875 9876 9877 9878 9879 9880 9881 9882 9883 9884 9885 9886 9887 9888 9889 9890 9891 9892 9893 9894 9895 9896 9897 9898 9899 9900 9901 9902 9903 9904 9905 9906 9907 9908 9909 9910 9911 9912 9913 9914 9915 9916 9917 9918 9919 9920 9921 9922 9923 9924 9925 9926 9927 9928 9929 9930 9931 9932 9933 9934 9935 9936 9937 9938 9939 9940 9941 9942 9943 9944 9945 9946 9947 9948 9949 9950 9951 9952 9953 9954 9955 9956 9957 9958 9959 9960 9961 9962 9963 9964 9965 9966 9967 9968 9969 9970 9971 9972 9973 9974 9975 9976 9977 9978 9979 9980 9981 9982 9983 9984 9985 9986 9987 9988 9989 9990 9991 9992 9993 9994 9995 9996 9997 9998 9999 10000 10001 10002 10003 10004 10005 10006 10007 10008 10009 10010 10011 10012 10013 10014 10015 10016 10017 10018 10019 10020 10021 10022 10023 10024 10025 10026 10027 10028 10029 10030 10031 10032 10033 10034 10035 10036 10037 10038 10039 10040 10041 10042 10043 10044 10045 10046 10047 10048 10049 10050 10051 10052 10053 10054 10055 10056 10057 10058 10059 10060 10061 10062 10063 10064 10065 10066 10067 10068 10069 10070 10071 10072 10073 10074 10075 10076 10077 10078 10079 10080 10081 10082 10083 10084 10085 10086 10087 10088 10089 10090 10091 10092 10093 10094 10095 10096 10097 10098 10099 10100 10101 10102 10103 10104 10105 10106 10107 10108 10109 10110 10111 10112 10113 10114 10115 10116 10117 10118 10119 10120 10121 10122 10123 10124 10125 10126 10127 10128 10129 10130 10131 10132 10133 10134 10135 10136 10137 10138 10139 10140 10141 10142 10143 10144 10145 10146 10147 10148 10149 10150 10151 10152 10153 10154 10155 10156 10157 10158 10159 10160 10161 10162 10163 10164 10165 10166 10167 10168 10169 10170 10171 10172 10173 10174 10175 10176 10177 10178 10179 10180 10181 10182 10183 10184 10185 10186 10187 10188 10189 10190 10191 10192 10193 10194 10195 10196 10197 10198 10199 10200 10201 10202 10203 10204 10205 10206 10207 10208 10209 10210 10211 10212 10213 10214 10215 10216 10217 10218 10219 10220 10221 10222 10223 10224 10225 10226 10227 10228 10229 10230 10231 10232 10233 10234 10235 10236 10237 10238 10239 10240 10241 10242 10243 10244 10245 10246 10247 10248 10249 10250 10251 10252 10253 10254 10255 10256 10257 10258 10259 10260 10261 10262 10263 10264 10265 10266 10267 10268 10269 10270 10271 10272 10273 10274 10275 10276 10277 10278 10279 10280 10281 10282 10283 10284 10285 10286 10287 10288 10289 10290 10291 10292 10293 10294 10295 10296 10297 10298 10299 10300 10301 10302 10303 10304 10305 10306 10307 10308 10309 10310 10311 10312 10313 10314 10315 10316 10317 10318 10319 10320 10321 10322 10323 10324 10325 10326 10327 10328 10329 10330 10331 10332 10333 10334 10335 10336 10337 10338 10339 10340 10341 10342 10343 10344 10345 10346 10347 10348 10349 10350 10351 10352 10353 10354 10355 10356 10357 10358 10359 10360 10361 10362 10363 10364 10365 10366 10367 10368 10369 10370 10371 10372 10373 10374 10375 10376 10377 10378 10379 10380 10381 10382 10383 10384 10385 10386 10387 10388 10389 10390 10391 10392 10393 10394 10395 10396 10397 10398 10399 10400 10401 10402 10403 10404 10405 10406 10407 10408 10409 10410 10411 10412 10413 10414 10415 10416 10417 10418 10419 10420 10421 10422 10423 10424 10425 10426 10427 10428 10429 10430 10431 10432 10433 10434 10435 10436 10437 10438 10439 10440 10441 10442 10443 10444 10445 10446 10447 10448 10449 10450 10451 10452 10453 10454 10455 10456 10457 10458 10459 10460 10461 10462 10463 10464 10465 10466 10467 10468 10469 10470 10471 10472 10473 10474 10475 10476 10477 10478 10479 10480 10481 10482 10483 10484 10485 10486 10487 10488 10489 10490 10491 10492 10493 10494 10495 10496 10497 10498 10499 10500 10501 10502 10503 10504 10505 10506 10507 10508 10509 10510 10511 10512 10513 10514 10515 10516 10517 10518 10519 10520 10521 10522 10523 10524 10525 10526 10527 10528 10529 10530 10531 10532 10533 10534 10535 10536 10537 10538 10539 10540 10541 10542 10543 10544 10545 10546 10547 10548 10549 10550 10551 10552 10553 10554 10555 10556 10557 10558 10559 10560 10561 10562 10563 10564 10565 10566 10567 10568 10569 10570 10571 10572 10573 10574 10575 10576 10577 10578 10579 10580 10581 10582 10583 10584 10585 10586 10587 10588 10589 10590 10591 10592 10593 10594 10595 10596 10597 10598 10599 10600 10601 10602 10603 10604 10605 10606 10607 10608 10609 10610 10611 10612 10613 10614 10615 10616 10617 10618 10619 10620 10621 10622 10623 10624 10625 10626 10627 10628 10629 10630 10631 10632 10633 10634 10635 10636 10637 10638 10639 10640 10641 10642 10643 10644 10645 10646 10647 10648 10649 10650 10651 10652 10653 10654 10655 10656 10657 10658 10659 10660 10661 10662 10663 10664 10665 10666 10667 10668 10669 10670 10671 10672 10673 10674 10675 10676 10677 10678 10679 10680 10681 10682 10683 10684 10685 10686 10687 10688 10689 10690 10691 10692 10693 10694 10695 10696 10697 10698 10699 10700 10701 10702 10703 10704 10705 10706 10707 10708 10709 10710 10711 10712 10713 10714 10715 10716 10717 10718 10719 10720 10721 10722 10723 10724 10725 10726 10727 10728 10729 10730 10731 10732 10733 10734 10735 10736 10737 10738 10739 10740 10741 10742 10743 10744 10745 10746 10747 10748 10749 10750 10751 10752 10753 10754 10755 10756 10757 10758 10759 10760 10761 10762 10763 10764 10765 10766 10767 10768 10769 10770 10771 10772 10773 10774 10775 10776 10777 10778 10779 10780 10781 10782 10783 10784 10785 10786 10787 10788 10789 10790 10791 10792 10793 10794 10795 10796 10797 10798 10799 10800 10801 10802 10803 10804 10805 10806 10807 10808 10809 10810 10811 10812 10813 10814 10815 10816 10817 10818 10819 10820 10821 10822 10823 10824 10825 10826 10827 10828 10829 10830 10831 10832 10833 10834 10835 10836 10837 10838 10839 10840 10841 10842 10843 10844 10845 10846 10847 10848 10849 10850 10851 10852 10853 10854 10855 10856 10857 10858 10859 10860 10861 10862 10863 10864 10865 10866 10867 10868 10869 10870 10871 10872 10873 10874 10875 10876 10877 10878 10879 10880 10881 10882 10883 10884 10885 10886 10887 10888 10889 10890 10891 10892 10893 10894 10895 10896 10897 10898 10899 10900 10901 10902 10903 10904 10905 10906 10907 10908 10909 10910 10911 10912 10913 10914 10915 10916 10917 10918 10919 10920 10921 10922 10923 10924 10925 10926 10927 10928 10929 10930 10931 10932 10933 10934 10935 10936 10937 10938 10939 10940 10941 10942 10943 10944 10945 10946 10947 10948 10949 10950 10951 10952 10953 10954 10955 10956 10957 10958 10959 10960 10961 10962 10963 10964 10965 10966 10967 10968 10969 10970 10971 10972 10973 10974 10975 10976 10977 10978 10979 10980 10981 10982 10983 10984 10985 10986 10987 10988 10989 10990 10991 10992 10993 10994 10995 10996 10997 10998 10999 11000 11001 11002 11003 11004 11005 11006 11007 11008 11009 11010 11011 11012 11013 11014 11015 11016 11017 11018 11019 11020 11021 11022 11023 11024 11025 11026 11027 11028 11029 11030 11031 11032 11033 11034 11035 11036 11037 11038 11039 11040 11041 11042 11043 11044 11045 11046 11047 11048 11049 11050 11051 11052 11053 11054 11055 11056 11057 11058 11059 11060 11061 11062 11063 11064 11065 11066 11067 11068 11069 11070 11071 11072 11073 11074 11075 11076 11077 11078 11079 11080 11081 11082 11083 11084 11085 11086 11087 11088 11089 11090 11091 11092 11093 11094 11095 11096 11097 11098 11099 11100 11101 11102 11103 11104 11105 11106 11107 11108 11109 11110 11111 11112 11113 11114 11115 11116 11117 11118 11119 11120 11121 11122 11123 11124 11125 11126 11127 11128 11129 11130 11131 11132 11133 11134 11135 11136 11137 11138 11139 11140 11141 11142 11143 11144 11145 11146 11147 11148 11149 11150 11151 11152 11153 11154 11155 11156 11157 11158 11159 11160 11161 11162 11163 11164 11165 11166 11167 11168 11169 11170 11171 11172 11173 11174 11175 11176 11177 11178 11179 11180 11181 11182 11183 11184 11185 11186 11187 11188 11189 11190 11191 11192 11193 11194 11195 11196 11197 11198 11199 11200 11201 11202 11203 11204 11205 11206 11207 11208 11209 11210 11211 11212 11213 11214 11215 11216 11217 11218 11219 11220 11221 11222 11223 11224 11225 11226 11227 11228 11229 11230 11231 11232 11233 11234 11235 11236 11237 11238 11239 11240 11241 11242 11243 11244 11245 11246 11247 11248 11249 11250 11251 11252 11253 11254 11255 11256 11257 11258 11259 11260 11261 11262 11263 11264 11265 11266 11267 11268 11269 11270 11271 11272 11273 11274 11275 11276 11277 11278 11279 11280 11281 11282 11283 11284 11285 11286 11287 11288 11289 11290 11291 11292 11293 11294 11295 11296 11297 11298 11299 11300 11301 11302 11303 11304 11305 11306 11307 11308 11309 11310 11311 11312 11313 11314 11315 11316 11317 11318 11319 11320 11321 11322 11323 11324 11325 11326 11327 11328 11329 11330 11331 11332 11333 11334 11335 11336 11337 11338 11339 11340 11341 11342 11343 11344 11345 11346 11347 11348 11349 11350 11351 11352 11353 11354 11355 11356 11357 11358 11359 11360 11361 11362 11363 11364 11365 11366 11367 11368 11369 11370 11371 11372 11373 11374 11375 11376 11377 11378 11379 11380 11381 11382 11383 11384 11385 11386 11387 11388 11389 11390 11391 11392 11393 11394 11395 11396 11397 11398 11399 11400 11401 11402 11403 11404 11405 11406 11407 11408 11409 11410 11411 11412 11413 11414 11415 11416 11417 11418 11419 11420 11421 11422 11423 11424 11425 11426 11427 11428 11429 11430 11431 11432 11433 11434 11435 11436 11437 11438 11439 11440 11441 11442 11443 11444 11445 11446 11447 11448 11449 11450 11451 11452 11453 11454 11455 11456 11457 11458 11459 11460 11461 11462 11463 11464 11465 11466 11467 11468 11469 11470 11471 11472 11473 11474 11475 11476 11477 11478 11479 11480 11481 11482 11483 11484 11485 11486 11487 11488 11489 11490 11491 11492 11493 11494 11495 11496 11497 11498 11499 11500 11501 11502 11503 11504 11505 11506 11507 11508 11509 11510 11511 11512 11513 11514 11515 11516 11517 11518 11519 11520 11521 11522 11523 11524 11525 11526 11527 11528 11529 11530 11531 11532 11533 11534 11535 11536 11537 11538 11539 11540 11541 11542 11543 11544 11545 11546 11547 11548 11549 11550 11551 11552 11553 11554 11555 11556 11557 11558 11559 11560 11561 11562 11563 11564 11565 11566 11567 11568 11569 11570 11571 11572 11573 11574 11575 11576 11577 11578 11579 11580 11581 11582 11583 11584 11585 11586 11587 11588 11589 11590 11591 11592 11593 11594 11595 11596 11597 11598 11599 11600 11601 11602 11603 11604 11605 11606 11607 11608 11609 11610 11611 11612 11613 11614 11615 11616 11617 11618 11619 11620 11621 11622 11623 11624 11625 11626 11627 11628 11629 11630 11631 11632 11633 11634 11635 11636 11637 11638 11639 11640 11641 11642 11643 11644 11645 11646 11647 11648 11649 11650 11651 11652 11653 11654 11655 11656 11657 11658 11659 11660 11661 11662 11663 11664 11665 11666 11667 11668 11669 11670 11671 11672 11673 11674 11675 11676 11677 11678 11679 11680 11681 11682 11683 11684 11685 11686 11687 11688 11689 11690 11691 11692 11693 11694 11695 11696 11697 11698 11699 11700 11701 11702 11703 11704 11705 11706 11707 11708 11709 11710 11711 11712 11713 11714 11715 11716 11717 11718 11719 11720 11721 11722 11723 11724 11725 11726 11727 11728 11729 11730 11731 11732 11733 11734 11735 11736 11737 11738 11739 11740 11741 11742 11743 11744 11745 11746 11747 11748 11749 11750 11751 11752 11753 11754 11755 11756 11757 11758 11759 11760 11761 11762 11763 11764 11765 11766 11767 11768 11769 11770 11771 11772 11773 11774 11775 11776 11777 11778 11779 11780 11781 11782 11783 11784 11785 11786 11787 11788 11789 11790 11791 11792 11793 11794 11795 11796 11797 11798 11799 11800 11801 11802 11803 11804 11805 11806 11807 11808 11809 11810 11811 11812 11813 11814 11815 11816 11817 11818 11819 11820 11821 11822 11823 11824 11825 11826 11827 11828 11829 11830 11831 11832 11833 11834 11835 11836 11837 11838 11839 11840 11841 11842 11843 11844 11845 11846 11847 11848 11849 11850 11851 11852 11853 11854 11855 11856 11857 11858 11859 11860 11861 11862 11863 11864 11865 11866 11867 11868 11869 11870 11871 11872 11873 11874 11875 11876 11877 11878 11879 11880 11881 11882 11883 11884 11885 11886 11887 11888 11889 11890 11891 11892 11893 11894 11895 11896 11897 11898 11899 11900 11901 11902 11903 11904 11905 11906 11907 11908 11909 11910 11911 11912 11913 11914 11915 11916 11917 11918 11919 11920 11921 11922 11923 11924 11925 11926 11927 11928 11929 11930 11931 11932 11933 11934 11935 11936 11937 11938 11939 11940 11941 11942 11943 11944 11945 11946 11947 11948 11949 11950 11951 11952 11953 11954 11955 11956 11957 11958 11959 11960 11961 11962 11963 11964 11965 11966 11967 11968 11969 11970 11971 11972 11973 11974 11975 11976 11977 11978 11979 11980 11981 11982 11983 11984 11985 11986 11987 11988 11989 11990 11991 11992 11993 11994 11995 11996 11997 11998 11999 12000 12001 12002 12003 12004 12005 12006 12007 12008 12009 12010 12011 12012 12013 12014 12015 12016 12017 12018 12019 12020 12021 12022 12023 12024 12025 12026 12027 12028 12029 12030 12031 12032 12033 12034 12035 12036 12037 12038 12039 12040 12041 12042 12043 12044 12045 12046 12047 12048 12049 12050 12051 12052 12053 12054 12055 12056 12057 12058 12059 12060 12061 12062 12063 12064 12065 12066 12067 12068 12069 12070 12071 12072 12073 12074 12075 12076 12077 12078 12079 12080 12081 12082 12083 12084 12085 12086 12087 12088 12089 12090 12091 12092 12093 12094 12095 12096 12097 12098 12099 12100 12101 12102 12103 12104 12105 12106 12107 12108 12109 12110 12111 12112 12113 12114 12115 12116 12117 12118 12119 12120 12121 12122 12123 12124 12125 12126 12127 12128 12129 12130 12131 12132 12133 12134 12135 12136 12137 12138 12139 12140 12141 12142 12143 12144 12145 12146 12147 12148 12149 12150 12151 12152 12153 12154 12155 12156 12157 12158 12159 12160 12161 12162 12163 12164 12165 12166 12167 12168 12169 12170 12171 12172 12173 12174 12175 12176 12177 12178 12179 12180 12181 12182 12183 12184 12185 12186 12187 12188 12189 12190 12191 12192 12193 12194 12195 12196 12197 12198 12199 12200 12201 12202 12203 12204 12205 12206 12207 12208 12209 12210 12211 12212 12213 12214 12215 12216 12217 12218 12219 12220 12221 12222 12223 12224 12225 12226 12227 12228 12229 12230 12231 12232 12233 12234 12235 12236 12237 12238 12239 12240 12241 12242 12243 12244 12245 12246 12247 12248 12249 12250 12251 12252 12253 12254 12255 12256 12257 12258 12259 12260 12261 12262 12263 12264 12265 12266 12267 12268 12269 12270 12271 12272 12273 12274 12275 12276 12277 12278 12279 12280 12281 12282 12283 12284 12285 12286 12287 12288 12289 12290 12291 12292 12293 12294 12295 12296 12297 12298 12299 12300 12301 12302 12303 12304 12305 12306 12307 12308 12309 12310 12311 12312 12313 12314 12315 12316 12317 12318 12319 12320 12321 12322 12323 12324 12325 12326 12327 12328 12329 12330 12331 12332 12333 12334 12335 12336 12337 12338 12339 12340 12341 12342 12343 12344 12345 12346 12347 12348 12349 12350 12351 12352 12353 12354 12355 12356 12357 12358 12359 12360 12361 12362 12363 12364 12365 12366 12367 12368 12369 12370 12371 12372 12373 12374 12375 12376 12377 12378 12379 12380 12381 12382 12383 12384 12385 12386 12387 12388 12389 12390 12391 12392 12393 12394 12395 12396 12397 12398 12399 12400 12401 12402 12403 12404 12405 12406 12407 12408 12409 12410 12411 12412 12413 12414 12415 12416 12417 12418 12419 12420 12421 12422 12423 12424 12425 12426 12427 12428 12429 12430 12431 12432 12433 12434 12435 12436 12437 12438 12439 12440 12441 12442 12443 12444 12445 12446 12447 12448 12449 12450 12451 12452 12453 12454 12455 12456 12457 12458 12459 12460 12461 12462 12463 12464 12465 12466 12467 12468 12469 12470 12471 12472 12473 12474 12475 12476 12477 12478 12479 12480 12481 12482 12483 12484 12485 12486 12487 12488 12489 12490 12491 12492 12493 12494 12495 12496 12497 12498 12499 12500 12501 12502 12503 12504 12505 12506 12507 12508 12509 12510 12511 12512 12513 12514 12515 12516 12517 12518 12519 12520 12521 12522 12523 12524 12525 12526 12527 12528 12529 12530 12531 12532 12533 12534 12535 12536 12537 12538 12539 12540 12541 12542 12543 12544 12545 12546 12547 12548 12549 12550 12551 12552 12553 12554 12555 12556 12557 12558 12559 12560 12561 12562 12563 12564 12565 12566 12567 12568 12569 12570 12571 12572 12573 12574 12575 12576 12577 12578 12579 12580 12581 12582 12583 12584 12585 12586 12587 12588 12589 12590 12591 12592 12593 12594 12595 12596 12597 12598 12599 12600 12601 12602 12603 12604 12605 12606 12607 12608 12609 12610 12611 12612 12613 12614 12615 12616 12617 12618 12619 12620 12621 12622 12623 12624 12625 12626 12627 12628 12629 12630 12631 12632 12633 12634 12635 12636 12637 12638 12639 12640 12641 12642 12643 12644 12645 12646 12647 12648 12649 12650 12651 12652 12653 12654 12655 12656 12657 12658 12659 12660 12661 12662 12663 12664 12665 12666 12667 12668 12669 12670 12671 12672 12673 12674 12675 12676 12677 12678 12679 12680 12681 12682 12683 12684 12685 12686 12687 12688 12689 12690 12691 12692 12693 12694 12695 12696 12697 12698 12699 12700 12701 12702 12703 12704 12705 12706 12707 12708 12709 12710 12711 12712 12713 12714 12715 12716 12717 12718 12719 12720 12721 12722 12723 12724 12725 12726 12727 12728 12729 12730 12731 12732 12733 12734 12735 12736 12737 12738 12739 12740 12741 12742 12743 12744 12745 12746 12747 12748 12749 12750 12751 12752 12753 12754 12755 12756 12757 12758 12759 12760 12761 12762 12763 12764 12765 12766 12767 12768 12769 12770 12771 12772 12773 12774 12775 12776 12777 12778 12779 12780 12781 12782 12783 12784 12785 12786 12787 12788 12789 12790 12791 12792 12793 12794 12795 12796 12797 12798 12799 12800 12801 12802 12803 12804 12805 12806 12807 12808 12809 12810 12811 12812 12813 12814 12815 12816 12817 12818 12819 12820 12821 12822 12823 12824 12825 12826 12827 12828 12829 12830 12831 12832 12833 12834 12835 12836 12837 12838 12839 12840 12841 12842 12843 12844 12845 12846 12847 12848 12849 12850 12851 12852 12853 12854 12855 12856 12857 12858 12859 12860 12861 12862 12863 12864 12865 12866 12867 12868 12869 12870 12871 12872 12873 12874 12875 12876 12877 12878 12879 12880 12881 12882 12883 12884 12885 12886 12887 12888 12889 12890 12891 12892 12893 12894 12895 12896 12897 12898 12899 12900 12901 12902 12903 12904 12905 12906 12907 12908 12909 12910 12911 12912 12913 12914 12915 12916 12917 12918 12919 12920 12921 12922 12923 12924 12925 12926 12927 12928 12929 12930 12931 12932 12933 12934 12935 12936 12937 12938 12939 12940 12941 12942 12943 12944 12945 12946 12947 12948 12949 12950 12951 12952 12953 12954 12955 12956 12957 12958 12959 12960 12961 12962 12963 12964 12965 12966 12967 12968 12969 12970 12971 12972 12973 12974 12975 12976 12977 12978 12979 12980 12981 12982 12983 12984 12985 12986 12987 12988 12989 12990 12991 12992 12993 12994 12995 12996 12997 12998 12999 13000 13001 13002 13003 13004 13005 13006 13007 13008 13009 13010 13011 13012 13013 13014 13015 13016 13017 13018 13019 13020 13021 13022 13023 13024 13025 13026 13027 13028 13029 13030 13031 13032 13033 13034 13035 13036 13037 13038 13039 13040 13041 13042 13043 13044 13045 13046 13047 13048 13049 13050 13051 13052 13053 13054 13055 13056 13057 13058 13059 13060 13061 13062 13063 13064 13065 13066 13067 13068 13069 13070 13071 13072 13073 13074 13075 13076 13077 13078 13079 13080 13081 13082 13083 13084 13085 13086 13087 13088 13089 13090 13091 13092 13093 13094 13095 13096 13097 13098 13099 13100 13101 13102 13103 13104 13105 13106 13107 13108 13109 13110 13111 13112 13113 13114 13115 13116 13117 13118 13119 13120 13121 13122 13123 13124 13125 13126 13127 13128 13129 13130 13131 13132 13133 13134 13135 13136 13137 13138 13139 13140 13141 13142 13143 13144 13145 13146 13147 13148 13149 13150 13151 13152 13153 13154 13155 13156 13157 13158 13159 13160 13161 13162 13163 13164 13165 13166 13167 13168 13169 13170 13171 13172 13173 13174 13175 13176 13177 13178 13179 13180 13181 13182 13183 13184 13185 13186 13187 13188 13189 13190 13191 13192 13193 13194 13195 13196 13197 13198 13199 13200 13201 13202 13203 13204 13205 13206 13207 13208 13209 13210 13211 13212 13213 13214 13215 13216 13217 13218 13219 13220 13221 13222 13223 13224 13225 13226 13227 13228 13229 13230 13231 13232 13233 13234 13235 13236 13237 13238 13239 13240 13241 13242 13243 13244 13245 13246 13247 13248 13249 13250 13251 13252 13253 13254 13255 13256 13257 13258 13259 13260 13261 13262 13263 13264 13265 13266 13267 13268 13269 13270 13271 13272 13273 13274 13275 13276 13277 13278 13279 13280 13281 13282 13283 13284 13285 13286 13287 13288 13289 13290 13291 13292 13293 13294 13295 13296 13297 13298 13299 13300 13301 13302 13303 13304 13305 13306 13307 13308 13309 13310 13311 13312 13313 13314 13315 13316 13317 13318 13319 13320 13321 13322 13323 13324 13325 13326 13327 13328 13329 13330 13331 13332 13333 13334 13335 13336 13337 13338 13339 13340 13341 13342 13343 13344 13345 13346 13347 13348 13349 13350 13351 13352 13353 13354 13355 13356 13357 13358 13359 13360 13361 13362 13363 13364 13365 13366 13367 13368 13369 13370 13371 13372 13373 13374 13375 13376 13377 13378 13379 13380 13381 13382 13383 13384 13385 13386 13387 13388 13389 13390 13391 13392 13393 13394 13395 13396 13397 13398 13399 13400 13401 13402 13403 13404 13405 13406 13407 13408 13409 13410 13411 13412 13413 13414 13415 13416 13417 13418 13419 13420 13421 13422 13423 13424 13425 13426 13427 13428 13429 13430 13431 13432 13433 13434 13435 13436 13437 13438 13439 13440 13441 13442 13443 13444 13445 13446 13447 13448 13449 13450 13451 13452 13453 13454 13455 13456 13457 13458 13459 13460 13461 13462 13463 13464 13465 13466 13467 13468 13469 13470 13471 13472 13473 13474 13475 13476 13477 13478 13479 13480 13481 13482 13483 13484 13485 13486 13487 13488 13489 13490 13491 13492 13493 13494 13495 13496 13497 13498 13499 13500 13501 13502 13503 13504 13505 13506 13507 13508 13509 13510 13511 13512 13513 13514 13515 13516 13517 13518 13519 13520 13521 13522 13523 13524 13525 13526 13527 13528 13529 13530 13531 13532 13533 13534 13535 13536 13537 13538 13539 13540 13541 13542 13543 13544 13545 13546 13547 13548 13549 13550 13551 13552 13553 13554 13555 13556 13557 13558 13559 13560 13561 13562 13563 13564 13565 13566 13567 13568 13569 13570 13571 13572 13573 13574 13575 13576 13577 13578 13579 13580 13581 13582 13583 13584 13585 13586 13587 13588 13589 13590 13591 13592 13593 13594 13595 13596 13597 13598 13599 13600 13601 13602 13603 13604 13605 13606 13607 13608 13609 13610 13611 13612 13613 13614 13615 13616 13617 13618 13619 13620 13621 13622 13623 13624 13625 13626 13627 13628 13629 13630 13631 13632 13633 13634 13635 13636 13637 13638 13639 13640 13641 13642 13643 13644 13645 13646 13647 13648 13649 13650 13651 13652 13653 13654 13655 13656 13657 13658 13659 13660 13661 13662 13663 13664 13665 13666 13667 13668 13669 13670 13671 13672 13673 13674 13675 13676 13677 13678 13679 13680 13681 13682 13683 13684 13685 13686 13687 13688 13689 13690 13691 13692 13693 13694 13695 13696 13697 13698 13699 13700 13701 13702 13703 13704 13705 13706 13707 13708 13709 13710 13711 13712 13713 13714 13715 13716 13717 13718 13719 13720 13721 13722 13723 13724 13725 13726 13727 13728 13729 13730 13731 13732 13733 13734 13735 13736 13737 13738 13739 13740 13741 13742 13743 13744 13745 13746 13747 13748 13749 13750 13751 13752 13753 13754 13755 13756 13757 13758 13759 13760 13761 13762 13763 13764 13765 13766 13767 13768 13769 13770 13771 13772 13773 13774 13775 13776 13777 13778 13779 13780 13781 13782 13783 13784 13785 13786 13787 13788 13789 13790 13791 13792 13793 13794 13795 13796 13797 13798 13799 13800 13801 13802 13803 13804 13805 13806 13807 13808 13809 13810 13811 13812 13813 13814 13815 13816 13817 13818 13819 13820 13821 13822 13823 13824 13825 13826 13827 13828 13829 13830 13831 13832 13833 13834 13835 13836 13837 13838 13839 13840 13841 13842 13843 13844 13845 13846 13847 13848 13849 13850 13851 13852 13853 13854 13855 13856 13857 13858 13859 13860 13861 13862 13863 13864 13865 13866 13867 13868 13869 13870 13871 13872 13873 13874 13875 13876 13877 13878 13879 13880 13881 13882 13883 13884 13885 13886 13887 13888 13889 13890 13891 13892 13893 13894 13895 13896 13897 13898 13899 13900 13901 13902 13903 13904 13905 13906 13907 13908 13909 13910 13911 13912 13913 13914 13915 13916 13917 13918 13919 13920 13921 13922 13923 13924 13925 13926 13927 13928 13929 13930 13931 13932 13933 13934 13935 13936 13937 13938 13939 13940 13941 13942 13943 13944 13945 13946 13947 13948 13949 13950 13951 13952 13953 13954 13955 13956 13957 13958 13959 13960 13961 13962 13963 13964 13965 13966 13967 13968 13969 13970 13971 13972 13973 13974 13975 13976 13977 13978 13979 13980 13981 13982 13983 13984 13985 13986 13987 13988 13989 13990 13991 13992 13993 13994 13995 13996 13997 13998 13999 14000 14001 14002 14003 14004 14005 14006 14007 14008 14009 14010 14011 14012 14013 14014 14015 14016 14017 14018 14019 14020 14021 14022 14023 14024 14025 14026 14027 14028 14029 14030 14031 14032 14033 14034 14035 14036 14037 14038 14039 14040 14041 14042 14043 14044 14045 14046 14047 14048 14049 14050 14051 14052 14053 14054 14055 14056 14057 14058 14059 14060 14061 14062 14063 14064 14065 14066 14067 14068 14069 14070 14071 14072 14073 14074 14075 14076 14077 14078 14079 14080 14081 14082 14083 14084 14085 14086 14087 14088 14089 14090 14091 14092 14093 14094 14095 14096 14097 14098 14099 14100 14101 14102 14103 14104 14105 14106 14107 14108 14109 14110 14111 14112 14113 14114 14115 14116 14117 14118 14119 14120 14121 14122 14123 14124 14125 14126 14127 14128 14129 14130 14131 14132 14133 14134 14135 14136 14137 14138 14139 14140 14141 14142 14143 14144 14145 14146 14147 14148 14149 14150 14151 14152 14153 14154 14155 14156 14157 14158 14159 14160 14161 14162 14163 14164 14165 14166 14167 14168 14169 14170 14171 14172 14173 14174 14175 14176 14177 14178 14179 14180 14181 14182 14183 14184 14185 14186 14187 14188 14189 14190 14191 14192 14193 14194 14195 14196 14197 14198 14199 14200 14201 14202 14203 14204 14205 14206 14207 14208 14209 14210 14211 14212 14213 14214 14215 14216 14217 14218 14219 14220 14221 14222 14223 14224 14225 14226 14227 14228 14229 14230 14231 14232 14233 14234 14235 14236 14237 14238 14239 14240 14241 14242 14243 14244 14245 14246 14247 14248 14249 14250 14251 14252 14253 14254 14255 14256 14257 14258 14259 14260 14261 14262 14263 14264 14265 14266 14267 14268 14269 14270 14271 14272 14273 14274 14275 14276 14277 14278 14279 14280 14281 14282 14283 14284 14285 14286 14287 14288 14289 14290 14291 14292 14293 14294 14295 14296 14297 14298 14299 14300 14301 14302 14303 14304 14305 14306 14307 14308 14309 14310 14311 14312 14313 14314 14315 14316 14317 14318 14319 14320 14321 14322 14323 14324 14325 14326 14327 14328 14329 14330 14331 14332 14333 14334 14335 14336 14337 14338 14339 14340 14341 14342 14343 14344 14345 14346 14347 14348 14349 14350 14351 14352 14353 14354 14355 14356 14357 14358 14359 14360 14361 14362 14363 14364 14365 14366 14367 14368 14369 14370 14371 14372 14373 14374 14375 14376 14377 14378 14379 14380 14381 14382 14383 14384 14385 14386 14387 14388 14389 14390 14391 14392 14393 14394 14395 14396 14397 14398 14399 14400 14401 14402 14403 14404 14405 14406 14407 14408 14409 14410 14411 14412 14413 14414 14415 14416 14417 14418 14419 14420 14421 14422 14423 14424 14425 14426 14427 14428 14429 14430 14431 14432 14433 14434 14435 14436 14437 14438 14439 14440 14441 14442 14443 14444 14445 14446 14447 14448 14449 14450 14451 14452 14453 14454 14455 14456 14457 14458 14459 14460 14461 14462 14463 14464 14465 14466 14467 14468 14469 14470 14471 14472 14473 14474 14475 14476 14477 14478 14479 14480 14481 14482 14483 14484 14485 14486 14487 14488 14489 14490 14491 14492 14493 14494 14495 14496 14497 14498 14499 14500 14501 14502 14503 14504 14505 14506 14507 14508 14509 14510 14511 14512 14513 14514 14515 14516 14517 14518 14519 14520 14521 14522 14523 14524 14525 14526 14527 14528 14529 14530 14531 14532 14533 14534 14535 14536 14537 14538 14539 14540 14541 14542 14543 14544 14545 14546 14547 14548 14549 14550 14551 14552 14553 14554 14555 14556 14557 14558 14559 14560 14561 14562 14563 14564 14565 14566 14567 14568 14569 14570 14571 14572 14573 14574 14575 14576 14577 14578 14579 14580 14581 14582 14583 14584 14585 14586 14587 14588 14589 14590 14591 14592 14593 14594 14595 14596 14597 14598 14599 14600 14601 14602 14603 14604 14605 14606 14607 14608 14609 14610 14611 14612 14613 14614 14615 14616 14617 14618 14619 14620 14621 14622 14623 14624 14625 14626 14627 14628 14629 14630 14631 14632 14633 14634 14635 14636 14637 14638 14639 14640 14641 14642 14643 14644 14645 14646 14647 14648 14649 14650 14651 14652 14653 14654 14655 14656 14657 14658 14659 14660 14661 14662 14663 14664 14665 14666 14667 14668 14669 14670 14671 14672 14673 14674 14675 14676 14677 14678 14679 14680 14681 14682 14683 14684 14685 14686 14687 14688 14689 14690 14691 14692 14693 14694 14695 14696 14697 14698 14699 14700 14701 14702 14703 14704 14705 14706 14707 14708 14709 14710 14711 14712 14713 14714 14715 14716 14717 14718 14719 14720 14721 14722 14723 14724 14725 14726 14727 14728 14729 14730 14731 14732 14733 14734 14735 14736 14737 14738 14739 14740 14741 14742 14743 14744 14745 14746 14747 14748 14749 14750 14751 14752 14753 14754 14755 14756 14757 14758 14759 14760 14761 14762 14763 14764 14765 14766 14767 14768 14769 14770 14771 14772 14773 14774 14775 14776 14777 14778 14779 14780 14781 14782 14783 14784 14785 14786 14787 14788 14789 14790 14791 14792 14793 14794 14795 14796 14797 14798 14799 14800 14801 14802 14803 14804 14805 14806 14807 14808 14809 14810 14811 14812 14813 14814 14815 14816 14817 14818 14819 14820 14821 14822 14823 14824 14825 14826 14827 14828 14829 14830 14831 14832 14833 14834 14835 14836 14837 14838 14839 14840 14841 14842 14843 14844 14845 14846 14847 14848 14849 14850 14851 14852 14853 14854 14855 14856 14857 14858 14859 14860 14861 14862 14863 14864 14865 14866 14867 14868 14869 14870 14871 14872 14873 14874 14875 14876 14877 14878 14879 14880 14881 14882 14883 14884 14885 14886 14887 14888 14889 14890 14891 14892 14893 14894 14895 14896 14897 14898 14899 14900 14901 14902 14903 14904 14905 14906 14907 14908 14909 14910 14911 14912 14913 14914 14915 14916 14917 14918 14919 14920 14921 14922 14923 14924 14925 14926 14927 14928 14929 14930 14931 14932 14933 14934 14935 14936 14937 14938 14939 14940 14941 14942 14943 14944 14945 14946 14947 14948 14949 14950 14951 14952 14953 14954 14955 14956 14957 14958 14959 14960 14961 14962 14963 14964 14965 14966 14967 14968 14969 14970 14971 14972 14973 14974 14975 14976 14977 14978 14979 14980 14981 14982 14983 14984 14985 14986 14987 14988 14989 14990 14991 14992 14993 14994 14995 14996 14997 14998 14999 15000 15001 15002 15003 15004 15005 15006 15007 15008 15009 15010 15011 15012 15013 15014 15015 15016 15017 15018 15019 15020 15021 15022 15023 15024 15025 15026 15027 15028 15029 15030 15031 15032 15033 15034 15035 15036 15037 15038 15039 15040 15041 15042 15043 15044 15045 15046 15047 15048 15049 15050 15051 15052 15053 15054 15055 15056 15057 15058 15059 15060 15061 15062 15063 15064 15065 15066 15067 15068 15069 15070 15071 15072 15073 15074 15075 15076 15077 15078 15079 15080 15081 15082 15083 15084 15085 15086 15087 15088 15089 15090 15091 15092 15093 15094 15095 15096 15097 15098 15099 15100 15101 15102 15103 15104 15105 15106 15107 15108 15109 15110 15111 15112 15113 15114 15115 15116 15117 15118 15119 15120 15121 15122 15123 15124 15125 15126 15127 15128 15129 15130 15131 15132 15133 15134 15135 15136 15137 15138 15139 15140 15141 15142 15143 15144 15145 15146 15147 15148 15149 15150 15151 15152 15153 15154 15155 15156 15157 15158 15159 15160 15161 15162 15163 15164 15165 15166 15167 15168 15169 15170 15171 15172 15173 15174 15175 15176 15177 15178 15179 15180 15181 15182 15183 15184 15185 15186 15187 15188 15189 15190 15191 15192 15193 15194 15195 15196 15197 15198 15199 15200 15201 15202 15203 15204 15205 15206 15207 15208 15209 15210 15211 15212 15213 15214 15215 15216 15217 15218 15219 15220 15221 15222 15223 15224 15225 15226 15227 15228 15229 15230 15231 15232 15233 15234 15235 15236 15237 15238 15239 15240 15241 15242 15243 15244 15245 15246 15247 15248 15249 15250 15251 15252 15253 15254 15255 15256 15257 15258 15259 15260 15261 15262 15263 15264 15265 15266 15267 15268 15269 15270 15271 15272 15273 15274 15275 15276 15277 15278 15279 15280 15281 15282 15283 15284 15285 15286 15287 15288 15289 15290 15291 15292 15293 15294 15295 15296 15297 15298 15299 15300 15301 15302 15303 15304 15305 15306 15307 15308 15309 15310 15311 15312 15313 15314 15315 15316 15317 15318 15319 15320 15321 15322 15323 15324 15325 15326 15327 15328 15329 15330 15331 15332 15333 15334 15335 15336 15337 15338 15339 15340 15341 15342 15343 15344 15345 15346 15347 15348 15349 15350 15351 15352 15353 15354 15355 15356 15357 15358 15359 15360 15361 15362 15363 15364 15365 15366 15367 15368 15369 15370 15371 15372 15373 15374 15375 15376 15377 15378 15379 15380 15381 15382 15383 15384 15385 15386 15387 15388 15389 15390 15391 15392 15393 15394 15395 15396 15397 15398 15399 15400 15401 15402 15403 15404 15405 15406 15407 15408 15409 15410 15411 15412 15413 15414 15415 15416 15417 15418 15419 15420 15421 15422 15423 15424 15425 15426 15427 15428 15429 15430 15431 15432 15433 15434 15435 15436 15437 15438 15439 15440 15441 15442 15443 15444 15445 15446 15447 15448 15449 15450 15451 15452 15453 15454 15455 15456 15457 15458 15459 15460 15461 15462 15463 15464 15465 15466 15467 15468 15469 15470 15471 15472 15473 15474 15475 15476 15477 15478 15479 15480 15481 15482 15483 15484 15485 15486 15487 15488 15489 15490 15491 15492 15493 15494 15495 15496 15497 15498 15499 15500 15501 15502 15503 15504 15505 15506 15507 15508 15509 15510 15511 15512 15513 15514 15515 15516 15517 15518 15519 15520 15521 15522 15523 15524 15525 15526 15527 15528 15529 15530 15531 15532 15533 15534 15535 15536 15537 15538 15539 15540 15541 15542 15543 15544 15545 15546 15547 15548 15549 15550 15551 15552 15553 15554 15555 15556 15557 15558 15559 15560 15561 15562 15563 15564 15565 15566 15567 15568 15569 15570 15571 15572 15573 15574 15575 15576 15577 15578 15579 15580 15581 15582 15583 15584 15585 15586 15587 15588 15589 15590 15591 15592 15593 15594 15595 15596 15597 15598 15599 15600 15601 15602 15603 15604 15605 15606 15607 15608 15609 15610 15611 15612 15613 15614 15615 15616 15617 15618 15619 15620 15621 15622 15623 15624 15625 15626 15627 15628 15629 15630 15631 15632 15633 15634 15635 15636 15637 15638 15639 15640 15641 15642 15643 15644 15645 15646 15647 15648 15649 15650 15651 15652 15653 15654 15655 15656 15657 15658 15659 15660 15661 15662 15663 15664 15665 15666 15667 15668 15669 15670 15671 15672 15673 15674 15675 15676 15677 15678 15679 15680 15681 15682 15683 15684 15685 15686 15687 15688 15689 15690 15691 15692 15693 15694 15695 15696 15697 15698 15699 15700 15701 15702 15703 15704 15705 15706 15707 15708 15709 15710 15711 15712 15713 15714 15715 15716 15717 15718 15719 15720 15721 15722 15723 15724 15725 15726 15727 15728 15729 15730 15731 15732 15733 15734 15735 15736 15737 15738 15739 15740 15741 15742 15743 15744 15745 15746 15747 15748 15749 15750 15751 15752 15753 15754 15755 15756 15757 15758 15759 15760 15761 15762 15763 15764 15765 15766 15767 15768 15769 15770 15771 15772 15773 15774 15775 15776 15777 15778 15779 15780 15781 15782 15783 15784 15785 15786 15787 15788 15789 15790 15791 15792 15793 15794 15795 15796 15797 15798 15799 15800 15801 15802 15803 15804 15805 15806 15807 15808 15809 15810 15811 15812 15813 15814 15815 15816 15817 15818 15819 15820 15821 15822 15823 15824 15825 15826 15827 15828 15829 15830 15831 15832 15833 15834 15835 15836 15837 15838 15839 15840 15841 15842 15843 15844 15845 15846 15847 15848 15849 15850 15851 15852 15853 15854 15855 15856 15857 15858 15859 15860 15861 15862 15863 15864 15865 15866 15867 15868 15869 15870 15871 15872 15873 15874 15875 15876 15877 15878 15879 15880 15881 15882 15883 15884 15885 15886 15887 15888 15889 15890 15891 15892 15893 15894 15895 15896 15897 15898 15899 15900 15901 15902 15903 15904 15905 15906 15907 15908 15909 15910 15911 15912 15913 15914 15915 15916 15917 15918 15919 15920 15921 15922 15923 15924 15925 15926 15927 15928 15929 15930 15931 15932 15933 15934 15935 15936 15937 15938 15939 15940 15941 15942 15943 15944 15945 15946 15947 15948 15949 15950 15951 15952 15953 15954 15955 15956 15957 15958 15959 15960 15961 15962 15963 15964 15965 15966 15967 15968 15969 15970 15971 15972 15973 15974 15975 15976 15977 15978 15979 15980 15981 15982 15983 15984 15985 15986 15987 15988 15989 15990 15991 15992 15993 15994 15995 15996 15997 15998 15999 16000 16001 16002 16003 16004 16005 16006 16007 16008 16009 16010 16011 16012 16013 16014 16015 16016 16017 16018 16019 16020 16021 16022 16023 16024 16025 16026 16027 16028 16029 16030 16031 16032 16033 16034 16035 16036 16037 16038 16039 16040 16041 16042 16043 16044 16045 16046 16047 16048 16049 16050 16051 16052 16053 16054 16055 16056 16057 16058 16059 16060 16061 16062 16063 16064 16065 16066 16067 16068 16069 16070 16071 16072 16073 16074 16075 16076 16077 16078 16079 16080 16081 16082 16083 16084 16085 16086 16087 16088 16089 16090 16091 16092 16093 16094 16095 16096 16097 16098 16099 16100 16101 16102 16103 16104 16105 16106 16107 16108 16109 16110 16111 16112 16113 16114 16115 16116 16117 16118 16119 16120 16121 16122 16123 16124 16125 16126 16127 16128 16129 16130 16131 16132 16133 16134 16135 16136 16137 16138 16139 16140 16141 16142 16143 16144 16145 16146 16147 16148 16149 16150 16151 16152 16153 16154 16155 16156 16157 16158 16159 16160 16161 16162 16163 16164 16165 16166 16167 16168 16169 16170 16171 16172 16173 16174 16175 16176 16177 16178 16179 16180 16181 16182 16183 16184 16185 16186 16187 16188 16189 16190 16191 16192 16193 16194 16195 16196 16197 16198 16199 16200 16201 16202 16203 16204 16205 16206 16207 16208 16209 16210 16211 16212 16213 16214 16215 16216 16217 16218 16219 16220 16221 16222 16223 16224 16225 16226 16227 16228 16229 16230 16231 16232 16233 16234 16235 16236 16237 16238 16239 16240 16241 16242 16243 16244 16245 16246 16247 16248 16249 16250 16251 16252 16253 16254 16255 16256 16257 16258 16259 16260 16261 16262 16263 16264 16265 16266 16267 16268 16269 16270 16271 16272 16273 16274 16275 16276 16277 16278 16279 16280 16281 16282 16283 16284 16285 16286 16287 16288 16289 16290 16291 16292 16293 16294 16295 16296 16297 16298 16299 16300 16301 16302 16303 16304 16305 16306 16307 16308 16309 16310 16311 16312 16313 16314 16315 16316 16317 16318 16319 16320 16321 16322 16323 16324 16325 16326 16327 16328 16329 16330 16331 16332 16333 16334 16335 16336 16337 16338 16339 16340 16341 16342 16343 16344 16345 16346 16347 16348 16349 16350 16351 16352 16353 16354 16355 16356 16357 16358 16359 16360 16361 16362 16363 16364 16365 16366 16367 16368 16369 16370 16371 16372 16373 16374 16375 16376 16377 16378 16379 16380 16381 16382 16383 16384 16385 16386 16387 16388 16389 16390 16391 16392 16393 16394 16395 16396 16397 16398 16399 16400 16401 16402 16403 16404 16405 16406 16407 16408 16409 16410 16411 16412 16413 16414 16415 16416 16417 16418 16419 16420 16421 16422 16423 16424 16425 16426 16427 16428 16429 16430 16431 16432 16433 16434 16435 16436 16437 16438 16439 16440 16441 16442 16443 16444 16445 16446 16447 16448 16449 16450 16451 16452 16453 16454 16455 16456 16457 16458 16459 16460 16461 16462 16463 16464 16465 16466 16467 16468 16469 16470 16471 16472 16473 16474 16475 16476 16477 16478 16479 16480 16481 16482 16483 16484 16485 16486 16487 16488 16489 16490 16491 16492 16493 16494 16495 16496 16497 16498 16499 16500 16501 16502 16503 16504 16505 16506 16507 16508 16509 16510 16511 16512 16513 16514 16515 16516 16517 16518 16519 16520 16521 16522 16523 16524 16525 16526 16527 16528 16529 16530 16531 16532 16533 16534 16535 16536 16537 16538 16539 16540 16541 16542 16543 16544 16545 16546 16547 16548 16549 16550 16551 16552 16553 16554 16555 16556 16557 16558 16559 16560 16561 16562 16563 16564 16565 16566 16567 16568 16569 16570 16571 16572 16573 16574 16575 16576 16577 16578 16579 16580 16581 16582 16583 16584 16585 16586 16587 16588 16589 16590 16591 16592 16593 16594 16595 16596 16597 16598 16599 16600 16601 16602 16603 16604 16605 16606 16607 16608 16609 16610 16611 16612 16613 16614 16615 16616 16617 16618 16619 16620 16621 16622 16623 16624 16625 16626 16627 16628 16629 16630 16631 16632 16633 16634 16635 16636 16637 16638 16639 16640 16641 16642 16643 16644 16645 16646 16647 16648 16649 16650 16651 16652 16653 16654 16655 16656 16657 16658 16659 16660 16661 16662 16663 16664 16665 16666 16667 16668 16669 16670 16671 16672 16673 16674 16675 16676 16677 16678 16679 16680 16681 16682 16683 16684 16685 16686 16687 16688 16689 16690 16691 16692 16693 16694 16695 16696 16697 16698 16699 16700 16701 16702 16703 16704 16705 16706 16707 16708 16709 16710 16711 16712 16713 16714 16715 16716 16717 16718 16719 16720 16721 16722 16723 16724 16725 16726 16727 16728 16729 16730 16731 16732 16733 16734 16735 16736 16737 16738 16739 16740 16741 16742 16743 16744 16745 16746 16747 16748 16749 16750 16751 16752 16753 16754 16755 16756 16757 16758 16759 16760 16761 16762 16763 16764 16765 16766 16767 16768 16769 16770 16771 16772 16773 16774 16775 16776 16777 16778 16779 16780 16781 16782 16783 16784 16785 16786 16787 16788 16789 16790 16791 16792 16793 16794 16795 16796 16797 16798 16799 16800 16801 16802 16803 16804 16805 16806 16807 16808 16809 16810 16811 16812 16813 16814 16815 16816 16817 16818 16819 16820 16821 16822 16823 16824 16825 16826 16827 16828 16829 16830 16831 16832 16833 16834 16835 16836 16837 16838 16839 16840 16841 16842 16843 16844 16845 16846 16847 16848 16849 16850 16851 16852 16853 16854 16855 16856 16857 16858 16859 16860 16861 16862 16863 16864 16865 16866 16867 16868 16869 16870 16871 16872 16873 16874 16875 16876 16877 16878 16879 16880 16881 16882 16883 16884 16885 16886 16887 16888 16889 16890 16891 16892 16893 16894 16895 16896 16897 16898 16899 16900 16901 16902 16903 16904 16905 16906 16907 16908 16909 16910 16911 16912 16913 16914 16915 16916 16917 16918 16919 16920 16921 16922 16923 16924 16925 16926 16927 16928 16929 16930 16931 16932 16933 16934 16935 16936 16937 16938 16939 16940 16941 16942 16943 16944 16945 16946 16947 16948 16949 16950 16951 16952 16953 16954 16955 16956 16957 16958 16959 16960 16961 16962 16963 16964 16965 16966 16967 16968 16969 16970 16971 16972 16973 16974 16975 16976 16977 16978 16979 16980 16981 16982 16983 16984 16985 16986 16987 16988 16989 16990 16991 16992 16993 16994 16995 16996 16997 16998 16999 17000 17001 17002 17003 17004 17005 17006 17007 17008 17009 17010 17011 17012 17013 17014 17015 17016 17017 17018 17019 17020 17021 17022 17023 17024 17025 17026 17027 17028 17029 17030 17031 17032 17033 17034 17035 17036 17037 17038 17039 17040 17041 17042 17043 17044 17045 17046 17047 17048 17049 17050 17051 17052 17053 17054 17055 17056 17057 17058 17059 17060 17061 17062 17063 17064 17065 17066 17067 17068 17069 17070 17071 17072 17073 17074 17075 17076 17077 17078 17079 17080 17081 17082 17083 17084 17085 17086 17087 17088 17089 17090 17091 17092 17093 17094 17095 17096 17097 17098 17099 17100 17101 17102 17103 17104 17105 17106 17107 17108 17109 17110 17111 17112 17113 17114 17115 17116 17117 17118 17119 17120 17121 17122 17123 17124 17125 17126 17127 17128 17129 17130 17131 17132 17133 17134 17135 17136 17137 17138 17139 17140 17141 17142 17143 17144 17145 17146 17147 17148 17149 17150 17151 17152 17153 17154 17155 17156 17157 17158 17159 17160 17161 17162 17163 17164 17165 17166 17167 17168 17169 17170 17171 17172 17173 17174 17175 17176 17177 17178 17179 17180 17181 17182 17183 17184 17185 17186 17187 17188 17189 17190 17191 17192 17193 17194 17195 17196 17197 17198 17199 17200 17201 17202 17203 17204 17205 17206 17207 17208 17209 17210 17211 17212 17213 17214 17215 17216 17217 17218 17219 17220 17221 17222 17223 17224 17225 17226 17227 17228 17229 17230 17231 17232 17233 17234 17235 17236 17237 17238 17239 17240 17241 17242 17243 17244 17245 17246 17247 17248 17249 17250 17251 17252 17253 17254 17255 17256 17257 17258 17259 17260 17261 17262 17263 17264 17265 17266 17267 17268 17269 17270 17271 17272 17273 17274 17275 17276 17277 17278 17279 17280 17281 17282 17283 17284 17285 17286 17287 17288 17289 17290 17291 17292 17293 17294 17295 17296 17297 17298 17299 17300 17301 17302 17303 17304 17305 17306 17307 17308 17309 17310 17311 17312 17313 17314 17315 17316 17317 17318 17319 17320 17321 17322 17323 17324 17325 17326 17327 17328 17329 17330 17331 17332 17333 17334 17335 17336 17337 17338 17339 17340 17341 17342 17343 17344 17345 17346 17347 17348 17349 17350 17351 17352 17353 17354 17355 17356 17357 17358 17359 17360 17361 17362 17363 17364 17365 17366 17367 17368 17369 17370 17371 17372 17373 17374 17375 17376 17377 17378 17379 17380 17381 17382 17383 17384 17385 17386 17387 17388 17389 17390 17391 17392 17393 17394 17395 17396 17397 17398 17399 17400 17401 17402 17403 17404 17405 17406 17407 17408 17409 17410 17411 17412 17413 17414 17415 17416 17417 17418 17419 17420 17421 17422 17423 17424 17425 17426 17427 17428 17429 17430 17431 17432 17433 17434 17435 17436 17437 17438 17439 17440 17441 17442 17443 17444 17445 17446 17447 17448 17449 17450 17451 17452 17453 17454 17455 17456 17457 17458 17459 17460 17461 17462 17463 17464 17465 17466 17467 17468 17469 17470 17471 17472 17473 17474 17475 17476 17477 17478 17479 17480 17481 17482 17483 17484 17485 17486 17487 17488 17489 17490 17491 17492 17493 17494 17495 17496 17497 17498 17499 17500 17501 17502 17503 17504 17505 17506 17507 17508 17509 17510 17511 17512 17513 17514 17515 17516 17517 17518 17519 17520 17521 17522 17523 17524 17525 17526 17527 17528 17529 17530 17531 17532 17533 17534 17535 17536 17537 17538 17539 17540 17541 17542 17543 17544 17545 17546 17547 17548 17549 17550 17551 17552 17553 17554 17555 17556 17557 17558 17559 17560 17561 17562 17563 17564 17565 17566 17567 17568 17569 17570 17571 17572 17573 17574 17575 17576 17577 17578 17579 17580 17581 17582 17583 17584 17585 17586 17587 17588 17589 17590 17591 17592 17593 17594 17595 17596 17597 17598 17599 17600 17601 17602 17603 17604 17605 17606 17607 17608 17609 17610 17611 17612 17613 17614 17615 17616 17617 17618 17619 17620 17621 17622 17623 17624 17625 17626 17627 17628 17629 17630 17631 17632 17633 17634 17635 17636 17637 17638 17639 17640 17641 17642 17643 17644 17645 17646 17647 17648 17649 17650 17651 17652 17653 17654 17655 17656 17657 17658 17659 17660 17661 17662 17663 17664 17665 17666 17667 17668 17669 17670 17671 17672 17673 17674 17675 17676 17677 17678 17679 17680 17681 17682 17683 17684 17685 17686 17687 17688 17689 17690 17691 17692 17693 17694 17695 17696 17697 17698 17699 17700 17701 17702 17703 17704 17705 17706 17707 17708 17709 17710 17711 17712 17713 17714 17715 17716 17717 17718 17719 17720 17721 17722 17723 17724 17725 17726 17727 17728 17729 17730 17731 17732 17733 17734 17735 17736 17737 17738 17739 17740 17741 17742 17743 17744 17745 17746 17747 17748 17749 17750 17751 17752 17753 17754 17755 17756 17757 17758 17759 17760 17761 17762 17763 17764 17765 17766 17767 17768 17769 17770 17771 17772 17773 17774 17775 17776 17777 17778 17779 17780 17781 17782 17783 17784 17785 17786 17787 17788 17789 17790 17791 17792 17793 17794 17795 17796 17797 17798 17799 17800 17801 17802 17803 17804 17805 17806 17807 17808 17809 17810 17811 17812 17813 17814 17815 17816 17817 17818 17819 17820 17821 17822 17823 17824 17825 17826 17827 17828 17829 17830 17831 17832 17833 17834 17835 17836 17837 17838 17839 17840 17841 17842 17843 17844 17845 17846 17847 17848 17849 17850 17851 17852 17853 17854 17855 17856 17857 17858 17859 17860 17861 17862 17863 17864 17865 17866 17867 17868 17869 17870 17871 17872 17873 17874 17875 17876 17877 17878 17879 17880 17881 17882 17883 17884 17885 17886 17887 17888 17889 17890 17891 17892 17893 17894 17895 17896 17897 17898 17899 17900 17901 17902 17903 17904 17905 17906 17907 17908 17909 17910 17911 17912 17913 17914 17915 17916 17917 17918 17919 17920 17921 17922 17923 17924 17925 17926 17927 17928 17929 17930 17931 17932 17933 17934 17935 17936 17937 17938 17939 17940 17941 17942 17943 17944 17945 17946 17947 17948 17949 17950 17951 17952 17953 17954 17955 17956 17957 17958 17959 17960 17961 17962 17963 17964 17965 17966 17967 17968 17969 17970 17971 17972 17973 17974 17975 17976 17977 17978 17979 17980 17981 17982 17983 17984 17985 17986 17987 17988 17989 17990 17991 17992 17993 17994 17995 17996 17997 17998 17999 18000 18001 18002 18003 18004 18005 18006 18007 18008 18009 18010 18011 18012 18013 18014 18015 18016 18017 18018 18019 18020 18021 18022 18023 18024 18025 18026 18027 18028 18029 18030 18031 18032 18033 18034 18035 18036 18037 18038 18039 18040 18041 18042 18043 18044 18045 18046 18047 18048 18049 18050 18051 18052 18053 18054 18055 18056 18057 18058 18059 18060 18061 18062 18063 18064 18065 18066 18067 18068 18069 18070 18071 18072 18073 18074 18075 18076 18077 18078 18079 18080 18081 18082 18083 18084 18085 18086 18087 18088 18089 18090 18091 18092 18093 18094 18095 18096 18097 18098 18099 18100 18101 18102 18103 18104 18105 18106 18107 18108 18109 18110 18111 18112 18113 18114 18115 18116 18117 18118 18119 18120 18121 18122 18123 18124 18125 18126 18127 18128 18129 18130 18131 18132 18133 18134 18135 18136 18137 18138 18139 18140 18141 18142 18143 18144 18145 18146 18147 18148 18149 18150 18151 18152 18153 18154 18155 18156 18157 18158 18159 18160 18161 18162 18163 18164 18165 18166 18167 18168 18169 18170 18171 18172 18173 18174 18175 18176 18177 18178 18179 18180 18181 18182 18183 18184 18185 18186 18187 18188 18189 18190 18191 18192 18193 18194 18195 18196 18197 18198 18199 18200 18201 18202 18203 18204 18205 18206 18207 18208 18209 18210 18211 18212 18213 18214 18215 18216 18217 18218 18219 18220 18221 18222 18223 18224 18225 18226 18227 18228 18229 18230 18231 18232 18233 18234 18235 18236 18237 18238 18239 18240 18241 18242 18243 18244 18245 18246 18247 18248 18249 18250 18251 18252 18253 18254 18255 18256 18257 18258 18259 18260 18261 18262 18263 18264 18265 18266 18267 18268 18269 18270 18271 18272 18273 18274 18275 18276 18277 18278 18279 18280 18281 18282 18283 18284 18285 18286 18287 18288 18289 18290 18291 18292 18293 18294 18295 18296 18297 18298 18299 18300 18301 18302 18303 18304 18305 18306 18307 18308 18309 18310 18311 18312 18313 18314 18315 18316 18317 18318 18319 18320 18321 18322 18323 18324 18325 18326 18327 18328 18329 18330 18331 18332 18333 18334 18335 18336 18337 18338 18339 18340 18341 18342 18343 18344 18345 18346 18347 18348 18349 18350 18351 18352 18353 18354 18355 18356 18357 18358 18359 18360 18361 18362 18363 18364 18365 18366 18367 18368 18369 18370 18371 18372 18373 18374 18375 18376 18377 18378 18379 18380 18381 18382 18383 18384 18385 18386 18387 18388 18389 18390 18391 18392 18393 18394 18395 18396 18397 18398 18399 18400 18401 18402 18403 18404 18405 18406 18407 18408 18409 18410 18411 18412 18413 18414 18415 18416 18417 18418 18419 18420 18421 18422 18423 18424 18425 18426 18427 18428 18429 18430 18431 18432 18433 18434 18435 18436 18437 18438 18439 18440 18441 18442 18443 18444 18445 18446 18447 18448 18449 18450 18451 18452 18453 18454 18455 18456 18457 18458 18459 18460 18461 18462 18463 18464 18465 18466 18467 18468 18469 18470 18471 18472 18473 18474 18475 18476 18477 18478 18479 18480 18481 18482 18483 18484 18485 18486 18487 18488 18489 18490 18491 18492 18493 18494 18495 18496 18497 18498 18499 18500 18501 18502 18503 18504 18505 18506 18507 18508 18509 18510 18511 18512 18513 18514 18515 18516 18517 18518 18519 18520 18521 18522 18523 18524 18525 18526 18527 18528 18529 18530 18531 18532 18533 18534 18535 18536 18537 18538 18539 18540 18541 18542 18543 18544 18545 18546 18547 18548 18549 18550 18551 18552 18553 18554 18555 18556 18557 18558 18559 18560 18561 18562 18563 18564 18565 18566 18567 18568 18569 18570 18571 18572 18573 18574 18575 18576 18577 18578 18579 18580 18581 18582 18583 18584 18585 18586 18587 18588 18589 18590 18591 18592 18593 18594 18595 18596 18597 18598 18599 18600 18601 18602 18603 18604 18605 18606 18607 18608 18609 18610 18611 18612 18613 18614 18615 18616 18617 18618 18619 18620 18621 18622 18623 18624 18625 18626 18627 18628 18629 18630 18631 18632 18633 18634 18635 18636 18637 18638 18639 18640 18641 18642 18643 18644 18645 18646 18647 18648 18649 18650 18651 18652 18653 18654 18655 18656 18657 18658 18659 18660 18661 18662 18663 18664 18665 18666 18667 18668 18669 18670 18671 18672 18673 18674 18675 18676 18677 18678 18679 18680 18681 18682 18683 18684 18685 18686 18687 18688 18689 18690 18691 18692 18693 18694 18695 18696 18697 18698 18699 18700 18701 18702 18703 18704 18705 18706 18707 18708 18709 18710 18711 18712 18713 18714 18715 18716 18717 18718 18719 18720 18721 18722 18723 18724 18725 18726 18727 18728 18729 18730 18731 18732 18733 18734 18735 18736 18737 18738 18739 18740 18741 18742 18743 18744 18745 18746 18747 18748 18749 18750 18751 18752 18753 18754 18755 18756 18757 18758 18759 18760 18761 18762 18763 18764 18765 18766 18767 18768 18769 18770 18771 18772 18773 18774 18775 18776 18777 18778 18779 18780 18781 18782 18783 18784 18785 18786 18787 18788 18789 18790 18791 18792 18793 18794 18795 18796 18797 18798 18799 18800 18801 18802 18803 18804 18805 18806 18807 18808 18809 18810 18811 18812 18813 18814 18815 18816 18817 18818 18819 18820 18821 18822 18823 18824 18825 18826 18827 18828 18829 18830 18831 18832 18833 18834 18835 18836 18837 18838 18839 18840 18841 18842 18843 18844 18845 18846 18847 18848 18849 18850 18851 18852 18853 18854 18855 18856 18857 18858 18859 18860 18861 18862 18863 18864 18865 18866 18867 18868 18869 18870 18871 18872 18873 18874 18875 18876 18877 18878 18879 18880 18881 18882 18883 18884 18885 18886 18887 18888 18889 18890 18891 18892 18893 18894 18895 18896 18897 18898 18899 18900 18901 18902 18903 18904 18905 18906 18907 18908 18909 18910 18911 18912 18913 18914 18915 18916 18917 18918 18919 18920 18921 18922 18923 18924 18925 18926 18927 18928 18929 18930 18931 18932 18933 18934 18935 18936 18937 18938 18939 18940 18941 18942 18943 18944 18945 18946 18947 18948 18949 18950 18951 18952 18953 18954 18955 18956 18957 18958 18959 18960 18961 18962 18963 18964 18965 18966 18967 18968 18969 18970 18971 18972 18973 18974 18975 18976 18977 18978 18979 18980 18981 18982 18983 18984 18985 18986 18987 18988 18989 18990 18991 18992 18993 18994 18995 18996 18997 18998 18999 19000 19001 19002 19003 19004 19005 19006 19007 19008 19009 19010 19011 19012 19013 19014 19015 19016 19017 19018 19019 19020 19021 19022 19023 19024 19025 19026 19027 19028 19029 19030 19031 19032 19033 19034 19035 19036 19037 19038 19039 19040 19041 19042 19043 19044 19045 19046 19047 19048 19049 19050 19051 19052 19053 19054 19055 19056 19057 19058 19059 19060 19061 19062 19063 19064 19065 19066 19067 19068 19069 19070 19071 19072 19073 19074 19075 19076 19077 19078 19079 19080 19081 19082 19083 19084 19085 19086 19087 19088 19089 19090 19091 19092 19093 19094 19095 19096 19097 19098 19099 19100 19101 19102 19103 19104 19105 19106 19107 19108 19109 19110 19111 19112 19113 19114 19115 19116 19117 19118 19119 19120 19121 19122 19123 19124 19125 19126 19127 19128 19129 19130 19131 19132 19133 19134 19135 19136 19137 19138 19139 19140 19141 19142 19143 19144 19145 19146 19147 19148 19149 19150 19151 19152 19153 19154 19155 19156 19157 19158 19159 19160 19161 19162 19163 19164 19165 19166 19167 19168 19169 19170 19171 19172 19173 19174 19175 19176 19177 19178 19179 19180 19181 19182 19183 19184 19185 19186 19187 19188 19189 19190 19191 19192 19193 19194 19195 19196 19197 19198 19199 19200 19201 19202 19203 19204 19205 19206 19207 19208 19209 19210 19211 19212 19213 19214 19215 19216 19217 19218 19219 19220 19221 19222 19223 19224 19225 19226 19227 19228 19229 19230 19231 19232 19233 19234 19235 19236 19237 19238 19239 19240 19241 19242 19243 19244 19245 19246 19247 19248 19249 19250 19251 19252 19253 19254 19255 19256 19257 19258 19259 19260 19261 19262 19263 19264 19265 19266 19267 19268 19269 19270 19271 19272 19273 19274 19275 19276 19277 19278 19279 19280 19281 19282 19283 19284 19285 19286 19287 19288 19289 19290 19291 19292 19293 19294 19295 19296 19297 19298 19299 19300 19301 19302 19303 19304 19305 19306 19307 19308 19309 19310 19311 19312 19313 19314 19315 19316 19317 19318 19319 19320 19321 19322 19323 19324 19325 19326 19327 19328 19329 19330 19331 19332 19333 19334 19335 19336 19337 19338 19339 19340 19341 19342 19343 19344 19345 19346 19347 19348 19349 19350 19351 19352 19353 19354 19355 19356 19357 19358 19359 19360 19361 19362 19363 19364 19365 19366 19367 19368 19369 19370 19371 19372 19373 19374 19375 19376 19377 19378 19379 19380 19381 19382 19383 19384 19385 19386 19387 19388 19389 19390 19391 19392 19393 19394 19395 19396 19397 19398 19399 19400 19401 19402 19403 19404 19405 19406 19407 19408 19409 19410 19411 19412 19413 19414 19415 19416 19417 19418 19419 19420 19421 19422 19423 19424 19425 19426 19427 19428 19429 19430 19431 19432 19433 19434 19435 19436 19437 19438 19439 19440 19441 19442 19443 19444 19445 19446 19447 19448 19449 19450 19451 19452 19453 19454 19455 19456 19457 19458 19459 19460 19461 19462 19463 19464 19465 19466 19467 19468 19469 19470 19471 19472 19473 19474 19475 19476 19477 19478 19479 19480 19481 19482 19483 19484 19485 19486 19487 19488 19489 19490 19491 19492 19493 19494 19495 19496 19497 19498 19499 19500 19501 19502 19503 19504 19505 19506 19507 19508 19509 19510 19511 19512 19513 19514 19515 19516 19517 19518 19519 19520 19521 19522 19523 19524 19525 19526 19527 19528 19529 19530 19531 19532 19533 19534 19535 19536 19537 19538 19539 19540 19541 19542 19543 19544 19545 19546 19547 19548 19549 19550 19551 19552 19553 19554 19555 19556 19557 19558 19559 19560 19561 19562 19563 19564 19565 19566 19567 19568 19569 19570 19571 19572 19573 19574 19575 19576 19577 19578 19579 19580 19581 19582 19583 19584 19585 19586 19587 19588 19589 19590 19591 19592 19593 19594 19595 19596 19597 19598 19599 19600 19601 19602 19603 19604 19605 19606 19607 19608 19609 19610 19611 19612 19613 19614 19615 19616 19617 19618 19619 19620 19621 19622 19623 19624 19625 19626 19627 19628 19629 19630 19631 19632 19633 19634 19635 19636 19637 19638 19639 19640 19641 19642 19643 19644 19645 19646 19647 19648 19649 19650 19651 19652 19653 19654 19655 19656 19657 19658 19659 19660 19661 19662 19663 19664 19665 19666 19667 19668 19669 19670 19671 19672 19673 19674 19675 19676 19677 19678 19679 19680 19681 19682 19683 19684 19685 19686 19687 19688 19689 19690 19691 19692 19693 19694 19695 19696 19697 19698 19699 19700 19701 19702 19703 19704 19705 19706 19707 19708 19709 19710 19711 19712 19713 19714 19715 19716 19717 19718 19719 19720 19721 19722 19723 19724 19725 19726 19727 19728 19729 19730 19731 19732 19733 19734 19735 19736 19737 19738 19739 19740 19741 19742 19743 19744 19745 19746 19747 19748 19749 19750 19751 19752 19753 19754 19755 19756 19757 19758 19759 19760 19761 19762 19763 19764 19765 19766 19767 19768 19769 19770 19771 19772 19773 19774 19775 19776 19777 19778 19779 19780 19781 19782 19783 19784 19785 19786 19787 19788 19789 19790 19791 19792 19793 19794 19795 19796 19797 19798 19799 19800 19801 19802 19803 19804 19805 19806 19807 19808 19809 19810 19811 19812 19813 19814 19815 19816 19817 19818 19819 19820 19821 19822 19823 19824 19825 19826 19827 19828 19829 19830 19831 19832 19833 19834 19835 19836 19837 19838 19839 19840 19841 19842 19843 19844 19845 19846 19847 19848 19849 19850 19851 19852 19853 19854 19855 19856 19857 19858 19859 19860 19861 19862 19863 19864 19865 19866 19867 19868 19869 19870 19871 19872 19873 19874 19875 19876 19877 19878 19879 19880 19881 19882 19883 19884 19885 19886 19887 19888 19889 19890 19891 19892 19893 19894 19895 19896 19897 19898 19899 19900 19901 19902 19903 19904 19905 19906 19907 19908 19909 19910 19911 19912 19913 19914 19915 19916 19917 19918 19919 19920 19921 19922 19923 19924 19925 19926 19927 19928 19929 19930 19931 19932 19933 19934 19935 19936 19937 19938 19939 19940 19941 19942 19943 19944 19945 19946 19947 19948 19949 19950 19951 19952 19953 19954 19955 19956 19957 19958 19959 19960 19961 19962 19963 19964 19965 19966 19967 19968 19969 19970 19971 19972 19973 19974 19975 19976 19977 19978 19979 19980 19981 19982 19983 19984 19985 19986 19987 19988 19989 19990 19991 19992 19993 19994 19995 19996 19997 19998 19999 20000 20001 20002 20003 20004 20005 20006 20007 20008 20009 20010 20011 20012 20013 20014 20015 20016 20017 20018 20019 20020 20021 20022 20023 20024 20025 20026 20027 20028 20029 20030 20031 20032 20033 20034 20035 20036 20037 20038 20039 20040 20041 20042 20043 20044 20045 20046 20047 20048 20049 20050 20051 20052 20053 20054 20055 20056 20057 20058 20059 20060 20061 20062 20063 20064 20065 20066 20067 20068 20069 20070 20071 20072 20073 20074 20075 20076 20077 20078 20079 20080 20081 20082 20083 20084 20085 20086 20087 20088 20089 20090 20091 20092 20093 20094 20095 20096 20097 20098 20099 20100 20101 20102 20103 20104 20105 20106 20107 20108 20109 20110 20111 20112 20113 20114 20115 20116 20117 20118 20119 20120 20121 20122 20123 20124 20125 20126 20127 20128 20129 20130 20131 20132 20133 20134 20135 20136 20137 20138 20139 20140 20141 20142 20143 20144 20145 20146 20147 20148 20149 20150 20151 20152 20153 20154 20155 20156 20157 20158 20159 20160 20161 20162 20163 20164 20165 20166 20167 20168 20169 20170 20171 20172 20173 20174 20175 20176 20177 20178 20179 20180 20181 20182 20183 20184 20185 20186 20187 20188 20189 20190 20191 20192 20193 20194 20195 20196 20197 20198 20199 20200 20201 20202 20203 20204 20205 20206 20207 20208 20209 20210 20211 20212 20213 20214 20215 20216 20217 20218 20219 20220 20221 20222 20223 20224 20225 20226 20227 20228 20229 20230 20231 20232 20233 20234 20235 20236 20237 20238 20239 20240 20241 20242 20243 20244 20245 20246 20247 20248 20249 20250 20251 20252 20253 20254 20255 20256 20257 20258 20259 20260 20261 20262 20263 20264 20265 20266 20267 20268 20269 20270 20271 20272 20273 20274 20275 20276 20277 20278 20279 20280 20281 20282 20283 20284 20285 20286 20287 20288 20289 20290 20291 20292 20293 20294 20295 20296 20297 20298 20299 20300 20301 20302 20303 20304 20305 20306 20307 20308 20309 20310 20311 20312 20313 20314 20315 20316 20317 20318 20319 20320 20321 20322 20323 20324 20325 20326 20327 20328 20329 20330 20331 20332 20333 20334 20335 20336 20337 20338 20339 20340 20341 20342 20343 20344 20345 20346 20347 20348 20349 20350 20351 20352 20353 20354 20355 20356 20357 20358 20359 20360 20361 20362 20363 20364 20365 20366 20367 20368 20369 20370 20371 20372 20373 20374 20375 20376 20377 20378 20379 20380 20381 20382 20383 20384 20385 20386 20387 20388 20389 20390 20391 20392 20393 20394 20395 20396 20397 20398 20399 20400 20401 20402 20403 20404 20405 20406 20407 20408 20409 20410 20411 20412 20413 20414 20415 20416 20417 20418 20419 20420 20421 20422 20423 20424 20425 20426 20427 20428 20429 20430 20431 20432 20433 20434 20435 20436 20437 20438 20439 20440 20441 20442 20443 20444 20445 20446 20447 20448 20449 20450 20451 20452 20453 20454 20455 20456 20457 20458 20459 20460 20461 20462 20463 20464 20465 20466 20467 20468 20469 20470 20471 20472 20473 20474 20475 20476 20477 20478 20479 20480 20481 20482 20483 20484 20485 20486 20487 20488 20489 20490 20491 20492 20493 20494 20495 20496 20497 20498 20499 20500 20501 20502 20503 20504 20505 20506 20507 20508 20509 20510 20511 20512 20513 20514 20515 20516 20517 20518 20519 20520 20521 20522 20523 20524 20525 20526 20527 20528 20529 20530 20531 20532 20533 20534 20535 20536 20537 20538 20539 20540 20541 20542 20543 20544 20545 20546 20547 20548 20549 20550 20551 20552 20553 20554 20555 20556 20557 20558 20559 20560 20561 20562 20563 20564 20565 20566 20567 20568 20569 20570 20571 20572 20573 20574 20575 20576 20577 20578 20579 20580 20581 20582 20583 20584 20585 20586 20587 20588 20589 20590 20591 20592 20593 20594 20595 20596 20597 20598 20599 20600 20601 20602 20603 20604 20605 20606 20607 20608 20609 20610 20611 20612 20613 20614 20615 20616 20617 20618 20619 20620 20621 20622 20623 20624 20625 20626 20627 20628 20629 20630 20631 20632 20633 20634 20635 20636 20637 20638 20639 20640 20641 20642 20643 20644 20645 20646 20647 20648 20649 20650 20651 20652 20653 20654 20655 20656 20657 20658 20659 20660 20661 20662 20663 20664 20665 20666 20667 20668 20669 20670 20671 20672 20673 20674 20675 20676 20677 20678 20679 20680 20681 20682 20683 20684 20685 20686 20687 20688 20689 20690 20691 20692 20693 20694 20695 20696 20697 20698 20699 20700 20701 20702 20703 20704 20705 20706 20707 20708 20709 20710 20711 20712 20713 20714 20715 20716 20717 20718 20719 20720 20721 20722 20723 20724 20725 20726 20727 20728 20729 20730 20731 20732 20733 20734 20735 20736 20737 20738 20739 20740 20741 20742 20743 20744 20745 20746 20747 20748 20749 20750 20751 20752 20753 20754 20755 20756 20757 20758 20759 20760 20761 20762 20763 20764 20765 20766 20767 20768 20769 20770 20771 20772 20773 20774 20775 20776 20777 20778 20779 20780 20781 20782 20783 20784 20785 20786 20787 20788 20789 20790 20791 20792 20793 20794 20795 20796 20797 20798 20799 20800 20801 20802 20803 20804 20805 20806 20807 20808 20809 20810 20811 20812 20813 20814 20815 20816 20817 20818 20819 20820 20821 20822 20823 20824 20825 20826 20827 20828 20829 20830 20831 20832 20833 20834 20835 20836 20837 20838 20839 20840 20841 20842 20843 20844 20845 20846 20847 20848 20849 20850 20851 20852 20853 20854 20855 20856 20857 20858 20859 20860 20861 20862 20863 20864 20865 20866 20867 20868 20869 20870 20871 20872 20873 20874 20875 20876 20877 20878 20879 20880 20881 20882 20883 20884 20885 20886 20887 20888 20889 20890 20891 20892 20893 20894 20895 20896 20897 20898 20899 20900 20901 20902 20903 20904 20905 20906 20907 20908 20909 20910 20911 20912 20913 20914 20915 20916 20917 20918 20919 20920 20921 20922 20923 20924 20925 20926 20927 20928 20929 20930 20931 20932 20933 20934 20935 20936 20937 20938 20939 20940 20941 20942 20943 20944 20945 20946 20947 20948 20949 20950 20951 20952 20953 20954 20955 20956 20957 20958 20959 20960 20961 20962 20963 20964 20965 20966 20967 20968 20969 20970 20971 20972 20973 20974 20975 20976 20977 20978 20979 20980 20981 20982 20983 20984 20985 20986 20987 20988 20989 20990 20991 20992 20993 20994 20995 20996 20997 20998 20999 21000 21001 21002 21003 21004 21005 21006 21007 21008 21009 21010 21011 21012 21013 21014 21015 21016 21017 21018 21019 21020 21021 21022 21023 21024 21025 21026 21027 21028 21029 21030 21031 21032 21033 21034 21035 21036 21037 21038 21039 21040 21041 21042 21043 21044 21045 21046 21047 21048 21049 21050 21051 21052 21053 21054 21055 21056 21057 21058 21059 21060 21061 21062 21063 21064 21065 21066 21067 21068 21069 21070 21071 21072 21073 21074 21075 21076 21077 21078 21079 21080 21081 21082 21083 21084 21085 21086 21087 21088 21089 21090 21091 21092 21093 21094 21095 21096 21097 21098 21099 21100 21101 21102 21103 21104 21105 21106 21107 21108 21109 21110 21111 21112 21113 21114 21115 21116 21117 21118 21119 21120 21121 21122 21123 21124 21125 21126 21127 21128 21129 21130 21131 21132 21133 21134 21135 21136 21137 21138 21139 21140 21141 21142 21143 21144 21145 21146 21147 21148 21149 21150 21151 21152 21153 21154 21155 21156 21157 21158 21159 21160 21161 21162 21163 21164 21165 21166 21167 21168 21169 21170 21171 21172 21173 21174 21175 21176 21177 21178 21179 21180 21181 21182 21183 21184 21185 21186 21187 21188 21189 21190 21191 21192 21193 21194 21195 21196 21197 21198 21199 21200 21201 21202 21203 21204 21205 21206 21207 21208 21209 21210 21211 21212 21213 21214 21215 21216 21217 21218 21219 21220 21221 21222 21223 21224 21225 21226 21227 21228 21229 21230 21231 21232 21233 21234 21235 21236 21237 21238 21239 21240 21241 21242 21243 21244 21245 21246 21247 21248 21249 21250 21251 21252 21253 21254 21255 21256 21257 21258 21259 21260 21261 21262 21263 21264 21265 21266 21267 21268 21269 21270 21271 21272 21273 21274 21275 21276 21277 21278 21279 21280 21281 21282 21283 21284 21285 21286 21287 21288 21289 21290 21291 21292 21293 21294 21295 21296 21297 21298 21299 21300 21301 21302 21303 21304 21305 21306 21307 21308 21309 21310 21311 21312 21313 21314 21315 21316 21317 21318 21319 21320 21321 21322 21323 21324 21325 21326 21327 21328 21329 21330 21331 21332 21333 21334 21335 21336 21337 21338 21339 21340 21341 21342 21343 21344 21345 21346 21347 21348 21349 21350 21351 21352 21353 21354 21355 21356 21357 21358 21359 21360 21361 21362 21363 21364 21365 21366 21367 21368 21369 21370 21371 21372 21373 21374 21375 21376 21377 21378 21379 21380 21381 21382 21383 21384 21385 21386 21387 21388 21389 21390 21391 21392 21393 21394 21395 21396 21397 21398 21399 21400 21401 21402 21403 21404 21405 21406 21407 21408 21409 21410 21411 21412 21413 21414 21415 21416 21417 21418 21419 21420 21421 21422 21423 21424 21425 21426 21427 21428 21429 21430 21431 21432 21433 21434 21435 21436 21437 21438 21439 21440 21441 21442 21443 21444 21445 21446 21447 21448 21449 21450 21451 21452 21453 21454 21455 21456 21457 21458 21459 21460 21461 21462 21463 21464 21465 21466 21467 21468 21469 21470 21471 21472 21473 21474 21475 21476 21477 21478 21479 21480 21481 21482 21483 21484 21485 21486 21487 21488 21489 21490 21491 21492 21493 21494 21495 21496 21497 21498 21499 21500 21501 21502 21503 21504 21505 21506 21507 21508 21509 21510 21511 21512 21513 21514 21515 21516 21517 21518 21519 21520 21521 21522 21523 21524 21525 21526 21527 21528 21529 21530 21531 21532 21533 21534 21535 21536 21537 21538 21539 21540 21541 21542 21543 21544 21545 21546 21547 21548 21549 21550 21551 21552 21553 21554 21555 21556 21557 21558 21559 21560 21561 21562 21563 21564 21565 21566 21567 21568 21569 21570 21571 21572 21573 21574 21575 21576 21577 21578 21579 21580 21581 21582 21583 21584 21585 21586 21587 21588 21589 21590 21591 21592 21593 21594 21595 21596 21597 21598 21599 21600 21601 21602 21603 21604 21605 21606 21607 21608 21609 21610 21611 21612 21613 21614 21615 21616 21617 21618 21619 21620 21621 21622 21623 21624 21625 21626 21627 21628 21629 21630 21631 21632 21633 21634 21635 21636 21637 21638 21639 21640 21641 21642 21643 21644 21645 21646 21647 21648 21649 21650 21651 21652 21653 21654 21655 21656 21657 21658 21659 21660 21661 21662 21663 21664 21665 21666 21667 21668 21669 21670 21671 21672 21673 21674 21675 21676 21677 21678 21679 21680 21681 21682 21683 21684 21685 21686 21687 21688 21689 21690 21691 21692 21693 21694 21695 21696 21697 21698 21699 21700 21701 21702 21703 21704 21705 21706 21707 21708 21709 21710 21711 21712 21713 21714 21715 21716 21717 21718 21719 21720 21721 21722 21723 21724 21725 21726 21727 21728 21729 21730 21731 21732 21733 21734 21735 21736 21737 21738 21739 21740 21741 21742 21743 21744 21745 21746 21747 21748 21749 21750 21751 21752 21753 21754 21755 21756 21757 21758 21759 21760 21761 21762 21763 21764 21765 21766 21767 21768 21769 21770 21771 21772 21773 21774 21775 21776 21777 21778 21779 21780 21781 21782 21783 21784 21785 21786 21787 21788 21789 21790 21791 21792 21793 21794 21795 21796 21797 21798 21799 21800 21801 21802 21803 21804 21805 21806 21807 21808 21809 21810 21811 21812 21813 21814 21815 21816 21817 21818 21819 21820 21821 21822 21823 21824 21825 21826 21827 21828 21829 21830 21831 21832 21833 21834 21835 21836 21837 21838 21839 21840 21841 21842 21843 21844 21845 21846 21847 21848 21849 21850 21851 21852 21853 21854 21855 21856 21857 21858 21859 21860 21861 21862 21863 21864 21865 21866 21867 21868 21869 21870 21871 21872 21873 21874 21875 21876 21877 21878 21879 21880 21881 21882 21883 21884 21885 21886 21887 21888 21889 21890 21891 21892 21893 21894 21895 21896 21897 21898 21899 21900 21901 21902 21903 21904 21905 21906 21907 21908 21909 21910 21911 21912 21913 21914 21915 21916 21917 21918 21919 21920 21921 21922 21923 21924 21925 21926 21927 21928 21929 21930 21931 21932 21933 21934 21935 21936 21937 21938 21939 21940 21941 21942 21943 21944 21945 21946 21947 21948 21949 21950 21951 21952 21953 21954 21955 21956 21957 21958 21959 21960 21961 21962 21963 21964 21965 21966 21967 21968 21969 21970 21971 21972 21973 21974 21975 21976 21977 21978 21979 21980 21981 21982 21983 21984 21985 21986 21987 21988 21989 21990 21991 21992 21993 21994 21995 21996 21997 21998 21999 22000 22001 22002 22003 22004 22005 22006 22007 22008 22009 22010 22011 22012 22013 22014 22015 22016 22017 22018 22019 22020 22021 22022 22023 22024 22025 22026 22027 22028 22029 22030 22031 22032 22033 22034 22035 22036 22037 22038 22039 22040 22041 22042 22043 22044 22045 22046 22047 22048 22049 22050 22051 22052 22053 22054 22055 22056 22057 22058 22059 22060 22061 22062 22063 22064 22065 22066 22067 22068 22069 22070 22071 22072 22073 22074 22075 22076 22077 22078 22079 22080 22081 22082 22083 22084 22085 22086 22087 22088 22089 22090 22091 22092 22093 22094 22095 22096 22097 22098 22099 22100 22101 22102 22103 22104 22105 22106 22107 22108 22109 22110 22111 22112 22113 22114 22115 22116 22117 22118 22119 22120 22121 22122 22123 22124 22125 22126 22127 22128 22129 22130 22131 22132 22133 22134 22135 22136 22137 22138 22139 22140 22141 22142 22143 22144 22145 22146 22147 22148 22149 22150 22151 22152 22153 22154 22155 22156 22157 22158 22159 22160 22161 22162 22163 22164 22165 22166 22167 22168 22169 22170 22171 22172 22173 22174 22175 22176 22177 22178 22179 22180 22181 22182 22183 22184 22185 22186 22187 22188 22189 22190 22191 22192 22193 22194 22195 22196 22197 22198 22199 22200 22201 22202 22203 22204 22205 22206 22207 22208 22209 22210 22211 22212 22213 22214 22215 22216 22217 22218 22219 22220 22221 22222 22223 22224 22225 22226 22227 22228 22229 22230 22231 22232 22233 22234 22235 22236 22237 22238 22239 22240 22241 22242 22243 22244 22245 22246 22247 22248 22249 22250 22251 22252 22253 22254 22255 22256 22257 22258 22259 22260 22261 22262 22263 22264 22265 22266 22267 22268 22269 22270 22271 22272 22273 22274 22275 22276 22277 22278 22279 22280 22281 22282 22283 22284 22285 22286 22287 22288 22289 22290 22291 22292 22293 22294 22295 22296 22297 22298 22299 22300 22301 22302 22303 22304 22305 22306 22307 22308 22309 22310 22311 22312 22313 22314 22315 22316 22317 22318 22319 22320 22321 22322 22323 22324 22325 22326 22327 22328 22329 22330 22331 22332 22333 22334 22335 22336 22337 22338 22339 22340 22341 22342 22343 22344 22345 22346 22347 22348 22349 22350 22351 22352 22353 22354 22355 22356 22357 22358 22359 22360 22361 22362 22363 22364 22365 22366 22367 22368 22369 22370 22371 22372 22373 22374 22375 22376 22377 22378 22379 22380 22381 22382 22383 22384 22385 22386 22387 22388 22389 22390 22391 22392 22393 22394 22395 22396 22397 22398 22399 22400 22401 22402 22403 22404 22405 22406 22407 22408 22409 22410 22411 22412 22413 22414 22415 22416 22417 22418 22419 22420 22421 22422 22423 22424 22425 22426 22427 22428 22429 22430 22431 22432 22433 22434 22435 22436 22437 22438 22439 22440 22441 22442 22443 22444 22445 22446 22447 22448 22449 22450 22451 22452 22453 22454 22455 22456 22457 22458 22459 22460 22461 22462 22463 22464 22465 22466 22467 22468 22469 22470 22471 22472 22473 22474 22475 22476 22477 22478 22479 22480 22481 22482 22483 22484 22485 22486 22487 22488 22489 22490 22491 22492 22493 22494 22495 22496 22497 22498 22499 22500 22501 22502 22503 22504 22505 22506 22507 22508 22509 22510 22511 22512 22513 22514 22515 22516 22517 22518 22519 22520 22521 22522 22523 22524 22525 22526 22527 22528 22529 22530 22531 22532 22533 22534 22535 22536 22537 22538 22539 22540 22541 22542 22543 22544 22545 22546 22547 22548 22549 22550 22551 22552 22553 22554 22555 22556 22557 22558 22559 22560 22561 22562 22563 22564 22565 22566 22567 22568 22569 22570 22571 22572 22573 22574 22575 22576 22577 22578 22579 22580 22581 22582 22583 22584 22585 22586 22587 22588 22589 22590 22591 22592 22593 22594 22595 22596 22597 22598 22599 22600 22601 22602 22603 22604 22605 22606 22607 22608 22609 22610 22611 22612 22613 22614 22615 22616 22617 22618 22619 22620 22621 22622 22623 22624 22625 22626 22627 22628 22629 22630 22631 22632 22633 22634 22635 22636 22637 22638 22639 22640 22641 22642 22643 22644 22645 22646 22647 22648 22649 22650 22651 22652 22653 22654 22655 22656 22657 22658 22659 22660 22661 22662 22663 22664 22665 22666 22667 22668 22669 22670 22671 22672 22673 22674 22675 22676 22677 22678 22679 22680 22681 22682 22683 22684 22685 22686 22687 22688 22689 22690 22691 22692 22693 22694 22695 22696 22697 22698 22699 22700 22701 22702 22703 22704 22705 22706 22707 22708 22709 22710 22711 22712 22713 22714 22715 22716 22717 22718 22719 22720 22721 22722 22723 22724 22725 22726 22727 22728 22729 22730 22731 22732 22733 22734 22735 22736 22737 22738 22739 22740 22741 22742 22743 22744 22745 22746 22747 22748 22749 22750 22751 22752 22753 22754 22755 22756 22757 22758 22759 22760 22761 22762 22763 22764 22765 22766 22767 22768 22769 22770 22771 22772 22773 22774 22775 22776 22777 22778 22779 22780 22781 22782 22783 22784 22785 22786 22787 22788 22789 22790 22791 22792 22793 22794 22795 22796 22797 22798 22799 22800 22801 22802 22803 22804 22805 22806 22807 22808 22809 22810 22811 22812 22813 22814 22815 22816 22817 22818 22819 22820 22821 22822 22823 22824 22825 22826 22827 22828 22829 22830 22831 22832 22833 22834 22835 22836 22837 22838 22839 22840 22841 22842 22843 22844 22845 22846 22847 22848 22849 22850 22851 22852 22853 22854 22855 22856 22857 22858 22859 22860 22861 22862 22863 22864 22865 22866 22867 22868 22869 22870 22871 22872 22873 22874 22875 22876 22877 22878 22879 22880 22881 22882 22883 22884 22885 22886 22887 22888 22889 22890 22891 22892 22893 22894 22895 22896 22897 22898 22899 22900 22901 22902 22903 22904 22905 22906 22907 22908 22909 22910 22911 22912 22913 22914 22915 22916 22917 22918 22919 22920 22921 22922 22923 22924 22925 22926 22927 22928 22929 22930 22931 22932 22933 22934 22935 22936 22937 22938 22939 22940 22941 22942 22943 22944 22945 22946 22947 22948 22949 22950 22951 22952 22953 22954 22955 22956 22957 22958 22959 22960 22961 22962 22963 22964 22965 22966 22967 22968 22969 22970 22971 22972 22973 22974 22975 22976 22977 22978 22979 22980 22981 22982 22983 22984 22985 22986 22987 22988 22989 22990 22991 22992 22993 22994 22995 22996 22997 22998 22999 23000 23001 23002 23003 23004 23005 23006 23007 23008 23009 23010 23011 23012 23013 23014 23015 23016 23017 23018 23019 23020 23021 23022 23023 23024 23025 23026 23027 23028 23029 23030 23031 23032 23033 23034 23035 23036 23037 23038 23039 23040 23041 23042 23043 23044 23045 23046 23047 23048 23049 23050 23051 23052 23053 23054 23055 23056 23057 23058 23059 23060 23061 23062 23063 23064 23065 23066 23067 23068 23069 23070 23071 23072 23073 23074 23075 23076 23077 23078 23079 23080 23081 23082 23083 23084 23085 23086 23087 23088 23089 23090 23091 23092 23093 23094 23095 23096 23097 23098 23099 23100 23101 23102 23103 23104 23105 23106 23107 23108 23109 23110 23111 23112 23113 23114 23115 23116 23117 23118 23119 23120 23121 23122 23123 23124 23125 23126 23127 23128 23129 23130 23131 23132 23133 23134 23135 23136 23137 23138 23139 23140 23141 23142 23143 23144 23145 23146 23147 23148 23149 23150 23151 23152 23153 23154 23155 23156 23157 23158 23159 23160 23161 23162 23163 23164 23165 23166 23167 23168 23169 23170 23171 23172 23173 23174 23175 23176 23177 23178 23179 23180 23181 23182 23183 23184 23185 23186 23187 23188 23189 23190 23191 23192 23193 23194 23195 23196 23197 23198 23199 23200 23201 23202 23203 23204 23205 23206 23207 23208 23209 23210 23211 23212 23213 23214 23215 23216 23217 23218 23219 23220 23221 23222 23223 23224 23225 23226 23227 23228 23229 23230 23231 23232 23233 23234 23235 23236 23237 23238 23239 23240 23241 23242 23243 23244 23245 23246 23247 23248 23249 23250 23251 23252 23253 23254 23255 23256 23257 23258 23259 23260 23261 23262 23263 23264 23265 23266 23267 23268 23269 23270 23271 23272 23273 23274 23275 23276 23277 23278 23279 23280 23281 23282 23283 23284 23285 23286 23287 23288 23289 23290 23291 23292 23293 23294 23295 23296 23297 23298 23299 23300 23301 23302 23303 23304 23305 23306 23307 23308 23309 23310 23311 23312 23313 23314 23315 23316 23317 23318 23319 23320 23321 23322 23323 23324 23325 23326 23327 23328 23329 23330 23331 23332 23333 23334 23335 23336 23337 23338 23339 23340 23341 23342 23343 23344 23345 23346 23347 23348 23349 23350 23351 23352 23353 23354 23355 23356 23357 23358 23359 23360 23361 23362 23363 23364 23365 23366 23367 23368 23369 23370 23371 23372 23373 23374 23375 23376 23377 23378 23379 23380 23381 23382 23383 23384 23385 23386 23387 23388 23389 23390 23391 23392 23393 23394 23395 23396 23397 23398 23399 23400 23401 23402 23403 23404 23405 23406 23407 23408 23409 23410 23411 23412 23413 23414 23415 23416 23417 23418 23419 23420 23421 23422 23423 23424 23425 23426 23427 23428 23429 23430 23431 23432 23433 23434 23435 23436 23437 23438 23439 23440 23441 23442 23443 23444 23445 23446 23447 23448 23449 23450 23451 23452 23453 23454 23455 23456 23457 23458 23459 23460 23461 23462 23463 23464 23465 23466 23467 23468 23469 23470 23471 23472 23473 23474 23475 23476 23477 23478 23479 23480 23481 23482 23483 23484 23485 23486 23487 23488 23489 23490 23491 23492 23493 23494 23495 23496 23497 23498 23499 23500 23501 23502 23503 23504 23505 23506 23507 23508 23509 23510 23511 23512 23513 23514 23515 23516 23517 23518 23519 23520 23521 23522 23523 23524 23525 23526 23527 23528 23529 23530 23531 23532 23533 23534 23535 23536 23537 23538 23539 23540 23541 23542 23543 23544 23545 23546 23547 23548 23549 23550 23551 23552 23553 23554 23555 23556 23557 23558 23559 23560 23561 23562 23563 23564 23565 23566 23567 23568 23569 23570 23571 23572 23573 23574 23575 23576 23577 23578 23579 23580 23581 23582 23583 23584 23585 23586 23587 23588 23589 23590 23591 23592 23593 23594 23595 23596 23597 23598 23599 23600 23601 23602 23603 23604 23605 23606 23607 23608 23609 23610 23611 23612 23613 23614 23615 23616 23617 23618 23619 23620 23621 23622 23623 23624 23625 23626 23627 23628 23629 23630 23631 23632 23633 23634 23635 23636 23637 23638 23639 23640 23641 23642 23643 23644 23645 23646 23647 23648 23649 23650 23651 23652 23653 23654 23655 23656 23657 23658 23659 23660 23661 23662 23663 23664 23665 23666 23667 23668 23669 23670 23671 23672 23673 23674 23675 23676 23677 23678 23679 23680 23681 23682 23683 23684 23685 23686 23687 23688 23689 23690 23691 23692 23693 23694 23695 23696 23697 23698 23699 23700 23701 23702 23703 23704 23705 23706 23707 23708 23709 23710 23711 23712 23713 23714 23715 23716 23717 23718 23719 23720 23721 23722 23723 23724 23725 23726 23727 23728 23729 23730 23731 23732 23733 23734 23735 23736 23737 23738 23739 23740 23741 23742 23743 23744 23745 23746 23747 23748 23749 23750 23751 23752 23753 23754 23755 23756 23757 23758 23759 23760 23761 23762 23763 23764 23765 23766 23767 23768 23769 23770 23771 23772 23773 23774 23775 23776 23777 23778 23779 23780 23781 23782 23783 23784 23785 23786 23787 23788 23789 23790 23791 23792 23793 23794 23795 23796 23797 23798 23799 23800 23801 23802 23803 23804 23805 23806 23807 23808 23809 23810 23811 23812 23813 23814 23815 23816 23817 23818 23819 23820 23821 23822 23823 23824 23825 23826 23827 23828 23829 23830 23831 23832 23833 23834 23835 23836 23837 23838 23839 23840 23841 23842 23843 23844 23845 23846 23847 23848 23849 23850 23851 23852 23853 23854 23855 23856 23857 23858 23859 23860 23861 23862 23863 23864 23865 23866 23867 23868 23869 23870 23871 23872 23873 23874 23875 23876 23877 23878 23879 23880 23881 23882 23883 23884 23885 23886 23887 23888 23889 23890 23891 23892 23893 23894 23895 23896 23897 23898 23899 23900 23901 23902 23903 23904 23905 23906 23907 23908 23909 23910 23911 23912 23913 23914 23915 23916 23917 23918 23919 23920 23921 23922 23923 23924 23925 23926 23927 23928 23929 23930 23931 23932 23933 23934 23935 23936 23937 23938 23939 23940 23941 23942 23943 23944 23945 23946 23947 23948 23949 23950 23951 23952 23953 23954 23955 23956 23957 23958 23959 23960 23961 23962 23963 23964 23965 23966 23967 23968 23969 23970 23971 23972 23973 23974 23975 23976 23977 23978 23979 23980 23981 23982 23983 23984 23985 23986 23987 23988 23989 23990 23991 23992 23993 23994 23995 23996 23997 23998 23999 24000 24001 24002 24003 24004 24005 24006 24007 24008 24009 24010 24011 24012 24013 24014 24015 24016 24017 24018 24019 24020 24021 24022 24023 24024 24025 24026 24027 24028 24029 24030 24031 24032 24033 24034 24035 24036 24037 24038 24039 24040 24041 24042 24043 24044 24045 24046 24047 24048 24049 24050 24051 24052 24053 24054 24055 24056 24057 24058 24059 24060 24061 24062 24063 24064 24065 24066 24067 24068 24069 24070 24071 24072 24073 24074 24075 24076 24077 24078 24079 24080 24081 24082 24083 24084 24085 24086 24087 24088 24089 24090 24091 24092 24093 24094 24095 24096 24097 24098 24099 24100 24101 24102 24103 24104 24105 24106 24107 24108 24109 24110 24111 24112 24113 24114 24115 24116 24117 24118 24119 24120 24121 24122 24123 24124 24125 24126 24127 24128 24129 24130 24131 24132 24133 24134 24135 24136 24137 24138 24139 24140 24141 24142 24143 24144 24145 24146 24147 24148 24149 24150 24151 24152 24153 24154 24155 24156 24157 24158 24159 24160 24161 24162 24163 24164 24165 24166 24167 24168 24169 24170 24171 24172 24173 24174 24175 24176 24177 24178 24179 24180 24181 24182 24183 24184 24185 24186 24187 24188 24189 24190 24191 24192 24193 24194 24195 24196 24197 24198 24199 24200 24201 24202 24203 24204 24205 24206 24207 24208 24209 24210 24211 24212 24213 24214 24215 24216 24217 24218 24219 24220 24221 24222 24223 24224 24225 24226 24227 24228 24229 24230 24231 24232 24233 24234 24235 24236 24237 24238 24239 24240 24241 24242 24243 24244 24245 24246 24247 24248 24249 24250 24251 24252 24253 24254 24255 24256 24257 24258 24259 24260 24261 24262 24263 24264 24265 24266 24267 24268 24269 24270 24271 24272 24273 24274 24275 24276 24277 24278 24279 24280 24281 24282 24283 24284 24285 24286 24287 24288 24289 24290 24291 24292 24293 24294 24295 24296 24297 24298 24299 24300 24301 24302 24303 24304 24305 24306 24307 24308 24309 24310 24311 24312 24313 24314 24315 24316 24317 24318 24319 24320 24321 24322 24323 24324 24325 24326 24327 24328 24329 24330 24331 24332 24333 24334 24335 24336 24337 24338 24339 24340 24341 24342 24343 24344 24345 24346 24347 24348 24349 24350 24351 24352 24353 24354 24355 24356 24357 24358 24359 24360 24361 24362 24363 24364 24365 24366 24367 24368 24369 24370 24371 24372 24373 24374 24375 24376 24377 24378 24379 24380 24381 24382 24383 24384 24385 24386 24387 24388 24389 24390 24391 24392 24393 24394 24395 24396 24397 24398 24399 24400 24401 24402 24403 24404 24405 24406 24407 24408 24409 24410 24411 24412 24413 24414 24415 24416 24417 24418 24419 24420 24421 24422 24423 24424 24425 24426 24427 24428 24429 24430 24431 24432 24433 24434 24435 24436 24437 24438 24439 24440 24441 24442 24443 24444 24445 24446 24447 24448 24449 24450 24451 24452 24453 24454 24455 24456 24457 24458 24459 24460 24461 24462 24463 24464 24465 24466 24467 24468 24469 24470 24471 24472 24473 24474 24475 24476 24477 24478 24479 24480 24481 24482 24483 24484 24485 24486 24487 24488 24489 24490 24491 24492 24493 24494 24495 24496 24497 24498 24499 24500 24501 24502 24503 24504 24505 24506 24507 24508 24509 24510 24511 24512 24513 24514 24515 24516 24517 24518 24519 24520 24521 24522 24523 24524 24525 24526 24527 24528 24529 24530 24531 24532 24533 24534 24535 24536 24537 24538 24539 24540 24541 24542 24543 24544 24545 24546 24547 24548 24549 24550 24551 24552 24553 24554 24555 24556 24557 24558 24559 24560 24561 24562 24563 24564 24565 24566 24567 24568 24569 24570 24571 24572 24573 24574 24575 24576 24577 24578 24579 24580 24581 24582 24583 24584 24585 24586 24587 24588 24589 24590 24591 24592 24593 24594 24595 24596 24597 24598 24599 24600 24601 24602 24603 24604 24605 24606 24607 24608 24609 24610 24611 24612 24613 24614 24615 24616 24617 24618 24619 24620 24621 24622 24623 24624 24625 24626 24627 24628 24629 24630 24631 24632 24633 24634 24635 24636 24637 24638 24639 24640 24641 24642 24643 24644 24645 24646 24647 24648 24649 24650 24651 24652 24653 24654 24655 24656 24657 24658 24659 24660 24661 24662 24663 24664 24665 24666 24667 24668 24669 24670 24671 24672 24673 24674 24675 24676 24677 24678 24679 24680 24681 24682 24683 24684 24685 24686 24687 24688 24689 24690 24691 24692 24693 24694 24695 24696 24697 24698 24699 24700 24701 24702 24703 24704 24705 24706 24707 24708 24709 24710 24711 24712 24713 24714 24715 24716 24717 24718 24719 24720 24721 24722 24723 24724 24725 24726 24727 24728 24729 24730 24731 24732 24733 24734 24735 24736 24737 24738 24739 24740 24741 24742 24743 24744 24745 24746 24747 24748 24749 24750 24751 24752 24753 24754 24755 24756 24757 24758 24759 24760 24761 24762 24763 24764 24765 24766 24767 24768 24769 24770 24771 24772 24773 24774 24775 24776 24777 24778 24779 24780 24781 24782 24783 24784 24785 24786 24787 24788 24789 24790 24791 24792 24793 24794 24795 24796 24797 24798 24799 24800 24801 24802 24803 24804 24805 24806 24807 24808 24809 24810 24811 24812 24813 24814 24815 24816 24817 24818 24819 24820 24821 24822 24823 24824 24825 24826 24827 24828 24829 24830 24831 24832 24833 24834 24835 24836 24837 24838 24839 24840 24841 24842 24843 24844 24845 24846 24847 24848 24849 24850 24851 24852 24853 24854 24855 24856 24857 24858 24859 24860 24861 24862 24863 24864 24865 24866 24867 24868 24869 24870 24871 24872 24873 24874 24875 24876 24877 24878 24879 24880 24881 24882 24883 24884 24885 24886 24887 24888 24889 24890 24891 24892 24893 24894 24895 24896 24897 24898 24899 24900 24901 24902 24903 24904 24905 24906 24907 24908 24909 24910 24911 24912 24913 24914 24915 24916 24917 24918 24919 24920 24921 24922 24923 24924 24925 24926 24927 24928 24929 24930 24931 24932 24933 24934 24935 24936 24937 24938 24939 24940 24941 24942 24943 24944 24945 24946 24947 24948 24949 24950 24951 24952 24953 24954 24955 24956 24957 24958 24959 24960 24961 24962 24963 24964 24965 24966 24967 24968 24969 24970 24971 24972 24973 24974 24975 24976 24977 24978 24979 24980 24981 24982 24983 24984 24985 24986 24987 24988 24989 24990 24991 24992 24993 24994 24995 24996 24997 24998 24999 25000 25001 25002 25003 25004 25005 25006 25007 25008 25009 25010 25011 25012 25013 25014 25015 25016 25017 25018 25019 25020 25021 25022 25023 25024 25025 25026 25027 25028 25029 25030 25031 25032 25033 25034 25035 25036 25037 25038 25039 25040 25041 25042 25043 25044 25045 25046 25047 25048 25049 25050 25051 25052 25053 25054 25055 25056 25057 25058 25059 25060 25061 25062 25063 25064 25065 25066 25067 25068 25069 25070 25071 25072 25073 25074 25075 25076 25077 25078 25079 25080 25081 25082 25083 25084 25085 25086 25087 25088 25089 25090 25091 25092 25093 25094 25095 25096 25097 25098 25099 25100 25101 25102 25103 25104 25105 25106 25107 25108 25109 25110 25111 25112 25113 25114 25115 25116 25117 25118 25119 25120 25121 25122 25123 25124 25125 25126 25127 25128 25129 25130 25131 25132 25133 25134 25135 25136 25137 25138 25139 25140 25141 25142 25143 25144 25145 25146 25147 25148 25149 25150 25151 25152 25153 25154 25155 25156 25157 25158 25159 25160 25161 25162 25163 25164 25165 25166 25167 25168 25169 25170 25171 25172 25173 25174 25175 25176 25177 25178 25179 25180 25181 25182 25183 25184 25185 25186 25187 25188 25189 25190 25191 25192 25193 25194 25195 25196 25197 25198 25199 25200 25201 25202 25203 25204 25205 25206 25207 25208 25209 25210 25211 25212 25213 25214 25215 25216 25217 25218 25219 25220 25221 25222 25223 25224 25225 25226 25227 25228 25229 25230 25231 25232 25233 25234 25235 25236 25237 25238 25239 25240 25241 25242 25243 25244 25245 25246 25247 25248 25249 25250 25251 25252 25253 25254 25255 25256 25257 25258 25259 25260 25261 25262 25263 25264 25265 25266 25267 25268 25269 25270 25271 25272 25273 25274 25275 25276 25277 25278 25279 25280 25281 25282 25283 25284 25285 25286 25287 25288 25289 25290 25291 25292 25293 25294 25295 25296 25297 25298 25299 25300 25301 25302 25303 25304 25305 25306 25307 25308 25309 25310 25311 25312 25313 25314 25315 25316 25317 25318 25319 25320 25321 25322 25323 25324 25325 25326 25327 25328 25329 25330 25331 25332 25333 25334 25335 25336 25337 25338 25339 25340 25341 25342 25343 25344 25345 25346 25347 25348 25349 25350 25351 25352 25353 25354 25355 25356 25357 25358 25359 25360 25361 25362 25363 25364 25365 25366 25367 25368 25369 25370 25371 25372 25373 25374 25375 25376 25377 25378 25379 25380 25381 25382 25383 25384 25385 25386 25387 25388 25389 25390 25391 25392 25393 25394 25395 25396 25397 25398 25399 25400 25401 25402 25403 25404 25405 25406 25407 25408 25409 25410 25411 25412 25413 25414 25415 25416 25417 25418 25419 25420 25421 25422 25423 25424 25425 25426 25427 25428 25429 25430 25431 25432 25433 25434 25435 25436 25437 25438 25439 25440 25441 25442 25443 25444 25445 25446 25447 25448 25449 25450 25451 25452 25453 25454 25455 25456 25457 25458 25459 25460 25461 25462 25463 25464 25465 25466 25467 25468 25469 25470 25471 25472 25473 25474 25475 25476 25477 25478 25479 25480 25481 25482 25483 25484 25485 25486 25487 25488 25489 25490 25491 25492 25493 25494 25495 25496 25497 25498 25499 25500 25501 25502 25503 25504 25505 25506 25507 25508 25509 25510 25511 25512 25513 25514 25515 25516 25517 25518 25519 25520 25521 25522 25523 25524 25525 25526 25527 25528 25529 25530 25531 25532 25533 25534 25535 25536 25537 25538 25539 25540 25541 25542 25543 25544 25545 25546 25547 25548 25549 25550 25551 25552 25553 25554 25555 25556 25557 25558 25559 25560 25561 25562 25563 25564 25565 25566 25567 25568 25569 25570 25571 25572 25573 25574 25575 25576 25577 25578 25579 25580 25581 25582 25583 25584 25585 25586 25587 25588 25589 25590 25591 25592 25593 25594 25595 25596 25597 25598 25599 25600 25601 25602 25603 25604 25605 25606 25607 25608 25609 25610 25611 25612 25613 25614 25615 25616 25617 25618 25619 25620 25621 25622 25623 25624 25625 25626 25627 25628 25629 25630 25631 25632 25633 25634 25635 25636 25637 25638 25639 25640 25641 25642 25643 25644 25645 25646 25647 25648 25649 25650 25651 25652 25653 25654 25655 25656 25657 25658 25659 25660 25661 25662 25663 25664 25665 25666 25667 25668 25669 25670 25671 25672 25673 25674 25675 25676 25677 25678 25679 25680 25681 25682 25683 25684 25685 25686 25687 25688 25689 25690 25691 25692 25693 25694 25695 25696 25697 25698 25699 25700 25701 25702 25703 25704 25705 25706 25707 25708 25709 25710 25711 25712 25713 25714 25715 25716 25717 25718 25719 25720 25721 25722 25723 25724 25725 25726 25727 25728 25729 25730 25731 25732 25733 25734 25735 25736 25737 25738 25739 25740 25741 25742 25743 25744 25745 25746 25747 25748 25749 25750 25751 25752 25753 25754 25755 25756 25757 25758 25759 25760 25761 25762 25763 25764 25765 25766 25767 25768 25769 25770 25771 25772 25773 25774 25775 25776 25777 25778 25779 25780 25781 25782 25783 25784 25785 25786 25787 25788 25789 25790 25791 25792 25793 25794 25795 25796 25797 25798 25799 25800 25801 25802 25803 25804 25805 25806 25807 25808 25809 25810 25811 25812 25813 25814 25815 25816 25817 25818 25819 25820 25821 25822 25823 25824 25825 25826 25827 25828 25829 25830 25831 25832 25833 25834 25835 25836 25837 25838 25839 25840 25841 25842 25843 25844 25845 25846 25847 25848 25849 25850 25851 25852 25853 25854 25855 25856 25857 25858 25859 25860 25861 25862 25863 25864 25865 25866 25867 25868 25869 25870 25871 25872 25873 25874 25875 25876 25877 25878 25879 25880 25881 25882 25883 25884 25885 25886 25887 25888 25889 25890 25891 25892 25893 25894 25895 25896 25897 25898 25899 25900 25901 25902 25903 25904 25905 25906 25907 25908 25909 25910 25911 25912 25913 25914 25915 25916 25917 25918 25919 25920 25921 25922 25923 25924 25925 25926 25927 25928 25929 25930 25931 25932 25933 25934 25935 25936 25937 25938 25939 25940 25941 25942 25943 25944 25945 25946 25947 25948 25949 25950 25951 25952 25953 25954 25955 25956 25957 25958 25959 25960 25961 25962 25963 25964 25965 25966 25967 25968 25969 25970 25971 25972 25973 25974 25975 25976 25977 25978 25979 25980 25981 25982 25983 25984 25985 25986 25987 25988 25989 25990 25991 25992 25993 25994 25995 25996 25997 25998 25999 26000 26001 26002 26003 26004 26005 26006 26007 26008 26009 26010 26011 26012 26013 26014 26015 26016 26017 26018 26019 26020 26021 26022 26023 26024 26025 26026 26027 26028 26029 26030 26031 26032 26033 26034 26035 26036 26037 26038 26039 26040 26041 26042 26043 26044 26045 26046 26047 26048 26049 26050 26051 26052 26053 26054 26055 26056 26057 26058 26059 26060 26061 26062 26063 26064 26065 26066 26067 26068 26069 26070 26071 26072 26073 26074 26075 26076 26077 26078 26079 26080 26081 26082 26083 26084 26085 26086 26087 26088 26089 26090 26091 26092 26093 26094 26095 26096 26097 26098 26099 26100 26101 26102 26103 26104 26105 26106 26107 26108 26109 26110 26111 26112 26113 26114 26115 26116 26117 26118 26119 26120 26121 26122 26123 26124 26125 26126 26127 26128 26129 26130 26131 26132 26133 26134 26135 26136 26137 26138 26139 26140 26141 26142 26143 26144 26145 26146 26147 26148 26149 26150 26151 26152 26153 26154 26155 26156 26157 26158 26159 26160 26161 26162 26163 26164 26165 26166 26167 26168 26169 26170 26171 26172 26173 26174 26175 26176 26177 26178 26179 26180 26181 26182 26183 26184 26185 26186 26187 26188 26189 26190 26191 26192 26193 26194 26195 26196 26197 26198 26199 26200 26201 26202 26203 26204 26205 26206 26207 26208 26209 26210 26211 26212 26213 26214 26215 26216 26217 26218 26219 26220 26221 26222 26223 26224 26225 26226 26227 26228 26229 26230 26231 26232 26233 26234 26235 26236 26237 26238 26239 26240 26241 26242 26243 26244 26245 26246 26247 26248 26249 26250 26251 26252 26253 26254 26255 26256 26257 26258 26259 26260 26261 26262 26263 26264 26265 26266 26267 26268 26269 26270 26271 26272 26273 26274 26275 26276 26277 26278 26279 26280 26281 26282 26283 26284 26285 26286 26287 26288 26289 26290 26291 26292 26293 26294 26295 26296 26297 26298 26299 26300 26301 26302 26303 26304 26305 26306 26307 26308 26309 26310 26311 26312 26313 26314 26315 26316 26317 26318 26319 26320 26321 26322 26323 26324 26325 26326 26327 26328 26329 26330 26331 26332 26333 26334 26335 26336 26337 26338 26339 26340 26341 26342 26343 26344 26345 26346 26347 26348 26349 26350 26351 26352 26353 26354 26355 26356 26357 26358 26359 26360 26361 26362 26363 26364 26365 26366 26367 26368 26369 26370 26371 26372 26373 26374 26375 26376 26377 26378 26379 26380 26381 26382 26383 26384 26385 26386 26387 26388 26389 26390 26391 26392 26393 26394 26395 26396 26397 26398 26399 26400 26401 26402 26403 26404 26405 26406 26407 26408 26409 26410 26411 26412 26413 26414 26415 26416 26417 26418 26419 26420 26421 26422 26423 26424 26425 26426 26427 26428 26429 26430 26431 26432 26433 26434 26435 26436 26437 26438 26439 26440 26441 26442 26443 26444 26445 26446 26447 26448 26449 26450 26451 26452 26453 26454 26455 26456 26457 26458 26459 26460 26461 26462 26463 26464 26465 26466 26467 26468 26469 26470 26471 26472 26473 26474 26475 26476 26477 26478 26479 26480 26481 26482 26483 26484 26485 26486 26487 26488 26489 26490 26491 26492 26493 26494 26495 26496 26497 26498 26499 26500 26501 26502 26503 26504 26505 26506 26507 26508 26509 26510 26511 26512 26513 26514 26515 26516 26517 26518 26519 26520 26521 26522 26523 26524 26525 26526 26527 26528 26529 26530 26531 26532 26533 26534 26535 26536 26537 26538 26539 26540 26541 26542 26543 26544 26545 26546 26547 26548 26549 26550 26551 26552 26553 26554 26555 26556 26557 26558 26559 26560 26561 26562 26563 26564 26565 26566 26567 26568 26569 26570 26571 26572 26573 26574 26575 26576 26577 26578 26579 26580 26581 26582 26583 26584 26585 26586 26587 26588 26589 26590 26591 26592 26593 26594 26595 26596 26597 26598 26599 26600 26601 26602 26603 26604 26605 26606 26607 26608 26609 26610 26611 26612 26613 26614 26615 26616 26617 26618 26619 26620 26621 26622 26623 26624 26625 26626 26627 26628 26629 26630 26631 26632 26633 26634 26635 26636 26637 26638 26639 26640 26641 26642 26643 26644 26645 26646 26647 26648 26649 26650 26651 26652 26653 26654 26655 26656 26657 26658 26659 26660 26661 26662 26663 26664 26665 26666 26667 26668 26669 26670 26671 26672 26673 26674 26675 26676 26677 26678 26679 26680 26681 26682 26683 26684 26685 26686 26687 26688 26689 26690 26691 26692 26693 26694 26695 26696 26697 26698 26699 26700 26701 26702 26703 26704 26705 26706 26707 26708 26709 26710 26711 26712 26713 26714 26715 26716 26717 26718 26719 26720 26721 26722 26723 26724 26725 26726 26727 26728 26729 26730 26731 26732 26733 26734 26735 26736 26737 26738 26739 26740 26741 26742 26743 26744 26745 26746 26747 26748 26749 26750 26751 26752 26753 26754 26755 26756 26757 26758 26759 26760 26761 26762 26763 26764 26765 26766 26767 26768 26769 26770 26771 26772 26773 26774 26775 26776 26777 26778 26779 26780 26781 26782 26783 26784 26785 26786 26787 26788 26789 26790 26791 26792 26793 26794 26795 26796 26797 26798 26799 26800 26801 26802 26803 26804 26805 26806 26807 26808 26809 26810 26811 26812 26813 26814 26815 26816 26817 26818 26819 26820 26821 26822 26823 26824 26825 26826 26827 26828 26829 26830 26831 26832 26833 26834 26835 26836 26837 26838 26839 26840 26841 26842 26843 26844 26845 26846 26847 26848 26849 26850 26851 26852 26853 26854 26855 26856 26857 26858 26859 26860 26861 26862 26863 26864 26865 26866 26867 26868 26869 26870 26871 26872 26873 26874 26875 26876 26877 26878 26879 26880 26881 26882 26883 26884 26885 26886 26887 26888 26889 26890 26891 26892 26893 26894 26895 26896 26897 26898 26899 26900 26901 26902 26903 26904 26905 26906 26907 26908 26909 26910 26911 26912 26913 26914 26915 26916 26917 26918 26919 26920 26921 26922 26923 26924 26925 26926 26927 26928 26929 26930 26931 26932 26933 26934 26935 26936 26937 26938 26939 26940 26941 26942 26943 26944 26945 26946 26947 26948 26949 26950 26951 26952 26953 26954 26955 26956 26957 26958 26959 26960 26961 26962 26963 26964 26965 26966 26967 26968 26969 26970 26971 26972 26973 26974 26975 26976 26977 26978 26979 26980 26981 26982 26983 26984 26985 26986 26987 26988 26989 26990 26991 26992 26993 26994 26995 26996 26997 26998 26999 27000 27001 27002 27003 27004 27005 27006 27007 27008 27009 27010 27011 27012 27013 27014 27015 27016 27017 27018 27019 27020 27021 27022 27023 27024 27025 27026 27027 27028 27029 27030 27031 27032 27033 27034 27035 27036 27037 27038 27039 27040 27041 27042 27043 27044 27045 27046 27047 27048 27049 27050 27051 27052 27053 27054 27055 27056 27057 27058 27059 27060 27061 27062 27063 27064 27065 27066 27067 27068 27069 27070 27071 27072 27073 27074 27075 27076 27077 27078 27079 27080 27081 27082 27083 27084 27085 27086 27087 27088 27089 27090 27091 27092 27093 27094 27095 27096 27097 27098 27099 27100 27101 27102 27103 27104 27105 27106 27107 27108 27109 27110 27111 27112 27113 27114 27115 27116 27117 27118 27119 27120 27121 27122 27123 27124 27125 27126 27127 27128 27129 27130 27131 27132 27133 27134 27135 27136 27137 27138 27139 27140 27141 27142 27143 27144 27145 27146 27147 27148 27149 27150 27151 27152 27153 27154 27155 27156 27157 27158 27159 27160 27161 27162 27163 27164 27165 27166 27167 27168 27169 27170 27171 27172 27173 27174 27175 27176 27177 27178 27179 27180 27181 27182 27183 27184 27185 27186 27187 27188 27189 27190 27191 27192 27193 27194 27195 27196 27197 27198 27199 27200 27201 27202 27203 27204 27205 27206 27207 27208 27209 27210 27211 27212 27213 27214 27215 27216 27217 27218 27219 27220 27221 27222 27223 27224 27225 27226 27227 27228 27229 27230 27231 27232 27233 27234 27235 27236 27237 27238 27239 27240 27241 27242 27243 27244 27245 27246 27247 27248 27249 27250 27251 27252 27253 27254 27255 27256 27257 27258 27259 27260 27261 27262 27263 27264 27265 27266 27267 27268 27269 27270 27271 27272 27273 27274 27275 27276 27277 27278 27279 27280 27281 27282 27283 27284 27285 27286 27287 27288 27289 27290 27291 27292 27293 27294 27295 27296 27297 27298 27299 27300 27301 27302 27303 27304 27305 27306 27307 27308 27309 27310 27311 27312 27313 27314 27315 27316 27317 27318 27319 27320 27321 27322 27323 27324 27325 27326 27327 27328 27329 27330 27331 27332 27333 27334 27335 27336 27337 27338 27339 27340 27341 27342 27343 27344 27345 27346 27347 27348 27349 27350 27351 27352 27353 27354 27355 27356 27357 27358 27359 27360 27361 27362 27363 27364 27365 27366 27367 27368 27369 27370 27371 27372 27373 27374 27375 27376 27377 27378 27379 27380 27381 27382 27383 27384 27385 27386 27387 27388 27389 27390 27391 27392 27393 27394 27395 27396 27397 27398 27399 27400 27401 27402 27403 27404 27405 27406 27407 27408 27409 27410 27411 27412 27413 27414 27415 27416 27417 27418 27419 27420 27421 27422 27423 27424 27425 27426 27427 27428 27429 27430 27431 27432 27433 27434 27435 27436 27437 27438 27439 27440 27441 27442 27443 27444 27445 27446 27447 27448 27449 27450 27451 27452 27453 27454 27455 27456 27457 27458 27459 27460 27461 27462 27463 27464 27465 27466 27467 27468 27469 27470 27471 27472 27473 27474 27475 27476 27477 27478 27479 27480 27481 27482 27483 27484 27485 27486 27487 27488 27489 27490 27491 27492 27493 27494 27495 27496 27497 27498 27499 27500 27501 27502 27503 27504 27505 27506 27507 27508 27509 27510 27511 27512 27513 27514 27515 27516 27517 27518 27519 27520 27521 27522 27523 27524 27525 27526 27527 27528 27529 27530 27531 27532 27533 27534 27535 27536 27537 27538 27539 27540 27541 27542 27543 27544 27545 27546 27547 27548 27549 27550 27551 27552 27553 27554 27555 27556 27557 27558 27559 27560 27561 27562 27563 27564 27565 27566 27567 27568 27569 27570 27571 27572 27573 27574 27575 27576 27577 27578 27579 27580 27581 27582 27583 27584 27585 27586 27587 27588 27589 27590 27591 27592 27593 27594 27595 27596 27597 27598 27599 27600 27601 27602 27603 27604 27605 27606 27607 27608 27609 27610 27611 27612 27613 27614 27615 27616 27617 27618 27619 27620 27621 27622 27623 27624 27625 27626 27627 27628 27629 27630 27631 27632 27633 27634 27635 27636 27637 27638 27639 27640 27641 27642 27643 27644 27645 27646 27647 27648 27649 27650 27651 27652 27653 27654 27655 27656 27657 27658 27659 27660 27661 27662 27663 27664 27665 27666 27667 27668 27669 27670 27671 27672 27673 27674 27675 27676 27677 27678 27679 27680 27681 27682 27683 27684 27685 27686 27687 27688 27689 27690 27691 27692 27693 27694 27695 27696 27697 27698 27699 27700 27701 27702 27703 27704 27705 27706 27707 27708 27709 27710 27711 27712 27713 27714 27715 27716 27717 27718 27719 27720 27721 27722 27723 27724 27725 27726 27727 27728 27729 27730 27731 27732 27733 27734 27735 27736 27737 27738 27739 27740 27741 27742 27743 27744 27745 27746 27747 27748 27749 27750 27751 27752 27753 27754 27755 27756 27757 27758 27759 27760 27761 27762 27763 27764 27765 27766 27767 27768 27769 27770 27771 27772 27773 27774 27775 27776 27777 27778 27779 27780 27781 27782 27783 27784 27785 27786 27787 27788 27789 27790 27791 27792 27793 27794 27795 27796 27797 27798 27799 27800 27801 27802 27803 27804 27805 27806 27807 27808 27809 27810 27811 27812 27813 27814 27815 27816 27817 27818 27819 27820 27821 27822 27823 27824 27825 27826 27827 27828 27829 27830 27831 27832 27833 27834 27835 27836 27837 27838 27839 27840 27841 27842 27843 27844 27845 27846 27847 27848 27849 27850 27851 27852 27853 27854 27855 27856 27857 27858 27859 27860 27861 27862 27863 27864 27865 27866 27867 27868 27869 27870 27871 27872 27873 27874 27875 27876 27877 27878 27879 27880 27881 27882 27883 27884 27885 27886 27887 27888 27889 27890 27891 27892 27893 27894 27895 27896 27897 27898 27899 27900 27901 27902 27903 27904 27905 27906 27907 27908 27909 27910 27911 27912 27913 27914 27915 27916 27917 27918 27919 27920 27921 27922 27923 27924 27925 27926 27927 27928 27929 27930 27931 27932 27933 27934 27935 27936 27937 27938 27939 27940 27941 27942 27943 27944 27945 27946 27947 27948 27949 27950 27951 27952 27953 27954 27955 27956 27957 27958 27959 27960 27961 27962 27963 27964 27965 27966 27967 27968 27969 27970 27971 27972 27973 27974 27975 27976 27977 27978 27979 27980 27981 27982 27983 27984 27985 27986 27987 27988 27989 27990 27991 27992 27993 27994 27995 27996 27997 27998 27999 28000 28001 28002 28003 28004 28005 28006 28007 28008 28009 28010 28011 28012 28013 28014 28015 28016 28017 28018 28019 28020 28021 28022 28023 28024 28025 28026 28027 28028 28029 28030 28031 28032 28033 28034 28035 28036 28037 28038 28039 28040 28041 28042 28043 28044 28045 28046 28047 28048 28049 28050 28051 28052 28053 28054 28055 28056 28057 28058 28059 28060 28061 28062 28063 28064 28065 28066 28067 28068 28069 28070 28071 28072 28073 28074 28075 28076 28077 28078 28079 28080 28081 28082 28083 28084 28085 28086 28087 28088 28089 28090 28091 28092 28093 28094 28095 28096 28097 28098 28099 28100 28101 28102 28103 28104 28105 28106 28107 28108 28109 28110 28111 28112 28113 28114 28115 28116 28117 28118 28119 28120 28121 28122 28123 28124 28125 28126 28127 28128 28129 28130 28131 28132 28133 28134 28135 28136 28137 28138 28139 28140 28141 28142 28143 28144 28145 28146 28147 28148 28149 28150 28151 28152 28153 28154 28155 28156 28157 28158 28159 28160 28161 28162 28163 28164 28165 28166 28167 28168 28169 28170 28171 28172 28173 28174 28175 28176 28177 28178 28179 28180 28181 28182 28183 28184 28185 28186 28187 28188 28189 28190 28191 28192 28193 28194 28195 28196 28197 28198 28199 28200 28201 28202 28203 28204 28205 28206 28207 28208 28209 28210 28211 28212 28213 28214 28215 28216 28217 28218 28219 28220 28221 28222 28223 28224 28225 28226 28227 28228 28229 28230 28231 28232 28233 28234 28235 28236 28237 28238 28239 28240 28241 28242 28243 28244 28245 28246 28247 28248 28249 28250 28251 28252 28253 28254 28255 28256 28257 28258 28259 28260 28261 28262 28263 28264 28265 28266 28267 28268 28269 28270 28271 28272 28273 28274 28275 28276 28277 28278 28279 28280 28281 28282 28283 28284 28285 28286 28287 28288 28289 28290 28291 28292 28293 28294 28295 28296 28297 28298 28299 28300 28301 28302 28303 28304 28305 28306 28307 28308 28309 28310 28311 28312 28313 28314 28315 28316 28317 28318 28319 28320 28321 28322 28323 28324 28325 28326 28327 28328 28329 28330 28331 28332 28333 28334 28335 28336 28337 28338 28339 28340 28341 28342 28343 28344 28345 28346 28347 28348 28349 28350 28351 28352 28353 28354 28355 28356 28357 28358 28359 28360 28361 28362 28363 28364 28365 28366 28367 28368 28369 28370 28371 28372 28373 28374 28375 28376 28377 28378 28379 28380 28381 28382 28383 28384 28385 28386 28387 28388 28389 28390 28391 28392 28393 28394 28395 28396 28397 28398 28399 28400 28401 28402 28403 28404 28405 28406 28407 28408 28409 28410 28411 28412 28413 28414 28415 28416 28417 28418 28419 28420 28421 28422 28423 28424 28425 28426 28427 28428 28429 28430 28431 28432 28433 28434 28435 28436 28437 28438 28439 28440 28441 28442 28443 28444 28445 28446 28447 28448 28449 28450 28451 28452 28453 28454 28455 28456 28457 28458 28459 28460 28461 28462 28463 28464 28465 28466 28467 28468 28469 28470 28471 28472 28473 28474 28475 28476 28477 28478 28479 28480 28481 28482 28483 28484 28485 28486 28487 28488 28489 28490 28491 28492 28493 28494 28495 28496 28497 28498 28499 28500 28501 28502 28503 28504 28505 28506 28507 28508 28509 28510 28511 28512 28513 28514 28515 28516 28517 28518 28519 28520 28521 28522 28523 28524 28525 28526 28527 28528 28529 28530 28531 28532 28533 28534 28535 28536 28537 28538 28539 28540 28541 28542 28543 28544 28545 28546 28547 28548 28549 28550 28551 28552 28553 28554 28555 28556 28557 28558 28559 28560 28561 28562 28563 28564 28565 28566 28567 28568 28569 28570 28571 28572 28573 28574 28575 28576 28577 28578 28579 28580 28581 28582 28583 28584 28585 28586 28587 28588 28589 28590 28591 28592 28593 28594 28595 28596 28597 28598 28599 28600 28601 28602 28603 28604 28605 28606 28607 28608 28609 28610 28611 28612 28613 28614 28615 28616 28617 28618 28619 28620 28621 28622 28623 28624 28625 28626 28627 28628 28629 28630 28631 28632 28633 28634 28635 28636 28637 28638 28639 28640 28641 28642 28643 28644 28645 28646 28647 28648 28649 28650 28651 28652 28653 28654 28655 28656 28657 28658 28659 28660 28661 28662 28663 28664 28665 28666 28667 28668 28669 28670 28671 28672 28673 28674 28675 28676 28677 28678 28679 28680 28681 28682 28683 28684 28685 28686 28687 28688 28689 28690 28691 28692 28693 28694 28695 28696 28697 28698 28699 28700 28701 28702 28703 28704 28705 28706 28707 28708 28709 28710 28711 28712 28713 28714 28715 28716 28717 28718 28719 28720 28721 28722 28723 28724 28725 28726 28727 28728 28729 28730 28731 28732 28733 28734 28735 28736 28737 28738 28739 28740 28741 28742 28743 28744 28745 28746 28747 28748 28749 28750 28751 28752 28753 28754 28755 28756 28757 28758 28759 28760 28761 28762 28763 28764 28765 28766 28767 28768 28769 28770 28771 28772 28773 28774 28775 28776 28777 28778 28779 28780 28781 28782 28783 28784 28785 28786 28787 28788 28789 28790 28791 28792 28793 28794 28795 28796 28797 28798 28799 28800 28801 28802 28803 28804 28805 28806 28807 28808 28809 28810 28811 28812 28813 28814 28815 28816 28817 28818 28819 28820 28821 28822 28823 28824 28825 28826 28827 28828 28829 28830 28831 28832 28833 28834 28835 28836 28837 28838 28839 28840 28841 28842 28843 28844 28845 28846 28847 28848 28849 28850 28851 28852 28853 28854 28855 28856 28857 28858 28859 28860 28861 28862 28863 28864 28865 28866 28867 28868 28869 28870 28871 28872 28873 28874 28875 28876 28877 28878 28879 28880 28881 28882 28883 28884 28885 28886 28887 28888 28889 28890 28891 28892 28893 28894 28895 28896 28897 28898 28899 28900 28901 28902 28903 28904 28905 28906 28907 28908 28909 28910 28911 28912 28913 28914 28915 28916 28917 28918 28919 28920 28921 28922 28923 28924 28925 28926 28927 28928 28929 28930 28931 28932 28933 28934 28935 28936 28937 28938 28939 28940 28941 28942 28943 28944 28945 28946 28947 28948 28949 28950 28951 28952 28953 28954 28955 28956 28957 28958 28959 28960 28961 28962 28963 28964 28965 28966 28967 28968 28969 28970 28971 28972 28973 28974 28975 28976 28977 28978 28979 28980 28981 28982 28983 28984 28985 28986 28987 28988 28989 28990 28991 28992 28993 28994 28995 28996 28997 28998 28999 29000 29001 29002 29003 29004 29005 29006 29007 29008 29009 29010 29011 29012 29013 29014 29015 29016 29017 29018 29019 29020 29021 29022 29023 29024 29025 29026 29027 29028 29029 29030 29031 29032 29033 29034 29035 29036 29037 29038 29039 29040 29041 29042 29043 29044 29045 29046 29047 29048 29049 29050 29051 29052 29053 29054 29055 29056 29057 29058 29059 29060 29061 29062 29063 29064 29065 29066 29067 29068 29069 29070 29071 29072 29073 29074 29075 29076 29077 29078 29079 29080 29081 29082 29083 29084 29085 29086 29087 29088 29089 29090 29091 29092 29093 29094 29095 29096 29097 29098 29099 29100 29101 29102 29103 29104 29105 29106 29107 29108 29109 29110 29111 29112 29113 29114 29115 29116 29117 29118 29119 29120 29121 29122 29123 29124 29125 29126 29127 29128 29129 29130 29131 29132 29133 29134 29135 29136 29137 29138 29139 29140 29141 29142 29143 29144 29145 29146 29147 29148 29149 29150 29151 29152 29153 29154 29155 29156 29157 29158 29159 29160 29161 29162 29163 29164 29165 29166 29167 29168 29169 29170 29171 29172 29173 29174 29175 29176 29177 29178 29179 29180 29181 29182 29183 29184 29185 29186 29187 29188 29189 29190 29191 29192 29193 29194 29195 29196 29197 29198 29199 29200 29201 29202 29203 29204 29205 29206 29207 29208 29209 29210 29211 29212 29213 29214 29215 29216 29217 29218 29219 29220 29221 29222 29223 29224 29225 29226 29227 29228 29229 29230 29231 29232 29233 29234 29235 29236 29237 29238 29239 29240 29241 29242 29243 29244 29245 29246 29247 29248 29249 29250 29251 29252 29253 29254 29255 29256 29257 29258 29259 29260 29261 29262 29263 29264 29265 29266 29267 29268 29269 29270 29271 29272 29273 29274 29275 29276 29277 29278 29279 29280 29281 29282 29283 29284 29285 29286 29287 29288 29289 29290 29291 29292 29293 29294 29295 29296 29297 29298 29299 29300 29301 29302 29303 29304 29305 29306 29307 29308 29309 29310 29311 29312 29313 29314 29315 29316 29317 29318 29319 29320 29321 29322 29323 29324 29325 29326 29327 29328 29329 29330 29331 29332 29333 29334 29335 29336 29337 29338 29339 29340 29341 29342 29343 29344 29345 29346 29347 29348 29349 29350 29351 29352 29353 29354 29355 29356 29357 29358 29359 29360 29361 29362 29363 29364 29365 29366 29367 29368 29369 29370 29371 29372 29373 29374 29375 29376 29377 29378 29379 29380 29381 29382 29383 29384 29385 29386 29387 29388 29389 29390 29391 29392 29393 29394 29395 29396 29397 29398 29399 29400 29401 29402 29403 29404 29405 29406 29407 29408 29409 29410 29411 29412 29413 29414 29415 29416 29417 29418 29419 29420 29421 29422 29423 29424 29425 29426 29427 29428 29429 29430 29431 29432 29433 29434 29435 29436 29437 29438 29439 29440 29441 29442 29443 29444 29445 29446 29447 29448 29449 29450 29451 29452 29453 29454 29455 29456 29457 29458 29459 29460 29461 29462 29463 29464 29465 29466 29467 29468 29469 29470 29471 29472 29473 29474 29475 29476 29477 29478 29479 29480 29481 29482 29483 29484 29485 29486 29487 29488 29489 29490 29491 29492 29493 29494 29495 29496 29497 29498 29499 29500 29501 29502 29503 29504 29505 29506 29507 29508 29509 29510 29511 29512 29513 29514 29515 29516 29517 29518 29519 29520 29521 29522 29523 29524 29525 29526 29527 29528 29529 29530 29531 29532 29533 29534 29535 29536 29537 29538 29539 29540 29541 29542 29543 29544 29545 29546 29547 29548 29549 29550 29551 29552 29553 29554 29555 29556 29557 29558 29559 29560 29561 29562 29563 29564 29565 29566 29567 29568 29569 29570 29571 29572 29573 29574 29575 29576 29577 29578 29579 29580 29581 29582 29583 29584 29585 29586 29587 29588 29589 29590 29591 29592 29593 29594 29595 29596 29597 29598 29599 29600 29601 29602 29603 29604 29605 29606 29607 29608 29609 29610 29611 29612 29613 29614 29615 29616 29617 29618 29619 29620 29621 29622 29623 29624 29625 29626 29627 29628 29629 29630 29631 29632 29633 29634 29635 29636 29637 29638 29639 29640 29641 29642 29643 29644 29645 29646 29647 29648 29649 29650 29651 29652 29653 29654 29655 29656 29657 29658 29659 29660 29661 29662 29663 29664 29665 29666 29667 29668 29669 29670 29671 29672 29673 29674 29675 29676 29677 29678 29679 29680 29681 29682 29683 29684 29685 29686 29687 29688 29689 29690 29691 29692 29693 29694 29695 29696 29697 29698 29699 29700 29701 29702 29703 29704 29705 29706 29707 29708 29709 29710 29711 29712 29713 29714 29715 29716 29717 29718 29719 29720 29721 29722 29723 29724 29725 29726 29727 29728 29729 29730 29731 29732 29733 29734 29735 29736 29737 29738 29739 29740 29741 29742 29743 29744 29745 29746 29747 29748 29749 29750 29751 29752 29753 29754 29755 29756 29757 29758 29759 29760 29761 29762 29763 29764 29765 29766 29767 29768 29769 29770 29771 29772 29773 29774 29775 29776 29777 29778 29779 29780 29781 29782 29783 29784 29785 29786 29787 29788 29789 29790 29791 29792 29793 29794 29795 29796 29797 29798 29799 29800 29801 29802 29803 29804 29805 29806 29807 29808 29809 29810 29811 29812 29813 29814 29815 29816 29817 29818 29819 29820 29821 29822 29823 29824 29825 29826 29827 29828 29829 29830 29831 29832 29833 29834 29835 29836 29837 29838 29839 29840 29841 29842 29843 29844 29845 29846 29847 29848 29849 29850 29851 29852 29853 29854 29855 29856 29857 29858 29859 29860 29861 29862 29863 29864 29865 29866 29867 29868 29869 29870 29871 29872 29873 29874 29875 29876 29877 29878 29879 29880 29881 29882 29883 29884 29885 29886 29887 29888 29889 29890 29891 29892 29893 29894 29895 29896 29897 29898 29899 29900 29901 29902 29903 29904 29905 29906 29907 29908 29909 29910 29911 29912 29913 29914 29915 29916 29917 29918 29919 29920 29921 29922 29923 29924 29925 29926 29927 29928 29929 29930 29931 29932 29933 29934 29935 29936 29937 29938 29939 29940 29941 29942 29943 29944 29945 29946 29947 29948 29949 29950 29951 29952 29953 29954 29955 29956 29957 29958 29959 29960 29961 29962 29963 29964 29965 29966 29967 29968 29969 29970 29971 29972 29973 29974 29975 29976 29977 29978 29979 29980 29981 29982 29983 29984 29985 29986 29987 29988 29989 29990 29991 29992 29993 29994 29995 29996 29997 29998 29999 30000 30001 30002 30003 30004 30005 30006 30007 30008 30009 30010 30011 30012 30013 30014 30015 30016 30017 30018 30019 30020 30021 30022 30023 30024 30025 30026 30027 30028 30029 30030 30031 30032 30033 30034 30035 30036 30037 30038 30039 30040 30041 30042 30043 30044 30045 30046 30047 30048 30049 30050 30051 30052 30053 30054 30055 30056 30057 30058 30059 30060 30061 30062 30063 30064 30065 30066 30067 30068 30069 30070 30071 30072 30073 30074 30075 30076 30077 30078 30079 30080 30081 30082 30083 30084 30085 30086 30087 30088 30089 30090 30091 30092 30093 30094 30095 30096 30097 30098 30099 30100 30101 30102 30103 30104 30105 30106 30107 30108 30109 30110 30111 30112 30113 30114 30115 30116 30117 30118 30119 30120 30121 30122 30123 30124 30125 30126 30127 30128 30129 30130 30131 30132 30133 30134 30135 30136 30137 30138 30139 30140 30141 30142 30143 30144 30145 30146 30147 30148 30149 30150 30151 30152 30153 30154 30155 30156 30157 30158 30159 30160 30161 30162 30163 30164 30165 30166 30167 30168 30169 30170 30171 30172 30173 30174 30175 30176 30177 30178 30179 30180 30181 30182 30183 30184 30185 30186 30187 30188 30189 30190 30191 30192 30193 30194 30195 30196 30197 30198 30199 30200 30201 30202 30203 30204 30205 30206 30207 30208 30209 30210 30211 30212 30213 30214 30215 30216 30217 30218 30219 30220 30221 30222 30223 30224 30225 30226 30227 30228 30229 30230 30231 30232 30233 30234 30235 30236 30237 30238 30239 30240 30241 30242 30243 30244 30245 30246 30247 30248 30249 30250 30251 30252 30253 30254 30255 30256 30257 30258 30259 30260 30261 30262 30263 30264 30265 30266 30267 30268 30269 30270 30271 30272 30273 30274 30275 30276 30277 30278 30279 30280 30281 30282 30283 30284 30285 30286 30287 30288 30289 30290 30291 30292 30293 30294 30295 30296 30297 30298 30299 30300 30301 30302 30303 30304 30305 30306 30307 30308 30309 30310 30311 30312 30313 30314 30315 30316 30317 30318 30319 30320 30321 30322 30323 30324 30325 30326 30327 30328 30329 30330 30331 30332 30333 30334 30335 30336 30337 30338 30339 30340 30341 30342 30343 30344 30345 30346 30347 30348 30349 30350 30351 30352 30353 30354 30355 30356 30357 30358 30359 30360 30361 30362 30363 30364 30365 30366 30367 30368 30369 30370 30371 30372 30373 30374 30375 30376 30377 30378 30379 30380 30381 30382 30383 30384 30385 30386 30387 30388 30389 30390 30391 30392 30393 30394 30395 30396 30397 30398 30399 30400 30401 30402 30403 30404 30405 30406 30407 30408 30409 30410 30411 30412 30413 30414 30415 30416 30417 30418 30419 30420 30421 30422 30423 30424 30425 30426 30427 30428 30429 30430 30431 30432 30433 30434 30435 30436 30437 30438 30439 30440 30441 30442 30443 30444 30445 30446 30447 30448 30449 30450 30451 30452 30453 30454 30455 30456 30457 30458 30459 30460 30461 30462 30463 30464 30465 30466 30467 30468 30469 30470 30471 30472 30473 30474 30475 30476 30477 30478 30479 30480 30481 30482 30483 30484 30485 30486 30487 30488 30489 30490 30491 30492 30493 30494 30495 30496 30497 30498 30499 30500 30501 30502 30503 30504 30505 30506 30507 30508 30509 30510 30511 30512 30513 30514 30515 30516 30517 30518 30519 30520 30521 30522 30523 30524 30525 30526 30527 30528 30529 30530 30531 30532 30533 30534 30535 30536 30537 30538 30539 30540 30541 30542 30543 30544 30545 30546 30547 30548 30549 30550 30551 30552 30553 30554 30555 30556 30557 30558 30559 30560 30561 30562 30563 30564 30565 30566 30567 30568 30569 30570 30571 30572 30573 30574 30575 30576 30577 30578 30579 30580 30581 30582 30583 30584 30585 30586 30587 30588 30589 30590 30591 30592 30593 30594 30595 30596 30597 30598 30599 30600 30601 30602 30603 30604 30605 30606 30607 30608 30609 30610 30611 30612 30613 30614 30615 30616 30617 30618 30619 30620 30621 
</DataArray>
<DataArray type="UInt32" Name="offsets" format="ascii">
3 6 9 12 14 17 20 22 25 27 30 33 36 38 41 44 47 49 51 54 56 58 61 64 67 70 73 76 79 82 85 88 91 94 97 99 102 105 108 111 114 117 120 123 126 129 131 134 137 140 143 146 149 152 155 158 161 164 167 170 173 176 179 182 185 188 191 194 197 200 203 206 208 211 213 216 219 222 225 227 230 233 236 239 242 244 247 250 253 255 258 261 264 267 270 273 276 279 282 285 288 291 293 295 298 301 304 306 309 312 315 318 321 324 327 330 333 336 339 342 345 348 351 353 356 359 362 365 368 371 374 376 379 382 385 388 391 394 397 400 403 406 409 412 415 418 421 424 427 430 433 436 439 442 445 447 450 453 455 458 461 463 466 469 472 475 478 481 484 487 490 493 496 499 502 505 508 511 514 517 520 523 526 529 531 534 537 540 542 545 548 550 552 555 558 561 564 567 570 573 576 578 581 584 587 590 593 596 599 601 604 607 610 613 616 619 622 625 628 631 634 637 640 642 644 647 650 653 656 659 661 664 667 670 673 676 678 681 684 687 690 693 696 699 702 704 707 710 713 716 718 721 724 727 730 733 736 739 742 745 748 751 754 757 760 762 765 768 771 773 776 778 781 784 786 789 792 795 797 799 801 803 806 808 811 814 817 820 823 826 829 832 835 838 841 844 847 850 852 855 858 861 864 866 868 871 874 877 879 882 885 888 891 893 895 898 901 904 907 910 913 916 919 922 925 928 931 934 936 939 942 945 948 950 953 955 958 961 964 967 970 973 975 978 981 984 987 990 992 995 998 1001 1004 1007 1010 1012 1015 1018 1020 1022 1025 1028 1030 1033 1036 1039 1041 1044 1047 1050 1053 1056 1058 1061 1063 1066 1068 1070 1073 1076 1078 1081 1083 1086 1089 1091 1093 1096 1098 1101 1104 1106 1109 1112 1115 1118 1121 1123 1126 1129 1132 1135 1137 1140 1143 1146 1149 1152 1155 1157 1160 1163 1166 1169 1172 1175 1178 1181 1184 1187 1190 1193 1196 1199 1201 1204 1207 1210 1213 1216 1218 1221 1224 1227 1229 1232 1235 1237 1240 1243 1246 1248 1251 1254 1257 1260 1263 1266 1269 1272 1275 1278 1281 1284 1287 1290 1293 1296 1298 1301 1304 1307 1310 1313 1316 1319 1322 1325 1328 1331 1333 1336 1339 1342 1345 1348 1351 1354 1357 1360 1363 1366 1369 1372 1375 1378 1381 1384 1387 1390 1393 1396 1399 1402 1405 1407 1409 1412 1415 1418 1421 1424 1427 1429 1432 1435 1438 1441 1444 1447 1450 1453 1456 1459 1461 1464 1467 1470 1473 1476 1479 1482 1485 1487 1490 1493 1495 1498 1501 1504 1507 1510 1513 1516 1519 1522 1525 1528 1531 1534 1537 1540 1543 1546 1548 1551 1554 1557 1559 1562 1564 1567 1570 1573 1576 1579 1582 1585 1588 1591 1594 1596 1599 1602 1605 1608 1611 1614 1616 1619 1622 1625 1628 1630 1633 1636 1638 1640 1643 1646 1649 1652 1654 1657 1660 1663 1666 1669 1672 1674 1677 1680 1683 1686 1689 1691 1694 1697 1700 1702 1705 1708 1711 1714 1717 1719 1722 1725 1728 1731 1733 1735 1738 1741 1743 1746 1749 1752 1755 1758 1761 1764 1767 1770 1773 1776 1779 1781 1784 1787 1790 1793 1796 1799 1802 1805 1808 1811 1814 1817 1820 1823 1826 1829 1832 1835 1838 1841 1844 1847 1850 1852 1855 1857 1860 1863 1866 1869 1872 1875 1878 1881 1884 1887 1889 1892 1895 1898 1901 1904 1907 1910 1913 1916 1918 1921 1923 1926 1929 1932 1935 1938 1941 1944 1947 1949 1951 1954 1957 1959 1962 1965 1968 1971 1973 1976 1979 1982 1984 1987 1990 1993 1996 1998 2001 2004 2007 2010 2012 2015 2018 2021 2024 2027 2030 2033 2036 2039 2042 2045 2048 2051 2054 2057 2060 2063 2066 2069 2072 2075 2078 2081 2084 2087 2090 2093 2096 2099 2101 2104 2107 2110 2113 2116 2119 2122 2124 2127 2130 2133 2136 2139 2141 2144 2146 2149 2152 2154 2157 2160 2163 2166 2169 2172 2175 2178 2181 2184 2187 2190 2193 2196 2199 2202 2205 2208 2210 2213 2216 2219 2222 2225 2228 2231 2234 2237 2240 2243 2245 2247 2250 2253 2256 2259 2261 2264 2267 2270 2273 2276 2279 2282 2284 2287 2290 2293 2296 2299 2302 2305 2308 2311 2314 2317 2320 2323 2326 2329 2332 2334 2337 2340 2343 2346 2349 2351 2354 2357 2360 2363 2366 2369 2372 2375 2377 2380 2383 2386 2389 2392 2395 2398 2401 2404 2407 2410 2413 2416 2419 2422 2425 2428 2431 2434 2437 2440 2442 2445 2447 2450 2453 2456 2459 2462 2465 2468 2471 2474 2477 2480 2483 2486 2488 2491 2494 2497 2500 2503 2506 2509 2512 2515 2517 2520 2523 2526 2528 2531 2534 2537 2540 2543 2546 2549 2552 2555 2558 2561 2563 2566 2569 2572 2574 2577 2579 2582 2585 2587 2589 2592 2595 2598 2601 2604 2607 2610 2613 2616 2619 2622 2624 2627 2630 2633 2636 2638 2641 2644 2647 2649 2652 2655 2657 2660 2663 2665 2668 2671 2674 2676 2679 2682 2685 2688 2691 2694 2696 2698 2701 2704 2706 2709 2712 2715 2718 2721 2724 2727 2730 2733 2736 2739 2741 2744 2746 2749 2751 2754 2757 2760 2762 2765 2768 2771 2774 2777 2780 2783 2785 2788 2791 2794 2797 2800 2803 2805 2808 2811 2814 2817 2820 2823 2825 2828 2831 2834 2837 2839 2842 2845 2848 2851 2853 2856 2858 2861 2864 2867 2870 2873 2876 2879 2882 2884 2887 2890 2893 2895 2898 2901 2904 2907 2910 2912 2914 2917 2920 2923 2926 2929 2931 2934 2937 2939 2942 2945 2947 2950 2953 2955 2958 2961 2963 2966 2969 2972 2975 2978 2980 2983 2986 2989 2991 2994 2997 3000 3002 3005 3008 3011 3013 3016 3019 3022 3025 3028 3031 3033 3036 3039 3041 3044 3047 3050 3053 3056 3059 3062 3065 3067 3070 3073 3076 3078 3081 3084 3087 3090 3093 3096 3099 3102 3105 3108 3111 3114 3117 3119 3122 3125 3127 3130 3133 3136 3139 3142 3145 3148 3151 3154 3157 3160 3163 3166 3169 3172 3175 3178 3181 3184 3187 3190 3193 3196 3199 3202 3205 3207 3210 3213 3216 3219 3222 3225 3228 3231 3233 3236 3239 3241 3244 3246 3249 3252 3254 3257 3260 3263 3266 3268 3271 3273 3276 3279 3281 3284 3287 3290 3292 3294 3297 3299 3302 3305 3308 3311 3313 3315 3318 3321 3324 3327 3330 3333 3336 3339 3342 3345 3348 3351 3354 3357 3359 3362 3365 3368 3371 3374 3377 3380 3383 3386 3389 3392 3395 3398 3401 3404 3407 3410 3413 3416 3419 3422 3425 3428 3431 3434 3437 3440 3443 3446 3449 3452 3455 3458 3461 3464 3467 3470 3473 3476 3479 3482 3485 3488 3491 3494 3497 3500 3503 3506 3509 3512 3515 3517 3520 3523 3526 3529 3532 3535 3538 3541 3544 3547 3550 3553 3555 3557 3559 3562 3565 3568 3571 3573 3575 3577 3580 3583 3585 3587 3590 3593 3596 3598 3601 3603 3606 3609 3612 3615 3618 3620 3623 3625 3628 3631 3634 3636 3639 3642 3645 3648 3650 3653 3656 3659 3661 3664 3667 3669 3672 3674 3677 3679 3682 3685 3687 3690 3693 3695 3698 3701 3704 3707 3710 3713 3716 3719 3722 3725 3728 3731 3734 3737 3740 3743 3746 3749 3752 3755 3758 3761 3764 3767 3770 3773 3776 3779 3782 3785 3788 3791 3794 3797 3800 3803 3806 3809 3812 3815 3818 3821 3824 3827 3830 3833 3836 3839 3842 3845 3847 3850 3853 3856 3858 3861 3864 3867 3870 3873 3876 3879 3882 3885 3888 3891 3894 3897 3900 3903 3906 3909 3912 3915 3918 3921 3924 3927 3930 3933 3936 3938 3941 3944 3947 3950 3953 3956 3959 3962 3965 3968 3971 3973 3976 3978 3980 3983 3985 3988 3991 3993 3996 3998 4001 4003 4006 4009 4011 4013 4016 4019 4022 4025 4028 4031 4033 4036 4039 4042 4045 4048 4051 4053 4056 4058 4060 4063 4065 4068 4070 4073 4075 4077 4080 4083 4086 4089 4091 4094 4097 4099 4102 4105 4108 4111 4114 4117 4120 4122 4125 4128 4131 4134 4137 4140 4143 4146 4149 4152 4155 4158 4161 4164 4167 4170 4173 4176 4179 4182 4185 4188 4191 4194 4197 4200 4203 4206 4209 4212 4215 4218 4221 4224 4227 4230 4233 4236 4239 4242 4245 4248 4251 4254 4257 4260 4263 4266 4269 4272 4275 4278 4281 4284 4287 4290 4293 4296 4299 4302 4305 4308 4311 4314 4317 4320 4323 4326 4329 4332 4335 4338 4341 4344 4347 4350 4353 4356 4359 4362 4365 4368 4370 4373 4376 4379 4382 4385 4388 4390 4393 4395 4397 4400 4403 4406 4409 4412 4415 4418 4421 4424 4427 4430 4433 4436 4439 4442 4445 4448 4451 4454 4457 4460 4463 4466 4469 4472 4475 4478 4481 4484 4487 4490 4493 4495 4498 4500 4503 4506 4508 4511 4513 4516 4519 4522 4525 4528 4531 4533 4536 4539 4542 4545 4548 4551 4554 4557 4560 4563 4565 4567 4570 4573 4575 4577 4579 4582 4585 4588 4591 4594 4597 4600 4603 4606 4609 4612 4615 4618 4621 4624 4627 4630 4633 4636 4639 4642 4645 4648 4651 4654 4657 4660 4663 4665 4668 4670 4673 4676 4679 4682 4685 4688 4691 4694 4697 4700 4703 4706 4709 4712 4715 4718 4721 4724 4727 4729 4732 4735 4738 4741 4744 4747 4750 4753 4756 4758 4761 4764 4766 4769 4771 4774 4777 4780 4783 4786 4789 4792 4795 4798 4801 4804 4807 4810 4813 4816 4819 4822 4825 4828 4831 4834 4837 4840 4843 4846 4849 4852 4854 4856 4859 4862 4865 4868 4871 4874 4877 4880 4883 4886 4889 4892 4895 4898 4901 4904 4907 4910 4913 4916 4919 4922 4925 4927 4930 4933 4936 4939 4942 4944 4946 4949 4952 4955 4958 4961 4964 4967 4970 4973 4976 4979 4982 4985 4987 4990 4993 4996 4999 5002 5005 5008 5011 5014 5017 5020 5023 5026 5029 5032 5035 5038 5041 5044 5047 5050 5053 5056 5059 5062 5065 5068 5071 5074 5077 5080 5083 5086 5089 5092 5095 5098 5101 5103 5106 5109 5112 5115 5118 5121 5124 5126 5129 5132 5135 5137 5140 5143 5146 5149 5152 5155 5157 5160 5163 5166 5169 5172 5175 5177 5179 5182 5185 5187 5189 5192 5195 5197 5199 5202 5205 5208 5211 5214 5217 5220 5223 5226 5228 5231 5234 5237 5240 5243 5246 5248 5251 5254 5257 5260 5263 5266 5269 5272 5275 5278 5281 5284 5287 5290 5293 5296 5299 5301 5304 5307 5310 5313 5316 5319 5322 5325 5328 5331 5334 5337 5340 5343 5346 5349 5352 5355 5358 5360 5363 5366 5369 5371 5374 5377 5380 5382 5385 5388 5391 5394 5397 5399 5402 5405 5408 5411 5414 5417 5420 5423 5426 5429 5431 5434 5437 5440 5443 5446 5449 5452 5455 5458 5461 5464 5467 5470 5473 5476 5479 5482 5485 5488 5491 5494 5497 5500 5502 5505 5508 5511 5514 5517 5519 5522 5525 5527 5530 5533 5536 5538 5541 5543 5546 5549 5551 5554 5556 5559 5562 5565 5568 5571 5574 5576 5579 5582 5584 5587 5590 5593 5596 5598 5601 5604 5606 5609 5612 5615 5618 5621 5624 5627 5630 5633 5636 5638 5641 5644 5647 5650 5653 5655 5658 5661 5664 5667 5670 5673 5676 5679 5682 5685 5688 5691 5694 5697 5699 5702 5704 5707 5710 5713 5716 5719 5722 5725 5728 5731 5734 5737 5740 5743 5746 5749 5752 5755 5758 5761 5764 5767 5770 5773 5776 5779 5782 5785 5787 5790 5792 5795 5798 5801 5804 5807 5809 5812 5815 5818 5821 5824 5827 5830 5833 5835 5838 5841 5844 5847 5850 5853 5856 5859 5862 5865 5868 5871 5874 5877 5880 5883 5886 5889 5892 5895 5898 5901 5904 5907 5909 5912 5915 5918 5921 5924 5927 5930 5933 5936 5939 5942 5945 5948 5950 5953 5956 5959 5962 5965 5968 5971 5974 5976 5979 5982 5985 5988 5991 5993 5996 5999 6002 6005 6008 6011 6014 6017 6020 6023 6026 6029 6032 6035 6038 6041 6043 6046 6048 6051 6054 6057 6060 6062 6065 6068 6071 6074 6077 6080 6083 6085 6088 6091 6094 6097 6100 6103 6106 6109 6112 6115 6118 6121 6124 6126 6129 6132 6135 6138 6141 6144 6147 6150 6153 6156 6159 6162 6165 6168 6171 6174 6177 6180 6183 6186 6189 6192 6195 6197 6200 6202 6205 6208 6211 6214 6217 6220 6223 6226 6229 6232 6235 6238 6241 6244 6247 6249 6252 6255 6258 6261 6264 6267 6270 6273 6276 6279 6282 6285 6288 6291 6294 6297 6300 6303 6306 6309 6312 6315 6318 6321 6323 6326 6329 6332 6335 6338 6341 6344 6347 6350 6353 6356 6359 6362 6365 6368 6371 6374 6377 6379 6382 6385 6388 6391 6394 6397 6400 6403 6406 6409 6412 6415 6418 6421 6424 6427 6430 6433 6436 6439 6442 6444 6447 6449 6452 6455 6458 6461 6464 6467 6470 6473 6476 6479 6482 6485 6487 6490 6493 6496 6498 6501 6504 6507 6510 6513 6516 6519 6522 6525 6528 6531 6534 6536 6539 6541 6543 6546 6549 6552 6555 6558 6561 6564 6567 6569 6572 6575 6578 6581 6584 6587 6590 6593 6596 6599 6601 6604 6607 6610 6613 6616 6619 6622 6625 6628 6631 6634 6637 6640 6642 6645 6648 6651 6654 6657 6660 6662 6665 6668 6670 6673 6676 6679 6682 6685 6688 6691 6694 6696 6698 6701 6704 6707 6710 6713 6716 6719 6721 6724 6727 6730 6732 6734 6737 6740 6743 6745 6748 6751 6754 6757 6760 6763 6766 6769 6771 6773 6776 6779 6782 6785 6788 6791 6794 6797 6800 6803 6806 6809 6812 6815 6818 6821 6824 6826 6828 6831 6834 6837 6840 6843 6846 6849 6852 6854 6857 6860 6863 6865 6867 6870 6873 6875 6878 6881 6883 6886 6888 6891 6894 6897 6900 6903 6905 6908 6911 6913 6916 6919 6922 6925 6928 6931 6934 6937 6940 6943 6946 6949 6951 6954 6956 6959 6962 6965 6968 6971 6974 6977 6980 6983 6986 6989 6992 6995 6997 7000 7003 7006 7008 7011 7014 7017 7020 7023 7026 7029 7032 7034 7037 7040 7043 7046 7049 7052 7055 7058 7061 7064 7066 7069 7072 7074 7077 7080 7082 7085 7088 7091 7094 7097 7100 7103 7106 7108 7111 7114 7117 7119 7122 7125 7128 7131 7134 7137 7140 7142 7144 7147 7150 7152 7154 7157 7160 7163 7166 7169 7172 7174 7177 7180 7182 7184 7186 7189 7192 7195 7197 7199 7202 7205 7208 7211 7214 7217 7220 7223 7226 7229 7231 7234 7237 7240 7243 7246 7248 7251 7254 7256 7259 7261 7264 7266 7269 7272 7275 7278 7281 7283 7286 7289 7292 7294 7297 7300 7303 7305 7307 7310 7312 7315 7318 7320 7322 7325 7328 7331 7334 7337 7340 7342 7345 7347 7350 7353 7356 7359 7362 7365 7368 7371 7373 7376 7379 7382 7385 7388 7391 7394 7397 7400 7403 7406 7409 7412 7415 7418 7421 7424 7427 7430 7433 7436 7439 7442 7445 7447 7450 7453 7456 7458 7460 7463 7466 7469 7471 7474 7477 7479 7481 7483 7486 7489 7492 7495 7497 7500 7503 7506 7509 7512 7515 7517 7520 7523 7525 7528 7531 7533 7536 7539 7542 7545 7548 7551 7553 7555 7558 7560 7562 7565 7567 7570 7573 7576 7579 7581 7583 7586 7589 7592 7595 7597 7600 7603 7605 7608 7611 7614 7617 7620 7623 7626 7629 7631 7634 7637 7640 7643 7646 7649 7652 7655 7658 7661 7664 7667 7670 7673 7676 7679 7682 7684 7686 7689 7692 7695 7698 7701 7704 7707 7709 7712 7715 7718 7721 7724 7727 7730 7733 7736 7739 7742 7745 7748 7751 7754 7757 7760 7763 7766 7769 7771 7774 7776 7779 7782 7785 7788 7791 7794 7797 7800 7803 7806 7809 7812 7815 7818 7821 7824 7827 7829 7831 7834 7836 7839 7842 7845 7848 7851 7854 7857 7860 7863 7865 7868 7871 7874 7877 7880 7883 7886 7889 7892 7895 7897 7899 7902 7905 7908 7911 7914 7917 7919 7922 7925 7928 7931 7934 7936 7939 7942 7945 7948 7951 7954 7956 7959 7962 7965 7968 7971 7974 7977 7980 7983 7985 7988 7991 7994 7997 8000 8002 8005 8008 8011 8013 8016 8019 8022 8025 8028 8031 8034 8037 8040 8043 8046 8049 8052 8055 8058 8060 8063 8066 8069 8072 8074 8077 8080 8083 8086 8089 8092 8095 8098 8101 8104 8107 8110 8113 8116 8119 8122 8125 8128 8131 8134 8136 8139 8142 8145 8148 8151 8154 8157 8160 8163 8166 8169 8172 8175 8177 8180 8183 8186 8189 8191 8194 8197 8200 8202 8205 8207 8210 8212 8215 8218 8221 8223 8226 8229 8232 8235 8238 8241 8244 8247 8250 8253 8256 8259 8262 8265 8267 8269 8272 8275 8278 8281 8284 8287 8290 8293 8296 8299 8302 8305 8308 8311 8314 8316 8319 8322 8325 8328 8331 8334 8337 8340 8343 8346 8349 8352 8355 8358 8361 8364 8367 8370 8373 8376 8379 8382 8385 8388 8390 8393 8396 8399 8402 8405 8408 8411 8414 8417 8419 8422 8425 8428 8431 8434 8437 8439 8441 8444 8447 8450 8452 8454 8457 8460 8463 8465 8468 8471 8474 8476 8479 8482 8484 8487 8490 8492 8494 8497 8500 8503 8505 8508 8511 8514 8517 8520 8523 8525 8528 8530 8532 8535 8537 8540 8542 8545 8548 8551 8554 8557 8560 8563 8566 8569 8572 8575 8578 8581 8584 8587 8590 8593 8596 8599 8602 8605 8608 8611 8614 8617 8620 8623 8626 8629 8632 8634 8637 8640 8643 8646 8649 8652 8655 8658 8661 8664 8666 8669 8672 8675 8678 8681 8684 8687 8690 8692 8695 8698 8701 8704 8707 8710 8713 8716 8719 8722 8725 8728 8731 8734 8737 8740 8743 8746 8749 8752 8755 8758 8761 8764 8767 8770 8772 8775 8777 8780 8783 8786 8789 8792 8795 8797 8800 8803 8806 8809 8812 8815 8818 8821 8824 8827 8830 8833 8836 8839 8842 8845 8848 8851 8853 8856 8859 8861 8864 8867 8870 8873 8875 8878 8881 8884 8887 8890 8893 8896 8899 8902 8905 8908 8911 8914 8917 8919 8922 8925 8928 8931 8934 8937 8940 8943 8946 8949 8952 8955 8958 8960 8962 8965 8968 8971 8974 8977 8979 8982 8985 8988 8991 8994 8997 9000 9003 9006 9009 9012 9015 9018 9020 9023 9026 9029 9032 9035 9038 9041 9044 9047 9050 9053 9056 9059 9062 9065 9067 9070 9073 9075 9078 9081 9084 9087 9090 9093 9096 9099 9101 9104 9107 9110 9113 9116 9118 9121 9124 9127 9129 9132 9135 9138 9141 9143 9146 9149 9152 9155 9158 9161 9164 9167 9170 9172 9175 9178 9181 9184 9187 9190 9193 9196 9199 9202 9205 9208 9210 9213 9216 9219 9222 9225 9227 9230 9233 9236 9239 9242 9245 9248 9251 9254 9257 9260 9263 9265 9268 9271 9273 9276 9279 9282 9285 9288 9291 9294 9297 9300 9303 9305 9308 9311 9314 9317 9320 9323 9326 9329 9332 9335 9338 9340 9343 9346 9349 9352 9354 9357 9360 9363 9366 9369 9372 9375 9378 9381 9384 9387 9390 9393 9396 9399 9402 9405 9408 9411 9414 9417 9420 9423 9425 9428 9431 9434 9437 9440 9443 9446 9449 9452 9455 9458 9461 9464 9467 9470 9473 9476 9479 9482 9485 9488 9491 9494 9497 9500 9503 9506 9509 9512 9515 9518 9521 9524 9527 9530 9533 9536 9538 9541 9544 9547 9549 9552 9555 9558 9561 9564 9567 9570 9573 9576 9579 9581 9584 9587 9589 9591 9594 9597 9599 9602 9605 9607 9609 9612 9615 9617 9619 9621 9624 9627 9629 9632 9635 9637 9640 9643 9646 9649 9652 9655 9658 9661 9663 9666 9668 9670 9673 9676 9678 9681 9684 9686 9689 9691 9694 9696 9699 9702 9705 9708 9711 9713 9716 9719 9722 9724 9726 9729 9731 9734 9736 9738 9741 9744 9747 9750 9753 9756 9758 9760 9763 9766 9769 9771 9774 9777 9779 9782 9784 9786 9789 9791 9794 9796 9799 9801 9803 9806 9809 9811 9814 9817 9820 9823 9826 9829 9832 9835 9837 9839 9842 9844 9846 9849 9851 9853 9856 9858 9860 9863 9866 9869 9871 9874 9876 9879 9881 9883 9886 9889 9892 9895 9898 9901 9904 9907 9910 9913 9916 9919 9922 9925 9928 9931 9934 9937 9939 9942 9944 9947 9950 9952 9955 9958 9961 9964 9967 9969 9972 9975 9978 9981 9983 9985 9988 9990 9993 9996 9998 10001 10004 10007 10010 10012 10014 10017 10020 10022 10025 10028 10031 10034 10037 10040 10043 10046 10049 10052 10055 10058 10060 10063 10066 10069 10072 10075 10078 10081 10084 10086 10089 10092 10095 10098 10101 10104 10107 10110 10113 10116 10119 10122 10125 10128 10131 10134 10137 10140 10143 10146 10149 10152 10155 10158 10161 10164 10166 10169 10172 10175 10178 10181 10184 10187 10190 10193 10195 10198 10200 10203 10206 10209 10211 10214 10217 10220 10223 10226 10229 10232 10235 10238 10241 10243 10245 10248 10251 10254 10256 10258 10261 10263 10266 10269 10272 10274 10276 10279 10282 10285 10288 10291 10294 10296 10299 10302 10305 10307 10310 10313 10316 10319 10322 10325 10328 10331 10334 10337 10340 10343 10345 10348 10351 10354 10357 10360 10363 10366 10369 10372 10375 10377 10379 10382 10385 10388 10391 10394 10396 10399 10402 10405 10407 10410 10413 10416 10419 10422 10425 10428 10431 10434 10437 10440 10443 10446 10449 10452 10455 10458 10461 10463 10465 10468 10471 10474 10477 10480 10483 10486 10489 10492 10494 10497 10499 10502 10505 10508 10511 10513 10516 10518 10521 10524 10527 10530 10532 10535 10538 10540 10543 10546 10549 10552 10555 10558 10560 10563 10566 10569 10572 10575 10578 10581 10584 10587 10590 10593 10596 10599 10602 10605 10608 10611 10614 10617 10620 10623 10626 10628 10631 10634 10637 10640 10643 10646 10649 10652 10655 10658 10661 10663 10666 10668 10671 10674 10676 10679 10681 10684 10686 10689 10692 10694 10696 10699 10701 10703 10705 10707 10710 10713 10716 10718 10720 10723 10726 10729 10731 10734 10737 10740 10743 10746 10749 10752 10755 10758 10761 10764 10767 10769 10772 10774 10777 10780 10783 10786 10789 10792 10795 10798 10801 10804 10807 10810 10813 10815 10818 10821 10824 10827 10830 10832 10835 10838 10840 10843 10846 10849 10852 10854 10857 10860 10863 10866 10868 10871 10874 10876 10879 10882 10885 10887 10890 10892 10895 10898 10900 10902 10905 10908 10911 10914 10917 10920 10923 10926 10929 10932 10935 10938 10941 10944 10947 10950 10953 10956 10958 10961 10964 10967 10970 10973 10976 10979 10982 10984 10987 10990 10993 10996 10999 11002 11005 11008 11011 11014 11017 11019 11021 11023 11026 11029 11032 11035 11038 11040 11043 11046 11049 11052 11054 11056 11058 11060 11063 11066 11068 11071 11074 11077 11079 11081 11084 11087 11090 11093 11096 11099 11102 11105 11108 11111 11114 11116 11119 11122 11125 11128 11131 11134 11137 11140 11143 11146 11149 11152 11155 11158 11161 11164 11167 11170 11173 11175 11178 11181 11184 11187 11190 11193 11196 11198 11201 11204 11207 11210 11212 11215 11218 11221 11224 11226 11229 11232 11235 11237 11240 11243 11246 11249 11252 11255 11257 11260 11263 11265 11268 11271 11274 11277 11280 11283 11286 11289 11291 11294 11297 11299 11302 11305 11308 11311 11314 11317 11320 11323 11325 11327 11329 11332 11335 11338 11341 11344 11346 11349 11352 11355 11357 11360 11363 11366 11368 11371 11374 11376 11379 11382 11385 11387 11390 11393 11396 11399 11402 11405 11408 11411 11413 11416 11419 11422 11424 11427 11430 11433 11436 11439 11442 11444 11447 11450 11453 11456 11459 11462 11464 11467 11469 11472 11474 11477 11480 11483 11486 11488 11491 11494 11497 11499 11502 11505 11508 11511 11514 11517 11520 11523 11525 11528 11531 11534 11537 11540 11543 11546 11548 11551 11553 11556 11558 11561 11564 11567 11570 11573 11576 11578 11581 11584 11586 11589 11592 11595 11597 11600 11603 11606 11609 11611 11614 11617 11620 11623 11626 11629 11632 11635 11638 11640 11643 11646 11649 11652 11655 11658 11661 11664 11667 11669 11672 11675 11678 11681 11684 11687 11690 11693 11696 11699 11701 11704 11707 11710 11713 11716 11719 11722 11725 11728 11731 11734 11737 11740 11743 11746 11749 11752 11754 11757 11760 11763 11766 11769 11772 11775 11778 11781 11784 11786 11789 11792 11795 11798 11801 11804 11807 11809 11811 11814 11817 11820 11823 11826 11828 11831 11834 11837 11840 11843 11846 11849 11851 11854 11857 11860 11863 11866 11869 11872 11875 11878 11881 11884 11887 11890 11893 11896 11899 11902 11905 11908 11911 11914 11917 11920 11923 11926 11929 11932 11935 11938 11941 11944 11947 11950 11953 11955 11958 11961 11964 11967 11969 11972 11975 11978 11981 11984 11987 11990 11992 11995 11998 12001 12003 12006 12009 12011 12014 12017 12020 12022 12025 12028 12031 12034 12037 12040 12043 12046 12048 12051 12054 12056 12059 12061 12064 12067 12069 12072 12075 12078 12080 12083 12086 12088 12090 12093 12096 12099 12102 12105 12107 12110 12113 12116 12119 12122 12125 12128 12130 12133 12135 12138 12141 12144 12146 12149 12152 12155 12157 12160 12163 12166 12169 12172 12175 12178 12181 12184 12187 12189 12192 12195 12197 12199 12202 12205 12207 12210 12213 12215 12218 12220 12223 12226 12229 12231 12234 12237 12240 12242 12244 12247 12250 12253 12256 12258 12260 12263 12265 12268 12271 12274 12277 12280 12283 12285 12288 12291 12293 12296 12299 12302 12305 12308 12310 12312 12315 12318 12321 12324 12327 12330 12333 12335 12338 12341 12344 12347 12350 12353 12356 12359 12362 12365 12368 12371 12373 12376 12379 12382 12385 12388 12390 12393 12396 12399 12402 12405 12408 12411 12414 12417 12420 12423 12426 12429 12432 12435 12438 12441 12444 12447 12449 12452 12455 12458 12461 12464 12467 12470 12472 12475 12478 12481 12484 12487 12489 12492 12495 12498 12501 12504 12507 12510 12513 12516 12519 12522 12525 12528 12531 12534 12537 12540 12543 12546 12549 12551 12554 12557 12560 12563 12566 12568 12571 12574 12577 12580 12583 12586 12589 12592 12595 12598 12600 12603 12606 12609 12611 12613 12616 12618 12621 12624 12626 12629 12632 12635 12638 12641 12643 12645 12647 12650 12653 12656 12658 12661 12664 12667 12669 12672 12675 12678 12681 12684 12687 12690 12693 12696 12699 12702 12705 12708 12711 12714 12717 12720 12723 12726 12729 12732 12735 12738 12741 12744 12747 12750 12753 12756 12759 12761 12764 12767 12770 12772 12775 12778 12781 12784 12787 12789 12792 12795 12798 12801 12803 12806 12809 12812 12815 12818 12821 12824 12827 12830 12833 12836 12839 12842 12844 12847 12850 12853 12856 12859 12861 12864 12867 12870 12873 12876 12879 12882 12884 12887 12890 12893 12896 12899 12901 12904 12907 12910 12913 12915 12918 12921 12924 12927 12930 12933 12936 12939 12942 12945 12947 12950 12953 12956 12958 12961 12964 12967 12970 12973 12976 12979 12982 12985 12988 12990 12993 12996 12999 13002 13005 13008 13010 13013 13016 13019 13022 13025 13027 13029 13032 13035 13038 13040 13043 13046 13049 13052 13055 13057 13060 13063 13066 13069 13072 13075 13078 13081 13083 13086 13089 13092 13094 13097 13100 13103 13106 13109 13112 13115 13118 13121 13124 13127 13130 13133 13136 13139 13142 13145 13148 13151 13154 13157 13160 13163 13166 13169 13172 13175 13178 13181 13184 13187 13190 13193 13196 13199 13202 13205 13208 13210 13213 13216 13219 13222 13225 13228 13231 13234 13237 13239 13242 13245 13247 13250 13253 13255 13258 13261 13263 13266 13269 13272 13275 13277 13280 13283 13285 13288 13291 13294 13297 13300 13303 13306 13308 13311 13314 13317 13320 13322 13324 13326 13329 13332 13335 13338 13341 13344 13347 13350 13353 13356 13358 13361 13363 13366 13369 13372 13375 13378 13381 13383 13386 13389 13392 13394 13397 13400 13403 13406 13408 13411 13414 13416 13419 13422 13425 13428 13431 13434 13437 13440 13443 13446 13449 13452 13455 13458 13461 13464 13467 13470 13473 13476 13478 13481 13484 13487 13490 13493 13496 13499 13502 13505 13508 13511 13514 13517 13520 13522 13525 13527 13530 13533 13536 13539 13542 13545 13547 13550 13553 13556 13559 13562 13564 13567 13570 13573 13575 13578 13581 13584 13586 13589 13592 13595 13598 13601 13604 13606 13609 13612 13615 13617 13620 13623 13626 13629 13632 13635 13638 13641 13644 13647 13650 13653 13656 13659 13662 13664 13667 13670 13673 13676 13679 13682 13685 13688 13690 13693 13696 13699 13702 13705 13708 13711 13714 13717 13720 13723 13726 13729 13732 13735 13738 13741 13744 13747 13750 13753 13756 13759 13762 13765 13768 13771 13774 13777 13779 13782 13785 13788 13791 13794 13797 13800 13803 13806 13809 13812 13814 13817 13820 13823 13826 13829 13831 13834 13836 13839 13842 13845 13848 13851 13854 13857 13860 13862 13865 13868 13871 13873 13876 13878 13881 13884 13887 13890 13893 13896 13899 13901 13903 13906 13909 13912 13915 13918 13921 13924 13927 13930 13933 13936 13939 13941 13944 13947 13950 13953 13956 13959 13962 13965 13968 13971 13974 13977 13980 13983 13986 13989 13992 13995 13998 14001 14004 14007 14010 14013 14016 14019 14022 14024 14027 14030 14033 14035 14038 14041 14044 14047 14050 14053 14056 14058 14061 14064 14067 14070 14073 14076 14079 14082 14085 14088 14090 14093 14096 14099 14102 14105 14108 14110 14113 14116 14119 14121 14124 14127 14129 14132 14135 14138 14141 14144 14147 14150 14153 14156 14159 14162 14165 14168 14170 14173 14176 14178 14181 14184 14187 14190 14193 14196 14198 14201 14203 14206 14209 14212 14215 14218 14221 14224 14227 14230 14233 14236 14239 14242 14245 14248 14251 14254 14256 14259 14262 14265 14268 14271 14274 14277 14280 14283 14286 14289 14292 14295 14298 14301 14304 14306 14309 14312 14315 14318 14321 14324 14326 14329 14332 14335 14337 14339 14342 14345 14348 14351 14354 14357 14359 14362 14365 14368 14371 14374 14376 14379 14382 14385 14388 14391 14394 14397 14399 14402 14405 14408 14411 14414 14417 14420 14423 14426 14429 14432 14435 14438 14440 14443 14446 14448 14451 14454 14456 14459 14462 14465 14468 14471 14474 14477 14480 14483 14485 14488 14491 14494 14497 14500 14503 14505 14508 14510 14513 14516 14519 14522 14525 14527 14529 14532 14535 14538 14541 14544 14547 14549 14552 14555 14558 14561 14564 14567 14570 14573 14576 14579 14581 14584 14587 14589 14592 14594 14596 14599 14602 14604 14607 14610 14613 14616 14618 14620 14623 14626 14629 14632 14635 14637 14640 14643 14646 14649 14652 14654 14656 14659 14662 14665 14667 14670 14673 14676 14679 14682 14685 14688 14691 14694 14696 14699 14702 14705 14708 14711 14714 14716 14719 14722 14725 14728 14731 14734 14737 14740 14743 14746 14749 14752 14755 14758 14761 14764 14767 14770 14773 14776 14779 14782 14785 14788 14791 14794 14797 14800 14803 14806 14809 14811 14813 14816 14819 14822 14825 14828 14831 14834 14837 14840 14843 14846 14849 14852 14855 14858 14861 14864 14867 14870 14873 14875 14878 14881 14884 14887 14889 14892 14895 14898 14901 14904 14907 14910 14913 14916 14919 14922 14925 14927 14930 14933 14936 14939 14942 14945 14948 14950 14952 14955 14958 14961 14964 14967 14969 14972 14975 14978 14981 14984 14986 14989 14992 14995 14998 15001 15004 15007 15010 15013 15016 15019 15022 15025 15028 15031 15034 15037 15040 15043 15046 15049 15051 15054 15057 15060 15063 15066 15069 15072 15075 15078 15080 15083 15086 15089 15092 15095 15097 15100 15103 15106 15109 15112 15115 15118 15121 15124 15127 15130 15133 15136 15139 15142 15145 15148 15151 15153 15156 15159 15162 15165 15168 15171 15174 15177 15180 15182 15185 15187 15189 15192 15194 15197 15199 15202 15205 15208 15211 15214 15217 15220 15223 15226 15229 15232 15235 15238 15241 15244 15247 15250 15253 15256 15259 15262 15265 15268 15270 15273 15276 15279 15282 15285 15288 15291 15294 15296 15299 15301 15304 15307 15310 15313 15316 15319 15321 15323 15326 15328 15331 15334 15337 15340 15342 15345 15347 15350 15353 15356 15359 15362 15365 15368 15371 15374 15376 15378 15381 15384 15387 15390 15393 15396 15399 15402 15405 15408 15411 15414 15417 15420 15423 15426 15428 15431 15434 15437 15440 15443 15446 15449 15452 15455 15458 15460 15462 15465 15468 15471 15474 15477 15480 15483 15486 15489 15492 15495 15498 15501 15504 15507 15510 15513 15516 15519 15522 15525 15528 15531 15534 15537 15540 15543 15546 15549 15552 15555 15558 15561 15564 15567 15570 15573 15576 15579 15582 15585 15588 15591 15594 15596 15599 15602 15605 15608 15611 15614 15616 15619 15622 15625 15628 15631 15634 15637 15640 15643 15646 15649 15652 15655 15658 15661 15664 15667 15670 15673 15676 15679 15682 15684 15687 15690 15693 15695 15697 15700 15703 15706 15709 15712 15715 15718 15721 15724 15727 15730 15733 15736 15739 15742 15744 15747 15750 15753 15756 15759 15762 15765 15768 15770 15773 15776 15779 15782 15785 15788 15791 15794 15797 15800 15803 15806 15809 15811 15814 15817 15820 15823 15825 15828 15831 15834 15837 15840 15842 15845 15848 15851 15853 15856 15859 15862 15864 15867 15870 15873 15876 15879 15881 15884 15887 15889 15892 15894 15897 15900 15903 15906 15909 15912 15914 15917 15920 15923 15926 15929 15932 15935 15938 15941 15944 15947 15950 15952 15955 15958 15961 15963 15966 15969 15972 15975 15978 15981 15984 15987 15989 15992 15995 15998 16001 16004 16007 16009 16012 16015 16018 16021 16024 16027 16030 16033 16036 16039 16042 16045 16048 16051 16054 16057 16059 16062 16065 16068 16071 16074 16077 16080 16083 16086 16089 16092 16095 16098 16100 16103 16105 16108 16110 16113 16116 16119 16121 16124 16127 16130 16132 16134 16136 16138 16141 16143 16146 16149 16152 16155 16158 16160 16163 16166 16169 16172 16175 16177 16180 16183 16186 16189 16192 16195 16198 16201 16204 16207 16210 16213 16216 16219 16222 16225 16227 16230 16233 16236 16239 16242 16245 16248 16251 16254 16257 16260 16263 16266 16269 16272 16275 16278 16280 16283 16286 16289 16291 16294 16297 16300 16303 16306 16309 16311 16314 16317 16320 16323 16326 16329 16332 16335 16337 16340 16343 16346 16349 16352 16355 16358 16361 16364 16367 16370 16373 16376 16379 16382 16385 16388 16391 16394 16397 16400 16403 16406 16409 16411 16413 16416 16419 16422 16425 16428 16430 16433 16436 16439 16442 16445 16448 16451 16454 16456 16459 16462 16464 16467 16470 16473 16476 16479 16482 16485 16488 16491 16494 16497 16500 16503 16506 16508 16511 16514 16517 16520 16523 16526 16528 16531 16534 16537 16540 16543 16546 16549 16552 16555 16558 16561 16563 16566 16569 16571 16574 16577 16580 16583 16586 16589 16592 16595 16598 16601 16604 16607 16610 16613 16616 16619 16622 16625 16628 16631 16634 16637 16640 16643 16646 16649 16652 16655 16658 16661 16664 16667 16670 16672 16675 16678 16681 16684 16687 16690 16693 16696 16699 16702 16705 16708 16711 16714 16717 16719 16721 16724 16727 16730 16733 16735 16738 16741 16744 16747 16750 16753 16755 16758 16761 16764 16767 16770 16773 16776 16779 16782 16785 16787 16790 16793 16796 16799 16802 16804 16807 16810 16813 16816 16818 16820 16823 16826 16829 16831 16834 16837 16840 16843 16846 16849 16852 16855 16857 16860 16863 16866 16869 16871 16873 16875 16878 16880 16883 16885 16888 16891 16894 16896 16899 16902 16905 16907 16909 16912 16915 16918 16921 16923 16926 16929 16931 16934 16937 16940 16942 16945 16948 16951 16954 16957 16959 16962 16965 16968 16971 16974 16977 16980 16982 16985 16988 16991 16993 16996 16999 17002 17005 17007 17010 17013 17016 17019 17022 17025 17027 17030 17033 17036 17039 17042 17045 17048 17050 17053 17056 17059 17062 17065 17068 17071 17074 17077 17079 17082 17084 17087 17090 17093 17096 17099 17102 17105 17108 17111 17113 17115 17117 17120 17123 17125 17128 17131 17134 17137 17140 17143 17146 17149 17152 17155 17158 17161 17164 17167 17170 17173 17175 17178 17180 17183 17186 17189 17192 17195 17198 17201 17204 17207 17210 17213 17215 17218 17221 17224 17226 17229 17232 17235 17238 17241 17244 17247 17250 17253 17255 17258 17261 17264 17267 17270 17273 17276 17279 17282 17285 17288 17290 17293 17295 17298 17301 17304 17307 17309 17312 17315 17318 17320 17323 17326 17329 17332 17335 17338 17341 17344 17346 17349 17352 17354 17357 17360 17363 17366 17369 17371 17374 17377 17380 17382 17385 17388 17391 17394 17397 17400 17403 17406 17409 17411 17413 17416 17419 17422 17425 17427 17430 17433 17435 17438 17441 17444 17446 17449 17452 17455 17458 17460 17462 17465 17468 17471 17474 17477 17480 17483 17486 17489 17492 17495 17498 17501 17503 17506 17509 17512 17515 17518 17520 17523 17526 17529 17532 17535 17538 17541 17544 17547 17550 17553 17556 17559 17562 17565 17568 17571 17574 17577 17580 17583 17586 17589 17592 17595 17598 17601 17604 17607 17610 17613 17616 17619 17622 17624 17627 17630 17633 17635 17638 17641 17644 17647 17650 17652 17655 17658 17661 17664 17667 17670 17673 17676 17679 17682 17685 17687 17690 17693 17695 17698 17701 17704 17707 17709 17711 17714 17717 17720 17723 17726 17729 17732 17735 17738 17741 17743 17746 17748 17751 17754 17757 17759 17762 17765 17767 17770 17773 17776 17779 17782 17785 17788 17790 17793 17796 17798 17800 17803 17806 17808 17810 17813 17816 17819 17822 17824 17827 17830 17832 17835 17838 17841 17844 17847 17850 17853 17856 17859 17862 17865 17868 17871 17874 17877 17880 17883 17886 17889 17892 17895 17898 17901 17904 17907 17910 17913 17916 17919 17922 17925 17928 17931 17934 17937 17939 17941 17944 17947 17950 17953 17956 17959 17962 17965 17968 17971 17974 17977 17980 17983 17986 17989 17992 17995 17998 18001 18004 18007 18010 18013 18016 18019 18022 18025 18028 18031 18034 18037 18039 18042 18045 18048 18051 18054 18057 18060 18063 18066 18069 18072 18075 18078 18081 18084 18087 18089 18092 18095 18097 18100 18103 18106 18109 18112 18115 18118 18121 18124 18127 18130 18133 18136 18139 18142 18145 18148 18151 18154 18157 18160 18163 18166 18169 18171 18174 18177 18180 18183 18186 18189 18192 18194 18197 18200 18203 18206 18209 18211 18214 18217 18219 18222 18225 18228 18231 18233 18236 18238 18241 18244 18246 18248 18251 18254 18257 18260 18263 18266 18269 18272 18275 18278 18281 18284 18287 18290 18293 18296 18299 18302 18305 18308 18311 18313 18315 18318 18321 18323 18326 18328 18331 18334 18337 18340 18343 18346 18349 18352 18355 18358 18361 18364 18366 18369 18372 18375 18378 18381 18384 18387 18390 18393 18396 18399 18402 18405 18407 18410 18413 18415 18418 18421 18424 18427 18429 18432 18435 18438 18441 18444 18447 18450 18453 18456 18459 18461 18464 18467 18470 18473 18476 18479 18482 18485 18488 18491 18494 18497 18500 18503 18506 18508 18511 18514 18516 18519 18522 18525 18528 18531 18534 18537 18539 18542 18545 18548 18551 18554 18556 18558 18560 18563 18566 18569 18572 18575 18577 18580 18582 18585 18588 18590 18593 18596 18599 18602 18605 18608 18611 18613 18616 18619 18622 18625 18628 18631 18634 18637 18640 18643 18646 18649 18652 18655 18658 18661 18664 18667 18669 18672 18675 18677 18680 18683 18685 18688 18691 18694 18697 18700 18703 18706 18709 18712 18714 18717 18719 18722 18725 18728 18730 18733 18736 18739 18742 18744 18747 18750 18752 18755 18758 18761 18764 18766 18769 18772 18774 18776 18779 18782 18785 18788 18791 18794 18797 18800 18803 18806 18808 18811 18814 18817 18820 18823 18826 18829 18832 18835 18838 18841 18844 18847 18850 18853 18856 18858 18861 18864 18867 18869 18872 18875 18877 18880 18883 18886 18889 18891 18894 18897 18900 18903 18906 18908 18911 18914 18917 18920 18923 18926 18929 18931 18934 18937 18940 18942 18944 18947 18950 18953 18956 18959 18961 18964 18967 18970 18973 18976 18979 18981 18984 18987 18990 18993 18996 18999 19002 19005 19007 19010 19013 19015 19018 19021 19024 19027 19030 19033 19036 19039 19041 19043 19046 19049 19052 19055 19058 19061 19064 19067 19070 19073 19075 19078 19081 19084 19087 19089 19092 19095 19098 19101 19104 19107 19110 19113 19116 19119 19122 19125 19127 19130 19133 19136 19139 19141 19144 19147 19150 19153 19156 19159 19162 19165 19168 19171 19174 19177 19180 19183 19185 19187 19190 19193 19195 19198 19201 19203 19206 19209 19212 19215 19218 19221 19224 19227 19229 19232 19235 19238 19241 19244 19247 19250 19253 19256 19259 19262 19265 19268 19271 19274 19277 19280 19283 19286 19289 19292 19295 19298 19301 19304 19307 19310 19313 19316 19319 19321 19324 19327 19330 19333 19336 19339 19342 19345 19348 19351 19354 19357 19360 19363 19366 19369 19371 19374 19377 19379 19382 19385 19388 19391 19394 19396 19399 19402 19404 19407 19409 19412 19415 19418 19421 19424 19427 19430 19432 19435 19438 19440 19442 19445 19447 19450 19452 19455 19458 19461 19464 19467 19470 19472 19475 19478 19481 19484 19487 19490 19492 19495 19498 19501 19503 19506 19509 19512 19515 19518 19521 19524 19527 19530 19533 19536 19539 19542 19545 19547 19550 19553 19556 19559 19562 19565 19568 19571 19574 19576 19579 19582 19585 19588 19591 19594 19596 19599 19602 19605 19608 19611 19613 19616 19619 19622 19625 19628 19631 19634 19636 19639 19641 19644 19647 19650 19653 19656 19659 19662 19665 19668 19671 19674 19677 19680 19683 19686 19689 19692 19695 19698 19701 19704 19707 19709 19712 19715 19718 19721 19724 19727 19730 19733 19736 19739 19742 19745 19748 19751 19754 19757 19760 19763 19766 19769 19772 19775 19778 19781 19784 19787 19790 19792 19795 19798 19801 19804 19807 19810 19813 19816 19819 19822 19825 19828 19831 19834 19837 19840 19843 19846 19849 19852 19855 19858 19861 19864 19867 19870 19873 19876 19879 19882 19885 19888 19891 19894 19897 19900 19903 19906 19909 19912 19915 19918 19921 19924 19926 19929 19932 19935 19938 19941 19944 19946 19949 19951 19954 19956 19959 19962 19965 19968 19970 19973 19976 19979 19982 19985 19988 19991 19994 19997 20000 20003 20006 20008 20010 20013 20016 20019 20022 20025 20028 20031 20034 20037 20040 20043 20046 20049 20052 20055 20058 20061 20064 20067 20069 20072 20075 20078 20080 20083 20086 20089 20092 20095 20098 20101 20104 20107 20110 20113 20116 20119 20122 20125 20128 20130 20133 20136 20139 20142 20145 20148 20151 20154 20156 20159 20162 20165 20168 20171 20173 20176 20179 20182 20185 20188 20191 20194 20197 20200 20202 20205 20208 20211 20214 20217 20220 20223 20226 20228 20231 20234 20236 20239 20242 20245 20248 20251 20254 20257 20260 20263 20266 20269 20272 20274 20277 20280 20283 20286 20289 20292 20295 20298 20301 20304 20307 20310 20313 20316 20319 20322 20325 20328 20331 20334 20337 20340 20343 20346 20349 20352 20354 20357 20360 20363 20366 20369 20372 20375 20378 20381 20384 20386 20388 20391 20394 20397 20400 20403 20406 20409 20412 20415 20418 20421 20424 20427 20430 20433 20436 20439 20441 20444 20447 20450 20453 20455 20458 20461 20464 20467 20470 20473 20476 20478 20480 20483 20485 20488 20491 20494 20497 20500 20502 20505 20507 20510 20513 20515 20518 20521 20524 20526 20529 20532 20535 20538 20541 20544 20547 20550 20553 20556 20559 20562 20565 20568 20571 20574 20577 20580 20583 20586 20589 20592 20595 20598 20601 20604 20607 20610 20613 20615 20617 20620 20623 20625 20628 20631 20634 20637 20640 20643 20646 20649 20651 20653 20656 20659 20662 20665 20668 20671 20674 20677 20680 20683 20686 20689 20692 20694 20697 20700 20703 20706 20709 20711 20713 20716 20719 20721 20724 20727 20730 20733 20736 20739 20742 20745 20748 20751 20754 20757 20760 20762 20765 20768 20771 20774 20777 20780 20783 20786 20789 20792 20795 20798 20801 20804 20807 20810 20813 20816 20819 20822 20824 20827 20829 20832 20835 20837 20840 20842 20845 20848 20850 20853 20856 20859 20862 20864 20867 20870 20873 20876 20879 20882 20884 20887 20890 20893 20895 20898 20901 20904 20907 20910 20913 20915 20918 20921 20924 20927 20930 20933 20935 20938 20941 20944 20947 20950 20953 20956 20959 20962 20965 20968 20971 20974 20977 20980 20983 20986 20989 20992 20994 20997 21000 21003 21006 21009 21012 21015 21017 21020 21023 21026 21029 21032 21035 21038 21041 21044 21046 21049 21052 21055 21058 21060 21063 21066 21068 21071 21074 21076 21079 21082 21084 21087 21090 21092 21095 21098 21101 21104 21107 21110 21113 21115 21118 21121 21124 21127 21130 21133 21136 21139 21142 21145 21148 21151 21154 21157 21160 21163 21166 21169 21172 21175 21178 21181 21184 21187 21190 21193 21196 21199 21202 21205 21208 21210 21213 21215 21218 21221 21224 21227 21230 21233 21236 21238 21241 21244 21247 21250 21252 21255 21258 21261 21264 21267 21270 21273 21276 21279 21282 21285 21288 21291 21294 21297 21299 21302 21305 21308 21311 21314 21317 21320 21323 21326 21329 21332 21335 21338 21341 21344 21347 21349 21352 21355 21358 21361 21364 21366 21369 21372 21375 21378 21381 21384 21387 21390 21393 21396 21399 21402 21404 21407 21410 21413 21416 21419 21422 21425 21427 21430 21432 21435 21438 21441 21444 21447 21450 21453 21456 21459 21462 21464 21467 21470 21473 21476 21479 21482 21485 21488 21491 21494 21497 21500 21503 21506 21509 21512 21515 21518 21520 21523 21526 21529 21532 21535 21538 21541 21544 21547 21550 21553 21556 21559 21562 21565 21568 21571 21574 21577 21580 21583 21586 21588 21591 21594 21597 21600 21602 21605 21608 21610 21613 21616 21619 21621 21624 21627 21630 21633 21636 21639 21642 21645 21647 21650 21653 21656 21659 21662 21664 21667 21670 21673 21676 21679 21682 21685 21688 21691 21694 21697 21700 21703 21705 21708 21711 21714 21717 21720 21723 21726 21729 21731 21734 21736 21739 21742 21745 21748 21751 21753 21756 21758 21760 21763 21766 21768 21771 21773 21776 21779 21782 21785 21788 21791 21794 21797 21800 21803 21806 21809 21811 21814 21817 21820 21823 21826 21829 21832 21835 21838 21841 21844 21847 21850 21853 21856 21859 21862 21865 21868 21871 21874 21877 21880 21883 21886 21889 21892 21895 21898 21901 21904 21907 21909 21912 21915 21918 21921 21924 21927 21929 21932 21935 21938 21940 21943 21945 21948 21951 21954 21957 21960 21963 21966 21969 21972 21975 21978 21981 21984 21987 21989 21992 21995 21997 22000 22003 22006 22008 22011 22014 22017 22020 22023 22026 22029 22032 22034 22037 22040 22043 22046 22048 22051 22054 22057 22060 22063 22065 22068 22071 22073 22075 22078 22080 22083 22086 22089 22091 22094 22096 22098 22101 22104 22106 22109 22111 22114 22116 22118 22121 22124 22126 22129 22132 22135 22138 22141 22143 22146 22149 22152 22155 22158 22160 22162 22165 22168 22171 22174 22177 22180 22183 22185 22188 22191 22194 22197 22200 22203 22206 22209 22212 22215 22218 22220 22223 22225 22228 22231 22234 22237 22240 22243 22246 22249 22252 22255 22258 22261 22264 22267 22270 22273 22276 22279 22281 22284 22286 22289 22292 22294 22297 22299 22302 22305 22308 22311 22314 22317 22320 22322 22325 22328 22331 22334 22337 22340 22343 22346 22349 22352 22355 22358 22361 22364 22367 22370 22373 22376 22378 22381 22384 22387 22390 22393 22396 22399 22401 22404 22407 22410 22413 22416 22419 22422 22425 22428 22431 22434 22437 22440 22443 22446 22448 22451 22454 22457 22460 22463 22466 22469 22472 22474 22477 22480 22483 22486 22489 22492 22495 22498 22501 22504 22507 22510 22513 22516 22518 22521 22524 22527 22530 22532 22535 22538 22541 22544 22547 22550 22553 22556 22558 22561 22564 22567 22570 22573 22575 22578 22581 22584 22587 22589 22592 22594 22597 22600 22603 22606 22609 22612 22615 22618 22621 22624 22627 22630 22633 22636 22639 22642 22645 22648 22651 22654 22657 22659 22661 22664 22666 22668 22671 22674 22677 22679 22681 22684 22687 22689 22692 22695 22697 22700 22703 22706 22709 22712 22715 22717 22720 22723 22726 22729 22732 22734 22737 22739 22742 22744 22747 22750 22752 22755 22758 22761 22764 22767 22769 22772 22775 22778 22781 22784 22787 22790 22793 22796 22799 22801 22804 22807 22810 22813 22816 22819 22821 22824 22827 22830 22833 22836 22839 22842 22844 22847 22850 22853 22856 22859 22862 22865 22868 22871 22874 22877 22880 22883 22886 22888 22891 22894 22897 22899 22902 22905 22908 22911 22914 22917 22920 22923 22926 22929 22932 22935 22938 22941 22944 22947 22950 22953 22956 22959 22962 22965 22968 22971 22974 22977 22980 22983 22986 22988 22991 22994 22997 23000 23002 23004 23007 23010 23013 23016 23019 23022 23024 23026 23029 23032 23035 23038 23041 23044 23047 23050 23053 23055 23058 23061 23064 23067 23070 23073 23076 23078 23080 23083 23086 23088 23091 23093 23096 23099 23102 23105 23108 23111 23114 23117 23120 23123 23126 23129 23132 23135 23138 23140 23143 23146 23149 23152 23154 23157 23160 23163 23166 23169 23172 23175 23177 23180 23183 23186 23189 23192 23195 23198 23201 23203 23206 23209 23212 23215 23218 23221 23224 23226 23228 23231 23234 23237 23240 23242 23245 23248 23250 23253 23256 23259 23261 23264 23267 23270 23272 23275 23278 23281 23284 23287 23290 23293 23296 23299 23302 23304 23307 23310 23313 23316 23319 23322 23325 23328 23331 23333 23336 23339 23342 23345 23348 23351 23354 23357 23360 23363 23366 23368 23371 23374 23377 23379 23382 23385 23388 23391 23394 23396 23399 23401 23404 23407 23410 23412 23415 23418 23420 23422 23425 23428 23431 23434 23437 23440 23443 23446 23448 23451 23454 23457 23460 23463 23466 23468 23471 23474 23477 23479 23482 23485 23488 23491 23494 23496 23499 23502 23505 23508 23511 23514 23517 23520 23523 23526 23529 23532 23535 23538 23541 23544 23547 23550 23553 23556 23559 23562 23564 23567 23570 23573 23576 23579 23582 23585 23588 23591 23594 23597 23600 23602 23605 23608 23611 23614 23617 23620 23623 23626 23629 23632 23635 23638 23641 23644 23647 23650 23652 23655 23658 23661 23664 23667 23670 23673 23676 23679 23682 23685 23688 23691 23694 23697 23700 23703 23706 23709 23712 23715 23718 23721 23724 23727 23730 23733 23736 23739 23742 23745 23748 23751 23754 23757 23760 23763 23766 23768 23771 23774 23777 23779 23782 23785 23788 23791 23794 23797 23800 23802 23805 23808 23811 23814 23817 23820 23822 23825 23828 23831 23834 23837 23840 23843 23846 23849 23852 23855 23858 23861 23864 23866 23869 23872 23875 23878 23880 23883 23886 23889 23892 23895 23898 23901 23904 23906 23908 23911 23914 23917 23920 23923 23926 23929 23932 23935 23938 23941 23944 23947 23950 23953 23956 23959 23962 23965 23968 23971 23974 23976 23979 23982 23984 23987 23990 23993 23996 23999 24002 24005 24008 24011 24014 24017 24020 24023 24026 24029 24032 24035 24038 24041 24044 24047 24050 24053 24056 24059 24062 24065 24068 24071 24073 24076 24079 24081 24084 24087 24090 24092 24095 24098 24101 24103 24106 24109 24111 24114 24117 24120 24123 24126 24129 24132 24135 24138 24141 24144 24147 24150 24152 24155 24158 24161 24164 24167 24170 24173 24176 24179 24182 24185 24188 24191 24193 24196 24199 24202 24204 24207 24210 24213 24216 24219 24222 24224 24227 24229 24232 24235 24238 24241 24243 24246 24249 24252 24255 24257 24260 24263 24265 24268 24271 24274 24277 24280 24283 24286 24289 24292 24295 24298 24301 24304 24307 24310 24313 24316 24319 24322 24325 24328 24331 24334 24337 24340 24343 24346 24349 24352 24355 24358 24361 24364 24367 24370 24373 24376 24379 24382 24384 24387 24390 24393 24395 24398 24400 24403 24405 24408 24411 24413 24416 24418 24420 24423 24426 24429 24432 24434 24437 24440 24443 24446 24449 24452 24455 24457 24460 24463 24465 24468 24471 24474 24477 24480 24482 24485 24488 24491 24494 24497 24500 24503 24506 24509 24512 24515 24518 24520 24523 24526 24529 24531 24534 24537 24539 24542 24545 24547 24550 24552 24555 24558 24561 24564 24567 24569 24572 24575 24577 24580 24583 24586 24589 24592 24595 24598 24601 24604 24607 24609 24612 24615 24618 24621 24624 24627 24630 24633 24636 24639 24641 24644 24647 24650 24653 24656 24659 24662 24664 24667 24670 24673 24676 24679 24681 24683 24686 24689 24692 24695 24698 24701 24704 24706 24708 24711 24714 24716 24719 24722 24725 24728 24731 24734 24737 24740 24743 24746 24749 24751 24754 24757 24760 24763 24766 24769 24772 24775 24778 24781 24784 24787 24790 24793 24795 24798 24801 24804 24807 24810 24813 24816 24819 24822 24825 24828 24831 24834 24837 24840 24843 24846 24849 24852 24855 24858 24861 24864 24866 24869 24872 24875 24878 24881 24884 24887 24890 24893 24896 24899 24902 24905 24908 24911 24914 24917 24920 24923 24926 24929 24932 24935 24938 24941 24944 24947 24950 24953 24956 24959 24962 24965 24968 24971 24974 24977 24980 24983 24986 24989 24992 24995 24998 25001 25004 25007 25010 25013 25016 25019 25022 25025 25028 25031 25034 25037 25040 25043 25046 25049 25052 25055 25058 25061 25064 25067 25070 25072 25075 25078 25081 25084 25087 25090 25093 25095 25098 25101 25104 25107 25110 25113 25116 25119 25122 25125 25128 25131 25134 25137 25140 25143 25146 25149 25152 25155 25158 25161 25164 25167 25170 25172 25175 25178 25181 25184 25187 25190 25193 25196 25199 25202 25205 25208 25211 25214 25217 25220 25223 25226 25229 25232 25235 25238 25241 25244 25247 25250 25253 25256 25259 25262 25265 25268 25271 25274 25277 25280 25283 25286 25289 25292 25295 25297 25300 25302 25305 25308 25311 25314 25317 25320 25323 25326 25329 25332 25335 25337 25340 25343 25345 25348 25351 25354 25357 25359 25362 25365 25368 25371 25374 25377 25380 25383 25386 25389 25392 25395 25398 25401 25404 25407 25410 25413 25416 25419 25422 25425 25428 25430 25433 25436 25439 25441 25444 25447 25450 25453 25456 25459 25462 25465 25468 25471 25473 25476 25479 25482 25485 25488 25491 25494 25496 25499 25501 25504 25507 25510 25512 25515 25518 25521 25523 25526 25529 25532 25535 25538 25541 25543 25545 25547 25550 25553 25555 25558 25561 25564 25567 25569 25572 25575 25578 25580 25583 25586 25589 25592 25595 25598 25601 25604 25606 25609 25612 25615 25618 25621 25624 25627 25630 25633 25636 25639 25642 25645 25648 25650 25653 25656 25659 25662 25665 25667 25670 25673 25676 25679 25682 25685 25688 25690 25693 25695 25698 25701 25704 25706 25709 25712 25715 25718 25721 25724 25727 25730 25733 25736 25739 25742 25745 25748 25751 25754 25757 25760 25763 25766 25769 25772 25775 25778 25781 25784 25787 25790 25793 25796 25799 25802 25805 25808 25811 25814 25817 25820 25823 25826 25829 25831 25834 25837 25840 25843 25846 25849 25852 25855 25858 25860 25863 25866 25869 25872 25874 25877 25880 25883 25886 25889 25892 25895 25898 25901 25904 25907 25910 25913 25916 25919 25922 25925 25928 25931 25934 25936 25939 25941 25944 25947 25950 25953 25956 25959 25962 25965 25968 25971 25974 25977 25980 25983 25986 25989 25992 25995 25998 26001 26004 26007 26010 26013 26016 26019 26022 26025 26027 26030 26033 26036 26039 26042 26045 26048 26051 26054 26057 26060 26063 26066 26069 26072 26074 26076 26079 26081 26083 26086 26089 26092 26095 26098 26101 26104 26107 26110 26113 26115 26118 26120 26123 26126 26129 26132 26135 26138 26141 26143 26146 26149 26151 26154 26157 26160 26163 26166 26169 26172 26174 26177 26180 26183 26186 26189 26192 26195 26198 26201 26204 26207 26210 26213 26216 26219 26222 26225 26227 26230 26233 26236 26239 26242 26245 26248 26250 26253 26256 26259 26262 26265 26268 26271 26274 26277 26280 26283 26286 26289 26292 26295 26298 26301 26304 26307 26310 26313 26316 26319 26322 26325 26328 26331 26334 26337 26339 26342 26345 26348 26351 26354 26357 26360 26363 26366 26369 26372 26375 26378 26381 26384 26387 26390 26393 26396 26399 26402 26405 26408 26411 26414 26417 26420 26422 26425 26428 26431 26433 26436 26439 26442 26445 26448 26451 26454 26457 26460 26463 26466 26468 26471 26473 26476 26479 26482 26485 26488 26491 26493 26496 26499 26502 26505 26507 26510 26513 26515 26518 26521 26524 26527 26530 26533 26536 26539 26542 26545 26547 26550 26553 26555 26558 26561 26564 26567 26570 26573 26576 26579 26582 26585 26588 26591 26594 26597 26600 26603 26606 26609 26611 26614 26617 26620 26623 26625 26628 26630 26633 26636 26639 26642 26645 26648 26651 26654 26657 26660 26663 26665 26668 26671 26674 26677 26679 26682 26685 26688 26691 26694 26697 26700 26703 26706 26709 26712 26715 26718 26721 26724 26726 26729 26732 26735 26737 26740 26743 26746 26748 26751 26754 26757 26760 26763 26766 26769 26771 26774 26777 26780 26783 26786 26789 26792 26794 26797 26800 26803 26806 26809 26812 26815 26818 26821 26824 26827 26830 26833 26836 26839 26841 26844 26847 26849 26852 26855 26858 26861 26864 26867 26870 26873 26876 26879 26881 26884 26887 26890 26893 26896 26899 26902 26905 26908 26911 26914 26917 26920 26923 26926 26929 26932 26935 26938 26941 26944 26947 26950 26953 26956 26959 26962 26965 26968 26971 26974 26977 26979 26982 26985 26988 26990 26993 26996 26999 27002 27005 27008 27010 27012 27015 27018 27021 27024 27027 27029 27032 27035 27038 27041 27043 27046 27049 27052 27055 27058 27061 27064 27067 27069 27071 27074 27077 27080 27083 27086 27089 27092 27095 27098 27101 27104 27107 27110 27113 27116 27119 27122 27125 27128 27131 27133 27135 27138 27141 27144 27147 27150 27152 27155 27158 27161 27164 27166 27169 27171 27174 27176 27178 27181 27184 27186 27189 27192 27195 27198 27201 27204 27207 27210 27213 27216 27219 27221 27224 27227 27230 27233 27236 27239 27242 27245 27248 27251 27254 27257 27260 27262 27264 27267 27270 27273 27276 27279 27282 27285 27288 27291 27294 27297 27300 27303 27306 27309 27312 27315 27318 27321 27324 27327 27330 27333 27336 27339 27342 27345 27348 27351 27354 27357 27360 27363 27366 27369 27372 27375 27377 27379 27382 27385 27387 27389 27392 27395 27397 27399 27402 27405 27408 27411 27414 27416 27419 27422 27425 27428 27431 27433 27436 27439 27442 27445 27447 27450 27453 27456 27459 27462 27464 27467 27470 27472 27475 27478 27481 27484 27487 27490 27493 27496 27499 27502 27505 27508 27511 27514 27517 27520 27523 27526 27529 27532 27535 27538 27541 27544 27547 27550 27553 27556 27558 27561 27564 27567 27570 27572 27575 27578 27581 27583 27585 27588 27591 27594 27596 27599 27602 27605 27608 27610 27612 27615 27617 27620 27623 27626 27628 27631 27634 27637 27640 27643 27646 27649 27652 27655 27658 27661 27664 27667 27670 27673 27676 27679 27682 27685 27688 27690 27693 27696 27699 27701 27704 27707 27710 27712 27715 27718 27721 27724 27727 27730 27733 27735 27738 27741 27744 27747 27750 27753 27756 27759 27762 27765 27767 27770 27773 27776 27779 27782 27785 27788 27791 27794 27797 27800 27802 27805 27808 27811 27814 27817 27820 27823 27826 27828 27830 27832 27835 27838 27841 27844 27847 27850 27853 27856 27859 27862 27865 27868 27871 27874 27877 27880 27883 27886 27889 27892 27895 27898 27901 27904 27907 27910 27912 27915 27918 27921 27923 27926 27929 27932 27935 27938 27941 27944 27947 27950 27953 27955 27958 27961 27963 27966 27969 27972 27975 27978 27981 27984 27986 27989 27992 27994 27997 28000 28003 28006 28009 28011 28014 28017 28020 28022 28024 28027 28030 28033 28036 28039 28042 28045 28048 28051 28053 28056 28058 28061 28064 28066 28069 28072 28075 28077 28080 28083 28086 28089 28092 28094 28097 28100 28103 28106 28109 28112 28115 28118 28120 28123 28125 28128 28131 28134 28137 28140 28143 28146 28149 28152 28155 28158 28161 28164 28166 28169 28172 28175 28178 28181 28184 28187 28190 28193 28196 28199 28201 28204 28207 28209 28212 28215 28218 28221 28224 28227 28230 28233 28235 28238 28241 28244 28247 28249 28252 28254 28257 28260 28263 28266 28269 28271 28274 28277 28279 28282 28285 28288 28291 28294 28297 28300 28303 28306 28308 28311 28314 28317 28320 28322 28325 28328 28331 28334 28337 28340 28343 28345 28348 28351 28353 28356 28359 28362 28365 28368 28371 28374 28376 28379 28382 28385 28388 28391 28394 28397 28400 28403 28406 28409 28412 28415 28417 28420 28423 28425 28428 28430 28432 28435 28437 28440 28443 28446 28449 28452 28454 28457 28460 28463 28465 28468 28471 28474 28477 28480 28482 28485 28488 28490 28493 28495 28498 28501 28504 28507 28510 28512 28514 28517 28520 28522 28524 28527 28530 28533 28536 28539 28542 28544 28547 28549 28552 28555 28557 28560 28563 28566 28569 28572 28574 28577 28580 28583 28585 28588 28591 28594 28597 28600 28603 28606 28609 28611 28613 28616 28619 28622 28625 28628 28630 28633 28636 28638 28641 28643 28645 28648 28650 28652 28655 28658 28660 28662 28664 28667 28670 28672 28675 28678 28680 28683 28686 28688 28690 28692 28695 28698 28701 28703 28706 28709 28712 28714 28717 28720 28723 28725 28728 28731 28734 28736 28739 28741 28744 28746 28749 28752 28755 28758 28760 28763 28765 28767 28769 28772 28774 28777 28780 28783 28786 28788 28791 28793 28795 28797 28800 28803 28805 28808 28811 28814 28817 28820 28822 28825 28827 28829 28832 28835 28838 28840 28843 28846 28849 28851 28854 28857 28860 28863 28866 28869 28872 28875 28878 28881 28884 28887 28890 28892 28895 28898 28901 28904 28907 28910 28912 28915 28918 28921 28924 28927 28930 28933 28936 28939 28942 28944 28947 28950 28953 28956 28958 28961 28964 28967 28969 28972 28975 28978 28981 28984 28987 28989 28992 28995 28998 29001 29003 29006 29009 29012 29015 29018 29021 29024 29026 29029 29032 29035 29038 29041 29044 29047 29050 29052 29055 29058 29061 29064 29067 29070 29073 29076 29078 29081 29084 29087 29090 29093 29096 29099 29102 29105 29108 29111 29114 29117 29120 29123 29126 29129 29132 29135 29138 29141 29144 29147 29150 29152 29155 29158 29160 29163 29166 29169 29172 29175 29178 29181 29184 29187 29189 29192 29195 29197 29200 29203 29206 29209 29211 29214 29217 29220 29223 29225 29228 29231 29234 29237 29239 29242 29245 29248 29251 29254 29257 29259 29262 29264 29267 29270 29273 29276 29279 29281 29284 29287 29290 29293 29296 29299 29302 29305 29308 29311 29314 29317 29320 29323 29326 29329 29332 29335 29338 29340 29343 29346 29349 29352 29354 29356 29359 29362 29365 29368 29371 29373 29376 29378 29381 29384 29387 29389 29392 29395 29397 29400 29403 29406 29408 29411 29414 29417 29420 29423 29426 29428 29431 29434 29437 29440 29443 29445 29448 29451 29454 29457 29460 29463 29465 29468 29471 29473 29476 29479 29481 29484 29487 29489 29492 29495 29498 29501 29504 29507 29510 29513 29516 29519 29522 29524 29527 29530 29532 29535 29537 29540 29543 29546 29549 29551 29554 29557 29560 29563 29566 29569 29571 29574 29577 29580 29583 29585 29588 29591 29593 29596 29599 29602 29605 29608 29611 29614 29617 29620 29623 29626 29629 29632 29635 29638 29641 29644 29647 29650 29653 29656 29659 29661 29664 29667 29670 29673 29676 29679 29682 29685 29688 29691 29694 29696 29699 29702 29705 29708 29711 29714 29717 29720 29723 29726 29729 29732 29735 29738 29741 29744 29747 29750 29752 29755 29758 29761 29764 29767 29770 29772 29775 29778 29781 29784 29787 29790 29793 29796 29799 29802 29805 29808 29811 29814 29817 29820 29823 29826 29829 29832 29834 29837 29839 29842 29845 29848 29851 29854 29857 29860 29863 29866 29869 29872 29875 29878 29880 29883 29886 29888 29891 29893 29896 29899 29902 29905 29908 29910 29913 29916 29919 29922 29925 29928 29930 29933 29936 29939 29942 29945 29948 29951 29954 29957 29959 29962 29964 29967 29970 29973 29976 29979 29982 29985 29988 29991 29993 29996 29999 30002 30005 30008 30011 30014 30017 30020 30023 30025 30028 30031 30034 30037 30040 30042 30045 30048 30050 30053 30056 30059 30062 30065 30068 30071 30074 30077 30080 30083 30086 30089 30092 30095 30097 30100 30103 30106 30109 30112 30115 30118 30121 30124 30127 30129 30132 30135 30137 30140 30143 30146 30149 30152 30154 30156 30159 30162 30164 30167 30170 30172 30174 30177 30180 30183 30186 30189 30191 30194 30197 30199 30202 30205 30208 30211 30214 30217 30220 30223 30225 30228 30231 30233 30236 30239 30242 30244 30247 30250 30253 30256 30259 30262 30265 30268 30271 30273 30275 30278 30280 30283 30286 30289 30292 30295 30298 30301 30304 30306 30309 30312 30315 30318 30321 30323 30326 30328 30331 30334 30337 30340 30343 30346 30349 30352 30355 30358 30361 30364 30367 30370 30372 30375 30378 30381 30384 30387 30390 30393 30396 30399 30402 30405 30407 30410 30413 30415 30418 30420 30423 30426 30428 30431 30434 30437 30440 30443 30446 30449 30452 30454 30457 30459 30462 30465 30468 30470 30473 30476 30479 30482 30485 30488 30491 30494 30497 30500 30503 30506 30509 30512 30515 30518 30521 30524 30527 30530 30533 30536 30538 30541 30544 30547 30550 30553 30556 30559 30562 30565 30568 30571 30574 30577 30580 30583 30586 30589 30592 30594 30597 30600 30603 30606 30609 30611 30613 30616 30619 30622 
</DataArray>
<DataArray type="UInt32" Name="types" format="ascii">
5 5 5 5 3 5 5 3 5 3 5 5 5 3 5 5 5 3 3 5 3 3 5 5 5 5 5 5 5 5 5 5 5 5 5 3 5 5 5 5 5 5 5 5 5 5 3 5 5 5 5 5 5 5 5 5 5 5 5 5 5 5 5 5 5 5 5 5 5 5 5 5 3 5 3 5 5 5 5 3 5 5 5 5 5 3 5 5 5 3 5 5 5 5 5 5 5 5 5 5 5 5 3 3 5 5 5 3 5 5 5 5 5 5 5 5 5 5 5 5 5 5 5 3 5 5 5 5 5 5 5 3 5 5 5 5 5 5 5 5 5 5 5 5 5 5 5 5 5 5 5 5 5 5 5 3 5 5 3 5 5 3 5 5 5 5 5 5 5 5 5 5 5 5 5 5 5 5 5 5 5 5 5 5 3 5 5 5 3 5 5 3 3 5 5 5 5 5 5 5 5 3 5 5 5 5 5 5 5 3 5 5 5 5 5 5 5 5 5 5 5 5 5 3 3 5 5 5 5 5 3 5 5 5 5 5 3 5 5 5 5 5 5 5 5 3 5 5 5 5 3 5 5 5 5 5 5 5 5 5 5 5 5 5 5 3 5 5 5 3 5 3 5 5 3 5 5 5 3 3 3 3 5 3 5 5 5 5 5 5 5 5 5 5 5 5 5 5 3 5 5 5 5 3 3 5 5 5 3 5 5 5 5 3 3 5 5 5 5 5 5 5 5 5 5 5 5 5 3 5 5 5 5 3 5 3 5 5 5 5 5 5 3 5 5 5 5 5 3 5 5 5 5 5 5 3 5 5 3 3 5 5 3 5 5 5 3 5 5 5 5 5 3 5 3 5 3 3 5 5 3 5 3 5 5 3 3 5 3 5 5 3 5 5 5 5 5 3 5 5 5 5 3 5 5 5 5 5 5 3 5 5 5 5 5 5 5 5 5 5 5 5 5 5 3 5 5 5 5 5 3 5 5 5 3 5 5 3 5 5 5 3 5 5 5 5 5 5 5 5 5 5 5 5 5 5 5 5 3 5 5 5 5 5 5 5 5 5 5 5 3 5 5 5 5 5 5 5 5 5 5 5 5 5 5 5 5 5 5 5 5 5 5 5 5 3 3 5 5 5 5 5 5 3 5 5 5 5 5 5 5 5 5 5 3 5 5 5 5 5 5 5 5 3 5 5 3 5 5 5 5 5 5 5 5 5 5 5 5 5 5 5 5 5 3 5 5 5 3 5 3 5 5 5 5 5 5 5 5 5 5 3 5 5 5 5 5 5 3 5 5 5 5 3 5 5 3 3 5 5 5 5 3 5 5 5 5 5 5 3 5 5 5 5 5 3 5 5 5 3 5 5 5 5 5 3 5 5 5 5 3 3 5 5 3 5 5 5 5 5 5 5 5 5 5 5 5 3 5 5 5 5 5 5 5 5 5 5 5 5 5 5 5 5 5 5 5 5 5 5 5 3 5 3 5 5 5 5 5 5 5 5 5 5 3 5 5 5 5 5 5 5 5 5 3 5 3 5 5 5 5 5 5 5 5 3 3 5 5 3 5 5 5 5 3 5 5 5 3 5 5 5 5 3 5 5 5 5 3 5 5 5 5 5 5 5 5 5 5 5 5 5 5 5 5 5 5 5 5 5 5 5 5 5 5 5 5 5 3 5 5 5 5 5 5 5 3 5 5 5 5 5 3 5 3 5 5 3 5 5 5 5 5 5 5 5 5 5 5 5 5 5 5 5 5 5 3 5 5 5 5 5 5 5 5 5 5 5 3 3 5 5 5 5 3 5 5 5 5 5 5 5 3 5 5 5 5 5 5 5 5 5 5 5 5 5 5 5 5 3 5 5 5 5 5 3 5 5 5 5 5 5 5 5 3 5 5 5 5 5 5 5 5 5 5 5 5 5 5 5 5 5 5 5 5 5 3 5 3 5 5 5 5 5 5 5 5 5 5 5 5 5 3 5 5 5 5 5 5 5 5 5 3 5 5 5 3 5 5 5 5 5 5 5 5 5 5 5 3 5 5 5 3 5 3 5 5 3 3 5 5 5 5 5 5 5 5 5 5 5 3 5 5 5 5 3 5 5 5 3 5 5 3 5 5 3 5 5 5 3 5 5 5 5 5 5 3 3 5 5 3 5 5 5 5 5 5 5 5 5 5 5 3 5 3 5 3 5 5 5 3 5 5 5 5 5 5 5 3 5 5 5 5 5 5 3 5 5 5 5 5 5 3 5 5 5 5 3 5 5 5 5 3 5 3 5 5 5 5 5 5 5 5 3 5 5 5 3 5 5 5 5 5 3 3 5 5 5 5 5 3 5 5 3 5 5 3 5 5 3 5 5 3 5 5 5 5 5 3 5 5 5 3 5 5 5 3 5 5 5 3 5 5 5 5 5 5 3 5 5 3 5 5 5 5 5 5 5 5 3 5 5 5 3 5 5 5 5 5 5 5 5 5 5 5 5 5 3 5 5 3 5 5 5 5 5 5 5 5 5 5 5 5 5 5 5 5 5 5 5 5 5 5 5 5 5 5 3 5 5 5 5 5 5 5 5 3 5 5 3 5 3 5 5 3 5 5 5 5 3 5 3 5 5 3 5 5 5 3 3 5 3 5 5 5 5 3 3 5 5 5 5 5 5 5 5 5 5 5 5 5 5 3 5 5 5 5 5 5 5 5 5 5 5 5 5 5 5 5 5 5 5 5 5 5 5 5 5 5 5 5 5 5 5 5 5 5 5 5 5 5 5 5 5 5 5 5 5 5 5 5 5 5 5 5 3 5 5 5 5 5 5 5 5 5 5 5 5 3 3 3 5 5 5 5 3 3 3 5 5 3 3 5 5 5 3 5 3 5 5 5 5 5 3 5 3 5 5 5 3 5 5 5 5 3 5 5 5 3 5 5 3 5 3 5 3 5 5 3 5 5 3 5 5 5 5 5 5 5 5 5 5 5 5 5 5 5 5 5 5 5 5 5 5 5 5 5 5 5 5 5 5 5 5 5 5 5 5 5 5 5 5 5 5 5 5 5 5 5 5 5 5 3 5 5 5 3 5 5 5 5 5 5 5 5 5 5 5 5 5 5 5 5 5 5 5 5 5 5 5 5 5 5 3 5 5 5 5 5 5 5 5 5 5 5 3 5 3 3 5 3 5 5 3 5 3 5 3 5 5 3 3 5 5 5 5 5 5 3 5 5 5 5 5 5 3 5 3 3 5 3 5 3 5 3 3 5 5 5 5 3 5 5 3 5 5 5 5 5 5 5 3 5 5 5 5 5 5 5 5 5 5 5 5 5 5 5 5 5 5 5 5 5 5 5 5 5 5 5 5 5 5 5 5 5 5 5 5 5 5 5 5 5 5 5 5 5 5 5 5 5 5 5 5 5 5 5 5 5 5 5 5 5 5 5 5 5 5 5 5 5 5 5 5 5 5 5 5 5 5 5 5 5 5 3 5 5 5 5 5 5 3 5 3 3 5 5 5 5 5 5 5 5 5 5 5 5 5 5 5 5 5 5 5 5 5 5 5 5 5 5 5 5 5 5 5 5 3 5 3 5 5 3 5 3 5 5 5 5 5 5 3 5 5 5 5 5 5 5 5 5 5 3 3 5 5 3 3 3 5 5 5 5 5 5 5 5 5 5 5 5 5 5 5 5 5 5 5 5 5 5 5 5 5 5 5 5 3 5 3 5 5 5 5 5 5 5 5 5 5 5 5 5 5 5 5 5 5 5 3 5 5 5 5 5 5 5 5 5 3 5 5 3 5 3 5 5 5 5 5 5 5 5 5 5 5 5 5 5 5 5 5 5 5 5 5 5 5 5 5 5 5 3 3 5 5 5 5 5 5 5 5 5 5 5 5 5 5 5 5 5 5 5 5 5 5 5 3 5 5 5 5 5 3 3 5 5 5 5 5 5 5 5 5 5 5 5 5 3 5 5 5 5 5 5 5 5 5 5 5 5 5 5 5 5 5 5 5 5 5 5 5 5 5 5 5 5 5 5 5 5 5 5 5 5 5 5 3 5 5 5 5 5 5 5 3 5 5 5 3 5 5 5 5 5 5 3 5 5 5 5 5 5 3 3 5 5 3 3 5 5 3 3 5 5 5 5 5 5 5 5 5 3 5 5 5 5 5 5 3 5 5 5 5 5 5 5 5 5 5 5 5 5 5 5 5 5 3 5 5 5 5 5 5 5 5 5 5 5 5 5 5 5 5 5 5 5 3 5 5 5 3 5 5 5 3 5 5 5 5 5 3 5 5 5 5 5 5 5 5 5 5 3 5 5 5 5 5 5 5 5 5 5 5 5 5 5 5 5 5 5 5 5 5 5 5 3 5 5 5 5 5 3 5 5 3 5 5 5 3 5 3 5 5 3 5 3 5 5 5 5 5 5 3 5 5 3 5 5 5 5 3 5 5 3 5 5 5 5 5 5 5 5 5 5 3 5 5 5 5 5 3 5 5 5 5 5 5 5 5 5 5 5 5 5 5 3 5 3 5 5 5 5 5 5 5 5 5 5 5 5 5 5 5 5 5 5 5 5 5 5 5 5 5 5 5 3 5 3 5 5 5 5 5 3 5 5 5 5 5 5 5 5 3 5 5 5 5 5 5 5 5 5 5 5 5 5 5 5 5 5 5 5 5 5 5 5 5 3 5 5 5 5 5 5 5 5 5 5 5 5 5 3 5 5 5 5 5 5 5 5 3 5 5 5 5 5 3 5 5 5 5 5 5 5 5 5 5 5 5 5 5 5 5 3 5 3 5 5 5 5 3 5 5 5 5 5 5 5 3 5 5 5 5 5 5 5 5 5 5 5 5 5 3 5 5 5 5 5 5 5 5 5 5 5 5 5 5 5 5 5 5 5 5 5 5 5 3 5 3 5 5 5 5 5 5 5 5 5 5 5 5 5 5 5 3 5 5 5 5 5 5 5 5 5 5 5 5 5 5 5 5 5 5 5 5 5 5 5 5 3 5 5 5 5 5 5 5 5 5 5 5 5 5 5 5 5 5 5 3 5 5 5 5 5 5 5 5 5 5 5 5 5 5 5 5 5 5 5 5 5 3 5 3 5 5 5 5 5 5 5 5 5 5 5 5 3 5 5 5 3 5 5 5 5 5 5 5 5 5 5 5 5 3 5 3 3 5 5 5 5 5 5 5 5 3 5 5 5 5 5 5 5 5 5 5 3 5 5 5 5 5 5 5 5 5 5 5 5 5 3 5 5 5 5 5 5 3 5 5 3 5 5 5 5 5 5 5 5 3 3 5 5 5 5 5 5 5 3 5 5 5 3 3 5 5 5 3 5 5 5 5 5 5 5 5 3 3 5 5 5 5 5 5 5 5 5 5 5 5 5 5 5 5 5 3 3 5 5 5 5 5 5 5 5 3 5 5 5 3 3 5 5 3 5 5 3 5 3 5 5 5 5 5 3 5 5 3 5 5 5 5 5 5 5 5 5 5 5 5 3 5 3 5 5 5 5 5 5 5 5 5 5 5 5 5 3 5 5 5 3 5 5 5 5 5 5 5 5 3 5 5 5 5 5 5 5 5 5 5 3 5 5 3 5 5 3 5 5 5 5 5 5 5 5 3 5 5 5 3 5 5 5 5 5 5 5 3 3 5 5 3 3 5 5 5 5 5 5 3 5 5 3 3 3 5 5 5 3 3 5 5 5 5 5 5 5 5 5 5 3 5 5 5 5 5 3 5 5 3 5 3 5 3 5 5 5 5 5 3 5 5 5 3 5 5 5 3 3 5 3 5 5 3 3 5 5 5 5 5 5 3 5 3 5 5 5 5 5 5 5 5 3 5 5 5 5 5 5 5 5 5 5 5 5 5 5 5 5 5 5 5 5 5 5 5 5 3 5 5 5 3 3 5 5 5 3 5 5 3 3 3 5 5 5 5 3 5 5 5 5 5 5 3 5 5 3 5 5 3 5 5 5 5 5 5 3 3 5 3 3 5 3 5 5 5 5 3 3 5 5 5 5 3 5 5 3 5 5 5 5 5 5 5 5 3 5 5 5 5 5 5 5 5 5 5 5 5 5 5 5 5 5 3 3 5 5 5 5 5 5 5 3 5 5 5 5 5 5 5 5 5 5 5 5 5 5 5 5 5 5 5 5 3 5 3 5 5 5 5 5 5 5 5 5 5 5 5 5 5 5 5 5 3 3 5 3 5 5 5 5 5 5 5 5 5 3 5 5 5 5 5 5 5 5 5 5 3 3 5 5 5 5 5 5 3 5 5 5 5 5 3 5 5 5 5 5 5 3 5 5 5 5 5 5 5 5 5 3 5 5 5 5 5 3 5 5 5 3 5 5 5 5 5 5 5 5 5 5 5 5 5 5 5 3 5 5 5 5 3 5 5 5 5 5 5 5 5 5 5 5 5 5 5 5 5 5 5 5 5 3 5 5 5 5 5 5 5 5 5 5 5 5 5 3 5 5 5 5 3 5 5 5 3 5 3 5 3 5 5 5 3 5 5 5 5 5 5 5 5 5 5 5 5 5 5 3 3 5 5 5 5 5 5 5 5 5 5 5 5 5 5 5 3 5 5 5 5 5 5 5 5 5 5 5 5 5 5 5 5 5 5 5 5 5 5 5 5 3 5 5 5 5 5 5 5 5 5 3 5 5 5 5 5 5 3 3 5 5 5 3 3 5 5 5 3 5 5 5 3 5 5 3 5 5 3 3 5 5 5 3 5 5 5 5 5 5 3 5 3 3 5 3 5 3 5 5 5 5 5 5 5 5 5 5 5 5 5 5 5 5 5 5 5 5 5 5 5 5 5 5 5 5 5 5 3 5 5 5 5 5 5 5 5 5 5 3 5 5 5 5 5 5 5 5 3 5 5 5 5 5 5 5 5 5 5 5 5 5 5 5 5 5 5 5 5 5 5 5 5 5 5 3 5 3 5 5 5 5 5 5 3 5 5 5 5 5 5 5 5 5 5 5 5 5 5 5 5 5 5 3 5 5 3 5 5 5 5 3 5 5 5 5 5 5 5 5 5 5 5 5 5 5 3 5 5 5 5 5 5 5 5 5 5 5 5 5 3 3 5 5 5 5 5 3 5 5 5 5 5 5 5 5 5 5 5 5 5 3 5 5 5 5 5 5 5 5 5 5 5 5 5 5 5 3 5 5 3 5 5 5 5 5 5 5 5 3 5 5 5 5 5 3 5 5 5 3 5 5 5 5 3 5 5 5 5 5 5 5 5 5 3 5 5 5 5 5 5 5 5 5 5 5 5 3 5 5 5 5 5 3 5 5 5 5 5 5 5 5 5 5 5 5 3 5 5 3 5 5 5 5 5 5 5 5 5 5 3 5 5 5 5 5 5 5 5 5 5 5 3 5 5 5 5 3 5 5 5 5 5 5 5 5 5 5 5 5 5 5 5 5 5 5 5 5 5 5 5 3 5 5 5 5 5 5 5 5 5 5 5 5 5 5 5 5 5 5 5 5 5 5 5 5 5 5 5 5 5 5 5 5 5 5 5 5 5 3 5 5 5 3 5 5 5 5 5 5 5 5 5 5 3 5 5 3 3 5 5 3 5 5 3 3 5 5 3 3 3 5 5 3 5 5 3 5 5 5 5 5 5 5 5 3 5 3 3 5 5 3 5 5 3 5 3 5 3 5 5 5 5 5 3 5 5 5 3 3 5 3 5 3 3 5 5 5 5 5 5 3 3 5 5 5 3 5 5 3 5 3 3 5 3 5 3 5 3 3 5 5 3 5 5 5 5 5 5 5 5 3 3 5 3 3 5 3 3 5 3 3 5 5 5 3 5 3 5 3 3 5 5 5 5 5 5 5 5 5 5 5 5 5 5 5 5 5 5 3 5 3 5 5 3 5 5 5 5 5 3 5 5 5 5 3 3 5 3 5 5 3 5 5 5 5 3 3 5 5 3 5 5 5 5 5 5 5 5 5 5 5 5 3 5 5 5 5 5 5 5 5 3 5 5 5 5 5 5 5 5 5 5 5 5 5 5 5 5 5 5 5 5 5 5 5 5 5 5 3 5 5 5 5 5 5 5 5 5 3 5 3 5 5 5 3 5 5 5 5 5 5 5 5 5 5 3 3 5 5 5 3 3 5 3 5 5 5 3 3 5 5 5 5 5 5 3 5 5 5 3 5 5 5 5 5 5 5 5 5 5 5 5 3 5 5 5 5 5 5 5 5 5 5 3 3 5 5 5 5 5 3 5 5 5 3 5 5 5 5 5 5 5 5 5 5 5 5 5 5 5 5 5 5 3 3 5 5 5 5 5 5 5 5 5 3 5 3 5 5 5 5 3 5 3 5 5 5 5 3 5 5 3 5 5 5 5 5 5 3 5 5 5 5 5 5 5 5 5 5 5 5 5 5 5 5 5 5 5 5 5 5 3 5 5 5 5 5 5 5 5 5 5 5 3 5 3 5 5 3 5 3 5 3 5 5 3 3 5 3 3 3 3 5 5 5 3 3 5 5 5 3 5 5 5 5 5 5 5 5 5 5 5 5 3 5 3 5 5 5 5 5 5 5 5 5 5 5 5 5 3 5 5 5 5 5 3 5 5 3 5 5 5 5 3 5 5 5 5 3 5 5 3 5 5 5 3 5 3 5 5 3 3 5 5 5 5 5 5 5 5 5 5 5 5 5 5 5 5 5 5 3 5 5 5 5 5 5 5 5 3 5 5 5 5 5 5 5 5 5 5 5 3 3 3 5 5 5 5 5 3 5 5 5 5 3 3 3 3 5 5 3 5 5 5 3 3 5 5 5 5 5 5 5 5 5 5 5 3 5 5 5 5 5 5 5 5 5 5 5 5 5 5 5 5 5 5 5 3 5 5 5 5 5 5 5 3 5 5 5 5 3 5 5 5 5 3 5 5 5 3 5 5 5 5 5 5 3 5 5 3 5 5 5 5 5 5 5 5 3 5 5 3 5 5 5 5 5 5 5 5 3 3 3 5 5 5 5 5 3 5 5 5 3 5 5 5 3 5 5 3 5 5 5 3 5 5 5 5 5 5 5 5 3 5 5 5 3 5 5 5 5 5 5 3 5 5 5 5 5 5 3 5 3 5 3 5 5 5 5 3 5 5 5 3 5 5 5 5 5 5 5 5 3 5 5 5 5 5 5 5 3 5 3 5 3 5 5 5 5 5 5 3 5 5 3 5 5 5 3 5 5 5 5 3 5 5 5 5 5 5 5 5 5 3 5 5 5 5 5 5 5 5 5 3 5 5 5 5 5 5 5 5 5 5 3 5 5 5 5 5 5 5 5 5 5 5 5 5 5 5 5 5 3 5 5 5 5 5 5 5 5 5 5 3 5 5 5 5 5 5 5 3 3 5 5 5 5 5 3 5 5 5 5 5 5 5 3 5 5 5 5 5 5 5 5 5 5 5 5 5 5 5 5 5 5 5 5 5 5 5 5 5 5 5 5 5 5 5 5 5 5 3 5 5 5 5 3 5 5 5 5 5 5 5 3 5 5 5 3 5 5 3 5 5 5 3 5 5 5 5 5 5 5 5 3 5 5 3 5 3 5 5 3 5 5 5 3 5 5 3 3 5 5 5 5 5 3 5 5 5 5 5 5 5 3 5 3 5 5 5 3 5 5 5 3 5 5 5 5 5 5 5 5 5 5 3 5 5 3 3 5 5 3 5 5 3 5 3 5 5 5 3 5 5 5 3 3 5 5 5 5 3 3 5 3 5 5 5 5 5 5 3 5 5 3 5 5 5 5 5 3 3 5 5 5 5 5 5 5 3 5 5 5 5 5 5 5 5 5 5 5 5 3 5 5 5 5 5 3 5 5 5 5 5 5 5 5 5 5 5 5 5 5 5 5 5 5 5 3 5 5 5 5 5 5 5 3 5 5 5 5 5 3 5 5 5 5 5 5 5 5 5 5 5 5 5 5 5 5 5 5 5 5 3 5 5 5 5 5 3 5 5 5 5 5 5 5 5 5 5 3 5 5 5 3 3 5 3 5 5 3 5 5 5 5 5 3 3 3 5 5 5 3 5 5 5 3 5 5 5 5 5 5 5 5 5 5 5 5 5 5 5 5 5 5 5 5 5 5 5 5 5 5 5 5 5 5 3 5 5 5 3 5 5 5 5 5 3 5 5 5 5 3 5 5 5 5 5 5 5 5 5 5 5 5 5 3 5 5 5 5 5 3 5 5 5 5 5 5 5 3 5 5 5 5 5 3 5 5 5 5 3 5 5 5 5 5 5 5 5 5 5 3 5 5 5 3 5 5 5 5 5 5 5 5 5 5 3 5 5 5 5 5 5 3 5 5 5 5 5 3 3 5 5 5 3 5 5 5 5 5 3 5 5 5 5 5 5 5 5 3 5 5 5 3 5 5 5 5 5 5 5 5 5 5 5 5 5 5 5 5 5 5 5 5 5 5 5 5 5 5 5 5 5 5 5 5 5 5 5 5 5 5 3 5 5 5 5 5 5 5 5 5 3 5 5 3 5 5 3 5 5 3 5 5 5 5 3 5 5 3 5 5 5 5 5 5 5 3 5 5 5 5 3 3 3 5 5 5 5 5 5 5 5 5 5 3 5 3 5 5 5 5 5 5 3 5 5 5 3 5 5 5 5 3 5 5 3 5 5 5 5 5 5 5 5 5 5 5 5 5 5 5 5 5 5 5 5 3 5 5 5 5 5 5 5 5 5 5 5 5 5 5 3 5 3 5 5 5 5 5 5 3 5 5 5 5 5 3 5 5 5 3 5 5 5 3 5 5 5 5 5 5 3 5 5 5 3 5 5 5 5 5 5 5 5 5 5 5 5 5 5 5 3 5 5 5 5 5 5 5 5 3 5 5 5 5 5 5 5 5 5 5 5 5 5 5 5 5 5 5 5 5 5 5 5 5 5 5 5 5 5 3 5 5 5 5 5 5 5 5 5 5 5 3 5 5 5 5 5 3 5 3 5 5 5 5 5 5 5 5 3 5 5 5 3 5 3 5 5 5 5 5 5 5 3 3 5 5 5 5 5 5 5 5 5 5 5 5 3 5 5 5 5 5 5 5 5 5 5 5 5 5 5 5 5 5 5 5 5 5 5 5 5 5 5 5 3 5 5 5 3 5 5 5 5 5 5 5 3 5 5 5 5 5 5 5 5 5 5 3 5 5 5 5 5 5 3 5 5 5 3 5 5 3 5 5 5 5 5 5 5 5 5 5 5 5 5 3 5 5 3 5 5 5 5 5 5 3 5 3 5 5 5 5 5 5 5 5 5 5 5 5 5 5 5 5 5 3 5 5 5 5 5 5 5 5 5 5 5 5 5 5 5 5 3 5 5 5 5 5 5 3 5 5 5 3 3 5 5 5 5 5 5 3 5 5 5 5 5 3 5 5 5 5 5 5 5 3 5 5 5 5 5 5 5 5 5 5 5 5 5 3 5 5 3 5 5 3 5 5 5 5 5 5 5 5 5 3 5 5 5 5 5 5 3 5 3 5 5 5 5 5 3 3 5 5 5 5 5 5 3 5 5 5 5 5 5 5 5 5 5 3 5 5 3 5 3 3 5 5 3 5 5 5 5 3 3 5 5 5 5 5 3 5 5 5 5 5 3 3 5 5 5 3 5 5 5 5 5 5 5 5 5 3 5 5 5 5 5 5 3 5 5 5 5 5 5 5 5 5 5 5 5 5 5 5 5 5 5 5 5 5 5 5 5 5 5 5 5 5 5 5 3 3 5 5 5 5 5 5 5 5 5 5 5 5 5 5 5 5 5 5 5 5 3 5 5 5 5 3 5 5 5 5 5 5 5 5 5 5 5 5 3 5 5 5 5 5 5 5 3 3 5 5 5 5 5 3 5 5 5 5 5 3 5 5 5 5 5 5 5 5 5 5 5 5 5 5 5 5 5 5 5 5 5 3 5 5 5 5 5 5 5 5 5 3 5 5 5 5 5 3 5 5 5 5 5 5 5 5 5 5 5 5 5 5 5 5 5 5 3 5 5 5 5 5 5 5 5 5 3 5 3 3 5 3 5 3 5 5 5 5 5 5 5 5 5 5 5 5 5 5 5 5 5 5 5 5 5 5 5 3 5 5 5 5 5 5 5 5 3 5 3 5 5 5 5 5 5 3 3 5 3 5 5 5 5 3 5 3 5 5 5 5 5 5 5 5 5 3 3 5 5 5 5 5 5 5 5 5 5 5 5 5 5 5 5 3 5 5 5 5 5 5 5 5 5 5 3 3 5 5 5 5 5 5 5 5 5 5 5 5 5 5 5 5 5 5 5 5 5 5 5 5 5 5 5 5 5 5 5 5 5 5 5 5 5 5 5 5 5 5 5 5 3 5 5 5 5 5 5 3 5 5 5 5 5 5 5 5 5 5 5 5 5 5 5 5 5 5 5 5 5 5 3 5 5 5 3 3 5 5 5 5 5 5 5 5 5 5 5 5 5 5 5 3 5 5 5 5 5 5 5 5 3 5 5 5 5 5 5 5 5 5 5 5 5 5 3 5 5 5 5 3 5 5 5 5 5 3 5 5 5 3 5 5 5 3 5 5 5 5 5 3 5 5 3 5 3 5 5 5 5 5 5 3 5 5 5 5 5 5 5 5 5 5 5 5 3 5 5 5 3 5 5 5 5 5 5 5 5 3 5 5 5 5 5 5 3 5 5 5 5 5 5 5 5 5 5 5 5 5 5 5 5 3 5 5 5 5 5 5 5 5 5 5 5 5 5 3 5 3 5 3 5 5 5 3 5 5 5 3 3 3 3 5 3 5 5 5 5 5 3 5 5 5 5 5 3 5 5 5 5 5 5 5 5 5 5 5 5 5 5 5 5 3 5 5 5 5 5 5 5 5 5 5 5 5 5 5 5 5 5 3 5 5 5 3 5 5 5 5 5 5 3 5 5 5 5 5 5 5 5 3 5 5 5 5 5 5 5 5 5 5 5 5 5 5 5 5 5 5 5 5 5 5 5 5 3 3 5 5 5 5 5 3 5 5 5 5 5 5 5 5 3 5 5 3 5 5 5 5 5 5 5 5 5 5 5 5 5 5 3 5 5 5 5 5 5 3 5 5 5 5 5 5 5 5 5 5 5 3 5 5 3 5 5 5 5 5 5 5 5 5 5 5 5 5 5 5 5 5 5 5 5 5 5 5 5 5 5 5 5 5 5 5 5 5 3 5 5 5 5 5 5 5 5 5 5 5 5 5 5 5 3 3 5 5 5 5 3 5 5 5 5 5 5 3 5 5 5 5 5 5 5 5 5 5 3 5 5 5 5 5 3 5 5 5 5 3 3 5 5 5 3 5 5 5 5 5 5 5 5 3 5 5 5 5 3 3 3 5 3 5 3 5 5 5 3 5 5 5 3 3 5 5 5 5 3 5 5 3 5 5 5 3 5 5 5 5 5 3 5 5 5 5 5 5 5 3 5 5 5 3 5 5 5 5 3 5 5 5 5 5 5 3 5 5 5 5 5 5 5 3 5 5 5 5 5 5 5 5 5 3 5 3 5 5 5 5 5 5 5 5 5 3 3 3 5 5 3 5 5 5 5 5 5 5 5 5 5 5 5 5 5 5 5 3 5 3 5 5 5 5 5 5 5 5 5 5 5 3 5 5 5 3 5 5 5 5 5 5 5 5 5 3 5 5 5 5 5 5 5 5 5 5 5 3 5 3 5 5 5 5 3 5 5 5 3 5 5 5 5 5 5 5 5 3 5 5 3 5 5 5 5 5 3 5 5 5 3 5 5 5 5 5 5 5 5 5 3 3 5 5 5 5 3 5 5 3 5 5 5 3 5 5 5 5 3 3 5 5 5 5 5 5 5 5 5 5 5 5 5 3 5 5 5 5 5 3 5 5 5 5 5 5 5 5 5 5 5 5 5 5 5 5 5 5 5 5 5 5 5 5 5 5 5 5 5 5 5 5 5 5 3 5 5 5 3 5 5 5 5 5 3 5 5 5 5 5 5 5 5 5 5 5 3 5 5 3 5 5 5 5 3 3 5 5 5 5 5 5 5 5 5 5 3 5 3 5 5 5 3 5 5 3 5 5 5 5 5 5 5 3 5 5 3 3 5 5 3 3 5 5 5 5 3 5 5 3 5 5 5 5 5 5 5 5 5 5 5 5 5 5 5 5 5 5 5 5 5 5 5 5 5 5 5 5 5 5 5 5 5 5 5 3 3 5 5 5 5 5 5 5 5 5 5 5 5 5 5 5 5 5 5 5 5 5 5 5 5 5 5 5 5 5 5 5 5 3 5 5 5 5 5 5 5 5 5 5 5 5 5 5 5 5 3 5 5 3 5 5 5 5 5 5 5 5 5 5 5 5 5 5 5 5 5 5 5 5 5 5 5 5 3 5 5 5 5 5 5 5 3 5 5 5 5 5 3 5 5 3 5 5 5 5 3 5 3 5 5 3 3 5 5 5 5 5 5 5 5 5 5 5 5 5 5 5 5 5 5 5 5 5 3 3 5 5 3 5 3 5 5 5 5 5 5 5 5 5 5 5 5 3 5 5 5 5 5 5 5 5 5 5 5 5 5 3 5 5 3 5 5 5 5 3 5 5 5 5 5 5 5 5 5 5 3 5 5 5 5 5 5 5 5 5 5 5 5 5 5 5 3 5 5 3 5 5 5 5 5 5 5 3 5 5 5 5 5 3 3 3 5 5 5 5 5 3 5 3 5 5 3 5 5 5 5 5 5 5 3 5 5 5 5 5 5 5 5 5 5 5 5 5 5 5 5 5 5 3 5 5 3 5 5 3 5 5 5 5 5 5 5 5 5 3 5 3 5 5 5 3 5 5 5 5 3 5 5 3 5 5 5 5 3 5 5 3 3 5 5 5 5 5 5 5 5 5 5 3 5 5 5 5 5 5 5 5 5 5 5 5 5 5 5 5 3 5 5 5 3 5 5 3 5 5 5 5 3 5 5 5 5 5 3 5 5 5 5 5 5 5 3 5 5 5 3 3 5 5 5 5 5 3 5 5 5 5 5 5 3 5 5 5 5 5 5 5 5 3 5 5 3 5 5 5 5 5 5 5 5 3 3 5 5 5 5 5 5 5 5 5 5 3 5 5 5 5 3 5 5 5 5 5 5 5 5 5 5 5 5 3 5 5 5 5 3 5 5 5 5 5 5 5 5 5 5 5 5 5 5 3 3 5 5 3 5 5 3 5 5 5 5 5 5 5 5 3 5 5 5 5 5 5 5 5 5 5 5 5 5 5 5 5 5 5 5 5 5 5 5 5 5 5 5 5 5 5 3 5 5 5 5 5 5 5 5 5 5 5 5 5 5 5 5 3 5 5 3 5 5 5 5 5 3 5 5 3 5 3 5 5 5 5 5 5 5 3 5 5 3 3 5 3 5 3 5 5 5 5 5 5 3 5 5 5 5 5 5 3 5 5 5 3 5 5 5 5 5 5 5 5 5 5 5 5 5 5 3 5 5 5 5 5 5 5 5 5 3 5 5 5 5 5 5 3 5 5 5 5 5 3 5 5 5 5 5 5 5 3 5 3 5 5 5 5 5 5 5 5 5 5 5 5 5 5 5 5 5 5 5 5 5 5 3 5 5 5 5 5 5 5 5 5 5 5 5 5 5 5 5 5 5 5 5 5 5 5 5 5 5 5 3 5 5 5 5 5 5 5 5 5 5 5 5 5 5 5 5 5 5 5 5 5 5 5 5 5 5 5 5 5 5 5 5 5 5 5 5 5 5 5 5 5 5 5 5 3 5 5 5 5 5 5 3 5 3 5 3 5 5 5 5 3 5 5 5 5 5 5 5 5 5 5 5 5 3 3 5 5 5 5 5 5 5 5 5 5 5 5 5 5 5 5 5 5 5 3 5 5 5 3 5 5 5 5 5 5 5 5 5 5 5 5 5 5 5 5 3 5 5 5 5 5 5 5 5 3 5 5 5 5 5 3 5 5 5 5 5 5 5 5 5 3 5 5 5 5 5 5 5 5 3 5 5 3 5 5 5 5 5 5 5 5 5 5 5 5 3 5 5 5 5 5 5 5 5 5 5 5 5 5 5 5 5 5 5 5 5 5 5 5 5 5 5 3 5 5 5 5 5 5 5 5 5 5 3 3 5 5 5 5 5 5 5 5 5 5 5 5 5 5 5 5 5 3 5 5 5 5 3 5 5 5 5 5 5 5 3 3 5 3 5 5 5 5 5 3 5 3 5 5 3 5 5 5 3 5 5 5 5 5 5 5 5 5 5 5 5 5 5 5 5 5 5 5 5 5 5 5 5 5 5 5 5 5 3 3 5 5 3 5 5 5 5 5 5 5 5 3 3 5 5 5 5 5 5 5 5 5 5 5 5 5 3 5 5 5 5 5 3 3 5 5 3 5 5 5 5 5 5 5 5 5 5 5 5 5 3 5 5 5 5 5 5 5 5 5 5 5 5 5 5 5 5 5 5 5 5 3 5 3 5 5 3 5 3 5 5 3 5 5 5 5 3 5 5 5 5 5 5 3 5 5 5 3 5 5 5 5 5 5 3 5 5 5 5 5 5 3 5 5 5 5 5 5 5 5 5 5 5 5 5 5 5 5 5 5 5 3 5 5 5 5 5 5 5 3 5 5 5 5 5 5 5 5 5 3 5 5 5 5 3 5 5 3 5 5 3 5 5 3 5 5 3 5 5 5 5 5 5 5 3 5 5 5 5 5 5 5 5 5 5 5 5 5 5 5 5 5 5 5 5 5 5 5 5 5 5 5 5 5 5 5 3 5 3 5 5 5 5 5 5 5 3 5 5 5 5 3 5 5 5 5 5 5 5 5 5 5 5 5 5 5 5 3 5 5 5 5 5 5 5 5 5 5 5 5 5 5 5 5 3 5 5 5 5 5 3 5 5 5 5 5 5 5 5 5 5 5 5 3 5 5 5 5 5 5 5 3 5 3 5 5 5 5 5 5 5 5 5 5 3 5 5 5 5 5 5 5 5 5 5 5 5 5 5 5 5 5 5 3 5 5 5 5 5 5 5 5 5 5 5 5 5 5 5 5 5 5 5 5 5 5 3 5 5 5 5 3 5 5 3 5 5 5 3 5 5 5 5 5 5 5 5 3 5 5 5 5 5 3 5 5 5 5 5 5 5 5 5 5 5 5 5 3 5 5 5 5 5 5 5 5 3 5 3 5 5 5 5 5 3 5 3 3 5 5 3 5 3 5 5 5 5 5 5 5 5 5 5 5 5 3 5 5 5 5 5 5 5 5 5 5 5 5 5 5 5 5 5 5 5 5 5 5 5 5 5 5 5 5 5 5 5 5 3 5 5 5 5 5 5 3 5 5 5 3 5 3 5 5 5 5 5 5 5 5 5 5 5 5 5 5 3 5 5 3 5 5 5 3 5 5 5 5 5 5 5 5 3 5 5 5 5 3 5 5 5 5 5 3 5 5 3 3 5 3 5 5 5 3 5 3 3 5 5 3 5 3 5 3 3 5 5 3 5 5 5 5 5 3 5 5 5 5 5 3 3 5 5 5 5 5 5 5 3 5 5 5 5 5 5 5 5 5 5 5 3 5 3 5 5 5 5 5 5 5 5 5 5 5 5 5 5 5 5 5 5 3 5 3 5 5 3 5 3 5 5 5 5 5 5 5 3 5 5 5 5 5 5 5 5 5 5 5 5 5 5 5 5 5 5 3 5 5 5 5 5 5 5 3 5 5 5 5 5 5 5 5 5 5 5 5 5 5 5 3 5 5 5 5 5 5 5 5 3 5 5 5 5 5 5 5 5 5 5 5 5 5 5 3 5 5 5 5 3 5 5 5 5 5 5 5 5 3 5 5 5 5 5 3 5 5 5 5 3 5 3 5 5 5 5 5 5 5 5 5 5 5 5 5 5 5 5 5 5 5 5 5 3 3 5 3 3 5 5 5 3 3 5 5 3 5 5 3 5 5 5 5 5 5 3 5 5 5 5 5 3 5 3 5 3 5 5 3 5 5 5 5 5 3 5 5 5 5 5 5 5 5 5 5 3 5 5 5 5 5 5 3 5 5 5 5 5 5 5 3 5 5 5 5 5 5 5 5 5 5 5 5 5 5 3 5 5 5 3 5 5 5 5 5 5 5 5 5 5 5 5 5 5 5 5 5 5 5 5 5 5 5 5 5 5 5 5 5 3 5 5 5 5 3 3 5 5 5 5 5 5 3 3 5 5 5 5 5 5 5 5 5 3 5 5 5 5 5 5 5 3 3 5 5 3 5 3 5 5 5 5 5 5 5 5 5 5 5 5 5 5 5 3 5 5 5 5 3 5 5 5 5 5 5 5 3 5 5 5 5 5 5 5 5 3 5 5 5 5 5 5 5 3 3 5 5 5 5 3 5 5 3 5 5 5 3 5 5 5 3 5 5 5 5 5 5 5 5 5 5 3 5 5 5 5 5 5 5 5 5 3 5 5 5 5 5 5 5 5 5 5 5 3 5 5 5 3 5 5 5 5 5 3 5 3 5 5 5 3 5 5 3 3 5 5 5 5 5 5 5 5 3 5 5 5 5 5 5 3 5 5 5 3 5 5 5 5 5 3 5 5 5 5 5 5 5 5 5 5 5 5 5 5 5 5 5 5 5 5 5 5 3 5 5 5 5 5 5 5 5 5 5 5 5 3 5 5 5 5 5 5 5 5 5 5 5 5 5 5 5 5 3 5 5 5 5 5 5 5 5 5 5 5 5 5 5 5 5 5 5 5 5 5 5 5 5 5 5 5 5 5 5 5 5 5 5 5 5 5 5 3 5 5 5 3 5 5 5 5 5 5 5 3 5 5 5 5 5 5 3 5 5 5 5 5 5 5 5 5 5 5 5 5 5 3 5 5 5 5 3 5 5 5 5 5 5 5 5 3 3 5 5 5 5 5 5 5 5 5 5 5 5 5 5 5 5 5 5 5 5 5 5 3 5 5 3 5 5 5 5 5 5 5 5 5 5 5 5 5 5 5 5 5 5 5 5 5 5 5 5 5 5 5 5 5 3 5 5 3 5 5 5 3 5 5 5 3 5 5 3 5 5 5 5 5 5 5 5 5 5 5 5 5 3 5 5 5 5 5 5 5 5 5 5 5 5 5 3 5 5 5 3 5 5 5 5 5 5 3 5 3 5 5 5 5 3 5 5 5 5 3 5 5 3 5 5 5 5 5 5 5 5 5 5 5 5 5 5 5 5 5 5 5 5 5 5 5 5 5 5 5 5 5 5 5 5 5 5 5 5 5 5 5 3 5 5 5 3 5 3 5 3 5 5 3 5 3 3 5 5 5 5 3 5 5 5 5 5 5 5 3 5 5 3 5 5 5 5 5 3 5 5 5 5 5 5 5 5 5 5 5 5 3 5 5 5 3 5 5 3 5 5 3 5 3 5 5 5 5 5 3 5 5 3 5 5 5 5 5 5 5 5 5 5 3 5 5 5 5 5 5 5 5 5 5 3 5 5 5 5 5 5 5 3 5 5 5 5 5 3 3 5 5 5 5 5 5 5 3 3 5 5 3 5 5 5 5 5 5 5 5 5 5 5 3 5 5 5 5 5 5 5 5 5 5 5 5 5 5 3 5 5 5 5 5 5 5 5 5 5 5 5 5 5 5 5 5 5 5 5 5 5 5 3 5 5 5 5 5 5 5 5 5 5 5 5 5 5 5 5 5 5 5 5 5 5 5 5 5 5 5 5 5 5 5 5 5 5 5 5 5 5 5 5 5 5 5 5 5 5 5 5 5 5 5 5 5 5 5 5 5 5 5 5 5 5 5 5 5 5 5 5 3 5 5 5 5 5 5 5 3 5 5 5 5 5 5 5 5 5 5 5 5 5 5 5 5 5 5 5 5 5 5 5 5 5 3 5 5 5 5 5 5 5 5 5 5 5 5 5 5 5 5 5 5 5 5 5 5 5 5 5 5 5 5 5 5 5 5 5 5 5 5 5 5 5 5 5 3 5 3 5 5 5 5 5 5 5 5 5 5 5 3 5 5 3 5 5 5 5 3 5 5 5 5 5 5 5 5 5 5 5 5 5 5 5 5 5 5 5 5 5 5 5 3 5 5 5 3 5 5 5 5 5 5 5 5 5 5 3 5 5 5 5 5 5 5 3 5 3 5 5 5 3 5 5 5 3 5 5 5 5 5 5 3 3 3 5 5 3 5 5 5 5 3 5 5 5 3 5 5 5 5 5 5 5 5 3 5 5 5 5 5 5 5 5 5 5 5 5 5 5 3 5 5 5 5 5 3 5 5 5 5 5 5 5 3 5 3 5 5 5 3 5 5 5 5 5 5 5 5 5 5 5 5 5 5 5 5 5 5 5 5 5 5 5 5 5 5 5 5 5 5 5 5 5 5 5 5 5 5 5 5 5 3 5 5 5 5 5 5 5 5 5 3 5 5 5 5 3 5 5 5 5 5 5 5 5 5 5 5 5 5 5 5 5 5 5 5 5 3 5 3 5 5 5 5 5 5 5 5 5 5 5 5 5 5 5 5 5 5 5 5 5 5 5 5 5 5 5 5 3 5 5 5 5 5 5 5 5 5 5 5 5 5 5 5 3 3 5 3 3 5 5 5 5 5 5 5 5 5 5 3 5 3 5 5 5 5 5 5 5 3 5 5 3 5 5 5 5 5 5 5 3 5 5 5 5 5 5 5 5 5 5 5 5 5 5 5 5 5 3 5 5 5 5 5 5 5 3 5 5 5 5 5 5 5 5 5 5 5 5 5 5 5 5 5 5 5 5 5 5 5 5 5 5 5 5 5 3 5 5 5 5 5 5 5 5 5 5 5 5 5 5 5 5 5 5 5 5 5 5 5 5 5 5 5 3 5 5 5 3 5 5 5 5 5 5 5 5 5 5 5 3 5 3 5 5 5 5 5 5 3 5 5 5 5 3 5 5 3 5 5 5 5 5 5 5 5 5 5 3 5 5 3 5 5 5 5 5 5 5 5 5 5 5 5 5 5 5 5 5 5 3 5 5 5 5 3 5 3 5 5 5 5 5 5 5 5 5 5 5 3 5 5 5 5 3 5 5 5 5 5 5 5 5 5 5 5 5 5 5 5 3 5 5 5 3 5 5 5 3 5 5 5 5 5 5 5 3 5 5 5 5 5 5 5 3 5 5 5 5 5 5 5 5 5 5 5 5 5 5 5 3 5 5 3 5 5 5 5 5 5 5 5 5 5 3 5 5 5 5 5 5 5 5 5 5 5 5 5 5 5 5 5 5 5 5 5 5 5 5 5 5 5 5 5 5 5 5 3 5 5 5 3 5 5 5 5 5 5 3 3 5 5 5 5 5 3 5 5 5 5 3 5 5 5 5 5 5 5 5 3 3 5 5 5 5 5 5 5 5 5 5 5 5 5 5 5 5 5 5 5 5 3 3 5 5 5 5 5 3 5 5 5 5 3 5 3 5 3 3 5 5 3 5 5 5 5 5 5 5 5 5 5 5 3 5 5 5 5 5 5 5 5 5 5 5 5 5 3 3 5 5 5 5 5 5 5 5 5 5 5 5 5 5 5 5 5 5 5 5 5 5 5 5 5 5 5 5 5 5 5 5 5 5 5 5 5 3 3 5 5 3 3 5 5 3 3 5 5 5 5 5 3 5 5 5 5 5 3 5 5 5 5 3 5 5 5 5 5 3 5 5 3 5 5 5 5 5 5 5 5 5 5 5 5 5 5 5 5 5 5 5 5 5 5 5 5 5 5 5 5 3 5 5 5 5 3 5 5 5 3 3 5 5 5 3 5 5 5 5 3 3 5 3 5 5 5 3 5 5 5 5 5 5 5 5 5 5 5 5 5 5 5 5 5 5 5 5 3 5 5 5 3 5 5 5 3 5 5 5 5 5 5 5 3 5 5 5 5 5 5 5 5 5 5 3 5 5 5 5 5 5 5 5 5 5 5 3 5 5 5 5 5 5 5 5 3 3 3 5 5 5 5 5 5 5 5 5 5 5 5 5 5 5 5 5 5 5 5 5 5 5 5 5 5 3 5 5 5 3 5 5 5 5 5 5 5 5 5 5 3 5 5 3 5 5 5 5 5 5 5 3 5 5 3 5 5 5 5 5 3 5 5 5 3 3 5 5 5 5 5 5 5 5 5 3 5 3 5 5 3 5 5 5 3 5 5 5 5 5 3 5 5 5 5 5 5 5 5 3 5 3 5 5 5 5 5 5 5 5 5 5 5 5 5 3 5 5 5 5 5 5 5 5 5 5 5 3 5 5 3 5 5 5 5 5 5 5 5 3 5 5 5 5 3 5 3 5 5 5 5 5 3 5 5 3 5 5 5 5 5 5 5 5 5 3 5 5 5 5 3 5 5 5 5 5 5 5 3 5 5 3 5 5 5 5 5 5 5 3 5 5 5 5 5 5 5 5 5 5 5 5 5 3 5 5 3 5 3 3 5 3 5 5 5 5 5 3 5 5 5 3 5 5 5 5 5 3 5 5 3 5 3 5 5 5 5 5 3 3 5 5 3 3 5 5 5 5 5 5 3 5 3 5 5 3 5 5 5 5 5 3 5 5 5 3 5 5 5 5 5 5 5 5 3 3 5 5 5 5 5 3 5 5 3 5 3 3 5 3 3 5 5 3 3 3 5 5 3 5 5 3 5 5 3 3 3 5 5 5 3 5 5 5 3 5 5 5 3 5 5 5 3 5 3 5 3 5 5 5 5 3 5 3 3 3 5 3 5 5 5 5 3 5 3 3 3 5 5 3 5 5 5 5 5 3 5 3 3 5 5 5 3 5 5 5 3 5 5 5 5 5 5 5 5 5 5 5 5 5 3 5 5 5 5 5 5 3 5 5 5 5 5 5 5 5 5 5 3 5 5 5 5 3 5 5 5 3 5 5 5 5 5 5 3 5 5 5 5 3 5 5 5 5 5 5 5 3 5 5 5 5 5 5 5 5 3 5 5 5 5 5 5 5 5 3 5 5 5 5 5 5 5 5 5 5 5 5 5 5 5 5 5 5 5 5 5 5 5 5 3 5 5 3 5 5 5 5 5 5 5 5 5 3 5 5 3 5 5 5 5 3 5 5 5 5 3 5 5 5 5 3 5 5 5 5 5 5 3 5 3 5 5 5 5 5 3 5 5 5 5 5 5 5 5 5 5 5 5 5 5 5 5 5 5 5 3 5 5 5 5 3 3 5 5 5 5 5 3 5 3 5 5 5 3 5 5 3 5 5 5 3 5 5 5 5 5 5 3 5 5 5 5 5 3 5 5 5 5 5 5 3 5 5 3 5 5 3 5 5 3 5 5 5 5 5 5 5 5 5 5 5 3 5 5 3 5 3 5 5 5 5 3 5 5 5 5 5 5 3 5 5 5 5 3 5 5 3 5 5 5 5 5 5 5 5 5 5 5 5 5 5 5 5 5 5 5 5 5 5 3 5 5 5 5 5 5 5 5 5 5 5 3 5 5 5 5 5 5 5 5 5 5 5 5 5 5 5 5 5 5 3 5 5 5 5 5 5 3 5 5 5 5 5 5 5 5 5 5 5 5 5 5 5 5 5 5 5 5 3 5 3 5 5 5 5 5 5 5 5 5 5 5 5 5 3 5 5 3 5 3 5 5 5 5 5 3 5 5 5 5 5 5 3 5 5 5 5 5 5 5 5 5 3 5 3 5 5 5 5 5 5 5 5 5 3 5 5 5 5 5 5 5 5 5 5 3 5 5 5 5 5 3 5 5 3 5 5 5 5 5 5 5 5 5 5 5 5 5 5 5 3 5 5 5 5 5 5 5 5 5 5 3 5 5 3 5 5 5 5 5 3 3 5 5 3 5 5 3 3 5 5 5 5 5 3 5 5 3 5 5 5 5 5 5 5 5 3 5 5 3 5 5 5 3 5 5 5 5 5 5 5 5 5 3 3 5 3 5 5 5 5 5 5 5 5 3 5 5 5 5 5 3 5 3 5 5 5 5 5 5 5 5 5 5 5 5 5 5 3 5 5 5 5 5 5 5 5 5 5 5 3 5 5 3 5 3 5 5 3 5 5 5 5 5 5 5 5 3 5 3 5 5 5 3 5 5 5 5 5 5 5 5 5 5 5 5 5 5 5 5 5 5 5 5 5 5 3 5 5 5 5 5 5 5 5 5 5 5 5 5 5 5 5 5 5 3 5 5 5 5 5 3 3 5 5 5 
</DataArray>
</Cells>
<PointData Scalars="" Vectors="displacement," Tensors="">
<DataArray type="Float64" Name="displacement" NumberOfComponents="3" format="ascii">
-0.034997164241931472 -6.0141644118481253e-07 0 -0.034690602221883381 -7.6240223991489489e-05 0 -0.033356585028009096 8.3809945375553295e-07 0 -0.034997164241931472 -6.0141644118481253e-07 0 -0.034690602221883381 -7.6240223991489489e-05 0 -0.035000773120565175 -1.2523473599669707e-07 0 -0.034690602221883381 -7.6240223991489489e-05 0 -0.034435757371988229 0.00038281794439666138 0 -0.0348450452365077 7.0164581090030519e-05 0 -0.034690602221883381 -7.6240223991489489e-05 0 -0.033356585028009096 8.3809945375553295e-07 0 -0.034435757371988229 0.00038281794439666138 0 -0.033238416005687575 -4.0199374792276152e-05 0 -0.033357301556633343 0.00013018330369266522 0 -0.033347863982397127 -1.6500111864723053e-08 0 -0.032115042281204695 -0.00011487299825739011 0 -0.031147049656713627 2.2537601402707751e-08 0 -0.034435757371988229 0.00038281794439666138 0 -0.034689713998511049 0.00036347772710051875 0 -0.0348450452365077 7.0164581090030519e-05 0 -0.033357301556633343 0.00013018330369266522 0 -0.032799811209315445 0.00026307749217001917 0 -0.030453064146095346 6.8651618138377124e-06 0 -0.030371957745010832 9.9117295657179925e-06 0 -0.030475703385647809 8.2417648428550075e-06 0 -0.032799811209315445 0.00026307749217001917 0 -0.030983204949717836 0.00011396227999436415 0 -0.032115042281204695 -0.00011487299825739011 0 -0.032309866862387716 0.00017895248752222202 0 -0.031953767612634007 0.00020584825487123012 0 -0.032115042281204695 -0.00011487299825739011 0 -0.031147049656713627 2.2537601402707751e-08 0 -0.031953767612634007 0.00020584825487123012 0 -0.031139708210442762 -1.3013240390970691e-08 0 -0.030371957745010832 9.9117295657179925e-06 0 -0.030331788674844026 -0.00010905899922104584 0 -0.031143440149283139 4.9016858626122734e-08 0 -0.030983204949717836 0.00011396227999436415 0 -0.028798143604022962 -0.00098291517193039159 0 -0.027545731078802291 -0.00046109809182105983 0 -0.028312515926174946 -0.00045213029649222256 0 -0.034102398211522715 -1.1984980179916874e-05 0 -0.034812561427361194 0.00013356148133726167 0 -0.033703019399628754 0.00058443135075934589 0 -0.034102398211522715 -1.1984980179916874e-05 0 -0.03488498207627852 2.360502216334147e-05 0 -0.034812561427361194 0.00013356148133726167 0 -0.034698455766089487 7.5433136650699783e-05 0 -0.03475455879634478 4.214737685159303e-05 0 -0.031934748315277026 -0.00042359108133796947 0 -0.029922473771740742 -1.0484438863535265e-06 0 -0.033155559482341834 5.9457304129757751e-05 0 -0.034102398211522715 -1.1984980179916874e-05 0 -0.033703019399628754 0.00058443135075934589 0 -0.032799811209315445 0.00026307749217001917 0 -0.034698455766089487 7.5433136650699783e-05 0 -0.032799811209315445 0.00026307749217001917 0 -0.029922473771740742 -1.0484438863535265e-06 0 -0.034689713998511049 0.00036347772710051875 0 -0.034892911363875082 0.00018145678851233602 0 -0.0348450452365077 7.0164581090030519e-05 0 -0.034892911363875082 0.00018145678851233602 0 -0.034921345104155468 2.185071330692662e-05 0 -0.0348450452365077 7.0164581090030519e-05 0 -0.034892911363875082 0.00018145678851233602 0 -0.034921345104155468 2.185071330692662e-05 0 -0.034914311612135839 4.1707116018580552e-05 0 -0.034892911363875082 0.00018145678851233602 0 -0.034914311612135839 4.1707116018580552e-05 0 -0.03488498207627852 2.360502216334147e-05 0 -0.034921345104155468 2.185071330692662e-05 0 -0.035000773120565175 -1.2523473599669707e-07 0 -0.034961123324756198 -6.9272251616158529e-05 0 -0.034921345104155468 2.185071330692662e-05 0 -0.0348450452365077 7.0164581090030519e-05 0 -0.035000773120565175 -1.2523473599669707e-07 0 -0.034690602221883381 -7.6240223991489489e-05 0 -0.0348450452365077 7.0164581090030519e-05 0 -0.035000773120565175 -1.2523473599669707e-07 0 -0.035000773120565175 -1.2523473599669707e-07 0 -0.034989471549683709 -0.00017858942056260652 0 -0.034961123324756198 -6.9272251616158529e-05 0 -0.035000773120565175 -1.2523473599669707e-07 0 -0.034998191968135452 1.723419477954971e-07 0 -0.034989471549683709 -0.00017858942056260652 0 -0.034998191968135452 1.723419477954971e-07 0 -0.034989471549683709 -0.00017858942056260652 0 -0.034587607179612213 -0.00038053029972403451 0 -0.034989471549683709 -0.00017858942056260652 0 -0.034587607179612213 -0.00038053029972403451 0 -0.034790378830951763 -0.00052196286818672992 0 -0.032142249766863362 -0.0010707865455458984 0 -0.031879185654097579 -0.00045918127542275277 0 -0.033013156490510766 -0.00013970188130581353 0 -0.032142249766863362 -0.0010707865455458984 0 -0.031879185654097579 -0.00045918127542275277 0 -0.030576804432073352 -0.0012001660622209219 0 -0.033405127987955377 -0.00076342933622664368 0 -0.032715929211442306 -0.00066025292663505499 0 -0.034989471549683709 -0.00017858942056260652 0 -0.034790378830951763 -0.00052196286818672992 0 -0.035007975370404003 -0.00017240583779745431 0 -0.031118199446026645 -0.00021021171425335503 0 -0.031879185654097579 -0.00045918127542275277 0 -0.030576804432073352 -0.0012001660622209219 0 -0.031879185654097579 -0.00045918127542275277 0 -0.03227694614483316 0.00023727080438601684 0 -0.033013156490510766 -0.00013970188130581353 0 -0.031118199446026645 -0.00021021171425335503 0 -0.031879185654097579 -0.00045918127542275277 0 -0.03227694614483316 0.00023727080438601684 0 -0.034914311612135839 4.1707116018580552e-05 0 -0.034961123324756198 -6.9272251616158529e-05 0 -0.03488498207627852 2.360502216334147e-05 0 -0.034921345104155468 2.185071330692662e-05 0 -0.034914311612135839 4.1707116018580552e-05 0 -0.034961123324756198 -6.9272251616158529e-05 0 -0.034989471549683709 -0.00017858942056260652 0 -0.034961123324756198 -6.9272251616158529e-05 0 -0.035007975370404003 -0.00017240583779745431 0 -0.034961123324756198 -6.9272251616158529e-05 0 -0.035007975370404003 -0.00017240583779745431 0 -0.03488498207627852 2.360502216334147e-05 0 -0.031118199446026645 -0.00021021171425335503 0 -0.030576804432073352 -0.0012001660622209219 0 -0.029852178147635088 -0.00071661172404168774 0 -0.030576804432073352 -0.0012001660622209219 0 -0.029852178147635088 -0.00071661172404168774 0 -0.028798143604022962 -0.00098291517193039159 0 -0.032715929211442306 -0.00066025292663505499 0 -0.031934748315277026 -0.00042359108133796947 0 -0.035007975370404003 -0.00017240583779745431 0 -0.03488498207627852 2.360502216334147e-05 0 -0.034812561427361194 0.00013356148133726167 0 -0.029852178147635088 -0.00071661172404168774 0 -0.029183448889739356 -0.00062911214113331644 0 -0.029099463408918228 -0.00025020290417909714 0 -0.029852178147635088 -0.00071661172404168774 0 -0.029183448889739356 -0.00062911214113331644 0 -0.028798143604022962 -0.00098291517193039159 0 -0.028798143604022962 -0.00098291517193039159 0 -0.028746113215665975 -0.00045666779626113083 0 -0.028312515926174946 -0.00045213029649222256 0 -0.029183448889739356 -0.00062911214113331644 0 -0.028798143604022962 -0.00098291517193039159 0 -0.028746113215665975 -0.00045666779626113083 0 -0.028746113215665975 -0.00045666779626113083 0 -0.029099463408918228 -0.00025020290417909714 0 -0.028367482680399989 -8.7198813218787626e-05 0 -0.029183448889739356 -0.00062911214113331644 0 -0.028746113215665975 -0.00045666779626113083 0 -0.029099463408918228 -0.00025020290417909714 0 -0.028968215536255237 0.00019506045759740671 0 -0.028367482680399989 -8.7198813218787626e-05 0 -0.028169086498455388 0.00032754138997148353 0 -0.028968215536255237 0.00019506045759740671 0 -0.029099463408918228 -0.00025020290417909714 0 -0.028367482680399989 -8.7198813218787626e-05 0 -0.028968215536255237 0.00019506045759740671 0 -0.029099463408918228 -0.00025020290417909714 0 -0.029986767119274275 4.4513451466340033e-05 0 -0.029852178147635088 -0.00071661172404168774 0 -0.029099463408918228 -0.00025020290417909714 0 -0.029986767119274275 4.4513451466340033e-05 0 -0.031118199446026645 -0.00021021171425335503 0 -0.029852178147635088 -0.00071661172404168774 0 -0.029986767119274275 4.4513451466340033e-05 0 -0.028968215536255237 0.00019506045759740671 0 -0.029986767119274275 4.4513451466340033e-05 0 -0.029849048708150125 0.00060088743545549537 0 -0.029986767119274275 4.4513451466340033e-05 0 -0.029849048708150125 0.00060088743545549537 0 -0.031176667712212499 0.00070080051470050467 0 -0.029849048708150125 0.00060088743545549537 0 -0.031176667712212499 0.00070080051470050467 0 -0.030229603808838858 0.0016073534545256449 0 -0.029849048708150125 0.00060088743545549537 0 -0.028781045715525162 0.00058586879842322068 0 -0.030229603808838858 0.0016073534545256449 0 -0.028781045715525162 0.00058586879842322068 0 -0.030229603808838858 0.0016073534545256449 0 -0.028090943150368666 0.00073464241349255452 0 -0.028781045715525162 0.00058586879842322068 0 -0.028196391106573352 0.00056335472458936872 0 -0.028090943150368666 0.00073464241349255452 0 -0.028781045715525162 0.00058586879842322068 0 -0.028169086498455388 0.00032754138997148353 0 -0.028196391106573352 0.00056335472458936872 0 -0.028968215536255237 0.00019506045759740671 0 -0.028781045715525162 0.00058586879842322068 0 -0.028169086498455388 0.00032754138997148353 0 -0.028968215536255237 0.00019506045759740671 0 -0.029849048708150125 0.00060088743545549537 0 -0.028781045715525162 0.00058586879842322068 0 -0.031118199446026645 -0.00021021171425335503 0 -0.03227694614483316 0.00023727080438601684 0 -0.031176667712212499 0.00070080051470050467 0 -0.031118199446026645 -0.00021021171425335503 0 -0.029986767119274275 4.4513451466340033e-05 0 -0.031176667712212499 0.00070080051470050467 0 -0.031176667712212499 0.00070080051470050467 0 -0.031745054795585176 0.001671368009463662 0 -0.032414765959252176 0.00096553898862734194 0 -0.03227694614483316 0.00023727080438601684 0 -0.031176667712212499 0.00070080051470050467 0 -0.032414765959252176 0.00096553898862734194 0 -0.031414767575429423 0.0014513217946547858 0 -0.032424525287003306 0.0015370817954494563 0 -0.031075948434886418 0.0012183918213676459 0 -0.030639857501069467 0.0018337909859341883 0 -0.030378817682106353 0.0013051263350901245 0 -0.031414767575429423 0.0014513217946547858 0 -0.030306031542495452 0.0014467920561403488 0 -0.031176667712212499 0.00070080051470050467 0 -0.031745054795585176 0.001671368009463662 0 -0.030229603808838858 0.0016073534545256449 0 -0.031075948434886418 0.0012183918213676459 0 -0.031578781895878733 0.0018275550869304462 0 -0.032509605010597339 0.0015224724689681885 0 -0.031075948434886418 0.0012183918213676459 0 -0.030639857501069467 0.0018337909859341883 0 -0.031578781895878733 0.0018275550869304462 0 -0.030166520110999961 0.0015278059122129412 0 -0.030045429546818898 0.0016677557166349167 0 -0.030039010873272903 0.0013389867279784903 0 -0.030306031542495452 0.0014467920561403488 0 -0.029150154532595746 0.00081780532522234505 0 -0.030166520110999961 0.0015278059122129412 0 -0.030378817682106353 0.0013051263350901245 0 -0.030039010873272903 0.0013389867279784903 0 -0.030166520110999961 0.0015278059122129412 0 -0.030378817682106353 0.0013051263350901245 0 -0.030241688082688404 0.0017864259905899617 0 -0.030639857501069467 0.0018337909859341883 0 -0.030378817682106353 0.0013051263350901245 0 -0.030241688082688404 0.0017864259905899617 0 -0.030166520110999961 0.0015278059122129412 0 -0.030241688082688404 0.0017864259905899617 0 -0.030045429546818898 0.0016677557166349167 0 -0.027295512386358394 0.00011342581404106611 0 -0.027389156455574316 0.00011276521804960823 0 -0.027048795582791753 -0.0001014138243651924 0 -0.028680171586430891 0.00089273422116423033 0 -0.028549674846373919 0.00090659157954753561 0 -0.027295512386358394 0.00011342581404106611 0 -0.027048795582791753 -0.0001014138243651924 0 -0.026596785962954238 -9.0396282351790243e-05 0 -0.027295512386358394 0.00011342581404106611 0 -0.027562184164449641 0.00034698140235942773 0 -0.027389156455574316 0.00011276521804960823 0 -0.027295512386358394 0.00011342581404106611 0 -0.027562184164449641 0.00034698140235942773 0 -0.028090943150368666 0.00073464241349255452 0 -0.028680171586430891 0.00089273422116423033 0 -0.029150154532595746 0.00081780532522234505 0 -0.027562184164449641 0.00034698140235942773 0 -0.028090943150368666 0.00073464241349255452 0 -0.027757740342904874 0.00046606126086361265 0 -0.027389156455574316 0.00011276521804960823 0 -0.027693061596372519 -3.7915754311535785e-05 0 -0.02753864028692992 0.00024088024449650335 0 -0.027562184164449641 0.00034698140235942773 0 -0.027389156455574316 0.00011276521804960823 0 -0.02753864028692992 0.00024088024449650335 0 -0.027048795582791753 -0.0001014138243651924 0 -0.027482633036078286 -5.7427226225844099e-07 0 -0.025592995084237982 -7.5095635412796535e-07 0 -0.027048795582791753 -0.0001014138243651924 0 -0.027482633036078286 -5.7427226225844099e-07 0 -0.027693061596372519 -3.7915754311535785e-05 0 -0.027482633036078286 -5.7427226225844099e-07 0 -0.027693061596372519 -3.7915754311535785e-05 0 -0.029368152200949509 1.3412853883925925e-06 0 -0.027389156455574316 0.00011276521804960823 0 -0.027048795582791753 -0.0001014138243651924 0 -0.027693061596372519 -3.7915754311535785e-05 0 -0.027693061596372519 -3.7915754311535785e-05 0 -0.027797076182736542 0.00052476449730495291 0 -0.02753864028692992 0.00024088024449650335 0 -0.027693061596372519 -3.7915754311535785e-05 0 -0.029368152200949509 1.3412853883925925e-06 0 -0.027797076182736542 0.00052476449730495291 0 -0.029375231421948207 2.4810972430191196e-08 0 -0.030331788674844026 -0.00010905899922104584 0 -0.030475703385647809 8.2417648428550075e-06 0 -0.030371957745010832 9.9117295657179925e-06 0 -0.030331788674844026 -0.00010905899922104584 0 -0.030475703385647809 8.2417648428550075e-06 0 -0.031139708210442762 -1.3013240390970691e-08 0 -0.029375231421948207 2.4810972430191196e-08 0 -0.030331788674844026 -0.00010905899922104584 0 -0.029371965022273315 -3.2978003103988279e-09 0 -0.028993733330835325 0.00026425132118810082 0 -0.028993733330835325 0.00026425132118810082 0 -0.029922473771740742 -1.0484438863535265e-06 0 -0.027797076182736542 0.00052476449730495291 0 -0.027628174641218965 0.00032119014900975615 0 -0.027631700146791893 0.00023261367002018276 0 -0.030453064146095346 6.8651618138377124e-06 0 -0.030475703385647809 8.2417648428550075e-06 0 -0.030447658253285884 3.5293795812625798e-06 0 -0.027545731078802291 -0.00046109809182105983 0 -0.028367482680399989 -8.7198813218787626e-05 0 -0.028169086498455388 0.00032754138997148353 0 -0.029922473771740742 -1.0484438863535265e-06 0 -0.027398925195247326 6.0815083067801078e-05 0 -0.027628174641218965 0.00032119014900975615 0 -0.027631700146791893 0.00023261367002018276 0 -0.028169086498455388 0.00032754138997148353 0 -0.027545731078802291 -0.00046109809182105983 0 -0.028312515926174946 -0.00045213029649222256 0 -0.028367482680399989 -8.7198813218787626e-05 0 -0.028746113215665975 -0.00045666779626113083 0 -0.028312515926174946 -0.00045213029649222256 0 -0.028367482680399989 -8.7198813218787626e-05 0 -0.027628174641218965 0.00032119014900975615 0 -0.028169086498455388 0.00032754138997148353 0 -0.027733532709854899 0.00040990079298144222 0 -0.028169086498455388 0.00032754138997148353 0 -0.027963980773012355 0.00049249620820823259 0 -0.027733532709854899 0.00040990079298144222 0 -0.028169086498455388 0.00032754138997148353 0 -0.028196391106573352 0.00056335472458936872 0 -0.027963980773012355 0.00049249620820823259 0 -0.027963980773012355 0.00049249620820823259 0 -0.028090943150368666 0.00073464241349255452 0 -0.027757740342904874 0.00046606126086361265 0 -0.028196391106573352 0.00056335472458936872 0 -0.027963980773012355 0.00049249620820823259 0 -0.028090943150368666 0.00073464241349255452 0 -0.027562184164449641 0.00034698140235942773 0 -0.027733532709854899 0.00040990079298144222 0 -0.027757740342904874 0.00046606126086361265 0 -0.027963980773012355 0.00049249620820823259 0 -0.027733532709854899 0.00040990079298144222 0 -0.027757740342904874 0.00046606126086361265 0 -0.027797076182736542 0.00052476449730495291 0 -0.027628174641218965 0.00032119014900975615 0 -0.02753864028692992 0.00024088024449650335 0 -0.027562184164449641 0.00034698140235942773 0 -0.027733532709854899 0.00040990079298144222 0 -0.02753864028692992 0.00024088024449650335 0 -0.027628174641218965 0.00032119014900975615 0 -0.027733532709854899 0.00040990079298144222 0 -0.02753864028692992 0.00024088024449650335 0 -0.03481400113405729 -0.00031859573839074928 0 -0.035073908534989713 -0.00038719865685128008 0 -0.034941381674435709 -0.00016912207839418316 0 -0.035012252637958242 0.00066755839116401552 0 -0.034788813600649844 0.0001202856149862529 0 -0.034288689262548321 0.00042246818687071666 0 -0.035322607214634066 0.00014523302160530661 0 -0.03487722246209838 -1.1492222352959654e-05 0 -0.035073908534989713 -0.00038719865685128008 0 -0.035011986824905708 -9.0038045914056879e-05 0 -0.034941381674435709 -0.00016912207839418316 0 -0.034941381674435709 -0.00016912207839418316 0 -0.034942400427078059 -1.8663560583320914e-05 0 -0.034813905335538603 -0.00014108651455883956 0 -0.035011986824905708 -9.0038045914056879e-05 0 -0.034941381674435709 -0.00016912207839418316 0 -0.034942400427078059 -1.8663560583320914e-05 0 -0.03481400113405729 -0.00031859573839074928 0 -0.034941381674435709 -0.00016912207839418316 0 -0.034813905335538603 -0.00014108651455883956 0 -0.034942400427078059 -1.8663560583320914e-05 0 -0.034999920499145486 1.5881957870685302e-08 0 -0.034911884049011951 3.5709237412783104e-05 0 -0.034942400427078059 -1.8663560583320914e-05 0 -0.034999920499145486 1.5881957870685302e-08 0 -0.034903900433748837 -2.4058306038255836e-05 0 -0.034999920499145486 1.5881957870685302e-08 0 -0.034903900433748837 -2.4058306038255836e-05 0 -0.034999767738553372 -7.8036966995270008e-08 0 -0.03487722246209838 -1.1492222352959654e-05 0 -0.034900165696871814 -2.8672042244309805e-05 0 -0.035011986824905708 -9.0038045914056879e-05 0 -0.034942400427078059 -1.8663560583320914e-05 0 -0.034903900433748837 -2.4058306038255836e-05 0 -0.034788813600649844 0.0001202856149862529 0 -0.034903900433748837 -2.4058306038255836e-05 0 -0.034606628117378663 7.9427493228315866e-05 0 -0.034903900433748837 -2.4058306038255836e-05 0 -0.034703790559604285 -2.9041881843347089e-05 0 -0.034606628117378663 7.9427493228315866e-05 0 -0.034903900433748837 -2.4058306038255836e-05 0 -0.034999767738553372 -7.8036966995270008e-08 0 -0.034703790559604285 -2.9041881843347089e-05 0 -0.034999767738553372 -7.8036966995270008e-08 0 -0.034703790559604285 -2.9041881843347089e-05 0 -0.034999257038679572 -1.0531829255714768e-07 0 -0.034703790559604285 -2.9041881843347089e-05 0 -0.034295506960095284 0.00012381896227625226 0 -0.034466684646312112 -4.2642643426656894e-05 0 -0.034703790559604285 -2.9041881843347089e-05 0 -0.034295506960095284 0.00012381896227625226 0 -0.034606628117378663 7.9427493228315866e-05 0 -0.034295506960095284 0.00012381896227625226 0 -0.034606628117378663 7.9427493228315866e-05 0 -0.034288689262548321 0.00042246818687071666 0 -0.034788813600649844 0.0001202856149862529 0 -0.034606628117378663 7.9427493228315866e-05 0 -0.034288689262548321 0.00042246818687071666 0 -0.034295506960095284 0.00012381896227625226 0 -0.034288689262548321 0.00042246818687071666 0 -0.033742511204107817 0.00055828593791296263 0 -0.034288689262548321 0.00042246818687071666 0 -0.033742511204107817 0.00055828593791296263 0 -0.033322213151859348 0.001110365003786448 0 -0.033742511204107817 0.00055828593791296263 0 -0.034027972391475952 0.0001021141497756158 0 -0.033565978415680923 0.00045765326003022037 0 -0.034027972391475952 0.0001021141497756158 0 -0.033590220148744333 3.602764729213617e-05 0 -0.033565978415680923 0.00045765326003022037 0 -0.034048546346945013 -0.00022017100284230288 0 -0.034027972391475952 0.0001021141497756158 0 -0.034466684646312112 -4.2642643426656894e-05 0 -0.034048546346945013 -0.00022017100284230288 0 -0.034027972391475952 0.0001021141497756158 0 -0.033590220148744333 3.602764729213617e-05 0 -0.034295506960095284 0.00012381896227625226 0 -0.033742511204107817 0.00055828593791296263 0 -0.034027972391475952 0.0001021141497756158 0 -0.034295506960095284 0.00012381896227625226 0 -0.034027972391475952 0.0001021141497756158 0 -0.034466684646312112 -4.2642643426656894e-05 0 -0.034703790559604285 -2.9041881843347089e-05 0 -0.034466684646312112 -4.2642643426656894e-05 0 -0.034999257038679572 -1.0531829255714768e-07 0 -0.034466684646312112 -4.2642643426656894e-05 0 -0.034999257038679572 -1.0531829255714768e-07 0 -0.034624488335051766 -4.443059943353612e-05 0 -0.034999257038679572 -1.0531829255714768e-07 0 -0.034624488335051766 -4.443059943353612e-05 0 -0.034999478383267363 9.9441263729681732e-08 0 -0.034048546346945013 -0.00022017100284230288 0 -0.034466684646312112 -4.2642643426656894e-05 0 -0.034624488335051766 -4.443059943353612e-05 0 -0.034048546346945013 -0.00022017100284230288 0 -0.03366316955067921 -0.0006758954955752767 0 -0.033702701269646258 -0.00057555868649053303 0 -0.034048546346945013 -0.00022017100284230288 0 -0.034624488335051766 -4.443059943353612e-05 0 -0.034915962262005017 -6.1618846155222948e-05 0 -0.034107941446449866 -0.00022936773060514695 0 -0.03431184688086733 -0.00030885878441427037 0 -0.034624488335051766 -4.443059943353612e-05 0 -0.034999478383267363 9.9441263729681732e-08 0 -0.034915962262005017 -6.1618846155222948e-05 0 -0.035000225874488408 -7.8789755673000199e-08 0 -0.034999478383267363 9.9441263729681732e-08 0 -0.034915962262005017 -6.1618846155222948e-05 0 -0.034999735459673345 -1.21773451110888e-07 0 -0.03431184688086733 -0.00030885878441427037 0 -0.034998191968135452 1.723419477954971e-07 0 -0.034587607179612213 -0.00038053029972403451 0 -0.033702701269646258 -0.00057555868649053303 0 -0.034587607179612213 -0.00038053029972403451 0 -0.03366316955067921 -0.0006758954955752767 0 -0.033702701269646258 -0.00057555868649053303 0 -0.033405127987955377 -0.00076342933622664368 0 -0.033575297100022404 -0.000678966099200225 0 -0.034587607179612213 -0.00038053029972403451 0 -0.034790378830951763 -0.00052196286818672992 0 -0.03366316955067921 -0.0006758954955752767 0 -0.032142249766863362 -0.0010707865455458984 0 -0.033502681698697578 -0.00036842480874843238 0 -0.033013156490510766 -0.00013970188130581353 0 -0.032142249766863362 -0.0010707865455458984 0 -0.03366316955067921 -0.0006758954955752767 0 -0.033502681698697578 -0.00036842480874843238 0 -0.033502681698697578 -0.00036842480874843238 0 -0.033590220148744333 3.602764729213617e-05 0 -0.033013156490510766 -0.00013970188130581353 0 -0.034048546346945013 -0.00022017100284230288 0 -0.033502681698697578 -0.00036842480874843238 0 -0.033590220148744333 3.602764729213617e-05 0 -0.034048546346945013 -0.00022017100284230288 0 -0.03366316955067921 -0.0006758954955752767 0 -0.033502681698697578 -0.00036842480874843238 0 -0.033590220148744333 3.602764729213617e-05 0 -0.033013156490510766 -0.00013970188130581353 0 -0.033090027122640954 0.00040186985441936871 0 -0.033590220148744333 3.602764729213617e-05 0 -0.033090027122640954 0.00040186985441936871 0 -0.033565978415680923 0.00045765326003022037 0 -0.03227694614483316 0.00023727080438601684 0 -0.033013156490510766 -0.00013970188130581353 0 -0.033090027122640954 0.00040186985441936871 0 -0.03227694614483316 0.00023727080438601684 0 -0.033090027122640954 0.00040186985441936871 0 -0.032414765959252176 0.00096553898862734194 0 -0.033090027122640954 0.00040186985441936871 0 -0.033214027140754492 0.00083226935138738562 0 -0.033565978415680923 0.00045765326003022037 0 -0.033090027122640954 0.00040186985441936871 0 -0.033214027140754492 0.00083226935138738562 0 -0.032414765959252176 0.00096553898862734194 0 -0.033214027140754492 0.00083226935138738562 0 -0.032414765959252176 0.00096553898862734194 0 -0.032509605010597339 0.0015224724689681885 0 -0.031745054795585176 0.001671368009463662 0 -0.032414765959252176 0.00096553898862734194 0 -0.032509605010597339 0.0015224724689681885 0 -0.031578781895878733 0.0018275550869304462 0 -0.032509605010597339 0.0015224724689681885 0 -0.032857345951939239 0.0023430439781049247 0 -0.032973278860519942 0.0016553241045438247 0 -0.033392018504810272 0.0015479229511063904 0 -0.032857345951939239 0.0023430439781049247 0 -0.032509605010597339 0.0015224724689681885 0 -0.032973278860519942 0.0016553241045438247 0 -0.032857345951939239 0.0023430439781049247 0 -0.032509605010597339 0.0015224724689681885 0 -0.032973278860519942 0.0016553241045438247 0 -0.033143196689412402 0.0013908131703616849 0 -0.032973278860519942 0.0016553241045438247 0 -0.033143196689412402 0.0013908131703616849 0 -0.033392018504810272 0.0015479229511063904 0 -0.033214027140754492 0.00083226935138738562 0 -0.032509605010597339 0.0015224724689681885 0 -0.033143196689412402 0.0013908131703616849 0 -0.033214027140754492 0.00083226935138738562 0 -0.033143196689412402 0.0013908131703616849 0 -0.033468861344042956 0.0014206234097423704 0 -0.033214027140754492 0.00083226935138738562 0 -0.033332686913567923 0.0005482457891641567 0 -0.033484492403765172 0.00028882643197418836 0 -0.033159593302001682 0.00073802595068053907 0 -0.03363302605997158 0.00091076976535015496 0 -0.033143196689412402 0.0013908131703616849 0 -0.033468861344042956 0.0014206234097423704 0 -0.033392018504810272 0.0015479229511063904 0 -0.033468861344042956 0.0014206234097423704 0 -0.033392018504810272 0.0015479229511063904 0 -0.033554051333452239 0.0017245068634833595 0 -0.033392018504810272 0.0015479229511063904 0 -0.033845156539947206 0.0020557415647201932 0 -0.032857345951939239 0.0023430439781049247 0 -0.033917812453205139 0.0020559054770726156 0 -0.03100684265676305 0.0016907088313934751 0 -0.033468861344042956 0.0014206234097423704 0 -0.033653996199545858 0.0016940326769905004 0 -0.033554051333452239 0.0017245068634833595 0 -0.033484492403765172 0.00028882643197418836 0 -0.032946966425868675 -0.00085016485331251173 0 -0.032961871683314437 4.3467509488374005e-06 0 -0.03363302605997158 0.00091076976535015496 0 -0.031993766536098756 0.00033701985227540155 0 -0.031993766536098756 0.00033701985227540155 0 -0.03100684265676305 0.0016907088313934751 0 -0.033332686913567923 0.0005482457891641567 0 -0.032961871683314437 4.3467509488374005e-06 0 -0.032763746749340621 0.00050845797440772326 0 -0.033332686913567923 0.0005482457891641567 0 -0.033484492403765172 0.00028882643197418836 0 -0.032961871683314437 4.3467509488374005e-06 0 -0.033332686913567923 0.0005482457891641567 0 -0.033468830419380639 0.00077196760670759966 0 -0.032763746749340621 0.00050845797440772326 0 -0.033468830419380639 0.00077196760670759966 0 -0.033322213151859348 0.001110365003786448 0 -0.032763746749340621 0.00050845797440772326 0 -0.033214027140754492 0.00083226935138738562 0 -0.033332686913567923 0.0005482457891641567 0 -0.033468830419380639 0.00077196760670759966 0 -0.033214027140754492 0.00083226935138738562 0 -0.033468830419380639 0.00077196760670759966 0 -0.033565978415680923 0.00045765326003022037 0 -0.033742511204107817 0.00055828593791296263 0 -0.033468830419380639 0.00077196760670759966 0 -0.033322213151859348 0.001110365003786448 0 -0.033742511204107817 0.00055828593791296263 0 -0.033468830419380639 0.00077196760670759966 0 -0.033565978415680923 0.00045765326003022037 0 -0.033198975603054154 0.0011656797177933785 0 -0.03281602523905687 0.0014025493118881526 0 -0.034288689262548321 0.00042246818687071666 0 -0.033322213151859348 0.001110365003786448 0 -0.034541654969255424 0.0012584566590659715 0 -0.031002580428956511 0.001523217897098583 0 -0.031703722267394277 0.00054586710406971401 0 -0.030510559726426537 0.00034151776836653858 0 -0.033322213151859348 0.001110365003786448 0 -0.031002580428956511 0.001523217897098583 0 -0.031703722267394277 0.00054586710406971401 0 -0.033322213151859348 0.001110365003786448 0 -0.031703722267394277 0.00054586710406971401 0 -0.032763746749340621 0.00050845797440772326 0 -0.031703722267394277 0.00054586710406971401 0 -0.032763746749340621 0.00050845797440772326 0 -0.031075629161294256 -0.00048753805935567259 0 -0.032961871683314437 4.3467509488374005e-06 0 -0.032763746749340621 0.00050845797440772326 0 -0.031075629161294256 -0.00048753805935567259 0 -0.032946966425868675 -0.00085016485331251173 0 -0.032961871683314437 4.3467509488374005e-06 0 -0.031075629161294256 -0.00048753805935567259 0 -0.031993766536098756 0.00033701985227540155 0 -0.031277223376894418 -0.00078280213868661805 0 -0.031075629161294256 -0.00048753805935567259 0 -0.030510559726426537 0.00034151776836653858 0 -0.030047813994888359 -0.00043541881469221346 0 -0.031075629161294256 -0.00048753805935567259 0 -0.030047813994888359 -0.00043541881469221346 0 -0.029818367449523164 -0.0010261529079043147 0 -0.031703722267394277 0.00054586710406971401 0 -0.031075629161294256 -0.00048753805935567259 0 -0.030510559726426537 0.00034151776836653858 0 -0.030510559726426537 0.00034151776836653858 0 -0.030047813994888359 -0.00043541881469221346 0 -0.029673302227996964 0.00014488892196385837 0 -0.030047813994888359 -0.00043541881469221346 0 -0.029359861753455018 -0.00040375926332059646 0 -0.029673302227996964 0.00014488892196385837 0 -0.030047813994888359 -0.00043541881469221346 0 -0.029359861753455018 -0.00040375926332059646 0 -0.029461908253488843 -0.0008415062873142258 0 -0.029359861753455018 -0.00040375926332059646 0 -0.028985388121207534 -0.00048039847197120262 0 -0.029010005358432182 0.00025644233631391802 0 -0.028985388121207534 -0.00048039847197120262 0 -0.029088481457305044 -0.00080671086675373571 0 -0.028831091494789168 -0.00076739674922471997 0 -0.029359861753455018 -0.00040375926332059646 0 -0.028985388121207534 -0.00048039847197120262 0 -0.029088481457305044 -0.00080671086675373571 0 -0.029359861753455018 -0.00040375926332059646 0 -0.029461908253488843 -0.0008415062873142258 0 -0.029088481457305044 -0.00080671086675373571 0 -0.029673302227996964 0.00014488892196385837 0 -0.029010005358432182 0.00025644233631391802 0 -0.029461598831056774 0.0013210765685967294 0 -0.029359861753455018 -0.00040375926332059646 0 -0.029673302227996964 0.00014488892196385837 0 -0.029010005358432182 0.00025644233631391802 0 -0.028847253268681976 0.00022008442201442764 0 -0.029405760302442702 0.0014540083916945491 0 -0.02829674276035464 0.0005835422751046636 0 -0.028744351807020268 0.00020448058558598188 0 -0.032174381495484579 0.00080144397862119319 0 -0.03281602523905687 0.0014025493118881526 0 -0.032174381495484579 0.00080144397862119319 0 -0.031002580428956511 0.001523217897098583 0 -0.030510559726426537 0.00034151776836653858 0 -0.029461598831056774 0.0013210765685967294 0 -0.030510559726426537 0.00034151776836653858 0 -0.029673302227996964 0.00014488892196385837 0 -0.029461598831056774 0.0013210765685967294 0 -0.035012252637958242 0.00066755839116401552 0 -0.034288689262548321 0.00042246818687071666 0 -0.034541654969255424 0.0012584566590659715 0 -0.035012252637958242 0.00066755839116401552 0 -0.034541654969255424 0.0012584566590659715 0 -0.035248917580976195 0.001354305613932181 0 -0.03481400113405729 -0.00031859573839074928 0 -0.035073908534989713 -0.00038719865685128008 0 -0.034989906302403069 -0.00088310300301126213 0 -0.035322607214634066 0.00014523302160530661 0 -0.032174381495484579 0.00080144397862119319 0 -0.03481400113405729 -0.00031859573839074928 0 -0.034989906302403069 -0.00088310300301126213 0 -0.034572987021842486 -0.00049332077432283567 0 -0.026748720230974337 -0.0028620859611249577 0 -0.02632768582916075 -0.0026690734826871451 0 -0.026106108843728909 -0.0027743371169600419 0 -0.026455897994145858 -0.0024614810421432266 0 -0.026748720230974337 -0.0028620859611249577 0 -0.027383818449261309 -0.0021580045989712765 0 -0.026455897994145858 -0.0024614810421432266 0 -0.026748720230974337 -0.0028620859611249577 0 -0.026106108843728909 -0.0027743371169600419 0 -0.026748720230974337 -0.0028620859611249577 0 -0.026114456764443888 -0.0031180484006635939 0 -0.026096570630059011 -0.0034943845989156802 0 -0.026784572440391625 -0.0031321090071884565 0 -0.027952715138506043 -0.0019789192819103245 0 -0.026748720230974337 -0.0028620859611249577 0 -0.026294609256507936 -0.0027898545708982606 0 -0.02632768582916075 -0.0026690734826871451 0 -0.026294609256507936 -0.0027898545708982606 0 -0.026187519966124159 -0.0026319792184380112 0 -0.02632768582916075 -0.0026690734826871451 0 -0.026294609256507936 -0.0027898545708982606 0 -0.02600201344904814 -0.0028846399903212803 0 -0.026187519966124159 -0.0026319792184380112 0 -0.026294609256507936 -0.0027898545708982606 0 -0.026114456764443888 -0.0031180484006635939 0 -0.02600201344904814 -0.0028846399903212803 0 -0.026748720230974337 -0.0028620859611249577 0 -0.026294609256507936 -0.0027898545708982606 0 -0.026114456764443888 -0.0031180484006635939 0 -0.029248095936134057 -0.0021846228629693511 0 -0.028288542522737402 -0.0018180678547361636 0 -0.027383818449261309 -0.0021580045989712765 0 -0.026748720230974337 -0.0028620859611249577 0 -0.029248095936134057 -0.0021846228629693511 0 -0.027383818449261309 -0.0021580045989712765 0 -0.029248095936134057 -0.0021846228629693511 0 -0.029137909656376776 -0.0017253760906477198 0 -0.028288542522737402 -0.0018180678547361636 0 -0.027952715138506043 -0.0019789192819103245 0 -0.028448704974456698 -0.0021383604917072085 0 -0.029137909656376776 -0.0017253760906477198 0 -0.028288542522737402 -0.0018180678547361636 0 -0.028943358868420255 -0.0013798489885743397 0 -0.027383818449261309 -0.0021580045989712765 0 -0.026409123033576315 -0.0017077858144175012 0 -0.026901698469403827 -0.00084259167744466098 0 -0.028288542522737402 -0.0018180678547361636 0 -0.027383818449261309 -0.0021580045989712765 0 -0.026901698469403827 -0.00084259167744466098 0 -0.026455897994145858 -0.0024614810421432266 0 -0.027383818449261309 -0.0021580045989712765 0 -0.026409123033576315 -0.0017077858144175012 0 -0.028118954086468601 -0.0011356611573061174 0 -0.028818594237735182 -0.0013357664644724366 0 -0.02912473593047089 -0.0013228195639641094 0 -0.029157425713431107 -0.0010877127786833142 0 -0.029281922036964877 -0.0011929711058763105 0 -0.02912473593047089 -0.0013228195639641094 0 -0.029157425713431107 -0.0010877127786833142 0 -0.028826399268529614 -0.0010485155393581093 0 -0.029157425713431107 -0.0010877127786833142 0 -0.029461908253488843 -0.0008415062873142258 0 -0.029281922036964877 -0.0011929711058763105 0 -0.029157425713431107 -0.0010877127786833142 0 -0.029461908253488843 -0.0008415062873142258 0 -0.029088481457305044 -0.00080671086675373571 0 -0.029157425713431107 -0.0010877127786833142 0 -0.029088481457305044 -0.00080671086675373571 0 -0.028826399268529614 -0.0010485155393581093 0 -0.030047813994888359 -0.00043541881469221346 0 -0.029461908253488843 -0.0008415062873142258 0 -0.029818367449523164 -0.0010261529079043147 0 -0.029461908253488843 -0.0008415062873142258 0 -0.029281922036964877 -0.0011929711058763105 0 -0.029818367449523164 -0.0010261529079043147 0 -0.028288542522737402 -0.0018180678547361636 0 -0.026901698469403827 -0.00084259167744466098 0 -0.028943358868420255 -0.0013798489885743397 0 -0.029281922036964877 -0.0011929711058763105 0 -0.029818367449523164 -0.0010261529079043147 0 -0.028943358868420255 -0.0013798489885743397 0 -0.029137909656376776 -0.0017253760906477198 0 -0.029818367449523164 -0.0010261529079043147 0 -0.028943358868420255 -0.0013798489885743397 0 -0.02912473593047089 -0.0013228195639641094 0 -0.029281922036964877 -0.0011929711058763105 0 -0.028943358868420255 -0.0013798489885743397 0 -0.029343836473124718 -0.0020392828535629832 0 -0.029137909656376776 -0.0017253760906477198 0 -0.03086835534590671 -0.0012437575877853068 0 -0.029137909656376776 -0.0017253760906477198 0 -0.029818367449523164 -0.0010261529079043147 0 -0.03086835534590671 -0.0012437575877853068 0 -0.027517754908707382 -0.001255197931410084 0 -0.028922246938849882 0.00022643966083514617 0 -0.0282364463351901 -0.00093194255033784382 0 -0.027952715138506043 -0.0019789192819103245 0 -0.02981505800514692 -0.00042338743272238695 0 -0.031075629161294256 -0.00048753805935567259 0 -0.029818367449523164 -0.0010261529079043147 0 -0.03086835534590671 -0.0012437575877853068 0 -0.030332098154302364 0.0017077275618261093 0 -0.028922246938849882 0.00022643966083514617 0 -0.029567784026639413 0.00022261584555195981 0 -0.031547609850657264 -0.00068146385004978413 0 -0.031075629161294256 -0.00048753805935567259 0 -0.03086835534590671 -0.0012437575877853068 0 -0.031993766536098756 0.00033701985227540155 0 -0.02981505800514692 -0.00042338743272238695 0 -0.028922246938849882 0.00022643966083514617 0 -0.029567784026639413 0.00022261584555195981 0 -0.0282364463351901 -0.00093194255033784382 0 -0.028025010057848129 0.0011291256595485184 0 -0.027471254950596768 5.1793235134828163e-05 0 -0.029567784026639413 0.00022261584555195981 0 -0.0282364463351901 -0.00093194255033784382 0 -0.028269061785062239 -0.0011242622993974949 0 -0.02700592398795874 0.0020372592273617302 0 -0.026972750871789932 0.0012244899639779953 0 -0.026519319884873223 0.0014769069914141271 0 -0.02755999039702808 -0.0002197735204033837 0 -0.027471254950596768 5.1793235134828163e-05 0 -0.027517754908707382 -0.001255197931410084 0 -0.0282364463351901 -0.00093194255033784382 0 -0.028269223865441791 -0.0011246164418134998 0 -0.026114456764443888 -0.0031180484006635939 0 -0.026096570630059011 -0.0034943845989156802 0 -0.025958631105554613 -0.0032828217325178181 0 -0.027517754908707382 -0.001255197931410084 0 -0.028269223865441791 -0.0011246164418134998 0 -0.027774100986350247 -0.0016440461232560539 0 -0.027952715138506043 -0.0019789192819103245 0 -0.026919494483734822 -0.0020574554970280343 0 -0.027471254950596768 5.1793235134828163e-05 0 -0.026919494483734822 -0.0020574554970280343 0 -0.026266085245422552 -0.0028039596683458248 0 -0.026919494483734822 -0.0020574554970280343 0 -0.027471254950596768 5.1793235134828163e-05 0 -0.026265329622696145 -0.00077736500817824933 0 -0.026838572735590129 -0.00097107472025718283 0 -0.026872325142582781 -0.00093594181403581199 0 -0.026804994696863677 -0.00084690069717256397 0 -0.026919494483734822 -0.0020574554970280343 0 -0.026265329622696145 -0.00077736500817824933 0 -0.02600201344904814 -0.0028846399903212803 0 -0.025643851783296569 -0.0027102259862648694 0 -0.026187519966124159 -0.0026319792184380112 0 -0.025987115938231473 -0.0032464674079168343 0 -0.02600201344904814 -0.0028846399903212803 0 -0.025643851783296569 -0.0027102259862648694 0 -0.026114456764443888 -0.0031180484006635939 0 -0.025987115938231473 -0.0032464674079168343 0 -0.02600201344904814 -0.0028846399903212803 0 -0.026972750871789932 0.0012244899639779953 0 -0.026650955951623447 0.00081850680425862691 0 -0.027063504735606134 0.00076513151410496699 0 -0.026972750871789932 0.0012244899639779953 0 -0.026519319884873223 0.0014769069914141271 0 -0.026650955951623447 0.00081850680425862691 0 -0.026972750871789932 0.0012244899639779953 0 -0.027452609081393055 0.00093033069217522951 0 -0.027063504735606134 0.00076513151410496699 0 -0.027452609081393055 0.00093033069217522951 0 -0.027419269531963684 0.0015117541275566418 0 -0.028088116925694871 0.0011075803618082907 0 -0.027452609081393055 0.00093033069217522951 0 -0.028088116925694871 0.0011075803618082907 0 -0.027790445768005267 0.00060385204294373992 0 -0.027419269531963684 0.0015117541275566418 0 -0.027892812969545589 0.0018146759501614963 0 -0.028088116925694871 0.0011075803618082907 0 -0.02700592398795874 0.0020372592273617302 0 -0.026972750871789932 0.0012244899639779953 0 -0.027419269531963684 0.0015117541275566418 0 -0.026972750871789932 0.0012244899639779953 0 -0.027452609081393055 0.00093033069217522951 0 -0.027419269531963684 0.0015117541275566418 0 -0.02700592398795874 0.0020372592273617302 0 -0.027419269531963684 0.0015117541275566418 0 -0.027496567880204985 0.0021200038332727651 0 -0.02700592398795874 0.0020372592273617302 0 -0.027496567880204985 0.0021200038332727651 0 -0.027564638247340935 0.0026619562767900336 0 -0.027496567880204985 0.0021200038332727651 0 -0.027564638247340935 0.0026619562767900336 0 -0.027644905825164087 0.0026102018764371042 0 -0.028025010057848129 0.0011291256595485184 0 -0.03100684265676305 0.0016907088313934751 0 -0.030332098154302364 0.0017077275618261093 0 -0.029567784026639413 0.00022261584555195981 0 -0.030870903301358159 0.0015715353944025857 0 -0.027496567880204985 0.0021200038332727651 0 -0.027644905825164087 0.0026102018764371042 0 -0.027892812969545589 0.0018146759501614963 0 -0.027644905825164087 0.0026102018764371042 0 -0.027855167097675666 0.0020394771039284466 0 -0.02824645239608449 0.0025757379384273938 0 -0.027564638247340935 0.0026619562767900336 0 -0.027644905825164087 0.0026102018764371042 0 -0.02824645239608449 0.0025757379384273938 0 -0.02765320700442939 0.0025688416342044217 0 -0.027867485612956683 0.0019384666412293184 0 -0.03100684265676305 0.0016907088313934751 0 -0.030471105367273283 0.0025464699021521355 0 -0.027419269531963684 0.0015117541275566418 0 -0.027496567880204985 0.0021200038332727651 0 -0.027892812969545589 0.0018146759501614963 0 -0.027855167097675666 0.0020394771039284466 0 -0.02824645239608449 0.0025757379384273938 0 -0.028577734963905053 0.0018418150012196562 0 -0.031578781895878733 0.0018275550869304462 0 -0.032857345951939239 0.0023430439781049247 0 -0.03150813341751238 0.0025106846947183519 0 -0.030471105367273283 0.0025464699021521355 0 -0.030330497407503876 0.0024404577107633905 0 -0.02824645239608449 0.0025757379384273938 0 -0.028577734963905053 0.0018418150012196562 0 -0.029069862360859594 0.0024693787003311554 0 -0.028577734963905053 0.0018418150012196562 0 -0.02849067361424756 0.0013927595463252476 0 -0.028976533715734953 0.0012855269078524167 0 -0.028577734963905053 0.0018418150012196562 0 -0.028048817977450246 0.0013383098130022872 0 -0.02849067361424756 0.0013927595463252476 0 -0.027855167097675666 0.0020394771039284466 0 -0.028577734963905053 0.0018418150012196562 0 -0.028048817977450246 0.0013383098130022872 0 -0.027867485612956683 0.0019384666412293184 0 -0.028063608116312425 0.0012066493597120823 0 -0.028063608116312425 0.0012066493597120823 0 -0.028206949280381071 0.00053850251056926487 0 -0.028048817977450246 0.0013383098130022872 0 -0.028560310471285575 0.00098187263541625147 0 -0.028192522947818204 0.00048733104131886069 0 -0.028048817977450246 0.0013383098130022872 0 -0.028560310471285575 0.00098187263541625147 0 -0.02849067361424756 0.0013927595463252476 0 -0.028560310471285575 0.00098187263541625147 0 -0.028976533715734953 0.0012855269078524167 0 -0.029032239383486022 0.00085592787659866294 0 -0.028560310471285575 0.00098187263541625147 0 -0.02849067361424756 0.0013927595463252476 0 -0.028976533715734953 0.0012855269078524167 0 -0.028606568738299545 0.000565078479223315 0 -0.028192522947818204 0.00048733104131886069 0 -0.028106779374588029 9.5307867467984273e-05 0 -0.028560310471285575 0.00098187263541625147 0 -0.028606568738299545 0.000565078479223315 0 -0.029032239383486022 0.00085592787659866294 0 -0.028560310471285575 0.00098187263541625147 0 -0.028606568738299545 0.000565078479223315 0 -0.028192522947818204 0.00048733104131886069 0 -0.028192522947818204 0.00048733104131886069 0 -0.027982701887333573 0.00037619380140343968 0 -0.027790445768005267 0.00060385204294373992 0 -0.028088116925694871 0.0011075803618082907 0 -0.028192522947818204 0.00048733104131886069 0 -0.027790445768005267 0.00060385204294373992 0 -0.028171737895224685 0.00018140684465509704 0 -0.0281304818233961 0.00063623124088555544 0 -0.028693069400180841 0.00014986078750248757 0 -0.028192522947818204 0.00048733104131886069 0 -0.028171737895224685 0.00018140684465509704 0 -0.028106779374588029 9.5307867467984273e-05 0 -0.028192522947818204 0.00048733104131886069 0 -0.027982701887333573 0.00037619380140343968 0 -0.028171737895224685 0.00018140684465509704 0 -0.028106779374588029 9.5307867467984273e-05 0 -0.026828853232473526 -7.3160866573961282e-05 0 -0.027166525906901769 0.00041245590629136378 0 -0.028074879593983956 4.2272923700390283e-05 0 -0.027790021423819242 -0.00012753872509140197 0 -0.028606568738299545 0.000565078479223315 0 -0.028106779374588029 9.5307867467984273e-05 0 -0.029246046907466145 0.00040133334279310285 0 -0.028171737895224685 0.00018140684465509704 0 -0.028106779374588029 9.5307867467984273e-05 0 -0.027800074923025848 0.0004823994178118139 0 -0.028106779374588029 9.5307867467984273e-05 0 -0.027800074923025848 0.0004823994178118139 0 -0.027166525906901769 0.00041245590629136378 0 -0.027800074923025848 0.0004823994178118139 0 -0.0281304818233961 0.00063623124088555544 0 -0.027010310681722435 0.0014979087315311901 0 -0.02541165735102131 -0.00081085300770092556 0 -0.022491376782547846 -0.00089632791148696624 0 -0.027800074923025848 0.0004823994178118139 0 -0.027166525906901769 0.00041245590629136378 0 -0.027010310681722435 0.0014979087315311901 0 -0.022491376782547846 -0.00089632791148696624 0 -0.018071089511453739 -0.0029830329515612981 0 -0.022172261700967387 -0.0018520857842696211 0 -0.021711536281422167 -0.001995252537014183 0 -0.021882169058812045 -0.0015943439909826278 0 -0.022172261700967387 -0.0018520857842696211 0 -0.022181950445026306 -0.0022194715889674566 0 -0.021711536281422167 -0.001995252537014183 0 -0.022172261700967387 -0.0018520857842696211 0 -0.02242824327740859 -0.0020022207260722126 0 -0.02254236490549329 -0.0018179364151883191 0 -0.022172261700967387 -0.0018520857842696211 0 -0.022181950445026306 -0.0022194715889674566 0 -0.02242824327740859 -0.0020022207260722126 0 -0.022181950445026306 -0.0022194715889674566 0 -0.022485813919020606 -0.0021937717582726679 0 -0.02242824327740859 -0.0020022207260722126 0 -0.028171737895224685 0.00018140684465509704 0 -0.027800074923025848 0.0004823994178118139 0 -0.0281304818233961 0.00063623124088555544 0 -0.02541165735102131 -0.00081085300770092556 0 -0.026081798326378643 -0.00066553462721895404 0 -0.022181950445026306 -0.0022194715889674566 0 -0.022485813919020606 -0.0021937717582726679 0 -0.022668588824347028 -0.0024493803697223765 0 -0.022656744145425844 -0.0022688611173283658 0 -0.022485813919020606 -0.0021937717582726679 0 -0.022668588824347028 -0.0024493803697223765 0 -0.022656744145425844 -0.0022688611173283658 0 -0.022618872931305597 -0.0020948837921699391 0 -0.022485813919020606 -0.0021937717582726679 0 -0.022656744145425844 -0.0022688611173283658 0 -0.022618872931305597 -0.0020948837921699391 0 -0.022799135256119506 -0.0021490929352172309 0 -0.022618872931305597 -0.0020948837921699391 0 -0.022485813919020606 -0.0021937717582726679 0 -0.02242824327740859 -0.0020022207260722126 0 -0.021175162148879344 -0.0019430200486959285 0 -0.021626902890688436 -0.0021976018439934394 0 -0.022618872931305597 -0.0020948837921699391 0 -0.02254236490549329 -0.0018179364151883191 0 -0.022799135256119506 -0.0021490929352172309 0 -0.022618872931305597 -0.0020948837921699391 0 -0.02242824327740859 -0.0020022207260722126 0 -0.02254236490549329 -0.0018179364151883191 0 -0.019826996478853869 -0.0020492996467377442 0 -0.020412847831704453 -0.0021794306352275906 0 -0.020196018514664155 -0.0026044356066204882 0 -0.020412847831704453 -0.0021794306352275906 0 -0.020196018514664155 -0.0026044356066204882 0 -0.020849609814695944 -0.0023739328732002725 0 -0.019826996478853869 -0.0020492996467377442 0 -0.020412847831704453 -0.0021794306352275906 0 -0.020316206097532406 -0.0018147839733371701 0 -0.02056349763721611 -0.0019707394281916783 0 -0.020412847831704453 -0.0021794306352275906 0 -0.020316206097532406 -0.0018147839733371701 0 -0.021626902890688436 -0.0021976018439934394 0 -0.021844386217869334 -0.0020403613029896066 0 -0.022366241588880811 -0.002050263259093966 0 -0.022625248359628352 -0.0024269082555893099 0 -0.02289060499999266 -0.0018595402690762242 0 -0.022656744145425844 -0.0022688611173283658 0 -0.022799135256119506 -0.0021490929352172309 0 -0.023011617169614182 -0.0024421457588481091 0 -0.021626902890688436 -0.0021976018439934394 0 -0.023648440000926821 -0.0020216220107720662 0 -0.026081798326378643 -0.00066553462721895404 0 -0.025765408043091291 -0.00092252693460714451 0 -0.027642625774599239 0.00010166462081314478 0 -0.02738345579588734 0.00054998413461469341 0 -0.026968147006848537 0.00037643328219470545 0 -0.022656744145425844 -0.0022688611173283658 0 -0.023011617169614182 -0.0024421457588481091 0 -0.022668588824347028 -0.0024493803697223765 0 -0.023648440000926821 -0.0020216220107720662 0 -0.026081798326378643 -0.00066553462721895404 0 -0.025281418854795342 -0.0011131752340578914 0 -0.025520324237914102 -0.0011030250615110336 0 -0.025165939803091075 -0.00093889421047787538 0 -0.027982701887333573 0.00037619380140343968 0 -0.028171737895224685 0.00018140684465509704 0 -0.027642625774599239 0.00010166462081314478 0 -0.027982701887333573 0.00037619380140343968 0 -0.027642625774599239 0.00010166462081314478 0 -0.027790445768005267 0.00060385204294373992 0 -0.028926038008105875 0.0002289253987748352 0 -0.026081798326378643 -0.00066553462721895404 0 -0.027642625774599239 0.00010166462081314478 0 -0.027790445768005267 0.00060385204294373992 0 -0.02738345579588734 0.00054998413461469341 0 -0.027452609081393055 0.00093033069217522951 0 -0.027790445768005267 0.00060385204294373992 0 -0.02738345579588734 0.00054998413461469341 0 -0.027452609081393055 0.00093033069217522951 0 -0.02738345579588734 0.00054998413461469341 0 -0.027063504735606134 0.00076513151410496699 0 -0.02738345579588734 0.00054998413461469341 0 -0.026968147006848537 0.00037643328219470545 0 -0.027063504735606134 0.00076513151410496699 0 -0.026016199238340917 -0.0011934824686004079 0 -0.026014471450681524 -0.0012068766079194133 0 -0.02601946641520041 -0.0012106675778829027 0 -0.026265329622696145 -0.00077736500817824933 0 -0.025765408043091291 -0.00092252693460714451 0 -0.026650955951623447 0.00081850680425862691 0 -0.026968147006848537 0.00037643328219470545 0 -0.027063504735606134 0.00076513151410496699 0 -0.025742948402791548 -0.0022459125591350808 0 -0.025765408043091291 -0.00092252693460714451 0 -0.026288952031605382 -0.0026586047769465303 0 -0.026214519281786378 -0.0026919048697833913 0 -0.026187519966124159 -0.0026319792184380112 0 -0.025742948402791548 -0.0022459125591350808 0 -0.026257818465412884 -0.0026805873530738149 0 -0.026265329622696145 -0.00077736500817824933 0 -0.025742948402791548 -0.0022459125591350808 0 -0.025643851783296569 -0.0027102259862648694 0 -0.025573991891769548 -0.0023135037589664849 0 -0.026187519966124159 -0.0026319792184380112 0 -0.026214519281786378 -0.0026919048697833913 0 -0.026326201549612651 -0.0027887341205232647 0 -0.026134042818534049 -0.002864179211766819 0 -0.024198830039239203 -0.0022552054702626918 0 -0.025013594924546724 -0.00263566794842069 0 -0.026288952031605382 -0.0026586047769465303 0 -0.026214519281786378 -0.0026919048697833913 0 -0.026326201549612651 -0.0027887341205232647 0 -0.025742948402791548 -0.0022459125591350808 0 -0.024198830039239203 -0.0022552054702626918 0 -0.024915880972148332 -0.0022659281789169632 0 -0.02464178176742023 -0.0021336873738772824 0 -0.024816267841680079 -0.0017468230365976325 0 -0.024382341868595083 -0.0017550618501228541 0 -0.02464178176742023 -0.0021336873738772824 0 -0.024816267841680079 -0.0017468230365976325 0 -0.023648440000926821 -0.0020216220107720662 0 -0.025765408043091291 -0.00092252693460714451 0 -0.023648440000926821 -0.0020216220107720662 0 -0.024198830039239203 -0.0022552054702626918 0 -0.022882230506457556 -0.0023736325262881195 0 -0.022745619327293302 -0.0016323346713556961 0 -0.02334019265912993 -0.0019104129727178522 0 -0.024198830039239203 -0.0022552054702626918 0 -0.021844386217869334 -0.0020403613029896066 0 -0.022625248359628352 -0.0024269082555893099 0 -0.023000769369371156 -0.0024190173178084183 0 -0.02289060499999266 -0.0018595402690762242 0 -0.020412847831704453 -0.0021794306352275906 0 -0.020849609814695944 -0.0023739328732002725 0 -0.020805356596343909 -0.0021359475585199074 0 -0.021844386217869334 -0.0020403613029896066 0 -0.021418760654972214 -0.002114781440644131 0 -0.021038843349530319 -0.0019962789171579058 0 -0.020805356596343909 -0.0021359475585199074 0 -0.020724751328151627 -0.0017490525940714631 0 -0.020856346620487201 -0.0024052440664786515 0 -0.021038843349530319 -0.0019962789171579058 0 -0.020805356596343909 -0.0021359475585199074 0 -0.02056349763721611 -0.0019707394281916783 0 -0.020412847831704453 -0.0021794306352275906 0 -0.020805356596343909 -0.0021359475585199074 0 -0.02056349763721611 -0.0019707394281916783 0 -0.020805356596343909 -0.0021359475585199074 0 -0.020724751328151627 -0.0017490525940714631 0 -0.022745619327293302 -0.0016323346713556961 0 -0.023542412867587837 -0.0013652470380882361 0 -0.02334019265912993 -0.0019104129727178522 0 -0.021844386217869334 -0.0020403613029896066 0 -0.022584462989183703 -0.001736558313210692 0 -0.020856346620487201 -0.0024052440664786515 0 -0.021038843349530319 -0.0019962789171579058 0 -0.021654569967999634 -0.0020938404746663978 0 -0.022882230506457556 -0.0023736325262881195 0 -0.02334019265912993 -0.0019104129727178522 0 -0.023698232626662544 -0.0023948786270526204 0 -0.02334019265912993 -0.0019104129727178522 0 -0.024152476196943537 -0.0017207855545944323 0 -0.023698232626662544 -0.0023948786270526204 0 -0.023542412867587837 -0.0013652470380882361 0 -0.024152476196943537 -0.0017207855545944323 0 -0.024120182504995771 -0.0012623820881898591 0 -0.022584462989183703 -0.001736558313210692 0 -0.023257570251805838 -0.0014263092998104156 0 -0.023542412867587837 -0.0013652470380882361 0 -0.02334019265912993 -0.0019104129727178522 0 -0.024152476196943537 -0.0017207855545944323 0 -0.024282440244077642 -0.0014663351913266384 0 -0.024152476196943537 -0.0017207855545944323 0 -0.024120182504995771 -0.0012623820881898591 0 -0.024282440244077642 -0.0014663351913266384 0 -0.024120182504995771 -0.0012623820881898591 0 -0.023942670558910688 -0.0012623002328485374 0 -0.024282440244077642 -0.0014663351913266384 0 -0.024152476196943537 -0.0017207855545944323 0 -0.024908746745010348 -0.0019879935641479289 0 -0.024152476196943537 -0.0017207855545944323 0 -0.025062453317835152 -0.0024579885588330453 0 -0.023698232626662544 -0.0023948786270526204 0 -0.024152476196943537 -0.0017207855545944323 0 -0.025062453317835152 -0.0024579885588330453 0 -0.024908746745010348 -0.0019879935641479289 0 -0.025051721819943897 -0.00249009954480505 0 -0.025013594924546724 -0.00263566794842069 0 -0.025062453317835152 -0.0024579885588330453 0 -0.026134042818534049 -0.002864179211766819 0 -0.025815697308473304 -0.0026367519092846893 0 -0.025594751859551946 -0.0026054746974230646 0 -0.025636519931023238 -0.0026856576350861843 0 -0.025902788162169933 -0.0026514395878681741 0 -0.025062453317835152 -0.0024579885588330453 0 -0.025594751859551946 -0.0026054746974230646 0 -0.025636519931023238 -0.0026856576350861843 0 -0.025062453317835152 -0.0024579885588330453 0 -0.025594751859551946 -0.0026054746974230646 0 -0.025815697308473304 -0.0026367519092846893 0 -0.025594751859551946 -0.0026054746974230646 0 -0.025815697308473304 -0.0026367519092846893 0 -0.025902788162169933 -0.0026514395878681741 0 -0.026214519281786378 -0.0026919048697833913 0 -0.026134042818534049 -0.002864179211766819 0 -0.026099092372748055 -0.0026159755835607635 0 -0.026134042818534049 -0.002864179211766819 0 -0.025815697308473304 -0.0026367519092846893 0 -0.026099092372748055 -0.0026159755835607635 0 -0.025815697308473304 -0.0026367519092846893 0 -0.026099092372748055 -0.0026159755835607635 0 -0.025902788162169933 -0.0026514395878681741 0 -0.026099092372748055 -0.0026159755835607635 0 -0.02632768582916075 -0.0026690734826871451 0 -0.025902788162169933 -0.0026514395878681741 0 -0.026214519281786378 -0.0026919048697833913 0 -0.026099092372748055 -0.0026159755835607635 0 -0.026187519966124159 -0.0026319792184380112 0 -0.026099092372748055 -0.0026159755835607635 0 -0.026187519966124159 -0.0026319792184380112 0 -0.02632768582916075 -0.0026690734826871451 0 -0.02632768582916075 -0.0026690734826871451 0 -0.026106108843728909 -0.0027743371169600419 0 -0.025902788162169933 -0.0026514395878681741 0 -0.026106108843728909 -0.0027743371169600419 0 -0.025636519931023238 -0.0026856576350861843 0 -0.025902788162169933 -0.0026514395878681741 0 -0.026659313380950123 0.00031832483547973188 0 -0.02647453216024568 0.0014759965820982509 0 -0.025804657445463456 0.00057665257233020112 0 -0.028687625132482759 0.0010507857305949427 0 -0.026876752555586709 0.0010944098477529899 0 -0.030427558371649153 0.0017111102455234096 0 -0.030355899847802289 0.001521666910503678 0 -0.030518822259881548 0.0014157227027853827 0 -0.030427558371649153 0.0017111102455234096 0 -0.030305575523526838 0.0016570230678278049 0 -0.03027545249341786 0.0017996702338282571 0 -0.030305575523526838 0.0016570230678278049 0 -0.030355899847802289 0.001521666910503678 0 -0.030255423751598419 0.0014958064341781061 0 -0.030427558371649153 0.0017111102455234096 0 -0.030305575523526838 0.0016570230678278049 0 -0.030355899847802289 0.001521666910503678 0 -0.030355899847802289 0.001521666910503678 0 -0.030317626595701287 0.0013869626434108852 0 -0.030518822259881548 0.0014157227027853827 0 -0.026876752555586709 0.0010944098477529899 0 -0.026915101173772181 0.00046124902569980351 0 -0.030317626595701287 0.0013869626434108852 0 -0.030518822259881548 0.0014157227027853827 0 -0.030266058606088064 0.0012403625779671451 0 -0.021817460841970691 0.00021195363772340354 0 -0.021800789701569991 -6.9624313183276834e-05 0 -0.02133855589539357 -0.00024688995531403515 0 -0.02475531736007263 0.00013835361123869797 0 -0.023828438524863327 -0.00013513330965448324 0 -0.024312643782713955 0.00041549181801118601 0 -0.023534959996923129 0.00011025272394514182 0 -0.02271262600968053 0.0003671771495060988 0 -0.02647453216024568 0.0014759965820982509 0 -0.025047589642134886 0.001189759405103295 0 -0.025804657445463456 0.00057665257233020112 0 -0.023828438524863327 -0.00013513330965448324 0 -0.024312643782713955 0.00041549181801118601 0 -0.023983116733756117 0.00081953236714255354 0 -0.026876752555586709 0.0010944098477529899 0 -0.023534959996923129 0.00011025272394514182 0 -0.02312268371070602 0.00016967756991884684 0 -0.023704069033701317 1.32308375412265e-06 0 -0.021813341655843435 -4.6375429986983051e-07 0 -0.021800789701569991 -6.9624313183276834e-05 0 -0.02312268371070602 0.00016967756991884684 0 -0.021813341655843435 -4.6375429986983051e-07 0 -0.021817460841970691 0.00021195363772340354 0 -0.021800789701569991 -6.9624313183276834e-05 0 -0.02312268371070602 0.00016967756991884684 0 -0.023534959996923129 0.00011025272394514182 0 -0.023181360551059835 0.00028923552259956355 0 -0.024520174829564811 0.00020673753641119907 0 -0.023704069033701317 1.32308375412265e-06 0 -0.025570960864245637 4.3757646076885826e-05 0 -0.02312268371070602 0.00016967756991884684 0 -0.024520174829564811 0.00020673753641119907 0 -0.023704069033701317 1.32308375412265e-06 0 -0.025047589642134886 0.001189759405103295 0 -0.02312268371070602 0.00016967756991884684 0 -0.024524519731518191 0.0004812683513807121 0 -0.02312268371070602 0.00016967756991884684 0 -0.024524519731518191 0.0004812683513807121 0 -0.024520174829564811 0.00020673753641119907 0 -0.024524519731518191 0.0004812683513807121 0 -0.024520174829564811 0.00020673753641119907 0 -0.025234558893591261 0.0005128462224078742 0 -0.026659313380950123 0.00031832483547973188 0 -0.025804657445463456 0.00057665257233020112 0 -0.025570960864245637 4.3757646076885826e-05 0 -0.025047589642134886 0.001189759405103295 0 -0.025804657445463456 0.00057665257233020112 0 -0.025234558893591261 0.0005128462224078742 0 -0.025047589642134886 0.001189759405103295 0 -0.024524519731518191 0.0004812683513807121 0 -0.025234558893591261 0.0005128462224078742 0 -0.024520174829564811 0.00020673753641119907 0 -0.025234558893591261 0.0005128462224078742 0 -0.025570960864245637 4.3757646076885826e-05 0 -0.025804657445463456 0.00057665257233020112 0 -0.025234558893591261 0.0005128462224078742 0 -0.025570960864245637 4.3757646076885826e-05 0 -0.027048795582791753 -0.0001014138243651924 0 -0.025592995084237982 -7.5095635412796535e-07 0 -0.026596785962954238 -9.0396282351790243e-05 0 -0.025570960864245637 4.3757646076885826e-05 0 -0.025592995084237982 -7.5095635412796535e-07 0 -0.026596785962954238 -9.0396282351790243e-05 0 -0.023704069033701317 1.32308375412265e-06 0 -0.025570960864245637 4.3757646076885826e-05 0 -0.025592995084237982 -7.5095635412796535e-07 0 -0.027295512386358394 0.00011342581404106611 0 -0.026596785962954238 -9.0396282351790243e-05 0 -0.026896959930857004 2.6293355302647571e-05 0 -0.026659313380950123 0.00031832483547973188 0 -0.025570960864245637 4.3757646076885826e-05 0 -0.026596785962954238 -9.0396282351790243e-05 0 -0.026659313380950123 0.00031832483547973188 0 -0.026596785962954238 -9.0396282351790243e-05 0 -0.026896959930857004 2.6293355302647571e-05 0 -0.028687625132482759 0.0010507857305949427 0 -0.028549674846373919 0.00090659157954753561 0 -0.03027545249341786 0.0017996702338282571 0 -0.030184561501464775 0.0018582015427580068 0 -0.030211259873692314 0.0019377129752584032 0 -0.030427558371649153 0.0017111102455234096 0 -0.03027545249341786 0.0017996702338282571 0 -0.030184561501464775 0.0018582015427580068 0 -0.030045429546818898 0.0016677557166349167 0 -0.030184561501464775 0.0018582015427580068 0 -0.030211259873692314 0.0019377129752584032 0 -0.030241688082688404 0.0017864259905899617 0 -0.030045429546818898 0.0016677557166349167 0 -0.030211259873692314 0.0019377129752584032 0 -0.030241688082688404 0.0017864259905899617 0 -0.030211259873692314 0.0019377129752584032 0 -0.030175881621866865 0.0022121355611056854 0 -0.030639857501069467 0.0018337909859341883 0 -0.030241688082688404 0.0017864259905899617 0 -0.030175881621866865 0.0022121355611056854 0 -0.030211259873692314 0.0019377129752584032 0 -0.030175881621866865 0.0022121355611056854 0 -0.03011394992992315 0.0018187062668991196 0 -0.03027545249341786 0.0017996702338282571 0 -0.030211259873692314 0.0019377129752584032 0 -0.030219545376984593 0.0017199683686938984 0 -0.030211259873692314 0.0019377129752584032 0 -0.030219545376984593 0.0017199683686938984 0 -0.03011394992992315 0.0018187062668991196 0 -0.030639857501069467 0.0018337909859341883 0 -0.031578781895878733 0.0018275550869304462 0 -0.03150813341751238 0.0025106846947183519 0 -0.030639857501069467 0.0018337909859341883 0 -0.03150813341751238 0.0025106846947183519 0 -0.030175881621866865 0.0022121355611056854 0 -0.030330497407503876 0.0024404577107633905 0 -0.030212939103046007 0.0022655248355793788 0 -0.029069862360859594 0.0024693787003311554 0 -0.030175881621866865 0.0022121355611056854 0 -0.029608836806052499 0.0016429890427842085 0 -0.030175881621866865 0.0022121355611056854 0 -0.029608836806052499 0.0016429890427842085 0 -0.03011394992992315 0.0018187062668991196 0 -0.028577734963905053 0.0018418150012196562 0 -0.029069862360859594 0.0024693787003311554 0 -0.029608836806052499 0.0016429890427842085 0 -0.028577734963905053 0.0018418150012196562 0 -0.029608836806052499 0.0016429890427842085 0 -0.028976533715734953 0.0012855269078524167 0 -0.029608836806052499 0.0016429890427842085 0 -0.029501959191655432 0.0010600097218758345 0 -0.030055430069925511 0.0013873936579379292 0 -0.029501959191655432 0.0010600097218758345 0 -0.030055430069925511 0.0013873936579379292 0 -0.029924430667394565 0.00084079696825555721 0 -0.029608836806052499 0.0016429890427842085 0 -0.029501959191655432 0.0010600097218758345 0 -0.028976533715734953 0.0012855269078524167 0 -0.029501959191655432 0.0010600097218758345 0 -0.028976533715734953 0.0012855269078524167 0 -0.029032239383486022 0.00085592787659866294 0 -0.030219545376984593 0.0017199683686938984 0 -0.030055430069925511 0.0013873936579379292 0 -0.030255423751598419 0.0014958064341781061 0 -0.030305575523526838 0.0016570230678278049 0 -0.030219545376984593 0.0017199683686938984 0 -0.030255423751598419 0.0014958064341781061 0 -0.030305575523526838 0.0016570230678278049 0 -0.03027545249341786 0.0017996702338282571 0 -0.030219545376984593 0.0017199683686938984 0 -0.029608836806052499 0.0016429890427842085 0 -0.03011394992992315 0.0018187062668991196 0 -0.030055430069925511 0.0013873936579379292 0 -0.030219545376984593 0.0017199683686938984 0 -0.03011394992992315 0.0018187062668991196 0 -0.030055430069925511 0.0013873936579379292 0 -0.030055430069925511 0.0013873936579379292 0 -0.030206876520253872 0.0012999869467047549 0 -0.029924430667394565 0.00084079696825555721 0 -0.030055430069925511 0.0013873936579379292 0 -0.030206876520253872 0.0012999869467047549 0 -0.030255423751598419 0.0014958064341781061 0 -0.030355899847802289 0.001521666910503678 0 -0.030317626595701287 0.0013869626434108852 0 -0.030255423751598419 0.0014958064341781061 0 -0.030317626595701287 0.0013869626434108852 0 -0.030206876520253872 0.0012999869467047549 0 -0.030255423751598419 0.0014958064341781061 0 -0.030317626595701287 0.0013869626434108852 0 -0.030206876520253872 0.0012999869467047549 0 -0.030271779445142859 0.0013050235295066618 0 -0.030317626595701287 0.0013869626434108852 0 -0.030271779445142859 0.0013050235295066618 0 -0.030266058606088064 0.0012403625779671451 0 -0.030206876520253872 0.0012999869467047549 0 -0.030271779445142859 0.0013050235295066618 0 -0.030268047296779663 0.0012346199704533166 0 -0.030271779445142859 0.0013050235295066618 0 -0.030268047296779663 0.0012346199704533166 0 -0.030266058606088064 0.0012403625779671451 0 -0.030268047296779663 0.0012346199704533166 0 -0.030293239019600213 0.0012193601649390226 0 -0.029924430667394565 0.00084079696825555721 0 -0.030206876520253872 0.0012999869467047549 0 -0.030268047296779663 0.0012346199704533166 0 -0.029924430667394565 0.00084079696825555721 0 -0.023263114210564921 -0.0015750148417796414 0 -0.024722099319888682 -0.0011585019969798682 0 -0.023210528524854692 -0.00024977390698101894 0 -0.027230089052658543 0.00034762430956145773 0 -0.026915101173772181 0.00046124902569980351 0 -0.026915101173772181 0.00046124902569980351 0 -0.027260652869977944 -0.00024018963434245134 0 -0.024722099319888682 -0.0011585019969798682 0 -0.025272303135423158 -0.00033987611938727185 0 -0.024374660017057816 0.00044425973613787284 0 -0.024722099319888682 -0.0011585019969798682 0 -0.023210528524854692 -0.00024977390698101894 0 -0.024374660017057816 0.00044425973613787284 0 -0.029501959191655432 0.0010600097218758345 0 -0.029032239383486022 0.00085592787659866294 0 -0.029246046907466145 0.00040133334279310285 0 -0.028606568738299545 0.000565078479223315 0 -0.029032239383486022 0.00085592787659866294 0 -0.029246046907466145 0.00040133334279310285 0 -0.024722099319888682 -0.0011585019969798682 0 -0.025272303135423158 -0.00033987611938727185 0 -0.026341877096370793 -0.00074058883470015668 0 -0.029501959191655432 0.0010600097218758345 0 -0.029924430667394565 0.00084079696825555721 0 -0.029246046907466145 0.00040133334279310285 0 -0.027260652869977944 -0.00024018963434245134 0 -0.027790021423819242 -0.00012753872509140197 0 -0.025272303135423158 -0.00033987611938727185 0 -0.025245018357755486 0.00035804438490240879 0 -0.024374660017057816 0.00044425973613787284 0 -0.025272303135423158 -0.00033987611938727185 0 -0.026030909866213748 -4.1829735851095303e-05 0 -0.025245018357755486 0.00035804438490240879 0 -0.026030909866213748 -4.1829735851095303e-05 0 -0.025657789194979189 0.00049772076610461507 0 -0.025245018357755486 0.00035804438490240879 0 -0.025272303135423158 -0.00033987611938727185 0 -0.026341877096370793 -0.00074058883470015668 0 -0.026030909866213748 -4.1829735851095303e-05 0 -0.028106779374588029 9.5307867467984273e-05 0 -0.026341877096370793 -0.00074058883470015668 0 -0.026828853232473526 -7.3160866573961282e-05 0 -0.026341877096370793 -0.00074058883470015668 0 -0.026030909866213748 -4.1829735851095303e-05 0 -0.026828853232473526 -7.3160866573961282e-05 0 -0.026030909866213748 -4.1829735851095303e-05 0 -0.026828853232473526 -7.3160866573961282e-05 0 -0.027166525906901769 0.00041245590629136378 0 -0.026030909866213748 -4.1829735851095303e-05 0 -0.027166525906901769 0.00041245590629136378 0 -0.027010310681722435 0.0014979087315311901 0 -0.025850867683805498 0.00085846429282344428 0 -0.025491922336479643 0.0012419446997163062 0 -0.026493248722798297 0.0013981913381649789 0 -0.026030909866213748 -4.1829735851095303e-05 0 -0.025850867683805498 0.00085846429282344428 0 -0.026493248722798297 0.0013981913381649789 0 -0.027417434680362812 0.0012233498323819918 0 -0.022491376782547846 -0.00089632791148696624 0 -0.025497568970677387 0.00080815096221193642 0 -0.025850867683805498 0.00085846429282344428 0 -0.025491922336479643 0.0012419446997163062 0 -0.025497568970677387 0.00080815096221193642 0 -0.025850867683805498 0.00085846429282344428 0 -0.025657789194979189 0.00049772076610461507 0 -0.026030909866213748 -4.1829735851095303e-05 0 -0.025850867683805498 0.00085846429282344428 0 -0.025657789194979189 0.00049772076610461507 0 -0.025497568970677387 0.00080815096221193642 0 -0.025657789194979189 0.00049772076610461507 0 -0.025245018357755486 0.00035804438490240879 0 -0.025245018357755486 0.00035804438490240879 0 -0.025104332089687289 0.0011730643805767315 0 -0.024374660017057816 0.00044425973613787284 0 -0.025497568970677387 0.00080815096221193642 0 -0.025245018357755486 0.00035804438490240879 0 -0.025104332089687289 0.0011730643805767315 0 -0.025497568970677387 0.00080815096221193642 0 -0.025104332089687289 0.0011730643805767315 0 -0.025491922336479643 0.0012419446997163062 0 -0.025104332089687289 0.0011730643805767315 0 -0.025518331801302901 0.001894224960155864 0 -0.024341867193575804 0.0015672308559748656 0 -0.019016092173072617 -0.001172454780650716 0 -0.018626053651773843 -0.0018553096174418792 0 -0.025104332089687289 0.0011730643805767315 0 -0.025547409696736911 0.0017360449925009243 0 -0.025518331801302901 0.001894224960155864 0 -0.025104332089687289 0.0011730643805767315 0 -0.025547409696736911 0.0017360449925009243 0 -0.025491922336479643 0.0012419446997163062 0 -0.018626053651773843 -0.0018553096174418792 0 -0.022491376782547846 -0.00089632791148696624 0 -0.025547409696736911 0.0017360449925009243 0 -0.025491922336479643 0.0012419446997163062 0 -0.026493248722798297 0.0013981913381649789 0 -0.025547409696736911 0.0017360449925009243 0 -0.025522314317080692 0.0018826928235803956 0 -0.026493248722798297 0.0013981913381649789 0 -0.014684759246309216 -0.0035497425047024355 0 -0.015173139141762602 -0.0037585952666546732 0 -0.014941174298856757 -0.0031777210180128895 0 -0.023210528524854692 -0.00024977390698101894 0 -0.024374660017057816 0.00044425973613787284 0 -0.023227745324384479 0.0013908972400824985 0 -0.025104332089687289 0.0011730643805767315 0 -0.024374660017057816 0.00044425973613787284 0 -0.024341867193575804 0.0015672308559748656 0 -0.024374660017057816 0.00044425973613787284 0 -0.024341867193575804 0.0015672308559748656 0 -0.023227745324384479 0.0013908972400824985 0 -0.025518331801302901 0.001894224960155864 0 -0.024341867193575804 0.0015672308559748656 0 -0.023868423724482338 0.0026527702435428886 0 -0.023227745324384479 0.0013908972400824985 0 -0.022023423303659861 0.0021909803907007876 0 -0.023868423724482338 0.0026527702435428886 0 -0.024341867193575804 0.0015672308559748656 0 -0.023227745324384479 0.0013908972400824985 0 -0.023868423724482338 0.0026527702435428886 0 -0.023227745324384479 0.0013908972400824985 0 -0.022004354123328459 0.00082164543456742238 0 -0.022023423303659861 0.0021909803907007876 0 -0.021373583582011434 0.0013972528548733623 0 -0.022004354123328459 0.00082164543456742238 0 -0.022023423303659861 0.0021909803907007876 0 -0.021373583582011434 0.0013972528548733623 0 -0.020852348644232729 0.0020489917405272888 0 -0.022023423303659861 0.0021909803907007876 0 -0.022004354123328459 0.00082164543456742238 0 -0.021914220687484484 -0.00051673058504781507 0 -0.020609603998922456 0.00052150826565929725 0 -0.021373583582011434 0.0013972528548733623 0 -0.022004354123328459 0.00082164543456742238 0 -0.020609603998922456 0.00052150826565929725 0 -0.023210528524854692 -0.00024977390698101894 0 -0.023227745324384479 0.0013908972400824985 0 -0.022004354123328459 0.00082164543456742238 0 -0.023210528524854692 -0.00024977390698101894 0 -0.022004354123328459 0.00082164543456742238 0 -0.021914220687484484 -0.00051673058504781507 0 -0.025007457262247956 0.0011262443195170977 0 -0.024579349641349179 0.00085732267985164188 0 -0.024124788934171575 0.0017930934987028027 0 -0.023165522132139849 0.00027327047204302337 0 -0.0218869154649338 0.00083444806619563318 0 -0.02475531736007263 0.00013835361123869797 0 -0.024579349641349179 0.00085732267985164188 0 -0.024312643782713955 0.00041549181801118601 0 -0.025007457262247956 0.0011262443195170977 0 -0.024579349641349179 0.00085732267985164188 0 -0.025070718087531134 0.00058934402240305901 0 -0.024772396580899844 9.5649372818161493e-05 0 -0.024579349641349179 0.00085732267985164188 0 -0.025070718087531134 0.00058934402240305901 0 -0.026876752555586709 0.0010944098477529899 0 -0.024512590401690158 0.00059439239736955101 0 -0.023263114210564921 -0.0015750148417796414 0 -0.023210528524854692 -0.00024977390698101894 0 -0.021914220687484484 -0.00051673058504781507 0 -0.026915101173772181 0.00046124902569980351 0 -0.023165522132139849 0.00027327047204302337 0 -0.025912634049237323 0.00042857743246558626 0 -0.025007457262247956 0.0011262443195170977 0 -0.025070718087531134 0.00058934402240305901 0 -0.024772396580899844 9.5649372818161493e-05 0 -0.025912634049237323 0.00042857743246558626 0 -0.025070718087531134 0.00058934402240305901 0 -0.021300603266852673 -0.00011455288697535023 0 -0.021813341655843435 -4.6375429986983051e-07 0 -0.020365960898434784 1.7327829443594214e-05 0 -0.021300603266852673 -0.00011455288697535023 0 -0.02133855589539357 -0.00024688995531403515 0 -0.021080811229309333 -3.0470107149321623e-05 0 -0.021800789701569991 -6.9624313183276834e-05 0 -0.021300603266852673 -0.00011455288697535023 0 -0.021813341655843435 -4.6375429986983051e-07 0 -0.021800789701569991 -6.9624313183276834e-05 0 -0.021300603266852673 -0.00011455288697535023 0 -0.02133855589539357 -0.00024688995531403515 0 -0.024579349641349179 0.00085732267985164188 0 -0.024312643782713955 0.00041549181801118601 0 -0.023983116733756117 0.00081953236714255354 0 -0.020863233530311467 0.00024811564585224227 0 -0.021080811229309333 -3.0470107149321623e-05 0 -0.021533332057888693 0.00070847406830463154 0 -0.024579349641349179 0.00085732267985164188 0 -0.023983116733756117 0.00081953236714255354 0 -0.024124788934171575 0.0017930934987028027 0 -0.02133855589539357 -0.00024688995531403515 0 -0.021080811229309333 -3.0470107149321623e-05 0 -0.021533332057888693 0.00070847406830463154 0 -0.02271262600968053 0.0003671771495060988 0 -0.0218869154649338 0.00083444806619563318 0 -0.020863233530311467 0.00024811564585224227 0 -0.020365960898434784 1.7327829443594214e-05 0 -0.020928900499695691 0.00060225357561054455 0 -0.021813341655843435 -4.6375429986983051e-07 0 -0.019924392130926522 4.5769966336288011e-07 0 -0.020365960898434784 1.7327829443594214e-05 0 -0.020863233530311467 0.00024811564585224227 0 -0.021080811229309333 -3.0470107149321623e-05 0 -0.020365960898434784 1.7327829443594214e-05 0 -0.021300603266852673 -0.00011455288697535023 0 -0.021080811229309333 -3.0470107149321623e-05 0 -0.020365960898434784 1.7327829443594214e-05 0 -0.019924392130926522 4.5769966336288011e-07 0 -0.018174093301639247 6.7348314291010446e-05 0 -0.018034074731100816 4.8748256522634432e-08 0 -0.020365960898434784 1.7327829443594214e-05 0 -0.020928900499695691 0.00060225357561054455 0 -0.020880397300957899 0.0013587023598374628 0 -0.020206355788819731 5.5253992350368505e-05 0 -0.019366706285054183 0.00049847333183848056 0 -0.019924392130926522 4.5769966336288011e-07 0 -0.020365960898434784 1.7327829443594214e-05 0 -0.018302667760564658 7.5410990040680729e-05 0 -0.019924392130926522 4.5769966336288011e-07 0 -0.018302667760564658 7.5410990040680729e-05 0 -0.018174093301639247 6.7348314291010446e-05 0 -0.020928900499695691 0.00060225357561054455 0 -0.020880397300957899 0.0013587023598374628 0 -0.021533332057888693 0.00070847406830463154 0 -0.020863233530311467 0.00024811564585224227 0 -0.020928900499695691 0.00060225357561054455 0 -0.021533332057888693 0.00070847406830463154 0 -0.019366706285054183 0.00049847333183848056 0 -0.0218869154649338 0.00083444806619563318 0 -0.019555624960944252 0.00082368211590894027 0 -0.020719161442743075 0.0018203914111098543 0 -0.020060536750565194 0.0024803471173036008 0 -0.021373583582011434 0.0013972528548733623 0 -0.020609603998922456 0.00052150826565929725 0 -0.020852348644232729 0.0020489917405272888 0 -0.019366706285054183 0.00049847333183848056 0 -0.01868913184707395 0.0014671153304229943 0 -0.0218869154649338 0.00083444806619563318 0 -0.020616204691494205 0.0018156109047216887 0 -0.019555624960944252 0.00082368211590894027 0 -0.020437839362014189 0.00012952080476110603 0 -0.020719161442743075 0.0018203914111098543 0 -0.01804122454610042 0.00012189591681070573 0 -0.017548689827276174 -2.9694140960868301e-05 0 -0.016692201849237236 -0.00011454367141872017 0 -0.018174093301639247 6.7348314291010446e-05 0 -0.017548689827276174 -2.9694140960868301e-05 0 -0.018034074731100816 4.8748256522634432e-08 0 -0.01804122454610042 0.00012189591681070573 0 -0.018174093301639247 6.7348314291010446e-05 0 -0.017548689827276174 -2.9694140960868301e-05 0 -0.019366706285054183 0.00049847333183848056 0 -0.019031258948926415 0.00055491648404851885 0 -0.017548689827276174 -2.9694140960868301e-05 0 -0.018034074731100816 4.8748256522634432e-08 0 -0.016897950374255909 -9.2987267010242552e-05 0 -0.018034074731100816 4.8748256522634432e-08 0 -0.016897950374255909 -9.2987267010242552e-05 0 -0.016144673323640928 -8.9797221499767863e-07 0 -0.016897950374255909 -9.2987267010242552e-05 0 -0.016692201849237236 -0.00011454367141872017 0 -0.016278992634313195 -3.9231295726492195e-05 0 -0.017548689827276174 -2.9694140960868301e-05 0 -0.016897950374255909 -9.2987267010242552e-05 0 -0.016692201849237236 -0.00011454367141872017 0 -0.020719161442743075 0.0018203914111098543 0 -0.020060536750565194 0.0024803471173036008 0 -0.021019219787507662 0.0035431596655446629 0 -0.016692201849237236 -0.00011454367141872017 0 -0.016278992634313195 -3.9231295726492195e-05 0 -0.016205831682350919 3.6946725875582049e-05 0 -0.01868913184707395 0.0014671153304229943 0 -0.01571696197432457 0.00063999172538500002 0 -0.020060536750565194 0.0024803471173036008 0 -0.021019219787507662 0.0035431596655446629 0 -0.020595093783825697 0.0041178370766159975 0 -0.016144673323640928 -8.9797221499767863e-07 0 -0.016278992634313195 -3.9231295726492195e-05 0 -0.015716599988996247 7.7551456551170733e-05 0 -0.016897950374255909 -9.2987267010242552e-05 0 -0.016144673323640928 -8.9797221499767863e-07 0 -0.016278992634313195 -3.9231295726492195e-05 0 -0.022023423303659861 0.0021909803907007876 0 -0.022247096696219881 0.0033634949017459577 0 -0.023868423724482338 0.0026527702435428886 0 -0.022023423303659861 0.0021909803907007876 0 -0.021531532145733525 0.0027827640462686578 0 -0.022247096696219881 0.0033634949017459577 0 -0.020616204691494205 0.0018156109047216887 0 -0.021055801901995391 0.0035169717664597475 0 -0.020852348644232729 0.0020489917405272888 0 -0.022023423303659861 0.0021909803907007876 0 -0.021531532145733525 0.0027827640462686578 0 -0.020852348644232729 0.0020489917405272888 0 -0.021531532145733525 0.0027827640462686578 0 -0.021019219787507662 0.0035431596655446629 0 -0.021531532145733525 0.0027827640462686578 0 -0.021019219787507662 0.0035431596655446629 0 -0.022247096696219881 0.0033634949017459577 0 -0.017145401930565837 7.13183492731551e-05 0 -0.01571696197432457 0.00063999172538500002 0 -0.021019219787507662 0.0035431596655446629 0 -0.022247096696219881 0.0033634949017459577 0 -0.020595093783825697 0.0041178370766159975 0 -0.012071772434485702 -0.003224724781638641 0 -0.011918755582837124 -0.0024083707106448732 0 -0.012869725392887785 -0.0026358086526844324 0 -0.012071772434485702 -0.003224724781638641 0 -0.011918755582837124 -0.0024083707106448732 0 -0.011093954548236029 -0.0027293287030336916 0 -0.011918755582837124 -0.0024083707106448732 0 -0.011264153651501083 -0.0020328862302194028 0 -0.011093954548236029 -0.0027293287030336916 0 -0.011918755582837124 -0.0024083707106448732 0 -0.011264153651501083 -0.0020328862302194028 0 -0.011773559504563833 -0.0017699590953386354 0 -0.011129773139571544 -0.0013139141739929798 0 -0.011399481238930777 -0.00073109169536209604 0 -0.011264153651501083 -0.0020328862302194028 0 -0.011773559504563833 -0.0017699590953386354 0 -0.01137520321318381 -0.0013185568960194696 0 -0.011918755582837124 -0.0024083707106448732 0 -0.011773559504563833 -0.0017699590953386354 0 -0.012452504344950554 -0.001985007663495296 0 -0.011773559504563833 -0.0017699590953386354 0 -0.011912309087053504 -0.0012622432387707867 0 -0.012452504344950554 -0.001985007663495296 0 -0.016144673323640928 -8.9797221499767863e-07 0 -0.015716599988996247 7.7551456551170733e-05 0 -0.014258137318539608 1.362558972771799e-06 0 -0.014065203945725142 0.00051361741662322654 0 -0.014255737252743875 1.5409439285262238e-07 0 -0.014065203945725142 0.00051361741662322654 0 -0.01571696197432457 0.00063999172538500002 0 -0.011631489304284147 0.00025044721633922415 0 -0.012744066267816245 0.00085808813517863534 0 -0.012008740034734771 0.0012272401080156191 0 -0.016278992634313195 -3.9231295726492195e-05 0 -0.015716599988996247 7.7551456551170733e-05 0 -0.016205831682350919 3.6946725875582049e-05 0 -0.011129773139571544 -0.0013139141739929798 0 -0.01571696197432457 0.00063999172538500002 0 -0.011631489304284147 0.00025044721633922415 0 -0.012744066267816245 0.00085808813517863534 0 -0.012418817038266083 -8.5818015933092652e-05 0 -0.011631489304284147 0.00025044721633922415 0 -0.012418817038266083 -8.5818015933092652e-05 0 -0.011312398885907926 -0.00038417169690851911 0 -0.012744066267816245 0.00085808813517863534 0 -0.014252325519361671 2.2366778469643326e-06 0 -0.012418817038266083 -8.5818015933092652e-05 0 -0.014252325519361671 2.2366778469643326e-06 0 -0.012418817038266083 -8.5818015933092652e-05 0 -0.012448983348032457 -1.1870897476083522e-06 0 -0.012418817038266083 -8.5818015933092652e-05 0 -0.012448983348032457 -1.1870897476083522e-06 0 -0.011389186766556413 -0.00033648066346412425 0 -0.012448983348032457 -1.1870897476083522e-06 0 -0.011389186766556413 -0.00033648066346412425 0 -0.01064223268627781 -5.3471717448345145e-07 0 -0.011389186766556413 -0.00033648066346412425 0 -0.011312398885907926 -0.00038417169690851911 0 -0.011055491843558966 -0.00040283915040738836 0 -0.012418817038266083 -8.5818015933092652e-05 0 -0.011389186766556413 -0.00033648066346412425 0 -0.011312398885907926 -0.00038417169690851911 0 -0.011773559504563833 -0.0017699590953386354 0 -0.01137520321318381 -0.0013185568960194696 0 -0.011912309087053504 -0.0012622432387707867 0 -0.011409915755929357 -0.00049692052664736296 0 -0.01243142188819513 -2.8686673848931907e-05 0 -0.01260043745007244 -0.00099172314580502205 0 -0.011912309087053504 -0.0012622432387707867 0 -0.011409915755929357 -0.00049692052664736296 0 -0.01260043745007244 -0.00099172314580502205 0 -0.01137520321318381 -0.0013185568960194696 0 -0.011912309087053504 -0.0012622432387707867 0 -0.011409915755929357 -0.00049692052664736296 0 -0.011399481238930777 -0.00073109169536209604 0 -0.011404370969974247 -0.00054798321942667327 0 -0.011312398885907926 -0.00038417169690851911 0 -0.011409915755929357 -0.00049692052664736296 0 -0.011055491843558966 -0.00040283915040738836 0 -0.011169425717769925 -8.9297767210877425e-05 0 -0.010853277010607643 0.00023931722908538381 0 -0.010463631120055095 -0.00019387284114995851 0 -0.011055491843558966 -0.00040283915040738836 0 -0.011169425717769925 -8.9297767210877425e-05 0 -0.010463631120055095 -0.00019387284114995851 0 -0.011409915755929357 -0.00049692052664736296 0 -0.011169425717769925 -8.9297767210877425e-05 0 -0.011728279684180356 8.270734018586447e-05 0 -0.011409915755929357 -0.00049692052664736296 0 -0.011055491843558966 -0.00040283915040738836 0 -0.011169425717769925 -8.9297767210877425e-05 0 -0.011409915755929357 -0.00049692052664736296 0 -0.011728279684180356 8.270734018586447e-05 0 -0.01243142188819513 -2.8686673848931907e-05 0 -0.011434611765420093 0.00059952517396459962 0 -0.01222345166258261 0.00058042363380632984 0 -0.012426550489892352 0.0013351566327525922 0 -0.011728279684180356 8.270734018586447e-05 0 -0.011434611765420093 0.00059952517396459962 0 -0.01222345166258261 0.00058042363380632984 0 -0.011728279684180356 8.270734018586447e-05 0 -0.01222345166258261 0.00058042363380632984 0 -0.01243142188819513 -2.8686673848931907e-05 0 -0.011169425717769925 -8.9297767210877425e-05 0 -0.011728279684180356 8.270734018586447e-05 0 -0.011434611765420093 0.00059952517396459962 0 -0.011169425717769925 -8.9297767210877425e-05 0 -0.010853277010607643 0.00023931722908538381 0 -0.011434611765420093 0.00059952517396459962 0 -0.010853277010607643 0.00023931722908538381 0 -0.011434611765420093 0.00059952517396459962 0 -0.011133125942011688 0.0012144526523504584 0 -0.010853277010607643 0.00023931722908538381 0 -0.0099953101531272837 0.00021033947698654941 0 -0.011133125942011688 0.0012144526523504584 0 -0.010853277010607643 0.00023931722908538381 0 -0.0099953101531272837 0.00021033947698654941 0 -0.010463631120055095 -0.00019387284114995851 0 -0.0099953101531272837 0.00021033947698654941 0 -0.0095700043350084741 1.8653351181418841e-05 0 -0.010463631120055095 -0.00019387284114995851 0 -0.0099953101531272837 0.00021033947698654941 0 -0.0095700043350084741 1.8653351181418841e-05 0 -0.0084416998279839561 0.00053622904365142692 0 -0.0088357577647877571 1.1398110779064387e-06 0 -0.0095700043350084741 1.8653351181418841e-05 0 -0.0084416998279839561 0.00053622904365142692 0 -0.0088357577647877571 1.1398110779064387e-06 0 -0.0095700043350084741 1.8653351181418841e-05 0 -0.01064223268627781 -5.3471717448345145e-07 0 -0.011389186766556413 -0.00033648066346412425 0 -0.01064223268627781 -5.3471717448345145e-07 0 -0.010463631120055095 -0.00019387284114995851 0 -0.0095700043350084741 1.8653351181418841e-05 0 -0.01064223268627781 -5.3471717448345145e-07 0 -0.010463631120055095 -0.00019387284114995851 0 -0.011389186766556413 -0.00033648066346412425 0 -0.011055491843558966 -0.00040283915040738836 0 -0.010463631120055095 -0.00019387284114995851 0 -0.014520863919069555 0.00067816833963498077 0 -0.013590485675636775 -6.8620766944168821e-05 0 -0.015019831100366914 -0.00049705557128801574 0 -0.018671211164656153 0.00026516188957176356 0 -0.018932030731160919 -0.00018649142176903422 0 -0.018989857910973459 -3.2320814530932139e-05 0 -0.016934394115531413 0.00012800604847459021 0 -0.016938189267130598 -0.00024941669248427432 0 -0.018970576300462973 -1.0382826026229274e-05 0 -0.018943895399931722 -1.7551881292794026e-05 0 -0.018989857910973459 -3.2320814530932139e-05 0 -0.016934394115531413 0.00012800604847459021 0 -0.019490038897753265 -0.00023815238484484907 0 -0.018970576300462973 -1.0382826026229274e-05 0 -0.018957122864725649 -1.3692910863666943e-05 0 -0.018943895399931722 -1.7551881292794026e-05 0 -0.018957122864725649 -1.3692910863666943e-05 0 -0.018962548523659226 -9.3086492823688447e-06 0 -0.018953529636332692 -1.8335122779978926e-05 0 -0.018970576300462973 -1.0382826026229274e-05 0 -0.018957122864725649 -1.3692910863666943e-05 0 -0.018962548523659226 -9.3086492823688447e-06 0 -0.018957122864725649 -1.3692910863666943e-05 0 -0.018943895399931722 -1.7551881292794026e-05 0 -0.018953685076192051 -1.6965308602206666e-05 0 -0.014520863919069555 0.00067816833963498077 0 -0.013195231635550099 0.00075876555664515109 0 -0.013590485675636775 -6.8620766944168821e-05 0 -0.013195231635550099 0.00075876555664515109 0 -0.01222345166258261 0.00058042363380632984 0 -0.012426550489892352 0.0013351566327525922 0 -0.013195231635550099 0.00075876555664515109 0 -0.01222345166258261 0.00058042363380632984 0 -0.01243142188819513 -2.8686673848931907e-05 0 -0.01243142188819513 -2.8686673848931907e-05 0 -0.013590485675636775 -6.8620766944168821e-05 0 -0.01260043745007244 -0.00099172314580502205 0 -0.013195231635550099 0.00075876555664515109 0 -0.01243142188819513 -2.8686673848931907e-05 0 -0.013590485675636775 -6.8620766944168821e-05 0 -0.013590485675636775 -6.8620766944168821e-05 0 -0.01260043745007244 -0.00099172314580502205 0 -0.013642955994916203 -0.0011674282024000389 0 -0.013608082965238218 -0.00010501691872010791 0 -0.013779670915497992 -0.0011262833402958914 0 -0.01260043745007244 -0.00099172314580502205 0 -0.012452504344950554 -0.001985007663495296 0 -0.013048170222181701 -0.0016716423202809813 0 -0.011912309087053504 -0.0012622432387707867 0 -0.01260043745007244 -0.00099172314580502205 0 -0.012452504344950554 -0.001985007663495296 0 -0.01260043745007244 -0.00099172314580502205 0 -0.013642955994916203 -0.0011674282024000389 0 -0.013048170222181701 -0.0016716423202809813 0 -0.015019831100366914 -0.00049705557128801574 0 -0.014787853594054039 -0.0017838037616034336 0 -0.015447513829723414 -0.0014789003338483324 0 -0.013935225760373792 -0.0011043254500898885 0 -0.015019831100366914 -0.00049705557128801574 0 -0.014787853594054039 -0.0017838037616034336 0 -0.013590485675636775 -6.8620766944168821e-05 0 -0.013935225760373792 -0.0011043254500898885 0 -0.015019831100366914 -0.00049705557128801574 0 -0.014787853594054039 -0.0017838037616034336 0 -0.014232472276596641 -0.0020133816119666209 0 -0.014932606346220397 -0.0023521238247328179 0 -0.014787853594054039 -0.0017838037616034336 0 -0.014932606346220397 -0.0023521238247328179 0 -0.015367565539735376 -0.0020305341065800929 0 -0.013935225760373792 -0.0011043254500898885 0 -0.014787853594054039 -0.0017838037616034336 0 -0.014232472276596641 -0.0020133816119666209 0 -0.013779670915497992 -0.0011262833402958914 0 -0.014051926572135227 -0.0020119029703700069 0 -0.014232472276596641 -0.0020133816119666209 0 -0.014932606346220397 -0.0023521238247328179 0 -0.014480782626612466 -0.0028203824884062644 0 -0.014051926572135227 -0.0020119029703700069 0 -0.01370232148901567 -0.0033811770823538676 0 -0.014932606346220397 -0.0023521238247328179 0 -0.015295716360610726 -0.0027683514053637526 0 -0.015293526473622667 -0.0024335310224596783 0 -0.012452504344950554 -0.001985007663495296 0 -0.013048170222181701 -0.0016716423202809813 0 -0.012869725392887785 -0.0026358086526844324 0 -0.013642955994916203 -0.0011674282024000389 0 -0.013755293568851794 -0.0021806755043919509 0 -0.013048170222181701 -0.0016716423202809813 0 -0.013755293568851794 -0.0021806755043919509 0 -0.013048170222181701 -0.0016716423202809813 0 -0.012869725392887785 -0.0026358086526844324 0 -0.013755293568851794 -0.0021806755043919509 0 -0.012869725392887785 -0.0026358086526844324 0 -0.013927856105431392 -0.0031700129470268582 0 -0.011918755582837124 -0.0024083707106448732 0 -0.012452504344950554 -0.001985007663495296 0 -0.012869725392887785 -0.0026358086526844324 0 -0.012071772434485702 -0.003224724781638641 0 -0.012869725392887785 -0.0026358086526844324 0 -0.013099829438748897 -0.0037013766588605557 0 -0.012869725392887785 -0.0026358086526844324 0 -0.013099829438748897 -0.0037013766588605557 0 -0.013927856105431392 -0.0031700129470268582 0 -0.018626053651773843 -0.0018553096174418792 0 -0.018704202415793011 -0.00045742822929585743 0 -0.017145401930565837 7.13183492731551e-05 0 -0.018704202415793011 -0.00045742822929585743 0 -0.014932606346220397 -0.0023521238247328179 0 -0.014480782626612466 -0.0028203824884062644 0 -0.015295716360610726 -0.0027683514053637526 0 -0.014480782626612466 -0.0028203824884062644 0 -0.014941174298856757 -0.0031777210180128895 0 -0.015295716360610726 -0.0027683514053637526 0 -0.018626053651773843 -0.0018553096174418792 0 -0.01370232148901567 -0.0033811770823538676 0 -0.014117046852412106 -0.0041562423657427175 0 -0.013099829438748897 -0.0037013766588605557 0 -0.013927856105431392 -0.0031700129470268582 0 -0.014684759246309216 -0.0035497425047024355 0 -0.014480782626612466 -0.0028203824884062644 0 -0.014941174298856757 -0.0031777210180128895 0 -0.014941174298856757 -0.0031777210180128895 0 -0.015407030222453169 -0.0031821271535059374 0 -0.015295716360610726 -0.0027683514053637526 0 -0.015173139141762602 -0.0037585952666546732 0 -0.014941174298856757 -0.0031777210180128895 0 -0.015407030222453169 -0.0031821271535059374 0 -0.018071089511453739 -0.0029830329515612981 0 -0.019104336109351302 -0.0015980224312679588 0 -0.015407030222453169 -0.0031821271535059374 0 -0.015295716360610726 -0.0027683514053637526 0 -0.015706610326180717 -0.0025632622207425486 0 -0.015295716360610726 -0.0027683514053637526 0 -0.015706610326180717 -0.0025632622207425486 0 -0.015654158172224982 -0.0024861959658321461 0 -0.015295716360610726 -0.0027683514053637526 0 -0.015293526473622667 -0.0024335310224596783 0 -0.015654158172224982 -0.0024861959658321461 0 -0.019104336109351302 -0.0015980224312679588 0 -0.021014593433370289 -0.0015377182769501624 0 -0.021882169058812045 -0.0015943439909826278 0 -0.022047761632593324 -0.0011880600466386314 0 -0.022291503635420082 -0.0015003515091643494 0 -0.019589729390676911 -0.0011295776622906178 0 -0.019462128320051127 -0.0013284838856167721 0 -0.01934814549945045 -0.00092242793041565443 0 -0.019218138028617656 -0.0010559556516943334 0 -0.019462128320051127 -0.0013284838856167721 0 -0.019292780486953501 -0.00089365341625471267 0 -0.019218138028617656 -0.0010559556516943334 0 -0.019462128320051127 -0.0013284838856167721 0 -0.019504608918606139 -0.0015121910703704312 0 -0.019438882244756605 -0.0012143570572053215 0 -0.018764760949250635 -0.0013535136309240586 0 -0.019589729390676911 -0.0011295776622906178 0 -0.019462128320051127 -0.0013284838856167721 0 -0.019724242832678214 -0.0013508121396067724 0 -0.019462128320051127 -0.0013284838856167721 0 -0.019504608918606139 -0.0015121910703704312 0 -0.019724242832678214 -0.0013508121396067724 0 -0.022172261700967387 -0.0018520857842696211 0 -0.021882169058812045 -0.0015943439909826278 0 -0.022291503635420082 -0.0015003515091643494 0 -0.022172261700967387 -0.0018520857842696211 0 -0.02254236490549329 -0.0018179364151883191 0 -0.022291503635420082 -0.0015003515091643494 0 -0.021175162148879344 -0.0019430200486959285 0 -0.021014593433370289 -0.0015377182769501624 0 -0.019826996478853869 -0.0020492996467377442 0 -0.019933678254057542 -0.0015747336022905556 0 -0.020316206097532406 -0.0018147839733371701 0 -0.019826996478853869 -0.0020492996467377442 0 -0.019504608918606139 -0.0015121910703704312 0 -0.019933678254057542 -0.0015747336022905556 0 -0.019504608918606139 -0.0015121910703704312 0 -0.019933678254057542 -0.0015747336022905556 0 -0.019724242832678214 -0.0013508121396067724 0 -0.020316206097532406 -0.0018147839733371701 0 -0.02051036823773655 -0.0015773096595381229 0 -0.020724751328151627 -0.0017490525940714631 0 -0.02056349763721611 -0.0019707394281916783 0 -0.020316206097532406 -0.0018147839733371701 0 -0.020724751328151627 -0.0017490525940714631 0 -0.019933678254057542 -0.0015747336022905556 0 -0.020316206097532406 -0.0018147839733371701 0 -0.020271815249678929 -0.0014713359595466364 0 -0.020316206097532406 -0.0018147839733371701 0 -0.020271815249678929 -0.0014713359595466364 0 -0.02051036823773655 -0.0015773096595381229 0 -0.020271815249678929 -0.0014713359595466364 0 -0.02051036823773655 -0.0015773096595381229 0 -0.020614989315831347 -0.0013560872751506108 0 -0.020271815249678929 -0.0014713359595466364 0 -0.020290739493339087 -0.0010902327649833662 0 -0.020614989315831347 -0.0013560872751506108 0 -0.019933678254057542 -0.0015747336022905556 0 -0.020271815249678929 -0.0014713359595466364 0 -0.01999707912376331 -0.0012769544347644697 0 -0.020271815249678929 -0.0014713359595466364 0 -0.020290739493339087 -0.0010902327649833662 0 -0.01999707912376331 -0.0012769544347644697 0 -0.020290739493339087 -0.0010902327649833662 0 -0.01999707912376331 -0.0012769544347644697 0 -0.019923610437377899 -0.00096488402852273512 0 -0.019933678254057542 -0.0015747336022905556 0 -0.019724242832678214 -0.0013508121396067724 0 -0.01999707912376331 -0.0012769544347644697 0 -0.019724242832678214 -0.0013508121396067724 0 -0.01999707912376331 -0.0012769544347644697 0 -0.019771981487936404 -0.0011224539151312638 0 -0.01999707912376331 -0.0012769544347644697 0 -0.019771981487936404 -0.0011224539151312638 0 -0.019923610437377899 -0.00096488402852273512 0 -0.019589729390676911 -0.0011295776622906178 0 -0.019724242832678214 -0.0013508121396067724 0 -0.019771981487936404 -0.0011224539151312638 0 -0.019589729390676911 -0.0011295776622906178 0 -0.019771981487936404 -0.0011224539151312638 0 -0.019650079512147263 -0.00092364476389291197 0 -0.019771981487936404 -0.0011224539151312638 0 -0.019650079512147263 -0.00092364476389291197 0 -0.019923610437377899 -0.00096488402852273512 0 -0.019650079512147263 -0.00092364476389291197 0 -0.019923610437377899 -0.00096488402852273512 0 -0.019775883521886851 -0.00071501610354250851 0 -0.019923610437377899 -0.00096488402852273512 0 -0.019775883521886851 -0.00071501610354250851 0 -0.020117714506802737 -0.00074084621745011626 0 -0.019650079512147263 -0.00092364476389291197 0 -0.019775883521886851 -0.00071501610354250851 0 -0.019483143773703544 -0.00069153158262724593 0 -0.020290739493339087 -0.0010902327649833662 0 -0.020412161087937534 -0.00085869325779504996 0 -0.02070857868963644 -0.00099119139478332646 0 -0.020290739493339087 -0.0010902327649833662 0 -0.020412161087937534 -0.00085869325779504996 0 -0.020117714506802737 -0.00074084621745011626 0 -0.020290739493339087 -0.0010902327649833662 0 -0.019923610437377899 -0.00096488402852273512 0 -0.020117714506802737 -0.00074084621745011626 0 -0.019775883521886851 -0.00071501610354250851 0 -0.020117714506802737 -0.00074084621745011626 0 -0.019946226803667175 -0.00060950857495539604 0 -0.020412161087937534 -0.00085869325779504996 0 -0.020117714506802737 -0.00074084621745011626 0 -0.020534438863129435 -0.00061338385905081638 0 -0.020117714506802737 -0.00074084621745011626 0 -0.019946226803667175 -0.00060950857495539604 0 -0.020008514893018917 -0.00050158310624115454 0 -0.019946226803667175 -0.00060950857495539604 0 -0.019798003276962278 -0.00052743357635972395 0 -0.020008514893018917 -0.00050158310624115454 0 -0.020117714506802737 -0.00074084621745011626 0 -0.020534438863129435 -0.00061338385905081638 0 -0.020587737971204157 -0.00037285128041436111 0 -0.020118658576219247 -0.00074116889201244498 0 -0.020286608971665399 -0.0004622940470173133 0 -0.019798003276962278 -0.00052743357635972395 0 -0.019483143773703544 -0.00069153158262724593 0 -0.019511692919878296 -0.00047111400237154905 0 -0.019775883521886851 -0.00071501610354250851 0 -0.019798003276962278 -0.00052743357635972395 0 -0.019483143773703544 -0.00069153158262724593 0 -0.019775883521886851 -0.00071501610354250851 0 -0.019946226803667175 -0.00060950857495539604 0 -0.019798003276962278 -0.00052743357635972395 0 -0.019483143773703544 -0.00069153158262724593 0 -0.019191662580052331 -0.00052487055528730689 0 -0.019511692919878296 -0.00047111400237154905 0 -0.019483143773703544 -0.00069153158262724593 0 -0.019389657319761132 -0.00088757832752553261 0 -0.019191662580052331 -0.00052487055528730689 0 -0.015367565539735376 -0.0020305341065800929 0 -0.015812015642315134 -0.0023724282936049552 0 -0.015447513829723414 -0.0014789003338483324 0 -0.014787853594054039 -0.0017838037616034336 0 -0.015367565539735376 -0.0020305341065800929 0 -0.015447513829723414 -0.0014789003338483324 0 -0.018764760949250635 -0.0013535136309240586 0 -0.017155857107162151 -0.0010447775554906973 0 -0.015367565539735376 -0.0020305341065800929 0 -0.015531023270380067 -0.0023314269158020606 0 -0.015812015642315134 -0.0023724282936049552 0 -0.015367565539735376 -0.0020305341065800929 0 -0.015293526473622667 -0.0024335310224596783 0 -0.015531023270380067 -0.0023314269158020606 0 -0.014932606346220397 -0.0023521238247328179 0 -0.015367565539735376 -0.0020305341065800929 0 -0.015293526473622667 -0.0024335310224596783 0 -0.015293526473622667 -0.0024335310224596783 0 -0.015531023270380067 -0.0023314269158020606 0 -0.015654158172224982 -0.0024861959658321461 0 -0.015531023270380067 -0.0023314269158020606 0 -0.015654158172224982 -0.0024861959658321461 0 -0.015812015642315134 -0.0023724282936049552 0 -0.019104336109351302 -0.0015980224312679588 0 -0.018642733205752316 -0.0014729692931704477 0 -0.015716511480826957 -0.0025706748253897108 0 -0.015654158172224982 -0.0024861959658321461 0 -0.015812015642315134 -0.0023724282936049552 0 -0.019104336109351302 -0.0015980224312679588 0 -0.018764760949250635 -0.0013535136309240586 0 -0.019589729390676911 -0.0011295776622906178 0 -0.019650079512147263 -0.00092364476389291197 0 -0.01934814549945045 -0.00092242793041565443 0 -0.019650079512147263 -0.00092364476389291197 0 -0.019483143773703544 -0.00069153158262724593 0 -0.01934814549945045 -0.00092242793041565443 0 -0.019497170365044163 -0.00054187869879401102 0 -0.018764760949250635 -0.0013535136309240586 0 -0.022596686327489058 -0.00091121902804660346 0 -0.022469580798208662 -0.0016865648567363097 0 -0.022852514269296235 -0.0010724553676874932 0 -0.021654569967999634 -0.0020938404746663978 0 -0.022469580798208662 -0.0016865648567363097 0 -0.02167884770801512 -0.0012372488536381704 0 -0.022596686327489058 -0.00091121902804660346 0 -0.022469580798208662 -0.0016865648567363097 0 -0.02167884770801512 -0.0012372488536381704 0 -0.022596686327489058 -0.00091121902804660346 0 -0.02167884770801512 -0.0012372488536381704 0 -0.021945776748987487 -0.0006909050485150814 0 -0.02167884770801512 -0.0012372488536381704 0 -0.021221666593928237 -0.00086166908064397242 0 -0.021945776748987487 -0.0006909050485150814 0 -0.02167884770801512 -0.0012372488536381704 0 -0.021156284201345226 -0.001618632683448777 0 -0.021056281989606192 -0.00125385936846867 0 -0.02167884770801512 -0.0012372488536381704 0 -0.021056281989606192 -0.00125385936846867 0 -0.021221666593928237 -0.00086166908064397242 0 -0.021038843349530319 -0.0019962789171579058 0 -0.021654569967999634 -0.0020938404746663978 0 -0.021156284201345226 -0.001618632683448777 0 -0.021654569967999634 -0.0020938404746663978 0 -0.02167884770801512 -0.0012372488536381704 0 -0.021156284201345226 -0.001618632683448777 0 -0.021156284201345226 -0.001618632683448777 0 -0.020865225412274008 -0.0015007559469028689 0 -0.020724751328151627 -0.0017490525940714631 0 -0.021156284201345226 -0.001618632683448777 0 -0.020865225412274008 -0.0015007559469028689 0 -0.021056281989606192 -0.00125385936846867 0 -0.021038843349530319 -0.0019962789171579058 0 -0.021156284201345226 -0.001618632683448777 0 -0.020724751328151627 -0.0017490525940714631 0 -0.02051036823773655 -0.0015773096595381229 0 -0.020865225412274008 -0.0015007559469028689 0 -0.020724751328151627 -0.0017490525940714631 0 -0.02051036823773655 -0.0015773096595381229 0 -0.020865225412274008 -0.0015007559469028689 0 -0.020614989315831347 -0.0013560872751506108 0 -0.020614989315831347 -0.0013560872751506108 0 -0.021056281989606192 -0.00125385936846867 0 -0.02070857868963644 -0.00099119139478332646 0 -0.020865225412274008 -0.0015007559469028689 0 -0.020614989315831347 -0.0013560872751506108 0 -0.021056281989606192 -0.00125385936846867 0 -0.021056281989606192 -0.00125385936846867 0 -0.02070857868963644 -0.00099119139478332646 0 -0.021221666593928237 -0.00086166908064397242 0 -0.020290739493339087 -0.0010902327649833662 0 -0.020614989315831347 -0.0013560872751506108 0 -0.02070857868963644 -0.00099119139478332646 0 -0.020585692897349895 -0.00057588026761624402 0 -0.021010663543427687 -0.00043249726826122075 0 -0.020534438863129435 -0.00061338385905081638 0 -0.021374107199319734 -0.00032503064302539511 0 -0.021221666593928237 -0.00086166908064397242 0 -0.02070857868963644 -0.00099119139478332646 0 -0.020534438863129435 -0.00061338385905081638 0 -0.021221666593928237 -0.00086166908064397242 0 -0.020412161087937534 -0.00085869325779504996 0 -0.02070857868963644 -0.00099119139478332646 0 -0.020534438863129435 -0.00061338385905081638 0 -0.020534438863129435 -0.00061338385905081638 0 -0.020629286779515508 -0.00048029004768139331 0 -0.020704109206007255 -0.00049443314418446478 0 -0.020534438863129435 -0.00061338385905081638 0 -0.020587737971204157 -0.00037285128041436111 0 -0.020629286779515508 -0.00048029004768139331 0 -0.020587737971204157 -0.00037285128041436111 0 -0.020629286779515508 -0.00048029004768139331 0 -0.020695363171845508 -0.00043287862700367585 0 -0.020629286779515508 -0.00048029004768139331 0 -0.020704109206007255 -0.00049443314418446478 0 -0.020695363171845508 -0.00043287862700367585 0 -0.020704109206007255 -0.00049443314418446478 0 -0.020727165691714816 -0.00046218614945542569 0 -0.020695363171845508 -0.00043287862700367585 0 -0.021374107199319734 -0.00032503064302539511 0 -0.021221666593928237 -0.00086166908064397242 0 -0.021945776748987487 -0.0006909050485150814 0 -0.021374107199319734 -0.00032503064302539511 0 -0.021945776748987487 -0.0006909050485150814 0 -0.022107304579100151 -0.00023513347292228356 0 -0.021945776748987487 -0.0006909050485150814 0 -0.022107304579100151 -0.00023513347292228356 0 -0.022510795085788515 -0.00058253309266937856 0 -0.021010663543427687 -0.00043249726826122075 0 -0.021480948572095468 -0.00033343836651108377 0 -0.021480948572095468 -0.00033343836651108377 0 -0.021373133087675977 -0.00048410642791923975 0 -0.022107304579100151 -0.00023513347292228356 0 -0.022697356821341944 -0.00020248304084305614 0 -0.022510795085788515 -0.00058253309266937856 0 -0.022596686327489058 -0.00091121902804660346 0 -0.022510795085788515 -0.00058253309266937856 0 -0.023011226004932314 -0.0008879896982471161 0 -0.022596686327489058 -0.00091121902804660346 0 -0.021945776748987487 -0.0006909050485150814 0 -0.022510795085788515 -0.00058253309266937856 0 -0.020707008878750752 -0.00044282196729064643 0 -0.020686425833738153 -0.00047523678170284013 0 -0.020746247291488926 -0.00044614217082624802 0 -0.021373133087675977 -0.00048410642791923975 0 -0.020502201083695559 -0.00040494554426293066 0 -0.020727165691714816 -0.00046218614945542569 0 -0.020746730283048423 -0.00046000673690802142 0 -0.020707008878750752 -0.00044282196729064643 0 -0.020745945573109856 -0.00054405445868155235 0 -0.020707008878750752 -0.00044282196729064643 0 -0.020746247291488926 -0.00044614217082624802 0 -0.020727165691714816 -0.00046218614945542569 0 -0.020707008878750752 -0.00044282196729064643 0 -0.020695363171845508 -0.00043287862700367585 0 -0.020707008878750752 -0.00044282196729064643 0 -0.020706049273483278 -0.0004600167148301257 0 -0.020686425833738153 -0.00047523678170284013 0 -0.020707008878750752 -0.00044282196729064643 0 -0.020696045294492559 -0.00041718730539989148 0 -0.020706049273483278 -0.0004600167148301257 0 -0.020707008878750752 -0.00044282196729064643 0 -0.020695363171845508 -0.00043287862700367585 0 -0.020696045294492559 -0.00041718730539989148 0 -0.020587737971204157 -0.00037285128041436111 0 -0.020695363171845508 -0.00043287862700367585 0 -0.020696045294492559 -0.00041718730539989148 0 -0.020286608971665399 -0.0004622940470173133 0 -0.020379273569761498 -0.00034345491955856968 0 -0.020008514893018917 -0.00050158310624115454 0 -0.020072563878547323 -0.00026795051758416182 0 -0.019867973067734752 -0.00034163052843162256 0 -0.020072563878547323 -0.00026795051758416182 0 -0.019867973067734752 -0.00034163052843162256 0 -0.019870454898710272 -0.00013399881990018008 0 -0.020026423018929002 -9.2472287923110069e-05 0 -0.019919493313318177 -6.8673415185082388e-06 0 -0.019870454898710272 -0.00013399881990018008 0 -0.020072563878547323 -0.00026795051758416182 0 -0.020026423018929002 -9.2472287923110069e-05 0 -0.019870454898710272 -0.00013399881990018008 0 -0.019919493313318177 -6.8673415185082388e-06 0 -0.019946064626941155 3.0268300608536109e-05 0 -0.02000812381746956 -1.5668645563592434e-05 0 -0.019946064626941155 3.0268300608536109e-05 0 -0.019874541761565886 8.7699955590411679e-05 0 -0.019986329235442888 5.0899531149108693e-05 0 -0.019919493313318177 -6.8673415185082388e-06 0 -0.019946064626941155 3.0268300608536109e-05 0 -0.019874541761565886 8.7699955590411679e-05 0 -0.019946064626941155 3.0268300608536109e-05 0 -0.02000812381746956 -1.5668645563592434e-05 0 -0.019986329235442888 5.0899531149108693e-05 0 -0.02000812381746956 -1.5668645563592434e-05 0 -0.020056747979560377 -3.0129848113930067e-05 0 -0.019986329235442888 5.0899531149108693e-05 0 -0.020026423018929002 -9.2472287923110069e-05 0 -0.02000812381746956 -1.5668645563592434e-05 0 -0.020083837172308848 -6.5122165969015093e-05 0 -0.020026423018929002 -9.2472287923110069e-05 0 -0.019919493313318177 -6.8673415185082388e-06 0 -0.02000812381746956 -1.5668645563592434e-05 0 -0.02000812381746956 -1.5668645563592434e-05 0 -0.020083837172308848 -6.5122165969015093e-05 0 -0.020056747979560377 -3.0129848113930067e-05 0 -0.020083837172308848 -6.5122165969015093e-05 0 -0.020056747979560377 -3.0129848113930067e-05 0 -0.020109267264198486 -0.00017000075604968611 0 -0.020083837172308848 -6.5122165969015093e-05 0 -0.020109267264198486 -0.00017000075604968611 0 -0.020125519306956621 -3.8750895595282363e-05 0 -0.020696045294492559 -0.00041718730539989148 0 -0.020729536665506729 -0.00048033369596147784 0 -0.020706049273483278 -0.0004600167148301257 0 -0.020072563878547323 -0.00026795051758416182 0 -0.020026423018929002 -9.2472287923110069e-05 0 -0.020125519306956621 -3.8750895595282363e-05 0 -0.020379273569761498 -0.00034345491955856968 0 -0.020426824306930484 -0.00027334137818944978 0 -0.020026423018929002 -9.2472287923110069e-05 0 -0.020083837172308848 -6.5122165969015093e-05 0 -0.020125519306956621 -3.8750895595282363e-05 0 -0.020729536665506729 -0.00048033369596147784 0 -0.020706049273483278 -0.0004600167148301257 0 -0.020696431955943572 -0.00050781937793976765 0 -0.020706049273483278 -0.0004600167148301257 0 -0.020696431955943572 -0.00050781937793976765 0 -0.020686425833738153 -0.00047523678170284013 0 -0.020696431955943572 -0.00050781937793976765 0 -0.020649286203584884 -0.00055531517240431534 0 -0.020712066413531224 -0.00059529100826464587 0 -0.020729536665506729 -0.00048033369596147784 0 -0.020696431955943572 -0.00050781937793976765 0 -0.020712066413531224 -0.00059529100826464587 0 -0.020426824306930484 -0.00027334137818944978 0 -0.020375492812207366 -0.0004711744417158568 0 -0.020109267264198486 -0.00017000075604968611 0 -0.020125519306956621 -3.8750895595282363e-05 0 -0.020032131955646581 -0.00035488865828651344 0 -0.020649286203584884 -0.00055531517240431534 0 -0.020686425833738153 -0.00047523678170284013 0 -0.020623803629349412 -0.00053518734768908858 0 -0.020696431955943572 -0.00050781937793976765 0 -0.020649286203584884 -0.00055531517240431534 0 -0.020686425833738153 -0.00047523678170284013 0 -0.020649286203584884 -0.00055531517240431534 0 -0.020583547272651357 -0.00061947557109143128 0 -0.020623803629349412 -0.00053518734768908858 0 -0.019205439340551762 -0.0002053910612583335 0 -0.019529178749218872 -0.000265173092509863 0 -0.019356914814040917 -9.647877556885364e-05 0 -0.019205439340551762 -0.0002053910612583335 0 -0.019360313072041353 -0.00036779051877394421 0 -0.019529178749218872 -0.000265173092509863 0 -0.018932030731160919 -0.00018649142176903422 0 -0.019205439340551762 -0.0002053910612583335 0 -0.019191662580052331 -0.00052487055528730689 0 -0.018932030731160919 -0.00018649142176903422 0 -0.019205439340551762 -0.0002053910612583335 0 -0.019099212023466393 -9.5477822219242338e-05 0 -0.016938189267130598 -0.00024941669248427432 0 -0.017155857107162151 -0.0010447775554906973 0 -0.019205439340551762 -0.0002053910612583335 0 -0.019191662580052331 -0.00052487055528730689 0 -0.019360313072041353 -0.00036779051877394421 0 -0.019191662580052331 -0.00052487055528730689 0 -0.019360313072041353 -0.00036779051877394421 0 -0.019511692919878296 -0.00047111400237154905 0 -0.019360313072041353 -0.00036779051877394421 0 -0.019511692919878296 -0.00047111400237154905 0 -0.019529178749218872 -0.000265173092509863 0 -0.019798003276962278 -0.00052743357635972395 0 -0.019697031602016444 -0.00037344954342109516 0 -0.019867973067734752 -0.00034163052843162256 0 -0.019798003276962278 -0.00052743357635972395 0 -0.019511692919878296 -0.00047111400237154905 0 -0.019697031602016444 -0.00037344954342109516 0 -0.019511692919878296 -0.00047111400237154905 0 -0.019697031602016444 -0.00037344954342109516 0 -0.019529178749218872 -0.000265173092509863 0 -0.019798003276962278 -0.00052743357635972395 0 -0.020008514893018917 -0.00050158310624115454 0 -0.019867973067734752 -0.00034163052843162256 0 -0.019867973067734752 -0.00034163052843162256 0 -0.019729747900530135 -0.00021849318893797737 0 -0.019870454898710272 -0.00013399881990018008 0 -0.019529178749218872 -0.000265173092509863 0 -0.019729747900530135 -0.00021849318893797737 0 -0.019666483008258601 -6.2567162254886121e-05 0 -0.019697031602016444 -0.00037344954342109516 0 -0.019867973067734752 -0.00034163052843162256 0 -0.019729747900530135 -0.00021849318893797737 0 -0.019697031602016444 -0.00037344954342109516 0 -0.019529178749218872 -0.000265173092509863 0 -0.019729747900530135 -0.00021849318893797737 0 -0.019666483008258601 -6.2567162254886121e-05 0 -0.019580979759985934 0.00012402408214161323 0 -0.019356914814040917 -9.647877556885364e-05 0 -0.019529178749218872 -0.000265173092509863 0 -0.019666483008258601 -6.2567162254886121e-05 0 -0.019356914814040917 -9.647877556885364e-05 0 -0.019666483008258601 -6.2567162254886121e-05 0 -0.019870454898710272 -0.00013399881990018008 0 -0.019790215188380846 4.1172097859170271e-06 0 -0.019729747900530135 -0.00021849318893797737 0 -0.019666483008258601 -6.2567162254886121e-05 0 -0.019870454898710272 -0.00013399881990018008 0 -0.019919493313318177 -6.8673415185082388e-06 0 -0.019870454898710272 -0.00013399881990018008 0 -0.019790215188380846 4.1172097859170271e-06 0 -0.019790215188380846 4.1172097859170271e-06 0 -0.019874541761565886 8.7699955590411679e-05 0 -0.019580979759985934 0.00012402408214161323 0 -0.019919493313318177 -6.8673415185082388e-06 0 -0.019790215188380846 4.1172097859170271e-06 0 -0.019874541761565886 8.7699955590411679e-05 0 -0.019431796358116451 -1.8216251741322456e-05 0 -0.019008465676663776 -6.8674587766779678e-05 0 -0.019100380243072958 9.0760030758701879e-05 0 -0.019008465676663776 -6.8674587766779678e-05 0 -0.018910836077926572 -1.0438741327349819e-05 0 -0.019100380243072958 9.0760030758701879e-05 0 -0.019666483008258601 -6.2567162254886121e-05 0 -0.019790215188380846 4.1172097859170271e-06 0 -0.019580979759985934 0.00012402408214161323 0 -0.019657830823510525 4.2359530208830676e-05 0 -0.019293311363072722 2.2238466938316022e-05 0 -0.019008465676663776 -6.8674587766779678e-05 0 -0.019054746774551622 7.2696261720514652e-06 0 -0.018970471710664034 -7.2079737472464214e-06 0 -0.019293311363072722 2.2238466938316022e-05 0 -0.019070261311591799 4.7583104681690904e-07 0 -0.019008465676663776 -6.8674587766779678e-05 0 -0.018910836077926572 -1.0438741327349819e-05 0 -0.018970471710664034 -7.2079737472464214e-06 0 -0.019580979759985934 0.00012402408214161323 0 -0.019356914814040917 -9.647877556885364e-05 0 -0.019054746774551622 7.2696261720514652e-06 0 -0.019205439340551762 -0.0002053910612583335 0 -0.019356914814040917 -9.647877556885364e-05 0 -0.019099212023466393 -9.5477822219242338e-05 0 -0.018989857910973459 -3.2320814530932139e-05 0 -0.019099212023466393 -9.5477822219242338e-05 0 -0.019054746774551622 7.2696261720514652e-06 0 -0.018932030731160919 -0.00018649142176903422 0 -0.018989857910973459 -3.2320814530932139e-05 0 -0.019099212023466393 -9.5477822219242338e-05 0 -0.019356914814040917 -9.647877556885364e-05 0 -0.019099212023466393 -9.5477822219242338e-05 0 -0.019054746774551622 7.2696261720514652e-06 0 -0.018989857910973459 -3.2320814530932139e-05 0 -0.019054746774551622 7.2696261720514652e-06 0 -0.018995287781973756 -3.6155050825922845e-07 0 -0.018970576300462973 -1.0382826026229274e-05 0 -0.018989857910973459 -3.2320814530932139e-05 0 -0.018995287781973756 -3.6155050825922845e-07 0 -0.018995287781973756 -3.6155050825922845e-07 0 -0.018970471710664034 -7.2079737472464214e-06 0 -0.018962548523659226 -9.3086492823688447e-06 0 -0.018970576300462973 -1.0382826026229274e-05 0 -0.018995287781973756 -3.6155050825922845e-07 0 -0.018962548523659226 -9.3086492823688447e-06 0 -0.019054746774551622 7.2696261720514652e-06 0 -0.018995287781973756 -3.6155050825922845e-07 0 -0.018970471710664034 -7.2079737472464214e-06 0 -0.018970471710664034 -7.2079737472464214e-06 0 -0.018962548523659226 -9.3086492823688447e-06 0 -0.01891027881584751 -3.5663701635419843e-05 0 -0.018910836077926572 -1.0438741327349819e-05 0 -0.018970471710664034 -7.2079737472464214e-06 0 -0.01891027881584751 -3.5663701635419843e-05 0 -0.01934234276842612 1.7949492816125321e-05 0 -0.017602700465421638 -0.00057868458731322647 0 -0.01891027881584751 -3.5663701635419843e-05 0 -0.018833798845226759 -0.00010445054787022533 0 -0.018978615945996084 -4.6654006533697673e-05 0 -0.018962548523659226 -9.3086492823688447e-06 0 -0.01891027881584751 -3.5663701635419843e-05 0 -0.018953529636332692 -1.8335122779978926e-05 0 -0.018910836077926572 -1.0438741327349819e-05 0 -0.01891027881584751 -3.5663701635419843e-05 0 -0.018833798845226759 -0.00010445054787022533 0 -0.01872539435119084 -0.00010981707622654387 0 -0.018833798845226759 -0.00010445054787022533 0 -0.018659502033851926 -0.00017253883177238282 0 -0.01872539435119084 -0.00010981707622654387 0 -0.018766738955782004 -0.00011026680195950033 0 -0.018833798845226759 -0.00010445054787022533 0 -0.018766738955782004 -0.00011026680195950033 0 -0.018833798845226759 -0.00010445054787022533 0 -0.018764513070741635 -0.00010227636846292682 0 -0.018766738955782004 -0.00011026680195950033 0 -0.018764513070741635 -0.00010227636846292682 0 -0.018740951336687947 -0.00011766630043270518 0 -0.018910836077926572 -1.0438741327349819e-05 0 -0.018811570967794719 -7.2186202749258398e-05 0 -0.018723557467040155 -4.4215857932423593e-05 0 -0.018811570967794719 -7.2186202749258398e-05 0 -0.018833798845226759 -0.00010445054787022533 0 -0.018764513070741635 -0.00010227636846292682 0 -0.018905162996585029 -2.7103334170493347e-06 0 -0.018935256802248456 2.0024989698771023e-05 0 -0.018910836077926572 -1.0438741327349819e-05 0 -0.018811570967794719 -7.2186202749258398e-05 0 -0.018833798845226759 -0.00010445054787022533 0 -0.018723557467040155 -4.4215857932423593e-05 0 -0.018704849422607028 -8.3813576857751988e-05 0 -0.018764513070741635 -0.00010227636846292682 0 -0.018811570967794719 -7.2186202749258398e-05 0 -0.018723557467040155 -4.4215857932423593e-05 0 -0.018764513070741635 -0.00010227636846292682 0 -0.018935256802248456 2.0024989698771023e-05 0 -0.019041856682357007 7.1249800604270889e-05 0 -0.018723557467040155 -4.4215857932423593e-05 0 -0.018704849422607028 -8.3813576857751988e-05 0 -0.018675101158010608 -7.1577717058837067e-05 0 -0.019431796358116451 -1.8216251741322456e-05 0 -0.019100380243072958 9.0760030758701879e-05 0 -0.019540738361790346 0.00017984325908959237 0 -0.01868299414425972 -9.813820229873652e-05 0 -0.018704849422607028 -8.3813576857751988e-05 0 -0.018675101158010608 -7.1577717058837067e-05 0 -0.01868299414425972 -9.813820229873652e-05 0 -0.018704849422607028 -8.3813576857751988e-05 0 -0.018709174320598237 -0.00011225781615517119 0 -0.01868299414425972 -9.813820229873652e-05 0 -0.018709174320598237 -0.00011225781615517119 0 -0.018672231245054325 -0.00012534777052851241 0 -0.018704849422607028 -8.3813576857751988e-05 0 -0.018764513070741635 -0.00010227636846292682 0 -0.018709174320598237 -0.00011225781615517119 0 -0.018764513070741635 -0.00010227636846292682 0 -0.018709174320598237 -0.00011225781615517119 0 -0.018740951336687947 -0.00011766630043270518 0 -0.018709174320598237 -0.00011225781615517119 0 -0.018706212966571677 -0.00014164094363526677 0 -0.018740951336687947 -0.00011766630043270518 0 -0.018709174320598237 -0.00011225781615517119 0 -0.018672231245054325 -0.00012534777052851241 0 -0.018706212966571677 -0.00014164094363526677 0 -0.018672231245054325 -0.00012534777052851241 0 -0.018706212966571677 -0.00014164094363526677 0 -0.01863956522521934 -0.00015824579059974556 0 -0.013414931443665993 -0.00063696489146126468 0 -0.013738137598863706 -0.00046667463431417804 0 -0.013572635591762465 -0.00070226523729821904 0 -0.016655098416991969 -0.00027902429024706516 0 -0.016035992928066446 -0.00058157917076347891 0 -0.013414931443665993 -0.00063696489146126468 0 -0.013738137598863706 -0.00046667463431417804 0 -0.013199961815893042 -0.00051467087771146856 0 -0.013738137598863706 -0.00046667463431417804 0 -0.01388039860508628 -0.00068532617641968376 0 -0.013572635591762465 -0.00070226523729821904 0 -0.010014320208537292 -0.00013486654132830023 0 -0.0098416283734800783 -0.00051954891599071339 0 -0.0095329425817439108 -0.0004483201069323229 0 -0.014410738426380085 -0.00010328009172357105 0 -0.011496880492436063 -0.00065369036124962284 0 -0.013738137598863706 -0.00046667463431417804 0 -0.014298175889132824 -0.00041469453724767729 0 -0.01388039860508628 -0.00068532617641968376 0 -0.016655098416991969 -0.00027902429024706516 0 -0.014410738426380085 -0.00010328009172357105 0 -0.010184902340632827 -0.00012142193183131671 0 -0.010014320208537292 -0.00013486654132830023 0 -0.0098416283734800783 -0.00051954891599071339 0 -0.0042952038226276067 -0.00036951073349310011 0 -0.0042770495325981797 -0.00039171866993804085 0 -0.0042726739817070094 -0.00040308216010804095 0 -0.0082401972858655095 -0.00050352338651796875 0 -0.0069982993045976053 -0.00046312417753924728 0 -0.0082401972858655095 -0.00050352338651796875 0 -0.014410738426380085 -0.00010328009172357105 0 -0.0111068669097233 0.00039142322881662527 0 -0.012107478868580143 0.00045355173816226542 0 -0.0095915941466134923 -0.0011125370936164783 0 -0.01872539435119084 -0.00010981707622654387 0 -0.018709940447321067 -9.4081751264305657e-05 0 -0.018650913355468826 -8.1788890744549148e-05 0 -0.01872539435119084 -0.00010981707622654387 0 -0.018766738955782004 -0.00011026680195950033 0 -0.018709940447321067 -9.4081751264305657e-05 0 -0.018766738955782004 -0.00011026680195950033 0 -0.018709940447321067 -9.4081751264305657e-05 0 -0.018740951336687947 -0.00011766630043270518 0 -0.018706212966571677 -0.00014164094363526677 0 -0.018709940447321067 -9.4081751264305657e-05 0 -0.018740951336687947 -0.00011766630043270518 0 -0.020578092599232295 -0.00074697265299208016 0 -0.020606753389196486 -0.00064243238836770146 0 -0.020515490106721369 -0.00070411819821526831 0 -0.020649286203584884 -0.00055531517240431534 0 -0.020606753389196486 -0.00064243238836770146 0 -0.020712066413531224 -0.00059529100826464587 0 -0.020578092599232295 -0.00074697265299208016 0 -0.020606753389196486 -0.00064243238836770146 0 -0.020712066413531224 -0.00059529100826464587 0 -0.020606753389196486 -0.00064243238836770146 0 -0.020583547272651357 -0.00061947557109143128 0 -0.020515490106721369 -0.00070411819821526831 0 -0.020649286203584884 -0.00055531517240431534 0 -0.020606753389196486 -0.00064243238836770146 0 -0.020583547272651357 -0.00061947557109143128 0 -0.020029536538569318 -0.00073131101124486344 0 -0.020032131955646581 -0.00035488865828651344 0 -0.020089817697539071 -0.00061580734230544084 0 -0.020312361736000869 -0.00071514199497205166 0 -0.020375492812207366 -0.0004711744417158568 0 -0.020109267264198486 -0.00017000075604968611 0 -0.020139485936105813 -0.000417784327667764 0 -0.020032131955646581 -0.00035488865828651344 0 -0.020139485936105813 -0.000417784327667764 0 -0.020032131955646581 -0.00035488865828651344 0 -0.020089817697539071 -0.00061580734230544084 0 -0.020029536538569318 -0.00073131101124486344 0 -0.020089817697539071 -0.00061580734230544084 0 -0.020064417601496444 -0.00071959276825921679 0 -0.020089817697539071 -0.00061580734230544084 0 -0.02007098797151009 -0.00068197052877969554 0 -0.020064417601496444 -0.00071959276825921679 0 -0.019739476139031605 -0.00030382118218801767 0 -0.019589314293480712 -0.00050022275794191749 0 -0.02007098797151009 -0.00068197052877969554 0 -0.020085201830143052 -0.00065249096572713274 0 -0.020034896189411049 -0.0006954230501413439 0 -0.020089817697539071 -0.00061580734230544084 0 -0.02007098797151009 -0.00068197052877969554 0 -0.020085201830143052 -0.00065249096572713274 0 -0.020139485936105813 -0.000417784327667764 0 -0.020089817697539071 -0.00061580734230544084 0 -0.020318621195850217 -0.00055093259140735794 0 -0.020216257950978686 -0.00014549882146427652 0 -0.019739476139031605 -0.00030382118218801767 0 -0.020056747979560377 -3.0129848113930067e-05 0 -0.020096631543429607 0.00020637740055927891 0 -0.020032042310357354 0.00011830504347752562 0 -0.020056747979560377 -3.0129848113930067e-05 0 -0.020109267264198486 -0.00017000075604968611 0 -0.020096631543429607 0.00020637740055927891 0 -0.020186200314760684 -0.00053446001817904253 0 -0.019739476139031605 -0.00030382118218801767 0 -0.020109267264198486 -0.00017000075604968611 0 -0.020139485936105813 -0.000417784327667764 0 -0.020318621195850217 -0.00055093259140735794 0 -0.020056747979560377 -3.0129848113930067e-05 0 -0.020032042310357354 0.00011830504347752562 0 -0.019986329235442888 5.0899531149108693e-05 0 -0.019657830823510525 4.2359530208830676e-05 0 -0.020010026956482723 0.00012073604253239219 0 -0.019431796358116451 -1.8216251741322456e-05 0 -0.020032042310357354 0.00011830504347752562 0 -0.019540738361790346 0.00017984325908959237 0 -0.020096631543429607 0.00020637740055927891 0 -0.020032042310357354 0.00011830504347752562 0 -0.019540738361790346 0.00017984325908959237 0 -0.018649265074939213 -8.6463143115096937e-05 0 -0.018675101158010608 -7.1577717058837067e-05 0 -0.018661113165923636 -9.4688513159571285e-05 0 -0.019739476139031605 -0.00030382118218801767 0 -0.019041856682357007 7.1249800604270889e-05 0 -0.019874541761565886 8.7699955590411679e-05 0 -0.020032042310357354 0.00011830504347752562 0 -0.019986329235442888 5.0899531149108693e-05 0 -0.018649265074939213 -8.6463143115096937e-05 0 -0.018661113165923636 -9.4688513159571285e-05 0 -0.01864787475600671 -0.00011890304522468467 0 -0.018672231245054325 -0.00012534777052851241 0 -0.018661113165923636 -9.4688513159571285e-05 0 -0.01864787475600671 -0.00011890304522468467 0 -0.01868299414425972 -9.813820229873652e-05 0 -0.018672231245054325 -0.00012534777052851241 0 -0.018661113165923636 -9.4688513159571285e-05 0 -0.01868299414425972 -9.813820229873652e-05 0 -0.018675101158010608 -7.1577717058837067e-05 0 -0.018661113165923636 -9.4688513159571285e-05 0 -0.018672231245054325 -0.00012534777052851241 0 -0.01864787475600671 -0.00011890304522468467 0 -0.01863956522521934 -0.00015824579059974556 0 -0.019589314293480712 -0.00050022275794191749 0 -0.016035992928066446 -0.00058157917076347891 0 -0.016035992928066446 -0.00058157917076347891 0 -0.013276944795325303 -0.00046224089369619598 0 -0.013414931443665993 -0.00063696489146126468 0 -0.013199961815893042 -0.00051467087771146856 0 -0.013261749288110669 -0.00065969826673278084 0 -0.012280974406995009 -0.0012492648317459511 0 -0.01244038699030833 -0.0010485557244638728 0 -0.012180629631116508 -0.00106059449873915 0 -0.016035992928066446 -0.00058157917076347891 0 -0.01648436839743618 -0.00094832747846153146 0 -0.019960181404502668 -0.00066495104854284173 0 -0.020019281694824465 -0.00066653682274244103 0 -0.020038179751941963 -0.00069694004793790555 0 -0.012280974406995009 -0.0012492648317459511 0 -0.012779619121250831 -0.0012313884389289608 0 -0.01244038699030833 -0.0010485557244638728 0 -0.020019281694824465 -0.00066653682274244103 0 -0.020038179751941963 -0.00069694004793790555 0 -0.020063538520757054 -0.00070011921039706557 0 -0.020034896189411049 -0.0006954230501413439 0 -0.019960181404502668 -0.00066495104854284173 0 -0.020038179751941963 -0.00069694004793790555 0 -0.02007098797151009 -0.00068197052877969554 0 -0.020034896189411049 -0.0006954230501413439 0 -0.020038179751941963 -0.00069694004793790555 0 -0.02007098797151009 -0.00068197052877969554 0 -0.020038179751941963 -0.00069694004793790555 0 -0.020064417601496444 -0.00071959276825921679 0 -0.020029536538569318 -0.00073131101124486344 0 -0.020064417601496444 -0.00071959276825921679 0 -0.020134783967000001 -0.00074040360860462302 0 -0.020064417601496444 -0.00071959276825921679 0 -0.020063538520757054 -0.00070011921039706557 0 -0.020134783967000001 -0.00074040360860462302 0 -0.020038179751941963 -0.00069694004793790555 0 -0.020064417601496444 -0.00071959276825921679 0 -0.020063538520757054 -0.00070011921039706557 0 -0.012779619121250831 -0.0012313884389289608 0 -0.013309248050329863 -0.0012024171284654224 0 -0.012719312155440452 -0.00091291378774641118 0 -0.020019281694824465 -0.00066653682274244103 0 -0.020063538520757054 -0.00070011921039706557 0 -0.02009152826196588 -0.00066263712472099221 0 -0.01648436839743618 -0.00094832747846153146 0 -0.016346857780337527 -0.0012416826407064016 0 -0.020063538520757054 -0.00070011921039706557 0 -0.02009152826196588 -0.00066263712472099221 0 -0.020134783967000001 -0.00074040360860462302 0 -0.016346857780337527 -0.0012416826407064016 0 -0.016712205204963571 -0.0017632577708947851 0 -0.020143706995534253 -0.0006729932561285526 0 -0.020229763333961946 -0.00072419479787097724 0 -0.020317077382763407 -0.00072830974815142071 0 -0.016346857780337527 -0.0012416826407064016 0 -0.019594306264276214 -0.0008238332296066843 0 -0.020143706995534253 -0.0006729932561285526 0 -0.020229763333961946 -0.00072419479787097724 0 -0.020134783967000001 -0.00074040360860462302 0 -0.020229763333961946 -0.00072419479787097724 0 -0.020134783967000001 -0.00074040360860462302 0 -0.020306778261307421 -0.00077951574286135115 0 -0.020029536538569318 -0.00073131101124486344 0 -0.020134783967000001 -0.00074040360860462302 0 -0.020306778261307421 -0.00077951574286135115 0 -0.020312361736000869 -0.00071514199497205166 0 -0.020316456915465402 -0.00075549963737697008 0 -0.020578092599232295 -0.00074697265299208016 0 -0.020417908963359266 -0.00078349364557539101 0 -0.020306778261307421 -0.00077951574286135115 0 -0.01210546277102576 -0.00070126830462076894 0 -0.011648349063839094 -0.0014368400535078941 0 -0.011392520662110389 -8.1349693373905136e-05 0 -0.01210546277102576 -0.00070126830462076894 0 -0.012811580767986433 -0.00034630321749317794 0 -0.012762626765513067 -0.00097863298035582853 0 -0.01210546277102576 -0.00070126830462076894 0 -0.012250011271986692 -0.0012299956502109808 0 -0.011648349063839094 -0.0014368400535078941 0 -0.01210546277102576 -0.00070126830462076894 0 -0.012250011271986692 -0.0012299956502109808 0 -0.012762626765513067 -0.00097863298035582853 0 -0.012250011271986692 -0.0012299956502109808 0 -0.012586592704854276 -0.0019065772940364747 0 -0.012762626765513067 -0.00097863298035582853 0 -0.011898015149800441 -0.0028365807382188229 0 -0.012586592704854276 -0.0019065772940364747 0 -0.013341780573353708 -0.0027631576424769688 0 -0.016346857780337527 -0.0012416826407064016 0 -0.012213018850648391 -0.0011378050612477983 0 -0.011898015149800441 -0.0028365807382188229 0 -0.012586592704854276 -0.0019065772940364747 0 -0.011648349063839094 -0.0014368400535078941 0 -0.012250011271986692 -0.0012299956502109808 0 -0.012586592704854276 -0.0019065772940364747 0 -0.011648349063839094 -0.0014368400535078941 0 -0.01319802870147635 -0.00069584531150161449 0 -0.012730303830334709 -0.0005878194509829791 0 -0.012719312155440452 -0.00091291378774641118 0 -0.013309248050329863 -0.0012024171284654224 0 -0.01319802870147635 -0.00069584531150161449 0 -0.012719312155440452 -0.00091291378774641118 0 -0.01319802870147635 -0.00069584531150161449 0 -0.012928982466580264 -0.00039962882069522577 0 -0.012730303830334709 -0.0005878194509829791 0 -0.01319802870147635 -0.00069584531150161449 0 -0.012928982466580264 -0.00039962882069522577 0 -0.013086997793734546 -0.00017831716063845614 0 -0.012213018850648391 -0.0011378050612477983 0 -0.012280066512347062 -0.00011202910390353901 0 -0.012928982466580264 -0.00039962882069522577 0 -0.012730303830334709 -0.0005878194509829791 0 -0.012699065312684873 -0.00013428527050261029 0 -0.012730303830334709 -0.0005878194509829791 0 -0.01239627045243716 -0.00089062373994565304 0 -0.012356197956967921 -0.00027536536378474269 0 -0.012730303830334709 -0.0005878194509829791 0 -0.012356197956967921 -0.00027536536378474269 0 -0.012699065312684873 -0.00013428527050261029 0 -0.012719312155440452 -0.00091291378774641118 0 -0.01239627045243716 -0.00089062373994565304 0 -0.01244038699030833 -0.0010485557244638728 0 -0.012779619121250831 -0.0012313884389289608 0 -0.012719312155440452 -0.00091291378774641118 0 -0.01244038699030833 -0.0010485557244638728 0 -0.012730303830334709 -0.0005878194509829791 0 -0.012719312155440452 -0.00091291378774641118 0 -0.01239627045243716 -0.00089062373994565304 0 -0.012147904722571557 -0.0011540931466597828 0 -0.011322372939595043 -0.0011102823449972172 0 -0.01239627045243716 -0.00089062373994565304 0 -0.012313425406334544 -0.00095709514958329858 0 -0.012249381148896132 -0.00084267215681044227 0 -0.01239627045243716 -0.00089062373994565304 0 -0.012313425406334544 -0.00095709514958329858 0 -0.01244038699030833 -0.0010485557244638728 0 -0.012313425406334544 -0.00095709514958329858 0 -0.01244038699030833 -0.0010485557244638728 0 -0.012180629631116508 -0.00106059449873915 0 -0.013291188065413882 -0.00074517036496555764 0 -0.013184836170628492 -0.0008414384909157653 0 -0.013385357186480401 -0.00078030782813379195 0 -0.013276944795325303 -0.00046224089369619598 0 -0.011322372939595043 -0.0011102823449972172 0 -0.013261749288110669 -0.00065969826673278084 0 -0.013291188065413882 -0.00074517036496555764 0 -0.013184836170628492 -0.0008414384909157653 0 -0.012313425406334544 -0.00095709514958329858 0 -0.012180629631116508 -0.00106059449873915 0 -0.012249381148896132 -0.00084267215681044227 0 -0.013261749288110669 -0.00065969826673278084 0 -0.013291188065413882 -0.00074517036496555764 0 -0.013338171771984783 -0.00070536895464359925 0 -0.01239627045243716 -0.00089062373994565304 0 -0.012210369324766001 -0.00083127277406666784 0 -0.012356197956967921 -0.00027536536378474269 0 -0.0076996512275308345 -0.00082593192070704643 0 -0.010106004679576917 -0.00072596757820824495 0 -0.0083968473610733074 -0.00065034067429688743 0 -0.0083623293651279001 -0.00062019202864320867 0 -0.0084107718954770771 -0.00064699734799330991 0 -0.011322372939595043 -0.0011102823449972172 0 -0.010246915991983631 -0.00041254958969576667 0 -0.0083968473610733074 -0.00065034067429688743 0 -0.0083623293651279001 -0.00062019202864320867 0 -0.0083622828597488125 -0.00060580328285286182 0 -0.0083622828597488125 -0.00060580328285286182 0 -0.0082373428475471435 -0.00036873951632312963 0 -0.0084462624282322513 -0.00025818295853455341 0 -0.0083623293651279001 -0.00062019202864320867 0 -0.0082143586372586657 -0.00052712641709626025 0 -0.008043271748828424 -0.00063578267237101834 0 -0.0083623293651279001 -0.00062019202864320867 0 -0.0082143586372586657 -0.00052712641709626025 0 -0.0083622828597488125 -0.00060580328285286182 0 -0.0082143586372586657 -0.00052712641709626025 0 -0.0083622828597488125 -0.00060580328285286182 0 -0.0082373428475471435 -0.00036873951632312963 0 -0.0082373428475471435 -0.00036873951632312963 0 -0.0084462624282322513 -0.00025818295853455341 0 -0.0082042287737185225 -0.00013072085051542845 0 -0.012492668893450314 0.00029643226620307815 0 -0.01273865606403575 0.00024471685421659402 0 -0.012732138573951477 0.00077287046714852542 0 -0.012492668893450314 0.00029643226620307815 0 -0.01273865606403575 0.00024471685421659402 0 -0.012699065312684873 -0.00013428527050261029 0 -0.010246915991983631 -0.00041254958969576667 0 -0.010706150844227099 4.5526369048945223e-05 0 -0.012356197956967921 -0.00027536536378474269 0 -0.012492668893450314 0.00029643226620307815 0 -0.012699065312684873 -0.00013428527050261029 0 -0.011392520662110389 -8.1349693373905136e-05 0 -0.0112748043108972 0.00051310419878737514 0 -0.01169540839125446 0.0010150486350617137 0 -0.012928982466580264 -0.00039962882069522577 0 -0.012699065312684873 -0.00013428527050261029 0 -0.013086997793734546 -0.00017831716063845614 0 -0.012280066512347062 -0.00011202910390353901 0 -0.012292075945327503 0.00028594262233867481 0 -0.01273865606403575 0.00024471685421659402 0 -0.012699065312684873 -0.00013428527050261029 0 -0.013038252418979941 5.0148948422045809e-05 0 -0.012699065312684873 -0.00013428527050261029 0 -0.013086997793734546 -0.00017831716063845614 0 -0.013038252418979941 5.0148948422045809e-05 0 -0.01273865606403575 0.00024471685421659402 0 -0.013038252418979941 5.0148948422045809e-05 0 -0.012732138573951477 0.00077287046714852542 0 -0.011103508271409131 0.0013034369917648387 0 -0.01169540839125446 0.0010150486350617137 0 -0.01052621742580786 0.0024158391475661289 0 -0.011255143002763968 0.00048935867447569737 0 -0.011103508271409131 0.0013034369917648387 0 -0.01052621742580786 0.0024158391475661289 0 -0.012292075945327503 0.00028594262233867481 0 -0.0083769283725287618 0.0013815218517657811 0 -0.012292075945327503 0.00028594262233867481 0 -0.011408212052246583 0.0012462783933242967 0 -0.0112748043108972 0.00051310419878737514 0 -0.011103508271409131 0.0013034369917648387 0 -0.01169540839125446 0.0010150486350617137 0 -0.0029420677496386329 -0.00021101582545647159 0 -0.0050666034041810413 -0.0032119295684423133 0 -0.0063687139173103143 0.00044714178674825077 0 -0.0029420677496386329 -0.00021101582545647159 0 -0.0063687139173103143 0.00044714178674825077 0 -0.0041233089117444482 0.0019349367717160055 0 -0.01210546277102576 -0.00070126830462076894 0 -0.011392520662110389 -8.1349693373905136e-05 0 -0.012811580767986433 -0.00034630321749317794 0 -0.011392520662110389 -8.1349693373905136e-05 0 -0.01169540839125446 0.0010150486350617137 0 -0.012811580767986433 -0.00034630321749317794 0 -0.0070656198430364215 0.0005847821204347512 0 -0.0088629245394622105 -0.0019423583902875806 0 -0.0042590554093578812 -0.00039890520045825185 0 -0.0042726739817070094 -0.00040308216010804095 0 -0.0042948052712829298 -0.00039956175571353932 0 -0.0040525542378575486 -0.00037370881273531323 0 -0.0039656196620384034 -0.00034916157086691674 0 -0.0039494498455532557 -0.00044854014058455006 0 -0.0038214989030945878 -0.00026007473075264162 0 -0.006419832231661469 -0.00055319685548239905 0 -0.0042590554093578812 -0.00039890520045825185 0 -0.0042505829823566562 -0.00040462554355856685 0 -0.0042726739817070094 -0.00040308216010804095 0 -0.0042590554093578812 -0.00039890520045825185 0 -0.0042505829823566562 -0.00040462554355856685 0 -0.0041978223234684225 -0.00042203418715696311 0 -0.0038214989030945878 -0.00026007473075264162 0 -0.0043031639382093076 -0.00044949886998378407 0 -0.0042505829823566562 -0.00040462554355856685 0 -0.0042770495325981797 -0.00039171866993804085 0 -0.0042726739817070094 -0.00040308216010804095 0 -0.0098416283734800783 -0.00051954891599071339 0 -0.0095329425817439108 -0.0004483201069323229 0 -0.009505572091659361 -0.00088953474576289663 0 -0.0069982993045976053 -0.00046312417753924728 0 -0.006419832231661469 -0.00055319685548239905 0 -0.01388039860508628 -0.00068532617641968376 0 -0.013572635591762465 -0.00070226523729821904 0 -0.013463048521984274 -0.00094016938616462407 0 -0.0095329425817439108 -0.0004483201069323229 0 -0.009080656453433705 -0.00073800917396824256 0 -0.009505572091659361 -0.00088953474576289663 0 -0.011496880492436063 -0.00065369036124962284 0 -0.010106004679576917 -0.00072596757820824495 0 -0.013414931443665993 -0.00063696489146126468 0 -0.013261749288110669 -0.00065969826673278084 0 -0.013338171771984783 -0.00070536895464359925 0 -0.013291188065413882 -0.00074517036496555764 0 -0.013338171771984783 -0.00070536895464359925 0 -0.013385357186480401 -0.00078030782813379195 0 -0.013414931443665993 -0.00063696489146126468 0 -0.013338171771984783 -0.00070536895464359925 0 -0.013385357186480401 -0.00078030782813379195 0 -0.013414931443665993 -0.00063696489146126468 0 -0.013385357186480401 -0.00078030782813379195 0 -0.013572635591762465 -0.00070226523729821904 0 -0.013385357186480401 -0.00078030782813379195 0 -0.013572635591762465 -0.00070226523729821904 0 -0.013463048521984274 -0.00094016938616462407 0 -0.011322372939595043 -0.0011102823449972172 0 -0.010106004679576917 -0.00072596757820824495 0 -0.013184836170628492 -0.0008414384909157653 0 -0.013385357186480401 -0.00078030782813379195 0 -0.013463048521984274 -0.00094016938616462407 0 -0.0083623293651279001 -0.00062019202864320867 0 -0.008043271748828424 -0.00063578267237101834 0 -0.0080224347053359981 -0.00086797435713798323 0 -0.008043271748828424 -0.00063578267237101834 0 -0.0080224347053359981 -0.00086797435713798323 0 -0.007656302916924082 -0.00074351208376897927 0 -0.010106004679576917 -0.00072596757820824495 0 -0.006419832231661469 -0.00055319685548239905 0 -0.0039494498455532557 -0.00044854014058455006 0 -0.0038645693984456914 -0.00047403722657718747 0 -0.0039165325043785592 -0.00049860512854526314 0 -0.008043271748828424 -0.00063578267237101834 0 -0.007656302916924082 -0.00074351208376897927 0 -0.0079534569181158969 -0.00041827624426906161 0 -0.0039656196620384034 -0.00034916157086691674 0 -0.0039494498455532557 -0.00044854014058455006 0 -0.0038645693984456914 -0.00047403722657718747 0 -0.006419832231661469 -0.00055319685548239905 0 -0.0057805194517551997 -0.00048092227547239365 0 -0.0082143586372586657 -0.00052712641709626025 0 -0.0082373428475471435 -0.00036873951632312963 0 -0.0079534569181158969 -0.00041827624426906161 0 -0.0082143586372586657 -0.00052712641709626025 0 -0.008043271748828424 -0.00063578267237101834 0 -0.0079534569181158969 -0.00041827624426906161 0 -0.0038645693984456914 -0.00047403722657718747 0 -0.0038601696330350112 -0.00050971442121804382 0 -0.0038297538516843511 -0.00051713117377022466 0 -0.0057805194517551997 -0.00048092227547239365 0 -0.006202807482312475 -0.00031866048111121149 0 -0.0038601696330350112 -0.00050971442121804382 0 -0.0038451082305118183 -0.0005180990260141773 0 -0.0038297538516843511 -0.00051713117377022466 0 -0.0082373428475471435 -0.00036873951632312963 0 -0.0079534569181158969 -0.00041827624426906161 0 -0.0082042287737185225 -0.00013072085051542845 0 -0.0038601696330350112 -0.00050971442121804382 0 -0.0038574908538450323 -0.00051556276613723385 0 -0.0038451082305118183 -0.0005180990260141773 0 -0.0039165325043785592 -0.00049860512854526314 0 -0.0039046091089556942 -0.00054947149305913632 0 -0.0040163528411490809 -0.00051417261961676384 0 -0.0038645693984456914 -0.00047403722657718747 0 -0.0038601696330350112 -0.00050971442121804382 0 -0.0039165325043785592 -0.00049860512854526314 0 -0.0038601696330350112 -0.00050971442121804382 0 -0.0039165325043785592 -0.00049860512854526314 0 -0.0039046091089556942 -0.00054947149305913632 0 -0.0039025501320919522 -0.00082065880718314101 0 -0.0024609207197767557 -0.00057638679396504748 0 -0.0040163528411490809 -0.00051417261961676384 0 -0.0040831951807056097 -0.00063581871857571425 0 -0.0039184994404892698 -0.00071099470139094061 0 -0.0037694843962469242 -0.00062901436870240748 0 -0.0040163528411490809 -0.00051417261961676384 0 -0.0039184994404892698 -0.00071099470139094061 0 -0.0024609207197767557 -0.00057638679396504748 0 -0.0044798241015384741 -0.00038378088574481171 0 -0.0040525542378575486 -0.00037370881273531323 0 -0.0039494498455532557 -0.00044854014058455006 0 -0.0040163528411490809 -0.00051417261961676384 0 -0.0039494498455532557 -0.00044854014058455006 0 -0.0039165325043785592 -0.00049860512854526314 0 -0.0040163528411490809 -0.00051417261961676384 0 -0.0040525542378575486 -0.00037370881273531323 0 -0.0040163528411490809 -0.00051417261961676384 0 -0.0041978223234684225 -0.00042203418715696311 0 -0.0040163528411490809 -0.00051417261961676384 0 -0.0041978223234684225 -0.00042203418715696311 0 -0.0042015530819676343 -0.00053398864242558386 0 -0.0040163528411490809 -0.00051417261961676384 0 -0.0040831951807056097 -0.00063581871857571425 0 -0.0042015530819676343 -0.00053398864242558386 0 -0.0040831951807056097 -0.00063581871857571425 0 -0.0042015530819676343 -0.00053398864242558386 0 -0.004214868035076513 -0.00065153081172882293 0 -0.0042015530819676343 -0.00053398864242558386 0 -0.0043299685435207701 -0.00055873460916186024 0 -0.004214868035076513 -0.00065153081172882293 0 0.0011933649140105276 -0.0013886383914551376 0 0.00081749399722770913 -0.0011311916645223288 0 0.0011072990788542592 -0.0011245922851770029 0 -0.0020013575863720465 -0.0011752320022141232 0 -0.0017603405003028222 -0.00085293142541230382 0 0.0011933649140105276 -0.0013886383914551376 0 0.0013469902236805551 -0.0012424899323818113 0 0.0011072990788542592 -0.0011245922851770029 0 -0.0042015530819676343 -0.00053398864242558386 0 -0.0043299685435207701 -0.00055873460916186024 0 -0.0042792596004190778 -0.00048509016986867683 0 -0.0043213814523677526 -0.00055954467424545475 0 -0.0042792596004190778 -0.00048509016986867683 0 -0.0043462100177351602 -0.00047482400291662234 0 -0.0020013575863720465 -0.0011752320022141232 0 -0.0044677059325027866 -0.00082344842481532577 0 -0.0042792596004190778 -0.00048509016986867683 0 -0.0043139636361818048 -0.00043350239487729622 0 -0.0043462100177351602 -0.00047482400291662234 0 -0.0041978223234684225 -0.00042203418715696311 0 -0.0042792596004190778 -0.00048509016986867683 0 -0.0042602482051282385 -0.00040534162552246052 0 -0.0041978223234684225 -0.00042203418715696311 0 -0.0042015530819676343 -0.00053398864242558386 0 -0.0042792596004190778 -0.00048509016986867683 0 -0.0042505829823566562 -0.00040462554355856685 0 -0.0041978223234684225 -0.00042203418715696311 0 -0.0042602482051282385 -0.00040534162552246052 0 -0.0042792596004190778 -0.00048509016986867683 0 -0.0042602482051282385 -0.00040534162552246052 0 -0.0043139636361818048 -0.00043350239487729622 0 -0.0043139636361818048 -0.00043350239487729622 0 -0.0043655712753126741 -0.00042340418129543982 0 -0.0043462100177351602 -0.00047482400291662234 0 -0.0043364916643712503 -0.00037456750292629492 0 -0.0043846231875850064 -0.00038245255316131702 0 -0.0043655712753126741 -0.00042340418129543982 0 -0.0043139636361818048 -0.00043350239487729622 0 -0.0043364916643712503 -0.00037456750292629492 0 -0.0043655712753126741 -0.00042340418129543982 0 -0.0042602482051282385 -0.00040534162552246052 0 -0.0043139636361818048 -0.00043350239487729622 0 -0.0043364916643712503 -0.00037456750292629492 0 -0.0043364916643712503 -0.00037456750292629492 0 -0.0044079799215749347 -0.00034311856927219747 0 -0.004353244119159971 -0.00029414833369149549 0 -0.0043364916643712503 -0.00037456750292629492 0 -0.0042645000241731228 -0.00031910661880671707 0 -0.004353244119159971 -0.00029414833369149549 0 -0.0042505829823566562 -0.00040462554355856685 0 -0.0042602482051282385 -0.00040534162552246052 0 -0.0042868073716647703 -0.00039164649847735889 0 -0.0042602482051282385 -0.00040534162552246052 0 -0.0043364916643712503 -0.00037456750292629492 0 -0.0042645000241731228 -0.00031910661880671707 0 -0.0042651601430504817 -0.00037650287199772698 0 -0.0042751234876754777 -0.00041895587621769664 0 -0.0042505829823566562 -0.00040462554355856685 0 -0.0042770495325981797 -0.00039171866993804085 0 -0.0042868073716647703 -0.00039164649847735889 0 -0.0044313509338723299 -0.00038413887682488138 0 -0.0043443956369205667 -0.00039030766247048223 0 -0.0044458201497463174 -0.00039649227293848602 0 -0.0041646513704608696 -0.00056918292068532225 0 -0.0034916739933192197 -0.0017778078404848397 0 -0.0043443956369205667 -0.00039030766247048223 0 -0.0023664195752134761 -0.0031481427901347034 0 -0.0039470207478890683 -0.001820244569425299 0 -0.0044313509338723299 -0.00038413887682488138 0 -0.0044576670311432436 -0.00034140492697917198 0 -0.0044330018269465943 -0.00037813873989779855 0 -0.0044313509338723299 -0.00038413887682488138 0 -0.0044330018269465943 -0.00037813873989779855 0 -0.0044458201497463174 -0.00039649227293848602 0 -0.0043443956369205667 -0.00039030766247048223 0 -0.0039470207478890683 -0.001820244569425299 0 -0.0048624938342041188 -0.0004808670131057752 0 -0.0039470207478890683 -0.001820244569425299 0 -0.0038984848898985969 -0.0028063099025317693 0 -0.0048624938342041188 -0.0004808670131057752 0 -0.0044313509338723299 -0.00038413887682488138 0 -0.0043443956369205667 -0.00039030766247048223 0 -0.0045204077691888877 -0.00035195700831995 0 -0.0046666057584819195 -0.00034679700995908313 0 -0.0047319208896571974 -0.00032412251857656893 0 -0.0045204077691888877 -0.00035195700831995 0 -0.0043443956369205667 -0.00039030766247048223 0 -0.0046666057584819195 -0.00034679700995908313 0 -0.0045204077691888877 -0.00035195700831995 0 -0.0044313509338723299 -0.00038413887682488138 0 -0.0044576670311432436 -0.00034140492697917198 0 -0.0045204077691888877 -0.00035195700831995 0 -0.0044576670311432436 -0.00034140492697917198 0 -0.0044079799215749347 -0.00034311856927219747 0 -0.0044330018269465943 -0.00037813873989779855 0 -0.0044576670311432436 -0.00034140492697917198 0 -0.0044079799215749347 -0.00034311856927219747 0 -0.0044254916584480306 -0.0002631277590165286 0 -0.0044079799215749347 -0.00034311856927219747 0 -0.004353244119159971 -0.00029414833369149549 0 -0.0044254916584480306 -0.0002631277590165286 0 -0.0044079799215749347 -0.00034311856927219747 0 -0.0044330018269465943 -0.00037813873989779855 0 -0.0043846231875850064 -0.00038245255316131702 0 -0.0043364916643712503 -0.00037456750292629492 0 -0.0044079799215749347 -0.00034311856927219747 0 -0.0043846231875850064 -0.00038245255316131702 0 -0.0044330018269465943 -0.00037813873989779855 0 -0.0044124834312408486 -0.00039853690093254358 0 -0.0043846231875850064 -0.00038245255316131702 0 -0.0044124834312408486 -0.00039853690093254358 0 -0.0043846231875850064 -0.00038245255316131702 0 -0.0043655712753126741 -0.00042340418129543982 0 -0.0043655712753126741 -0.00042340418129543982 0 -0.0043962358541375325 -0.00043832642659961035 0 -0.0043462100177351602 -0.00047482400291662234 0 -0.0044124834312408486 -0.00039853690093254358 0 -0.0043655712753126741 -0.00042340418129543982 0 -0.0043962358541375325 -0.00043832642659961035 0 -0.0044124834312408486 -0.00039853690093254358 0 -0.0043962358541375325 -0.00043832642659961035 0 -0.0044458201497463174 -0.00039649227293848602 0 -0.0023664195752134761 -0.0031481427901347034 0 -0.0032733171410560058 -0.0036772514793554055 0 -0.0023577215057129682 -0.0045909871670686874 0 -0.0044330018269465943 -0.00037813873989779855 0 -0.0044124834312408486 -0.00039853690093254358 0 -0.0044458201497463174 -0.00039649227293848602 0 -0.0023664195752134761 -0.0031481427901347034 0 -0.0039470207478890683 -0.001820244569425299 0 -0.0038984848898985969 -0.0028063099025317693 0 -0.0032733171410560058 -0.0036772514793554055 0 -0.0023577215057129682 -0.0045909871670686874 0 -0.0044096961549518164 -0.0039047706655815271 0 -0.0023664195752134761 -0.0031481427901347034 0 -0.0038984848898985969 -0.0028063099025317693 0 -0.0032733171410560058 -0.0036772514793554055 0 -0.0038984848898985969 -0.0028063099025317693 0 -0.0032733171410560058 -0.0036772514793554055 0 -0.0044096961549518164 -0.0039047706655815271 0 -0.0023577215057129682 -0.0045909871670686874 0 -0.0021000661501008621 -0.0047317151977052489 0 -0.0019282232490631782 -0.0046747783794153976 0 -0.0034916739933192197 -0.0017778078404848397 0 -0.0026830188992010891 -0.0025662239908536425 0 -0.0021000661501008621 -0.0047317151977052489 0 -0.0018876705565185102 -0.0046567630027280829 0 -0.0019282232490631782 -0.0046747783794153976 0 -0.0023664195752134761 -0.0031481427901347034 0 -0.0020962729061507132 -0.0049054276008799764 0 -0.0017632493706209145 -0.0051655405053336288 0 -0.0023664195752134761 -0.0031481427901347034 0 -0.0023577215057129682 -0.0045909871670686874 0 -0.0020962729061507132 -0.0049054276008799764 0 -0.0023577215057129682 -0.0045909871670686874 0 -0.0020962729061507132 -0.0049054276008799764 0 -0.0021000661501008621 -0.0047317151977052489 0 -0.0020962729061507132 -0.0049054276008799764 0 -0.0021000661501008621 -0.0047317151977052489 0 -0.0022605218065729809 -0.0048136981144152394 0 -0.0021000661501008621 -0.0047317151977052489 0 -0.0022605218065729809 -0.0048136981144152394 0 -0.0021733106466701687 -0.0043391129710639402 0 -0.0021000661501008621 -0.0047317151977052489 0 -0.0018876705565185102 -0.0046567630027280829 0 -0.0021733106466701687 -0.0043391129710639402 0 -0.0043962358541375325 -0.00043832642659961035 0 -0.0044458201497463174 -0.00039649227293848602 0 -0.0044079660917288729 -0.0005103283315144088 0 -0.0020013575863720465 -0.0011752320022141232 0 -0.0026830188992010891 -0.0025662239908536425 0 -0.0043213814523677526 -0.00055954467424545475 0 -0.0043462100177351602 -0.00047482400291662234 0 -0.0044079660917288729 -0.0005103283315144088 0 -0.0043962358541375325 -0.00043832642659961035 0 -0.0043462100177351602 -0.00047482400291662234 0 -0.0044079660917288729 -0.0005103283315144088 0 -0.0021254716185485746 -0.0032220681995871287 0 -0.0026830188992010891 -0.0025662239908536425 0 -0.00086450361209761551 -0.0020742654167624133 0 -0.0013150404943048923 -0.0017859938434680778 0 -0.0010704884822487668 -0.0022985795638914286 0 -0.0026830188992010891 -0.0025662239908536425 0 0.0013370869599561084 -0.0024584521480483915 0 -0.0029323041389609969 -0.0038209894535339746 0 -0.0021733106466701687 -0.0043391129710639402 0 -0.0018576185254989431 -0.0038089227479179959 0 -0.0022605218065729809 -0.0048136981144152394 0 -0.0029323041389609969 -0.0038209894535339746 0 -0.0021733106466701687 -0.0043391129710639402 0 -0.0020013575863720465 -0.0011752320022141232 0 0.0013370869599561084 -0.0024584521480483915 0 -0.0018876705565185102 -0.0046567630027280829 0 -0.0018576185254989431 -0.0038089227479179959 0 -0.00057528209139089939 -0.0036623129977885961 0 -0.0018876705565185102 -0.0046567630027280829 0 -0.0021733106466701687 -0.0043391129710639402 0 -0.0018576185254989431 -0.0038089227479179959 0 -0.00057528209139089939 -0.0036623129977885961 0 0.0001418774752044969 -0.0050079132905950412 0 0.00095122819559240591 -0.0031292675348181453 0 -0.0018876705565185102 -0.0046567630027280829 0 -0.00057528209139089939 -0.0036623129977885961 0 0.0001418774752044969 -0.0050079132905950412 0 -0.00086126406565162242 -0.0023820463225497652 0 0.0013056050949771197 -0.0016235632836088111 0 0.0010049968714361736 0.00011930101225841301 0 0.0014165265956960448 0.00036863769212314086 0 0.0012119619190671814 -0.00026507670681909955 0 -0.00086126406565162242 -0.0023820463225497652 0 -0.00052626300464146507 -2.9404503350876887e-05 0 -0.0050484194662282073 0.00026993959837632952 0 -0.004167144492139313 0.00061734599375976766 0 -0.0046244978696195387 0.00014734542077171143 0 -0.0022646007092015667 -0.00086520278906371696 0 -0.0023210665264020076 -0.0010162687901023014 0 -0.0018654645850740711 -0.00094959532867542273 0 -0.0036594385550628894 -0.0025122930393148848 0 -0.002993632549096477 2.6098605081927204e-06 0 0.0010049968714361736 0.00011930101225841301 0 0.0014165265956960448 0.00036863769212314086 0 0.0006404571747994801 0.00053112714117983795 0 -0.0022646007092015667 -0.00086520278906371696 0 -0.0018388639765949931 -0.00087523005973924074 0 -0.0018654645850740711 -0.00094959532867542273 0 -0.0018876705565185102 -0.0046567630027280829 0 -0.0019254703242428386 -0.0046729062552617311 0 -0.0019282232490631782 -0.0046747783794153976 0 -0.0017527581146490252 -0.0050070113521311112 0 -0.00086126406565162242 -0.0023820463225497652 0 -0.0026604867616565153 -0.0049964883814223341 0 -0.0036594385550628894 -0.0025122930393148848 0 -0.0023577215057129682 -0.0045909871670686874 0 -0.0061335981937346972 -0.005001087925846733 0 -0.0044096961549518164 -0.0039047706655815271 0 -0.00086126406565162242 -0.0023820463225497652 0 -0.0036594385550628894 -0.0025122930393148848 0 0.00053375760375108227 -0.00010997727254699757 0 -0.0016063785219034895 1.9872513032250745e-06 0 0.00036080376807395425 -1.1058342667411761e-06 0 0.0010049968714361736 0.00011930101225841301 0 0.00053375760375108227 -0.00010997727254699757 0 0.0006404571747994801 0.00053112714117983795 0 0.0010049968714361736 0.00011930101225841301 0 0.00053375760375108227 -0.00010997727254699757 0 0.0012119619190671814 -0.00026507670681909955 0 -0.0018388639765949931 -0.00087523005973924074 0 -0.0018654645850740711 -0.00094959532867542273 0 -0.0014354021828076062 -0.00087038573191525572 0 -0.00052626300464146507 -2.9404503350876887e-05 0 -0.0015604542256997577 -0.00042637948512763094 0 -0.002993632549096477 2.6098605081927204e-06 0 -0.0015604542256997577 -0.00042637948512763094 0 0.00053375760375108227 -0.00010997727254699757 0 0.0006404571747994801 0.00053112714117983795 0 -0.0016063785219034895 1.9872513032250745e-06 0 -0.004167144492139313 0.00061734599375976766 0 -0.0016128732504046811 2.1607320499151598e-06 0 -0.0034491759536324986 -6.8742432523804533e-05 0 -0.0034491759536324986 -6.8742432523804533e-05 0 -0.0043193763732413282 -0.00023016168553857959 0 -0.0034161409713706421 -1.0664545152739279e-06 0 -0.0016128732504046811 2.1607320499151598e-06 0 -0.0034491759536324986 -6.8742432523804533e-05 0 -0.0034161409713706421 -1.0664545152739279e-06 0 -0.0034491759536324986 -6.8742432523804533e-05 0 -0.0044375450055393183 -7.7640297949295981e-05 0 -0.0043193763732413282 -0.00023016168553857959 0 -0.004167144492139313 0.00061734599375976766 0 -0.0034491759536324986 -6.8742432523804533e-05 0 -0.0044375450055393183 -7.7640297949295981e-05 0 -0.004167144492139313 0.00061734599375976766 0 -0.0044375450055393183 -7.7640297949295981e-05 0 -0.0046244978696195387 0.00014734542077171143 0 -0.0044375450055393183 -7.7640297949295981e-05 0 -0.0043193763732413282 -0.00023016168553857959 0 -0.0047710496712404342 -0.00030062153613629508 0 -0.0043193763732413282 -0.00023016168553857959 0 -0.0047710496712404342 -0.00030062153613629508 0 -0.0049015187494053855 -0.000334374874920097 0 -0.0043193763732413282 -0.00023016168553857959 0 -0.0046590596691033093 -0.00022680560818016485 0 -0.0049015187494053855 -0.000334374874920097 0 -0.0034161409713706421 -1.0664545152739279e-06 0 -0.0052229625464551895 -3.8949437670830994e-07 0 -0.0046590596691033093 -0.00022680560818016485 0 -0.0043193763732413282 -0.00023016168553857959 0 -0.0034161409713706421 -1.0664545152739279e-06 0 -0.0046590596691033093 -0.00022680560818016485 0 -0.0050484194662282073 0.00026993959837632952 0 -0.0048745327315189426 -0.00031841620436047274 0 -0.0048624938342041188 -0.0004808670131057752 0 -0.0061335981937346972 -0.005001087925846733 0 -0.0044096961549518164 -0.0039047706655815271 0 -0.0048624938342041188 -0.0004808670131057752 0 -0.0036594385550628894 -0.0025122930393148848 0 -0.0054610106131010132 -0.0005443152812784945 0 -0.0038984848898985969 -0.0028063099025317693 0 -0.0044096961549518164 -0.0039047706655815271 0 -0.0048624938342041188 -0.0004808670131057752 0 -0.0050484194662282073 0.00026993959837632952 0 -0.0047867156035244452 -0.00015416270383158368 0 -0.0048745327315189426 -0.00031841620436047274 0 -0.0050484194662282073 0.00026993959837632952 0 -0.0046244978696195387 0.00014734542077171143 0 -0.0047867156035244452 -0.00015416270383158368 0 -0.0044375450055393183 -7.7640297949295981e-05 0 -0.0046244978696195387 0.00014734542077171143 0 -0.0047867156035244452 -0.00015416270383158368 0 -0.0044375450055393183 -7.7640297949295981e-05 0 -0.0047867156035244452 -0.00015416270383158368 0 -0.0047710496712404342 -0.00030062153613629508 0 -0.0047867156035244452 -0.00015416270383158368 0 -0.0048742115115465697 -0.00033255226116088438 0 -0.0048745327315189426 -0.00031841620436047274 0 -0.0047867156035244452 -0.00015416270383158368 0 -0.0048742115115465697 -0.00033255226116088438 0 -0.0047710496712404342 -0.00030062153613629508 0 -0.0047710496712404342 -0.00030062153613629508 0 -0.0049824172724032764 -0.00036338373335722374 0 -0.0049015187494053855 -0.000334374874920097 0 -0.0048742115115465697 -0.00033255226116088438 0 -0.0049041823927217874 -0.00037179216670179388 0 -0.0049824172724032764 -0.00036338373335722374 0 -0.0048742115115465697 -0.00033255226116088438 0 -0.0047710496712404342 -0.00030062153613629508 0 -0.0049824172724032764 -0.00036338373335722374 0 -0.0049041823927217874 -0.00037179216670179388 0 -0.0048745327315189426 -0.00031841620436047274 0 -0.0048650943417962436 -0.00039662213064607405 0 -0.0049041823927217874 -0.00037179216670179388 0 -0.0048650943417962436 -0.00039662213064607405 0 -0.0049090754924920902 -0.00033833685360808055 0 -0.0048742115115465697 -0.00033255226116088438 0 -0.0049041823927217874 -0.00037179216670179388 0 -0.0048745327315189426 -0.00031841620436047274 0 -0.0048745327315189426 -0.00031841620436047274 0 -0.0048624938342041188 -0.0004808670131057752 0 -0.0048650943417962436 -0.00039662213064607405 0 -0.0043443956369205667 -0.00039030766247048223 0 -0.0048624938342041188 -0.0004808670131057752 0 -0.0046666057584819195 -0.00034679700995908313 0 -0.0048624938342041188 -0.0004808670131057752 0 -0.0048650943417962436 -0.00039662213064607405 0 -0.0046666057584819195 -0.00034679700995908313 0 -0.0048650943417962436 -0.00039662213064607405 0 -0.0046666057584819195 -0.00034679700995908313 0 -0.0047319208896571974 -0.00032412251857656893 0 -0.0047319208896571974 -0.00032412251857656893 0 -0.0048279569664957181 -0.00026593677037312292 0 -0.0046462411129955155 -0.0002752955218829198 0 -0.0047319208896571974 -0.00032412251857656893 0 -0.0048279569664957181 -0.00026593677037312292 0 -0.0049090754924920902 -0.00033833685360808055 0 -0.0048650943417962436 -0.00039662213064607405 0 -0.0047319208896571974 -0.00032412251857656893 0 -0.0049090754924920902 -0.00033833685360808055 0 -0.0048279569664957181 -0.00026593677037312292 0 -0.0050479620579749985 -0.00030674224634642881 0 -0.0049983192503299922 -0.00019118577938238805 0 -0.0048279569664957181 -0.00026593677037312292 0 -0.0049090754924920902 -0.00033833685360808055 0 -0.0050479620579749985 -0.00030674224634642881 0 -0.0049041823927217874 -0.00037179216670179388 0 -0.0049090754924920902 -0.00033833685360808055 0 -0.0049824172724032764 -0.00036338373335722374 0 -0.0049090754924920902 -0.00033833685360808055 0 -0.0049824172724032764 -0.00036338373335722374 0 -0.0050479620579749985 -0.00030674224634642881 0 -0.0049824172724032764 -0.00036338373335722374 0 -0.0051982919734349211 -0.00032639228138611141 0 -0.0049015187494053855 -0.000334374874920097 0 -0.0051982919734349211 -0.00032639228138611141 0 -0.0050479620579749985 -0.00030674224634642881 0 -0.0052905892420766539 -0.00023117353175529341 0 -0.0049824172724032764 -0.00036338373335722374 0 -0.0051982919734349211 -0.00032639228138611141 0 -0.0050479620579749985 -0.00030674224634642881 0 -0.0050479620579749985 -0.00030674224634642881 0 -0.0052905892420766539 -0.00023117353175529341 0 -0.0049983192503299922 -0.00019118577938238805 0 -0.0051982919734349211 -0.00032639228138611141 0 -0.0052905892420766539 -0.00023117353175529341 0 -0.0057101480674667839 -0.00021975184685349609 0 -0.0052905892420766539 -0.00023117353175529341 0 -0.0057101480674667839 -0.00021975184685349609 0 -0.005657386875601811 -6.8048221559850676e-05 0 -0.0052905892420766539 -0.00023117353175529341 0 -0.005219380260064143 -2.9453876802707595e-05 0 -0.005657386875601811 -6.8048221559850676e-05 0 -0.0049149872972788396 -2.9585127690664821e-06 0 -0.0049983192503299922 -0.00019118577938238805 0 -0.005219380260064143 -2.9453876802707595e-05 0 -0.0052905892420766539 -0.00023117353175529341 0 -0.0049983192503299922 -0.00019118577938238805 0 -0.005219380260064143 -2.9453876802707595e-05 0 -0.0049149872972788396 -2.9585127690664821e-06 0 -0.0049983192503299922 -0.00019118577938238805 0 -0.0047118175532008108 -0.00016675924326831133 0 -0.0048279569664957181 -0.00026593677037312292 0 -0.0049983192503299922 -0.00019118577938238805 0 -0.0047118175532008108 -0.00016675924326831133 0 -0.0052229625464551895 -3.8949437670830994e-07 0 -0.0046590596691033093 -0.00022680560818016485 0 -0.005346739548754819 -0.00025232356404506547 0 -0.0046590596691033093 -0.00022680560818016485 0 -0.005346739548754819 -0.00025232356404506547 0 -0.0049015187494053855 -0.000334374874920097 0 -0.0051982919734349211 -0.00032639228138611141 0 -0.005346739548754819 -0.00025232356404506547 0 -0.0049015187494053855 -0.000334374874920097 0 -0.0051982919734349211 -0.00032639228138611141 0 -0.005346739548754819 -0.00025232356404506547 0 -0.0057101480674667839 -0.00021975184685349609 0 -0.0057101480674667839 -0.00021975184685349609 0 -0.0061776871676811652 -0.00014244237414476359 0 -0.006336529462075133 -3.7076663747080019e-05 0 -0.005346739548754819 -0.00025232356404506547 0 -0.0057101480674667839 -0.00021975184685349609 0 -0.0061776871676811652 -0.00014244237414476359 0 -0.0052229625464551895 -3.8949437670830994e-07 0 -0.0061776871676811652 -0.00014244237414476359 0 -0.0070292434185457303 -1.2005515255772254e-07 0 -0.0052229625464551895 -3.8949437670830994e-07 0 -0.005346739548754819 -0.00025232356404506547 0 -0.0061776871676811652 -0.00014244237414476359 0 -0.0070292434185457303 -1.2005515255772254e-07 0 -0.0070088585843950824 6.6167583984964951e-05 0 -0.0084416998279839561 0.00053622904365142692 0 -0.0061776871676811652 -0.00014244237414476359 0 -0.0070292434185457303 -1.2005515255772254e-07 0 -0.0070088585843950824 6.6167583984964951e-05 0 -0.0070088585843950824 6.6167583984964951e-05 0 -0.006336529462075133 -3.7076663747080019e-05 0 -0.0068776913690475382 0.00025525603720237793 0 -0.0061776871676811652 -0.00014244237414476359 0 -0.0070088585843950824 6.6167583984964951e-05 0 -0.006336529462075133 -3.7076663747080019e-05 0 -0.006336529462075133 -3.7076663747080019e-05 0 -0.005657386875601811 -6.8048221559850676e-05 0 -0.0060246205471715013 0.00022862312301797749 0 -0.0057101480674667839 -0.00021975184685349609 0 -0.006336529462075133 -3.7076663747080019e-05 0 -0.005657386875601811 -6.8048221559850676e-05 0 -0.006336529462075133 -3.7076663747080019e-05 0 -0.0068776913690475382 0.00025525603720237793 0 -0.0060246205471715013 0.00022862312301797749 0 -0.0070088585843950824 6.6167583984964951e-05 0 -0.0068776913690475382 0.00025525603720237793 0 -0.0084416998279839561 0.00053622904365142692 0 -0.0099953101531272837 0.00021033947698654941 0 -0.0084416998279839561 0.00053622904365142692 0 -0.011133125942011688 0.0012144526523504584 0 -0.0085141659643455658 0.00064593419221842642 0 -0.0081011631882958041 0.0010113254196520559 0 -0.0068776913690475382 0.00025525603720237793 0 -0.0084416998279839561 0.00053622904365142692 0 -0.005504378149470978 0.00093928373675439259 0 -0.0088357577647877571 1.1398110779064387e-06 0 -0.0070292434185457303 -1.2005515255772254e-07 0 -0.0084416998279839561 0.00053622904365142692 0 -0.0049149872972788396 -2.9585127690664821e-06 0 -0.0050159372140664502 0.0003143880928485068 0 -0.0047064912749117723 0.0001640273895683293 0 -0.0050159372140664502 0.0003143880928485068 0 -0.005219380260064143 -2.9453876802707595e-05 0 -0.0054588223510732741 0.00018743576753567877 0 -0.0049149872972788396 -2.9585127690664821e-06 0 -0.0050159372140664502 0.0003143880928485068 0 -0.005219380260064143 -2.9453876802707595e-05 0 -0.005219380260064143 -2.9453876802707595e-05 0 -0.005657386875601811 -6.8048221559850676e-05 0 -0.0054588223510732741 0.00018743576753567877 0 -0.005657386875601811 -6.8048221559850676e-05 0 -0.0060246205471715013 0.00022862312301797749 0 -0.0054588223510732741 0.00018743576753567877 0 -0.0050159372140664502 0.0003143880928485068 0 -0.0054588223510732741 0.00018743576753567877 0 -0.005504378149470978 0.00093928373675439259 0 -0.0068776913690475382 0.00025525603720237793 0 -0.0060246205471715013 0.00022862312301797749 0 -0.005504378149470978 0.00093928373675439259 0 -0.0060246205471715013 0.00022862312301797749 0 -0.0054588223510732741 0.00018743576753567877 0 -0.005504378149470978 0.00093928373675439259 0 -0.011434611765420093 0.00059952517396459962 0 -0.011133125942011688 0.0012144526523504584 0 -0.012399965498029129 0.001247197349007042 0 -0.0050159372140664502 0.0003143880928485068 0 -0.005504378149470978 0.00093928373675439259 0 -0.0046922191711530762 0.00063430254481491356 0 -0.0081011631882958041 0.0010113254196520559 0 -0.0095486938187458233 0.00083294439260337653 0 -0.012548401833455191 0.0010392222712866227 0 -0.0095486938187458233 0.00083294439260337653 0 -0.0095486938187458233 0.00083294439260337653 0 -0.006906640372143483 8.7633312371168976e-05 0 -0.0046922191711530762 0.00063430254481491356 0 -0.0047064912749117723 0.0001640273895683293 0 -0.0042413594632715133 0.00027129131182505758 0 -0.0050159372140664502 0.0003143880928485068 0 -0.0046922191711530762 0.00063430254481491356 0 -0.0047064912749117723 0.0001640273895683293 0 -0.0047064912749117723 0.0001640273895683293 0 -0.0042413594632715133 0.00027129131182505758 0 -0.0045394573876566882 -6.9714282414037621e-05 0 -0.004476658702883711 -1.9179700585958872e-05 0 -0.0044110964627179575 -8.472683928392208e-05 0 -0.0044351736891569786 -0.00013134818642519393 0 -0.006906640372143483 8.7633312371168976e-05 0 -0.004035715258252308 0.00033221232159421228 0 -0.006906640372143483 8.7633312371168976e-05 0 -0.012563204107680919 0.00034430259625478296 0 -0.0095486938187458233 0.00083294439260337653 0 -0.012563204107680919 0.00034430259625478296 0 -0.0091687431138816108 0.00034203213321764561 0 -0.0098960673491710529 0.00079436923790872273 0 -0.010237184576577045 0.00041241233323008488 0 -0.013195231635550099 0.00075876555664515109 0 -0.012426550489892352 0.0013351566327525922 0 -0.013830322761353717 0.0014488636066516513 0 -0.016934394115531413 0.00012800604847459021 0 -0.014468027014440396 -0.00012009322856086551 0 -0.016934394115531413 0.00012800604847459021 0 -0.012563204107680919 0.00034430259625478296 0 -0.015464385846616139 -0.00074536139146849027 0 -0.014845554587028718 0.00076096106309709688 0 -0.014170326504995773 0.00070775206952723658 0 -0.014520863919069555 0.00067816833963498077 0 -0.013195231635550099 0.00075876555664515109 0 -0.013830322761353717 0.0014488636066516513 0 -0.011958420705504661 -0.0012208981716427519 0 -0.012397746675679177 -0.00059106633506326338 0 -0.011705226830901359 -0.00061619095839327617 0 -0.014468027014440396 -0.00012009322856086551 0 -0.013466676858346981 -0.00021767546923312628 0 -0.011955709335159267 -0.0012276985098523951 0 -0.011195758783183653 -0.001286808432406445 0 -0.011705226830901359 -0.00061619095839327617 0 -0.014468027014440396 -0.00012009322856086551 0 -0.012563204107680919 0.00034430259625478296 0 -0.018943895399931722 -1.7551881292794026e-05 0 -0.018903752213027168 -4.7388577809567875e-06 0 -0.018953685076192051 -1.6965308602206666e-05 0 -0.01891027881584751 -3.5663701635419843e-05 0 -0.018953529636332692 -1.8335122779978926e-05 0 -0.018978615945996084 -4.6654006533697673e-05 0 -0.018953529636332692 -1.8335122779978926e-05 0 -0.018953685076192051 -1.6965308602206666e-05 0 -0.018978615945996084 -4.6654006533697673e-05 0 -0.018957122864725649 -1.3692910863666943e-05 0 -0.018953529636332692 -1.8335122779978926e-05 0 -0.018953685076192051 -1.6965308602206666e-05 0 -0.011958420705504661 -0.0012208981716427519 0 -0.012973896793768078 -0.0011405470064122995 0 -0.012397746675679177 -0.00059106633506326338 0 -0.014468027014440396 -0.00012009322856086551 0 -0.017602700465421638 -0.00057868458731322647 0 -0.018903752213027168 -4.7388577809567875e-06 0 -0.018953685076192051 -1.6965308602206666e-05 0 -0.018942345026453637 4.198470369240971e-07 0 -0.018136686119589084 -9.9497839591678678e-05 0 -0.017602700465421638 -0.00057868458731322647 0 -0.012397746675679177 -0.00059106633506326338 0 -0.012150940590215332 0.00018070917786637249 0 -0.012895724291205207 0.0013669011583165814 0 -0.01872539435119084 -0.00010981707622654387 0 -0.018659502033851926 -0.00017253883177238282 0 -0.018650913355468826 -8.1788890744549148e-05 0 -0.012973896793768078 -0.0011405470064122995 0 -0.012397746675679177 -0.00059106633506326338 0 -0.012895724291205207 0.0013669011583165814 0 -0.017602700465421638 -0.00057868458731322647 0 -0.011787680272353612 0.00020638593477091533 0 -0.010279379415788679 -0.00025432308078653614 0 -0.011195758783183653 -0.001286808432406445 0 -0.011705226830901359 -0.00061619095839327617 0 -0.010279379415788679 -0.00025432308078653614 0 -0.011705226830901359 -0.00061619095839327617 0 -0.011601372860441116 0.00055940399961842968 0 -0.012397746675679177 -0.00059106633506326338 0 -0.011705226830901359 -0.00061619095839327617 0 -0.012150940590215332 0.00018070917786637249 0 -0.011705226830901359 -0.00061619095839327617 0 -0.012150940590215332 0.00018070917786637249 0 -0.011601372860441116 0.00055940399961842968 0 -0.006906640372143483 8.7633312371168976e-05 0 -0.0077529034056105098 2.3614970889405165e-05 0 -0.0044110964627179575 -8.472683928392208e-05 0 -0.0043968051450284807 -0.00013163800181395131 0 -0.0044351736891569786 -0.00013134818642519393 0 -0.012150940590215332 0.00018070917786637249 0 -0.011601372860441116 0.00055940399961842968 0 -0.012895724291205207 0.0013669011583165814 0 -0.0044110964627179575 -8.472683928392208e-05 0 -0.0043968051450284807 -0.00013163800181395131 0 -0.0044036218778438401 -0.00012960012072317287 0 -0.0077529034056105098 2.3614970889405165e-05 0 -0.011787680272353612 0.00020638593477091533 0 -0.0043968051450284807 -0.00013163800181395131 0 -0.0043987061161734559 -0.00014368809556975014 0 -0.0043858710448761067 -0.00017791046711976478 0 -0.0043968051450284807 -0.00013163800181395131 0 -0.0043858710448761067 -0.00017791046711976478 0 -0.0044351736891569786 -0.00013134818642519393 0 -0.014410738426380085 -0.00010328009172357105 0 -0.011787680272353612 0.00020638593477091533 0 -0.0043968051450284807 -0.00013163800181395131 0 -0.0044036218778438401 -0.00012960012072317287 0 -0.0043987061161734559 -0.00014368809556975014 0 -0.011787680272353612 0.00020638593477091533 0 -0.0059500574125714682 0.00012201500805861439 0 -0.0111068669097233 0.00039142322881662527 0 -0.0095915941466134923 -0.0011125370936164783 0 -0.0095570880459906297 0.00029355456385372897 0 -0.0042751234876754777 -0.00041895587621769664 0 -0.0059500574125714682 0.00012201500805861439 0 -0.0042770495325981797 -0.00039171866993804085 0 -0.0042868073716647703 -0.00039164649847735889 0 -0.0043110243250828887 -0.00036674358264918909 0 -0.0042645000241731228 -0.00031910661880671707 0 -0.0042648260592673109 -0.00019247879109832302 0 -0.004353244119159971 -0.00029414833369149549 0 -0.0082401972858655095 -0.00050352338651796875 0 -0.0059500574125714682 0.00012201500805861439 0 -0.0042952038226276067 -0.00036951073349310011 0 -0.0042770495325981797 -0.00039171866993804085 0 -0.0043110243250828887 -0.00036674358264918909 0 -0.0042648260592673109 -0.00019247879109832302 0 -0.0043858710448761067 -0.00017791046711976478 0 -0.004353244119159971 -0.00029414833369149549 0 -0.0059500574125714682 0.00012201500805861439 0 -0.0038954634890388338 -0.00019290615265934343 0 -0.0043858710448761067 -0.00017791046711976478 0 -0.004353244119159971 -0.00029414833369149549 0 -0.0044254916584480306 -0.0002631277590165286 0 -0.0043858710448761067 -0.00017791046711976478 0 -0.0044254916584480306 -0.0002631277590165286 0 -0.0044351736891569786 -0.00013134818642519393 0 -0.0044254916584480306 -0.0002631277590165286 0 -0.004507621018633997 -0.00027364533610555467 0 -0.0044351736891569786 -0.00013134818642519393 0 -0.0044576670311432436 -0.00034140492697917198 0 -0.0044254916584480306 -0.0002631277590165286 0 -0.004507621018633997 -0.00027364533610555467 0 -0.0044576670311432436 -0.00034140492697917198 0 -0.0045204077691888877 -0.00035195700831995 0 -0.004507621018633997 -0.00027364533610555467 0 -0.0047319208896571974 -0.00032412251857656893 0 -0.0045204077691888877 -0.00035195700831995 0 -0.0046462411129955155 -0.0002752955218829198 0 -0.0045204077691888877 -0.00035195700831995 0 -0.0046462411129955155 -0.0002752955218829198 0 -0.004507621018633997 -0.00027364533610555467 0 -0.0048279569664957181 -0.00026593677037312292 0 -0.0046462411129955155 -0.0002752955218829198 0 -0.0047118175532008108 -0.00016675924326831133 0 -0.0046462411129955155 -0.0002752955218829198 0 -0.004507621018633997 -0.00027364533610555467 0 -0.0047118175532008108 -0.00016675924326831133 0 -0.004507621018633997 -0.00027364533610555467 0 -0.0047118175532008108 -0.00016675924326831133 0 -0.0045394573876566882 -6.9714282414037621e-05 0 -0.0049149872972788396 -2.9585127690664821e-06 0 -0.0047064912749117723 0.0001640273895683293 0 -0.0047118175532008108 -0.00016675924326831133 0 -0.0047064912749117723 0.0001640273895683293 0 -0.0047118175532008108 -0.00016675924326831133 0 -0.0045394573876566882 -6.9714282414037621e-05 0 -0.004476658702883711 -1.9179700585958872e-05 0 -0.0045394573876566882 -6.9714282414037621e-05 0 -0.0044351736891569786 -0.00013134818642519393 0 -0.004507621018633997 -0.00027364533610555467 0 -0.0045394573876566882 -6.9714282414037621e-05 0 -0.0044351736891569786 -0.00013134818642519393 0 -0.017683317432565727 -0.0010780288048932039 0 -0.017789684264388275 -0.0012418436032179926 0 -0.01797787354082845 -0.0011107036516302413 0 -0.017683317432565727 -0.0010780288048932039 0 -0.01797787354082845 -0.0011107036516302413 0 -0.017922230619075656 -0.00062747778042660006 0 -0.017683317432565727 -0.0010780288048932039 0 -0.017465189207884733 -0.00080000293894533616 0 -0.017378300066362658 -0.0011741444486897642 0 -0.017683317432565727 -0.0010780288048932039 0 -0.017922230619075656 -0.00062747778042660006 0 -0.017465189207884733 -0.00080000293894533616 0 -0.017378300066362658 -0.0011741444486897642 0 -0.017287014659217708 -0.0014363774332795006 0 -0.017612852057279998 -0.0013746270039756915 0 -0.017683317432565727 -0.0010780288048932039 0 -0.017378300066362658 -0.0011741444486897642 0 -0.017612852057279998 -0.0013746270039756915 0 -0.017789684264388275 -0.0012418436032179926 0 -0.01797787354082845 -0.0011107036516302413 0 -0.017877491685865887 -0.0013951051379896054 0 -0.017789684264388275 -0.0012418436032179926 0 -0.017612852057279998 -0.0013746270039756915 0 -0.017877491685865887 -0.0013951051379896054 0 -0.017683317432565727 -0.0010780288048932039 0 -0.017789684264388275 -0.0012418436032179926 0 -0.017612852057279998 -0.0013746270039756915 0 -0.018207756585629637 -0.0012879152527847137 0 -0.018057581365821664 -0.0014500487237063702 0 -0.017877491685865887 -0.0013951051379896054 0 -0.018207756585629637 -0.0012879152527847137 0 -0.01797787354082845 -0.0011107036516302413 0 -0.017877491685865887 -0.0013951051379896054 0 -0.018207756585629637 -0.0012879152527847137 0 -0.018147541326084426 -0.001567322726577908 0 -0.018057581365821664 -0.0014500487237063702 0 -0.018207756585629637 -0.0012879152527847137 0 -0.018356188430450011 -0.00089594791971950413 0 -0.018501055628475073 -0.0011961403680702807 0 -0.018207756585629637 -0.0012879152527847137 0 -0.01797787354082845 -0.0011107036516302413 0 -0.018356188430450011 -0.00089594791971950413 0 -0.01797787354082845 -0.0011107036516302413 0 -0.018356188430450011 -0.00089594791971950413 0 -0.017922230619075656 -0.00062747778042660006 0 -0.018356188430450011 -0.00089594791971950413 0 -0.018340867211135693 -0.0004460915963043191 0 -0.017922230619075656 -0.00062747778042660006 0 -0.018356188430450011 -0.00089594791971950413 0 -0.018701364767243212 -0.00056057177654205467 0 -0.018340867211135693 -0.0004460915963043191 0 -0.018701364767243212 -0.00056057177654205467 0 -0.018340867211135693 -0.0004460915963043191 0 -0.018618145939159097 2.637574111403519e-05 0 -0.018340867211135693 -0.0004460915963043191 0 -0.017922230619075656 -0.00062747778042660006 0 -0.018140794635474532 -9.8933438913926847e-05 0 -0.017922230619075656 -0.00062747778042660006 0 -0.01782558104578524 -0.00010514083383694681 0 -0.018140794635474532 -9.8933438913926847e-05 0 -0.017922230619075656 -0.00062747778042660006 0 -0.017465189207884733 -0.00080000293894533616 0 -0.01757998196001646 -0.0003910221761675791 0 -0.01782558104578524 -0.00010514083383694681 0 -0.01757998196001646 -0.0003910221761675791 0 -0.017570709229952523 0.00015754512791294349 0 -0.017922230619075656 -0.00062747778042660006 0 -0.01782558104578524 -0.00010514083383694681 0 -0.01757998196001646 -0.0003910221761675791 0 -0.01757998196001646 -0.0003910221761675791 0 -0.017205475466442629 -2.8767048259555559e-05 0 -0.017570709229952523 0.00015754512791294349 0 -0.01757998196001646 -0.0003910221761675791 0 -0.017205475466442629 -2.8767048259555559e-05 0 -0.01716726428459852 -0.00051424475322612586 0 -0.017205475466442629 -2.8767048259555559e-05 0 -0.016857955243555996 -0.00025389560236356888 0 -0.016744482215101213 0.00028021761912733954 0 -0.017205475466442629 -2.8767048259555559e-05 0 -0.016857955243555996 -0.00025389560236356888 0 -0.01716726428459852 -0.00051424475322612586 0 -0.016857955243555996 -0.00025389560236356888 0 -0.01716726428459852 -0.00051424475322612586 0 -0.016744228519028664 -0.00071481748165002593 0 -0.01716726428459852 -0.00051424475322612586 0 -0.016744228519028664 -0.00071481748165002593 0 -0.017097428188237118 -0.00096582776452147753 0 -0.017465189207884733 -0.00080000293894533616 0 -0.01757998196001646 -0.0003910221761675791 0 -0.01716726428459852 -0.00051424475322612586 0 -0.017465189207884733 -0.00080000293894533616 0 -0.01716726428459852 -0.00051424475322612586 0 -0.017097428188237118 -0.00096582776452147753 0 -0.01591457433965637 7.151390834169726e-05 0 -0.016099487311064805 0.00051130030597554548 0 -0.015501700798847743 0.0002072908340688463 0 -0.016857955243555996 -0.00025389560236356888 0 -0.016206232406651384 -0.00032608654997203407 0 -0.016744482215101213 0.00028021761912733954 0 -0.016857955243555996 -0.00025389560236356888 0 -0.016206232406651384 -0.00032608654997203407 0 -0.016744228519028664 -0.00071481748165002593 0 -0.016206232406651384 -0.00032608654997203407 0 -0.016744228519028664 -0.00071481748165002593 0 -0.016258659117808327 -0.0009628611910931724 0 -0.01591457433965637 7.151390834169726e-05 0 -0.016034961810417064 -0.00084829489808103487 0 -0.015163318384105898 -0.00017782427082428144 0 -0.016072222153692504 -0.00011327855890263952 0 -0.016140186546928552 -0.00093272837328096058 0 -0.016744228519028664 -0.00071481748165002593 0 -0.016258659117808327 -0.0009628611910931724 0 -0.016826779453051395 -0.0011944951681223677 0 -0.016258659117808327 -0.0009628611910931724 0 -0.016826779453051395 -0.0011944951681223677 0 -0.016720474252274908 -0.0016382024155424863 0 -0.016258659117808327 -0.0009628611910931724 0 -0.016178896631685473 -0.0019220890568863581 0 -0.016720474252274908 -0.0016382024155424863 0 -0.016140186546928552 -0.00093272837328096058 0 -0.016184003836688405 -0.0018762981576840817 0 -0.016034961810417064 -0.00084829489808103487 0 -0.015711489392938548 -0.0015997171546780868 0 -0.016178896631685473 -0.0019220890568863581 0 -0.016034961810417064 -0.00084829489808103487 0 -0.015711489392938548 -0.0015997171546780868 0 -0.015353320755708808 -0.0013753589182338953 0 -0.017465189207884733 -0.00080000293894533616 0 -0.017097428188237118 -0.00096582776452147753 0 -0.017378300066362658 -0.0011741444486897642 0 -0.016744228519028664 -0.00071481748165002593 0 -0.017097428188237118 -0.00096582776452147753 0 -0.016826779453051395 -0.0011944951681223677 0 -0.016826779453051395 -0.0011944951681223677 0 -0.016932907125274836 -0.0015316737262143936 0 -0.016720474252274908 -0.0016382024155424863 0 -0.016826779453051395 -0.0011944951681223677 0 -0.017096156154920265 -0.0013148389385376138 0 -0.016932907125274836 -0.0015316737262143936 0 -0.017097428188237118 -0.00096582776452147753 0 -0.016826779453051395 -0.0011944951681223677 0 -0.017096156154920265 -0.0013148389385376138 0 -0.017096156154920265 -0.0013148389385376138 0 -0.017378300066362658 -0.0011741444486897642 0 -0.017287014659217708 -0.0014363774332795006 0 -0.017097428188237118 -0.00096582776452147753 0 -0.017096156154920265 -0.0013148389385376138 0 -0.017378300066362658 -0.0011741444486897642 0 -0.017287014659217708 -0.0014363774332795006 0 -0.017192262347322119 -0.0015739687371319885 0 -0.017400685673862461 -0.0015436188900724316 0 -0.017192262347322119 -0.0015739687371319885 0 -0.017091186433560647 -0.0015169157973618477 0 -0.017009417196831845 -0.0016237076469811174 0 -0.017287014659217708 -0.0014363774332795006 0 -0.017192262347322119 -0.0015739687371319885 0 -0.017091186433560647 -0.0015169157973618477 0 -0.017096156154920265 -0.0013148389385376138 0 -0.017287014659217708 -0.0014363774332795006 0 -0.017091186433560647 -0.0015169157973618477 0 -0.017096156154920265 -0.0013148389385376138 0 -0.017091186433560647 -0.0015169157973618477 0 -0.016932907125274836 -0.0015316737262143936 0 -0.016932907125274836 -0.0015316737262143936 0 -0.016839918160223458 -0.0016451022297087367 0 -0.016720474252274908 -0.0016382024155424863 0 -0.016932907125274836 -0.0015316737262143936 0 -0.016839918160223458 -0.0016451022297087367 0 -0.017009417196831845 -0.0016237076469811174 0 -0.017091186433560647 -0.0015169157973618477 0 -0.016932907125274836 -0.0015316737262143936 0 -0.017009417196831845 -0.0016237076469811174 0 -0.017009417196831845 -0.0016237076469811174 0 -0.016899732731433068 -0.0017031398906204428 0 -0.017099447599799956 -0.0016761760777714047 0 -0.016839918160223458 -0.0016451022297087367 0 -0.017009417196831845 -0.0016237076469811174 0 -0.016899732731433068 -0.0017031398906204428 0 -0.016899732731433068 -0.0017031398906204428 0 -0.017099447599799956 -0.0016761760777714047 0 -0.017038808831782156 -0.0017626275642587102 0 -0.017099447599799956 -0.0016761760777714047 0 -0.017271836564019222 -0.0016380035998518375 0 -0.017261861684058143 -0.0017312845348384474 0 -0.017192262347322119 -0.0015739687371319885 0 -0.017271836564019222 -0.0016380035998518375 0 -0.017400685673862461 -0.0015436188900724316 0 -0.017192262347322119 -0.0015739687371319885 0 -0.017099447599799956 -0.0016761760777714047 0 -0.017271836564019222 -0.0016380035998518375 0 -0.017192262347322119 -0.0015739687371319885 0 -0.017009417196831845 -0.0016237076469811174 0 -0.017099447599799956 -0.0016761760777714047 0 -0.015648162035502532 -0.0020655903276345215 0 -0.016178896631685473 -0.0019220890568863581 0 -0.015691046172449746 -0.0027876722126360066 0 -0.016178896631685473 -0.0019220890568863581 0 -0.016720474252274908 -0.0016382024155424863 0 -0.015691046172449746 -0.0027876722126360066 0 -0.017536477860203861 -0.0015461876405331934 0 -0.013872286841586982 -0.0021203586336701699 0 -0.015648162035502532 -0.0020655903276345215 0 -0.015691046172449746 -0.0027876722126360066 0 -0.015400030914653575 -0.0022143302313614695 0 -0.015711489392938548 -0.0015997171546780868 0 -0.015648162035502532 -0.0020655903276345215 0 -0.016178896631685473 -0.0019220890568863581 0 -0.015711489392938548 -0.0015997171546780868 0 -0.015648162035502532 -0.0020655903276345215 0 -0.015292091605037507 -0.0018474809026444085 0 -0.016720474252274908 -0.0016382024155424863 0 -0.016727970661416399 -0.0016947238247967532 0 -0.016621523383561692 -0.001702342886582646 0 -0.016839918160223458 -0.0016451022297087367 0 -0.016720474252274908 -0.0016382024155424863 0 -0.016727970661416399 -0.0016947238247967532 0 -0.016839918160223458 -0.0016451022297087367 0 -0.016899732731433068 -0.0017031398906204428 0 -0.016727970661416399 -0.0016947238247967532 0 -0.016899732731433068 -0.0017031398906204428 0 -0.016727970661416399 -0.0016947238247967532 0 -0.016730339546005592 -0.0018098909037353901 0 -0.016727970661416399 -0.0016947238247967532 0 -0.016641305709708017 -0.0017235529538958425 0 -0.016730339546005592 -0.0018098909037353901 0 -0.016727970661416399 -0.0016947238247967532 0 -0.016641305709708017 -0.0017235529538958425 0 -0.016621523383561692 -0.001702342886582646 0 -0.010400361606738693 -0.0028360908535041683 0 -0.010478293210030628 -0.0028923921917231696 0 -0.010673772738601268 -0.0027214030208902924 0 -0.010400361606738693 -0.0028360908535041683 0 -0.010197538092602324 -0.0026610762097974516 0 -0.010673772738601268 -0.0027214030208902924 0 -0.013487615952244751 -0.0025088883573844011 0 -0.0086397026805940264 -0.0023555747816422102 0 -0.013108103311214295 -0.0030493028023273658 0 -0.011406150429839074 -0.0015224784661574077 0 -0.011076074247019894 -0.0014859553038920718 0 -0.013487615952244751 -0.0025088883573844011 0 -0.013330820496747562 -0.0023465248654687678 0 -0.013487615952244751 -0.0025088883573844011 0 -0.013872286841586982 -0.0021203586336701699 0 -0.0034159913543059099 -0.0030266914342556434 0 -0.0030714092682837479 -0.0033464568732412586 0 -0.0038078080165829327 -0.0033860011347039798 0 -0.0086397026805940264 -0.0023555747816422102 0 -0.0088816375884258891 -0.0033454187294829673 0 -0.0034159913543059099 -0.0030266914342556434 0 -0.0030714092682837479 -0.0033464568732412586 0 -0.0029940586294866004 -0.0026481186846703908 0 -0.010328979858878746 -0.0039348548205302564 0 -0.0088887753359570155 -0.0025023101098463198 0 -0.0083581940182386755 -0.0024718077729210105 0 -0.013330820496747562 -0.0023465248654687678 0 -0.013003909258442027 -0.0023468166481101149 0 -0.0030714092682837479 -0.0033464568732412586 0 -0.0029940586294866004 -0.0026481186846703908 0 -0.0026006182944676298 -0.002986967204816554 0 -0.0086397026805940264 -0.0023555747816422102 0 -0.013330820496747562 -0.0023465248654687678 0 -0.010570498177348779 -0.0039585714286804862 0 -0.010328979858878746 -0.0039348548205302564 0 -0.0088887753359570155 -0.0025023101098463198 0 -0.0086397026805940264 -0.0023555747816422102 0 -0.0061244597828333507 -0.0030124169887037529 0 0.0055649963160534161 -0.0026797344705746756 0 0.0055485469661584307 -0.0027089631316204684 0 0.0054301412014644114 -0.0025235155122961764 0 0.0055649963160534161 -0.0026797344705746756 0 0.0055485469661584307 -0.0027089631316204684 0 0.0049004513529469712 -0.0027616759013260697 0 0.0015554342562600621 -0.0026941117383427319 0 0.00087401010196151772 -0.0027399169015819131 0 0.011294371339594652 -0.0031718913059939537 0 0.01150363306835386 -0.0027305141843883933 0 -0.0034159913543059099 -0.0030266914342556434 0 -0.0029940586294866004 -0.0026481186846703908 0 -0.0037684511402556312 -0.0027181462712737815 0 0.0055485469661584307 -0.0027089631316204684 0 0.0049128310921588347 -0.0028600454205827308 0 0.0049004513529469712 -0.0027616759013260697 0 -0.017190757422836173 -0.0018383789522009373 0 -0.017038808831782156 -0.0017626275642587102 0 -0.017064108031581239 -0.0018842100606465979 0 -0.017190757422836173 -0.0018383789522009373 0 -0.017261861684058143 -0.0017312845348384474 0 -0.017038808831782156 -0.0017626275642587102 0 -0.017190757422836173 -0.0018383789522009373 0 -0.017261861684058143 -0.0017312845348384474 0 -0.017329896866460675 -0.00180433999624951 0 -0.017099447599799956 -0.0016761760777714047 0 -0.017261861684058143 -0.0017312845348384474 0 -0.017038808831782156 -0.0017626275642587102 0 -0.013330820496747562 -0.0023465248654687678 0 -0.018339528910675088 -0.0017029947719682224 0 -0.016463124243599737 -0.0016723059738469924 0 -0.017038808831782156 -0.0017626275642587102 0 -0.016871145533260877 -0.0019235660992689763 0 -0.016899732731433068 -0.0017031398906204428 0 -0.016730339546005592 -0.0018098909037353901 0 -0.017038808831782156 -0.0017626275642587102 0 -0.017038808831782156 -0.0017626275642587102 0 -0.016871145533260877 -0.0019235660992689763 0 -0.017064108031581239 -0.0018842100606465979 0 -0.0029940586294866004 -0.0026481186846703908 0 -0.0026006182944676298 -0.002986967204816554 0 -0.0021213941356126266 -0.0025855660240009007 0 -0.0088887753359570155 -0.0025023101098463198 0 -0.0083581940182386755 -0.0024718077729210105 0 -0.0071974248518962801 -0.0010295226195901896 0 -0.0083581940182386755 -0.0024718077729210105 0 -0.0071974248518962801 -0.0010295226195901896 0 -0.0063789770238962765 -0.00099044608730113992 0 0.011294371339594652 -0.0031718913059939537 0 0.0069235110974595893 -0.00066411420703577605 0 0.0055649963160534161 -0.0026797344705746756 0 0.0054179678863173946 -0.0025173478393354402 0 0.0054301412014644114 -0.0025235155122961764 0 -0.013003909258442027 -0.0023468166481101149 0 -0.0090753793660392507 -0.002081779670083449 0 -0.0061244597828333507 -0.0030124169887037529 0 -1.4990758418938586e-05 -0.0024312168640398578 0 -0.016871145533260877 -0.0019235660992689763 0 -0.017155981341361971 -0.0020132315584492125 0 -0.017064108031581239 -0.0018842100606465979 0 0.0015554342562600621 -0.0026941117383427319 0 -1.4990758418938586e-05 -0.0024312168640398578 0 -7.2166311969652775e-05 -0.001636648820610966 0 0.0010713432835155034 -0.00065938867220752349 0 -0.0016336068235938579 -0.00074735148348882563 0 0.0069235110974595893 -0.00066411420703577605 0 -1.4990758418938586e-05 -0.0024312168640398578 0 -7.2166311969652775e-05 -0.001636648820610966 0 -0.0016336068235938579 -0.00074735148348882563 0 -0.0030104772531403872 -0.0017520070243645602 0 0.0069235110974595893 -0.00066411420703577605 0 -0.0015265724582922745 -2.0559753694126645e-05 0 -1.4990758418938586e-05 -0.0024312168640398578 0 -0.0090753793660392507 -0.002081779670083449 0 -0.017190757422836173 -0.0018383789522009373 0 -0.017155981341361971 -0.0020132315584492125 0 -0.017064108031581239 -0.0018842100606465979 0 -0.017190757422836173 -0.0018383789522009373 0 -0.017155981341361971 -0.0020132315584492125 0 -0.017266660042523429 -0.0018733588514793227 0 -0.017190757422836173 -0.0018383789522009373 0 -0.017266660042523429 -0.0018733588514793227 0 -0.017329896866460675 -0.00180433999624951 0 -0.017155981341361971 -0.0020132315584492125 0 -0.017266660042523429 -0.0018733588514793227 0 -0.017379575368447114 -0.0018475057832319705 0 -0.0090753793660392507 -0.002081779670083449 0 -0.0015265724582922745 -2.0559753694126645e-05 0 -0.0088784112341871325 -0.0015577675883902819 0 -0.0095087342740396742 -0.0020072461085815733 0 -0.013348949901670251 -0.0016164693338424241 0 -0.0095087342740396742 -0.0020072461085815733 0 -0.013348949901670251 -0.0016164693338424241 0 -0.014235195655585963 -0.0020632190042360011 0 -0.0090753793660392507 -0.002081779670083449 0 -0.016366585262613195 -0.0016901054687401696 0 -0.017155981341361971 -0.0020132315584492125 0 -0.017379575368447114 -0.0018475057832319705 0 -0.017571934868642027 -0.0018081009298795833 0 -0.017503655987275879 -0.0017864135751207097 0 -0.017379575368447114 -0.0018475057832319705 0 -0.017571934868642027 -0.0018081009298795833 0 -0.017503655987275879 -0.0017864135751207097 0 -0.017379575368447114 -0.0018475057832319705 0 -0.017438521669498212 -0.0017808412292719029 0 -0.017503655987275879 -0.0017864135751207097 0 -0.017521061180338721 -0.0017453765596302277 0 -0.017438521669498212 -0.0017808412292719029 0 -0.017379575368447114 -0.0018475057832319705 0 -0.017329896866460675 -0.00180433999624951 0 -0.017438521669498212 -0.0017808412292719029 0 -0.017266660042523429 -0.0018733588514793227 0 -0.017379575368447114 -0.0018475057832319705 0 -0.017329896866460675 -0.00180433999624951 0 -0.013348949901670251 -0.0016164693338424241 0 -0.017288872640808136 -0.0015767180852818067 0 -0.014235195655585963 -0.0020632190042360011 0 -0.016366585262613195 -0.0016901054687401696 0 -0.016809429609485341 -0.0016092689164504865 0 -0.017504200863078287 -0.0017149764212738199 0 -0.017571934868642027 -0.0018081009298795833 0 -0.017288872640808136 -0.0015767180852818067 0 -0.017504200863078287 -0.0017149764212738199 0 -0.017571934868642027 -0.0018081009298795833 0 -0.017548212642513574 -0.0017556459205921597 0 -0.017503655987275879 -0.0017864135751207097 0 -0.017571934868642027 -0.0018081009298795833 0 -0.017548212642513574 -0.0017556459205921597 0 -0.017503655987275879 -0.0017864135751207097 0 -0.017548212642513574 -0.0017556459205921597 0 -0.017521061180338721 -0.0017453765596302277 0 -0.017504200863078287 -0.0017149764212738199 0 -0.017548212642513574 -0.0017556459205921597 0 -0.017557710857304808 -0.0016922787337781749 0 -0.017548212642513574 -0.0017556459205921597 0 -0.017557710857304808 -0.0016922787337781749 0 -0.017598117967643639 -0.0016928939670254513 0 -0.017557710857304808 -0.0016922787337781749 0 -0.017598117967643639 -0.0016928939670254513 0 -0.017690507039428028 -0.0016268670653377235 0 -0.017598117967643639 -0.0016928939670254513 0 -0.017521061180338721 -0.0017453765596302277 0 -0.01756470953555998 -0.0016774999448733413 0 -0.017548212642513574 -0.0017556459205921597 0 -0.017598117967643639 -0.0016928939670254513 0 -0.017521061180338721 -0.0017453765596302277 0 -0.017598117967643639 -0.0016928939670254513 0 -0.017715684082693296 -0.0016175005004811125 0 -0.017690507039428028 -0.0016268670653377235 0 -0.017598117967643639 -0.0016928939670254513 0 -0.01756470953555998 -0.0016774999448733413 0 -0.017715684082693296 -0.0016175005004811125 0 -0.017261861684058143 -0.0017312845348384474 0 -0.017329896866460675 -0.00180433999624951 0 -0.017436701414234333 -0.0017322246344194804 0 -0.017329896866460675 -0.00180433999624951 0 -0.017438521669498212 -0.0017808412292719029 0 -0.017436701414234333 -0.0017322246344194804 0 -0.017521061180338721 -0.0017453765596302277 0 -0.01756470953555998 -0.0016774999448733413 0 -0.017436701414234333 -0.0017322246344194804 0 -0.017521061180338721 -0.0017453765596302277 0 -0.017438521669498212 -0.0017808412292719029 0 -0.017436701414234333 -0.0017322246344194804 0 -0.01756470953555998 -0.0016774999448733413 0 -0.017436701414234333 -0.0017322246344194804 0 -0.017457342244147023 -0.0016462301899211715 0 -0.017261861684058143 -0.0017312845348384474 0 -0.017436701414234333 -0.0017322246344194804 0 -0.017457342244147023 -0.0016462301899211715 0 -0.017271836564019222 -0.0016380035998518375 0 -0.017261861684058143 -0.0017312845348384474 0 -0.017457342244147023 -0.0016462301899211715 0 -0.017271836564019222 -0.0016380035998518375 0 -0.017457342244147023 -0.0016462301899211715 0 -0.017400685673862461 -0.0015436188900724316 0 -0.017457342244147023 -0.0016462301899211715 0 -0.017571196227997556 -0.0015603622714608562 0 -0.017400685673862461 -0.0015436188900724316 0 -0.017457342244147023 -0.0016462301899211715 0 -0.017648481383335423 -0.0016036019480566888 0 -0.017571196227997556 -0.0015603622714608562 0 -0.01756470953555998 -0.0016774999448733413 0 -0.017457342244147023 -0.0016462301899211715 0 -0.017648481383335423 -0.0016036019480566888 0 -0.017648481383335423 -0.0016036019480566888 0 -0.017773132932380867 -0.0015435160989556837 0 -0.017715684082693296 -0.0016175005004811125 0 -0.01756470953555998 -0.0016774999448733413 0 -0.017648481383335423 -0.0016036019480566888 0 -0.017715684082693296 -0.0016175005004811125 0 -0.017648481383335423 -0.0016036019480566888 0 -0.017773132932380867 -0.0015435160989556837 0 -0.017571196227997556 -0.0015603622714608562 0 -0.017705570378625808 -0.0014689172166309421 0 -0.017612852057279998 -0.0013746270039756915 0 -0.017877491685865887 -0.0013951051379896054 0 -0.017773132932380867 -0.0015435160989556837 0 -0.017571196227997556 -0.0015603622714608562 0 -0.017705570378625808 -0.0014689172166309421 0 -0.017773132932380867 -0.0015435160989556837 0 -0.017705570378625808 -0.0014689172166309421 0 -0.017877491685865887 -0.0013951051379896054 0 -0.017571196227997556 -0.0015603622714608562 0 -0.017705570378625808 -0.0014689172166309421 0 -0.017612852057279998 -0.0013746270039756915 0 -0.017287014659217708 -0.0014363774332795006 0 -0.017612852057279998 -0.0013746270039756915 0 -0.017400685673862461 -0.0015436188900724316 0 -0.017571196227997556 -0.0015603622714608562 0 -0.017612852057279998 -0.0013746270039756915 0 -0.017400685673862461 -0.0015436188900724316 0 -0.018147541326084426 -0.001567322726577908 0 -0.018057581365821664 -0.0014500487237063702 0 -0.017986287579689116 -0.0015525161733103748 0 -0.018057581365821664 -0.0014500487237063702 0 -0.017877491685865887 -0.0013951051379896054 0 -0.017986287579689116 -0.0015525161733103748 0 -0.017773132932380867 -0.0015435160989556837 0 -0.017877491685865887 -0.0013951051379896054 0 -0.017986287579689116 -0.0015525161733103748 0 -0.017773132932380867 -0.0015435160989556837 0 -0.017864447156031589 -0.0015755002800171784 0 -0.017986287579689116 -0.0015525161733103748 0 -0.017773132932380867 -0.0015435160989556837 0 -0.017864447156031589 -0.0015755002800171784 0 -0.017715684082693296 -0.0016175005004811125 0 -0.017864447156031589 -0.0015755002800171784 0 -0.017986287579689116 -0.0015525161733103748 0 -0.017988329558281752 -0.0015725599178942906 0 -0.018147541326084426 -0.001567322726577908 0 -0.017986287579689116 -0.0015525161733103748 0 -0.018077495696365051 -0.0016327737669115181 0 -0.017986287579689116 -0.0015525161733103748 0 -0.017988329558281752 -0.0015725599178942906 0 -0.018077495696365051 -0.0016327737669115181 0 -0.017988329558281752 -0.0015725599178942906 0 -0.018072858962500944 -0.0015515775942820276 0 -0.018077495696365051 -0.0016327737669115181 0 -0.017988329558281752 -0.0015725599178942906 0 -0.017992308361712325 -0.0014927751739936958 0 -0.018072858962500944 -0.0015515775942820276 0 -0.017988329558281752 -0.0015725599178942906 0 -0.017992308361712325 -0.0014927751739936958 0 -0.017841696933528994 -0.001570778542187746 0 -0.017992308361712325 -0.0014927751739936958 0 -0.017841696933528994 -0.001570778542187746 0 -0.017696566183915186 -0.0015569764102149131 0 -0.017992308361712325 -0.0014927751739936958 0 -0.018091934138693942 -0.0014179308410165155 0 -0.018072858962500944 -0.0015515775942820276 0 -0.017715684082693296 -0.0016175005004811125 0 -0.017841696933528994 -0.001570778542187746 0 -0.017690507039428028 -0.0016268670653377235 0 -0.017864447156031589 -0.0015755002800171784 0 -0.017715684082693296 -0.0016175005004811125 0 -0.017841696933528994 -0.001570778542187746 0 -0.017864447156031589 -0.0015755002800171784 0 -0.017988329558281752 -0.0015725599178942906 0 -0.017841696933528994 -0.001570778542187746 0 -0.017841696933528994 -0.001570778542187746 0 -0.017690507039428028 -0.0016268670653377235 0 -0.017696566183915186 -0.0015569764102149131 0 -0.017557710857304808 -0.0016922787337781749 0 -0.017690507039428028 -0.0016268670653377235 0 -0.017696566183915186 -0.0015569764102149131 0 -0.017557710857304808 -0.0016922787337781749 0 -0.01750542729785759 -0.0016519051778006962 0 -0.017696566183915186 -0.0015569764102149131 0 -0.017504200863078287 -0.0017149764212738199 0 -0.017557710857304808 -0.0016922787337781749 0 -0.01750542729785759 -0.0016519051778006962 0 -0.017696566183915186 -0.0015569764102149131 0 -0.017288872640808136 -0.0015767180852818067 0 -0.017899243098022308 -0.001490344196057669 0 -0.01750542729785759 -0.0016519051778006962 0 -0.017696566183915186 -0.0015569764102149131 0 -0.017288872640808136 -0.0015767180852818067 0 -0.017504200863078287 -0.0017149764212738199 0 -0.01750542729785759 -0.0016519051778006962 0 -0.017288872640808136 -0.0015767180852818067 0 -0.017992308361712325 -0.0014927751739936958 0 -0.018040147977140427 -0.0014482339414526721 0 -0.018091934138693942 -0.0014179308410165155 0 -0.017992308361712325 -0.0014927751739936958 0 -0.017696566183915186 -0.0015569764102149131 0 -0.017899243098022308 -0.001490344196057669 0 -0.017992308361712325 -0.0014927751739936958 0 -0.018040147977140427 -0.0014482339414526721 0 -0.017899243098022308 -0.001490344196057669 0 -0.017288872640808136 -0.0015767180852818067 0 -0.017899243098022308 -0.001490344196057669 0 -0.018169445041788912 -0.0018363214420982637 0 -0.017899243098022308 -0.001490344196057669 0 -0.01813018266606866 -0.0014507572173321501 0 -0.018169445041788912 -0.0018363214420982637 0 -0.018040147977140427 -0.0014482339414526721 0 -0.01813018266606866 -0.0014507572173321501 0 -0.018111384779961794 -0.0013147483897971541 0 -0.018040147977140427 -0.0014482339414526721 0 -0.017899243098022308 -0.001490344196057669 0 -0.01813018266606866 -0.0014507572173321501 0 -0.01813018266606866 -0.0014507572173321501 0 -0.018111384779961794 -0.0013147483897971541 0 -0.01802880708228664 -0.00073763122599798485 0 -0.018111384779961794 -0.0013147483897971541 0 -0.018030095573674996 -0.0011441014251511441 0 -0.01802880708228664 -0.00073763122599798485 0 -0.018030095573674996 -0.0011441014251511441 0 -0.018091934138693942 -0.0014179308410165155 0 -0.018011531869221338 -0.0014604992620968866 0 -0.018111384779961794 -0.0013147483897971541 0 -0.018030095573674996 -0.0011441014251511441 0 -0.018091934138693942 -0.0014179308410165155 0 -0.018040147977140427 -0.0014482339414526721 0 -0.018111384779961794 -0.0013147483897971541 0 -0.018091934138693942 -0.0014179308410165155 0 -0.018091934138693942 -0.0014179308410165155 0 -0.018072858962500944 -0.0015515775942820276 0 -0.018011531869221338 -0.0014604992620968866 0 -0.018072858962500944 -0.0015515775942820276 0 -0.018011531869221338 -0.0014604992620968866 0 -0.018041992172201853 -0.0017371372057467837 0 -0.017836279068665986 -0.0018745437076349567 0 -0.018011531869221338 -0.0014604992620968866 0 -0.017422626863697385 -0.0012884301216014584 0 -0.017836279068665986 -0.0018745437076349567 0 -0.018011531869221338 -0.0014604992620968866 0 -0.018041992172201853 -0.0017371372057467837 0 -0.018011531869221338 -0.0014604992620968866 0 -0.017745787943221319 -0.00090940178363148588 0 -0.017422626863697385 -0.0012884301216014584 0 -0.018030095573674996 -0.0011441014251511441 0 -0.018011531869221338 -0.0014604992620968866 0 -0.017745787943221319 -0.00090940178363148588 0 -0.018030095573674996 -0.0011441014251511441 0 -0.017745787943221319 -0.00090940178363148588 0 -0.01802880708228664 -0.00073763122599798485 0 -0.017745787943221319 -0.00090940178363148588 0 -0.017422626863697385 -0.0012884301216014584 0 -0.016611537075425512 0.00064174005580639501 0 -0.017422626863697385 -0.0012884301216014584 0 -0.016273025211129874 -0.00095377834733127785 0 -0.016611537075425512 0.00064174005580639501 0 -0.016273025211129874 -0.00095377834733127785 0 -0.013080980356948647 0.0017050632922472882 0 -0.016611537075425512 0.00064174005580639501 0 -0.016273025211129874 -0.00095377834733127785 0 -0.013919977884471579 -0.0013925234994949444 0 -0.013080980356948647 0.0017050632922472882 0 -0.017125606288318176 -0.0022973019693621802 0 -0.01425727109403372 -0.0037331999310295512 0 -0.013919977884471579 -0.0013925234994949444 0 -0.016273025211129874 -0.00095377834733127785 0 -0.017125606288318176 -0.0022973019693621802 0 -0.013919977884471579 -0.0013925234994949444 0 -0.017836279068665986 -0.0018745437076349567 0 -0.017422626863697385 -0.0012884301216014584 0 -0.017125606288318176 -0.0022973019693621802 0 -0.017422626863697385 -0.0012884301216014584 0 -0.016273025211129874 -0.00095377834733127785 0 -0.017125606288318176 -0.0022973019693621802 0 -0.017836279068665986 -0.0018745437076349567 0 -0.017125606288318176 -0.0022973019693621802 0 -0.017768003124470737 -0.0020010280121024043 0 -0.017279430530560833 -0.0023601764529161788 0 -0.017191242652418164 -0.0036635466577237172 0 -0.017125606288318176 -0.0022973019693621802 0 -0.017768003124470737 -0.0020010280121024043 0 -0.018194935973944434 -0.0018982021259398411 0 -0.017768003124470737 -0.0020010280121024043 0 -0.018194935973944434 -0.0018982021259398411 0 -0.018156712937182479 -0.0017793809762335544 0 -0.017768003124470737 -0.0020010280121024043 0 -0.018156712937182479 -0.0017793809762335544 0 -0.018096771952716594 -0.0017910100549035485 0 -0.017125606288318176 -0.0022973019693621802 0 -0.01425727109403372 -0.0037331999310295512 0 -0.016359298981177276 -0.005272966608658983 0 -0.01425727109403372 -0.0037331999310295512 0 -0.016359298981177276 -0.005272966608658983 0 -0.014267622369815974 -0.006149149885988768 0 -0.018194935973944434 -0.0018982021259398411 0 -0.018559238283483475 -0.0016290277331567828 0 -0.01848268061472132 -0.0016248200076843099 0 -0.017191242652418164 -0.0036635466577237172 0 -0.017017581464437923 -0.0037760957507969703 0 -0.016359298981177276 -0.005272966608658983 0 -0.014267622369815974 -0.006149149885988768 0 -0.015582385831469493 -0.0078722467426795822 0 -0.017017581464437923 -0.0037760957507969703 0 -0.018482668398975752 -0.0027968059939402598 0 -0.017017581464437923 -0.0037760957507969703 0 -0.014433582107199638 -0.0056072710374667689 0 -0.014267622369815974 -0.006149149885988768 0 -0.015582385831469493 -0.0078722467426795822 0 -0.013199973721662435 -0.0080357889494742426 0 -0.018194935973944434 -0.0018982021259398411 0 -0.018156712937182479 -0.0017793809762335544 0 -0.01848268061472132 -0.0016248200076843099 0 -0.018156712937182479 -0.0017793809762335544 0 -0.018374682061146629 -0.0016379250175423299 0 -0.018096771952716594 -0.0017910100549035485 0 -0.018156712937182479 -0.0017793809762335544 0 -0.01848268061472132 -0.0016248200076843099 0 -0.018374682061146629 -0.0016379250175423299 0 -0.018096771952716594 -0.0017910100549035485 0 -0.018177834722669612 -0.0016646408511077173 0 -0.018395444521999073 -0.0015619484740124648 0 -0.018374682061146629 -0.0016379250175423299 0 -0.018096771952716594 -0.0017910100549035485 0 -0.018395444521999073 -0.0015619484740124648 0 -0.018177834722669612 -0.0016646408511077173 0 -0.018375014157979073 -0.0014633463192078836 0 -0.018395444521999073 -0.0015619484740124648 0 -0.018147541326084426 -0.001567322726577908 0 -0.018177834722669612 -0.0016646408511077173 0 -0.018375014157979073 -0.0014633463192078836 0 -0.018147541326084426 -0.001567322726577908 0 -0.018177834722669612 -0.0016646408511077173 0 -0.018077495696365051 -0.0016327737669115181 0 -0.018177834722669612 -0.0016646408511077173 0 -0.018077495696365051 -0.0016327737669115181 0 -0.018041992172201853 -0.0017371372057467837 0 -0.018072858962500944 -0.0015515775942820276 0 -0.018077495696365051 -0.0016327737669115181 0 -0.018041992172201853 -0.0017371372057467837 0 -0.017836279068665986 -0.0018745437076349567 0 -0.018096771952716594 -0.0017910100549035485 0 -0.018041992172201853 -0.0017371372057467837 0 -0.018096771952716594 -0.0017910100549035485 0 -0.018177834722669612 -0.0016646408511077173 0 -0.018041992172201853 -0.0017371372057467837 0 -0.017836279068665986 -0.0018745437076349567 0 -0.017768003124470737 -0.0020010280121024043 0 -0.018096771952716594 -0.0017910100549035485 0 -0.0050666034041810413 -0.0032119295684423133 0 -0.0063687139173103143 0.00044714178674825077 0 -0.0083732509063343119 -0.0015824820107545607 0 -0.0063687139173103143 0.00044714178674825077 0 -0.0085720923097923687 0.00025354355068557565 0 -0.0083732509063343119 -0.0015824820107545607 0 -0.0085720923097923687 0.00025354355068557565 0 -0.01082758104913417 -1.9736993960185143e-05 0 -0.0087049773339024951 0.0022342623217250536 0 -0.0085720923097923687 0.00025354355068557565 0 -0.0083732509063343119 -0.0015824820107545607 0 -0.01082758104913417 -1.9736993960185143e-05 0 -0.0050666034041810413 -0.0032119295684423133 0 -0.0083732509063343119 -0.0015824820107545607 0 -0.0089858624908695124 -0.0040379008327834486 0 -0.0083732509063343119 -0.0015824820107545607 0 -0.011593762950066627 -0.0030989574859732272 0 -0.01082758104913417 -1.9736993960185143e-05 0 -0.0083732509063343119 -0.0015824820107545607 0 -0.011593762950066627 -0.0030989574859732272 0 -0.0089858624908695124 -0.0040379008327834486 0 -0.01082758104913417 -1.9736993960185143e-05 0 -0.013919977884471579 -0.0013925234994949444 0 -0.013080980356948647 0.0017050632922472882 0 -0.01425727109403372 -0.0037331999310295512 0 -0.011593762950066627 -0.0030989574859732272 0 -0.013919977884471579 -0.0013925234994949444 0 -0.011593762950066627 -0.0030989574859732272 0 -0.01082758104913417 -1.9736993960185143e-05 0 -0.013919977884471579 -0.0013925234994949444 0 -0.01425727109403372 -0.0037331999310295512 0 -0.011593762950066627 -0.0030989574859732272 0 -0.011506485117535848 -0.0056447196049458689 0 -0.01425727109403372 -0.0037331999310295512 0 -0.014267622369815974 -0.006149149885988768 0 -0.011506485117535848 -0.0056447196049458689 0 -0.014267622369815974 -0.006149149885988768 0 -0.013199973721662435 -0.0080357889494742426 0 -0.011506485117535848 -0.0056447196049458689 0 -0.011506485117535848 -0.0056447196049458689 0 -0.0074716204909916536 -0.0062265101046006721 0 -0.010870643921347106 -0.0081969213147500466 0 -0.013199973721662435 -0.0080357889494742426 0 -0.011506485117535848 -0.0056447196049458689 0 -0.010870643921347106 -0.0081969213147500466 0 -0.011593762950066627 -0.0030989574859732272 0 -0.011506485117535848 -0.0056447196049458689 0 -0.0089858624908695124 -0.0040379008327834486 0 -0.011506485117535848 -0.0056447196049458689 0 -0.0089858624908695124 -0.0040379008327834486 0 -0.0074716204909916536 -0.0062265101046006721 0 -0.013313079185997109 -0.0021105177738152199 0 -0.014844650774460446 -0.0040269790382343471 0 -0.016374393216256441 -0.0039243555795601516 0 -0.011821871401729668 -0.0028955267954848319 0 -0.015700538688442685 -0.0040774979238845897 0 -0.014013878639202105 -0.0016618486583042786 0 -0.013341780573353708 -0.0027631576424769688 0 -0.014853378520797109 -0.0026715409670438478 0 -0.011821871401729668 -0.0028955267954848319 0 -0.017861372133096895 -0.002059326690187155 0 -0.012586592704854276 -0.0019065772940364747 0 -0.014013878639202105 -0.0016618486583042786 0 -0.013341780573353708 -0.0027631576424769688 0 -0.012586592704854276 -0.0019065772940364747 0 -0.014013878639202105 -0.0016618486583042786 0 -0.012762626765513067 -0.00097863298035582853 0 -0.011821871401729668 -0.0028955267954848319 0 -0.013317198207593986 -0.0011031097454415651 0 -0.0050666034041810413 -0.0032119295684423133 0 -0.0089858624908695124 -0.0040379008327834486 0 -0.0074716204909916536 -0.0062265101046006721 0 -0.0088629245394622105 -0.0019423583902875806 0 -0.011821871401729668 -0.0028955267954848319 0 -0.012811580767986433 -0.00034630321749317794 0 -0.013755532203094436 -0.0016241408850749778 0 -0.012762626765513067 -0.00097863298035582853 0 -0.020417908963359266 -0.00078349364557539101 0 -0.020360335426900401 -0.00079247897820579794 0 -0.020384411669805674 -0.00080883207105803565 0 -0.020417908963359266 -0.00078349364557539101 0 -0.020360335426900401 -0.00079247897820579794 0 -0.020306778261307421 -0.00077951574286135115 0 -0.020360335426900401 -0.00079247897820579794 0 -0.020306778261307421 -0.00077951574286135115 0 -0.020317077382763407 -0.00072830974815142071 0 -0.020229763333961946 -0.00072419479787097724 0 -0.020306778261307421 -0.00077951574286135115 0 -0.020317077382763407 -0.00072830974815142071 0 -0.020360335426900401 -0.00079247897820579794 0 -0.020317077382763407 -0.00072830974815142071 0 -0.020362728750893882 -0.00079953024805755953 0 -0.016712205204963571 -0.0017632577708947851 0 -0.017861372133096895 -0.002059326690187155 0 -0.020317077382763407 -0.00072830974815142071 0 -0.020362728750893882 -0.00079953024805755953 0 -0.020368457866378004 -0.00081107566314219434 0 -0.020362728750893882 -0.00079953024805755953 0 -0.020368457866378004 -0.00081107566314219434 0 -0.020358489045437172 -0.00083074363357206135 0 -0.020360335426900401 -0.00079247897820579794 0 -0.020362728750893882 -0.00079953024805755953 0 -0.020384411669805674 -0.00080883207105803565 0 -0.020362728750893882 -0.00079953024805755953 0 -0.020358489045437172 -0.00083074363357206135 0 -0.020384411669805674 -0.00080883207105803565 0 -0.020417908963359266 -0.00078349364557539101 0 -0.020384411669805674 -0.00080883207105803565 0 -0.020432692570439753 -0.0007647693654835076 0 -0.020358489045437172 -0.00083074363357206135 0 -0.020384411669805674 -0.00080883207105803565 0 -0.020369130894704324 -0.00081633774213850591 0 -0.020384411669805674 -0.00080883207105803565 0 -0.020369130894704324 -0.00081633774213850591 0 -0.020432692570439753 -0.0007647693654835076 0 -0.020358489045437172 -0.00083074363357206135 0 -0.020369130894704324 -0.00081633774213850591 0 -0.02026616417098092 -0.0008906157245582555 0 -0.020368457866378004 -0.00081107566314219434 0 -0.020358489045437172 -0.00083074363357206135 0 -0.02026616417098092 -0.0008906157245582555 0 -0.02023722355116651 -0.00098526574545597075 0 -0.020228723861878774 -0.00098128443384390396 0 -0.02026616417098092 -0.0008906157245582555 0 -0.017861372133096895 -0.002059326690187155 0 -0.02101335951431799 -0.00062354066723700719 0 -0.017861372133096895 -0.002059326690187155 0 -0.015700538688442685 -0.0040774979238845897 0 -0.020228723861878774 -0.00098128443384390396 0 -0.02026616417098092 -0.0008906157245582555 0 -0.020179803213636736 -0.00093234242999469974 0 -0.016611357069832199 -0.0033547894156402895 0 -0.016191123519196327 -0.0033880594780302006 0 -0.016903546183900893 -0.0037812507229754528 0 -0.015700538688442685 -0.0040774979238845897 0 -0.01910513767175194 -0.0016869854393948627 0 -0.014433582107199638 -0.0056072710374667689 0 -0.015700538688442685 -0.0040774979238845897 0 -0.020415444403411635 -0.00070059013307137831 0 -0.01910513767175194 -0.0016869854393948627 0 -0.02026616417098092 -0.0008906157245582555 0 -0.020183916786536586 -0.00087955841017600418 0 -0.020179803213636736 -0.00093234242999469974 0 -0.020183916786536586 -0.00087955841017600418 0 -0.020219644355355348 -0.00064772191743242037 0 -0.020326565047797937 -0.0007970170571681036 0 -0.02026616417098092 -0.0008906157245582555 0 -0.020183916786536586 -0.00087955841017600418 0 -0.020326565047797937 -0.0007970170571681036 0 -0.020219644355355348 -0.00064772191743242037 0 -0.020426642870807671 -0.0006565929488250963 0 -0.020326565047797937 -0.0007970170571681036 0 -0.020426642870807671 -0.0006565929488250963 0 -0.020407219498460926 -0.00075110074542092072 0 -0.020326565047797937 -0.0007970170571681036 0 -0.020369130894704324 -0.00081633774213850591 0 -0.020407219498460926 -0.00075110074542092072 0 -0.020326565047797937 -0.0007970170571681036 0 -0.020369130894704324 -0.00081633774213850591 0 -0.02026616417098092 -0.0008906157245582555 0 -0.020326565047797937 -0.0007970170571681036 0 -0.020407219498460926 -0.00075110074542092072 0 -0.020432692570439753 -0.0007647693654835076 0 -0.020514114202549706 -0.00065344053348672564 0 -0.020369130894704324 -0.00081633774213850591 0 -0.020407219498460926 -0.00075110074542092072 0 -0.020432692570439753 -0.0007647693654835076 0 -0.020426642870807671 -0.0006565929488250963 0 -0.020407219498460926 -0.00075110074542092072 0 -0.020514114202549706 -0.00065344053348672564 0 -0.020426642870807671 -0.0006565929488250963 0 -0.020514114202549706 -0.00065344053348672564 0 -0.020535272848149308 -0.00057799179738801101 0 -0.020514114202549706 -0.00065344053348672564 0 -0.020583547272651357 -0.00061947557109143128 0 -0.020515490106721369 -0.00070411819821526831 0 -0.020432692570439753 -0.0007647693654835076 0 -0.020514114202549706 -0.00065344053348672564 0 -0.020515490106721369 -0.00070411819821526831 0 -0.020578092599232295 -0.00074697265299208016 0 -0.020417908963359266 -0.00078349364557539101 0 -0.020515490106721369 -0.00070411819821526831 0 -0.020417908963359266 -0.00078349364557539101 0 -0.020432692570439753 -0.0007647693654835076 0 -0.020515490106721369 -0.00070411819821526831 0 -0.018682705626589958 -0.0013295366484630748 0 -0.019101859871836161 -0.0012468405362700708 0 -0.018858191501527836 -0.00091442376010932415 0 -0.018682705626589958 -0.0013295366484630748 0 -0.018501055628475073 -0.0011961403680702807 0 -0.018375014157979073 -0.0014633463192078836 0 -0.018682705626589958 -0.0013295366484630748 0 -0.018501055628475073 -0.0011961403680702807 0 -0.018858191501527836 -0.00091442376010932415 0 -0.018207756585629637 -0.0012879152527847137 0 -0.018147541326084426 -0.001567322726577908 0 -0.018375014157979073 -0.0014633463192078836 0 -0.018207756585629637 -0.0012879152527847137 0 -0.018501055628475073 -0.0011961403680702807 0 -0.018375014157979073 -0.0014633463192078836 0 -0.018682705626589958 -0.0013295366484630748 0 -0.018395444521999073 -0.0015619484740124648 0 -0.018772601926938227 -0.0014071400779411046 0 -0.018682705626589958 -0.0013295366484630748 0 -0.018375014157979073 -0.0014633463192078836 0 -0.018395444521999073 -0.0015619484740124648 0 -0.018374682061146629 -0.0016379250175423299 0 -0.018395444521999073 -0.0015619484740124648 0 -0.018772601926938227 -0.0014071400779411046 0 -0.01848268061472132 -0.0016248200076843099 0 -0.018374682061146629 -0.0016379250175423299 0 -0.018772601926938227 -0.0014071400779411046 0 -0.01848268061472132 -0.0016248200076843099 0 -0.018772601926938227 -0.0014071400779411046 0 -0.01869800278748391 -0.0014766494134327954 0 -0.018714607228643824 -0.001593991564455183 0 -0.01869800278748391 -0.0014766494134327954 0 -0.018762792318951692 -0.0014202819664087358 0 -0.018772601926938227 -0.0014071400779411046 0 -0.01869800278748391 -0.0014766494134327954 0 -0.018762792318951692 -0.0014202819664087358 0 -0.017028887971697843 -0.0033253446409337167 0 -0.016611357069832199 -0.0033547894156402895 0 -0.016903546183900893 -0.0037812507229754528 0 -0.017017581464437923 -0.0037760957507969703 0 -0.01910513767175194 -0.0016869854393948627 0 -0.018714607228643824 -0.001593991564455183 0 -0.01848268061472132 -0.0016248200076843099 0 -0.01869800278748391 -0.0014766494134327954 0 -0.01910513767175194 -0.0016869854393948627 0 -0.019163132515727224 -0.0012553271447742847 0 -0.019956864712758288 -0.0016872646500306681 0 -0.019101859871836161 -0.0012468405362700708 0 -0.019693304940655135 -0.00084393225662821633 0 -0.018682705626589958 -0.0013295366484630748 0 -0.018772601926938227 -0.0014071400779411046 0 -0.019101859871836161 -0.0012468405362700708 0 -0.018772601926938227 -0.0014071400779411046 0 -0.018762792318951692 -0.0014202819664087358 0 -0.019101859871836161 -0.0012468405362700708 0 -0.019101859871836161 -0.0012468405362700708 0 -0.019693304940655135 -0.00084393225662821633 0 -0.019347189128926807 -0.00074185924800891081 0 -0.020183916786536586 -0.00087955841017600418 0 -0.020219644355355348 -0.00064772191743242037 0 -0.019693304940655135 -0.00084393225662821633 0 -0.020183916786536586 -0.00087955841017600418 0 -0.019956864712758288 -0.0016872646500306681 0 -0.019693304940655135 -0.00084393225662821633 0 -0.020219644355355348 -0.00064772191743242037 0 -0.019693304940655135 -0.00084393225662821633 0 -0.019809066735740743 -0.00057010931834607168 0 -0.019693304940655135 -0.00084393225662821633 0 -0.019809066735740743 -0.00057010931834607168 0 -0.019347189128926807 -0.00074185924800891081 0 -0.019809066735740743 -0.00057010931834607168 0 -0.019347189128926807 -0.00074185924800891081 0 -0.019387888981991907 -0.00036976087584000817 0 -0.019347189128926807 -0.00074185924800891081 0 -0.018858191501527836 -0.00091442376010932415 0 -0.019387888981991907 -0.00036976087584000817 0 -0.019101859871836161 -0.0012468405362700708 0 -0.019347189128926807 -0.00074185924800891081 0 -0.018858191501527836 -0.00091442376010932415 0 -0.018356188430450011 -0.00089594791971950413 0 -0.018501055628475073 -0.0011961403680702807 0 -0.018858191501527836 -0.00091442376010932415 0 -0.018356188430450011 -0.00089594791971950413 0 -0.018701364767243212 -0.00056057177654205467 0 -0.018858191501527836 -0.00091442376010932415 0 -0.018701364767243212 -0.00056057177654205467 0 -0.018858191501527836 -0.00091442376010932415 0 -0.019387888981991907 -0.00036976087584000817 0 -0.019274927563602242 0.00035530527865334469 0 -0.019387888981991907 -0.00036976087584000817 0 -0.018618145939159097 2.637574111403519e-05 0 -0.018701364767243212 -0.00056057177654205467 0 -0.019387888981991907 -0.00036976087584000817 0 -0.018618145939159097 2.637574111403519e-05 0 -0.019274927563602242 0.00035530527865334469 0 -0.018618145939159097 2.637574111403519e-05 0 -0.01880726428176259 0.00050446354979125703 0 -0.019827450531180586 -0.00043557018399829032 0 -0.019387888981991907 -0.00036976087584000817 0 -0.019892635401846031 -0.00042859255412550968 0 -0.019827450531180586 -0.00043557018399829032 0 -0.019892635401846031 -0.00042859255412550968 0 -0.020040720190406508 -0.00044066509212821442 0 -0.019534900260032562 -8.9850674994171073e-05 0 -0.019447235621368467 -0.00034749352113905253 0 -0.019809066735740743 -0.00057010931834607168 0 -0.019387888981991907 -0.00036976087584000817 0 -0.019892635401846031 -0.00042859255412550968 0 -0.020219644355355348 -0.00064772191743242037 0 -0.019809066735740743 -0.00057010931834607168 0 -0.020272464090412265 -0.00047408005141922336 0 -0.019809066735740743 -0.00057010931834607168 0 -0.020272464090412265 -0.00047408005141922336 0 -0.019892635401846031 -0.00042859255412550968 0 -0.020272464090412265 -0.00047408005141922336 0 -0.019892635401846031 -0.00042859255412550968 0 -0.020274858854029732 -0.0004366222883161823 0 -0.020274858854029732 -0.0004366222883161823 0 -0.02029286976519348 -0.00040723014370551425 0 -0.020040720190406508 -0.00044066509212821442 0 -0.019892635401846031 -0.00042859255412550968 0 -0.020274858854029732 -0.0004366222883161823 0 -0.020040720190406508 -0.00044066509212821442 0 -0.020274858854029732 -0.0004366222883161823 0 -0.020653137746319584 -0.00042832006858322644 0 -0.020528291686092184 -0.000452164462816992 0 -0.020272464090412265 -0.00047408005141922336 0 -0.020274858854029732 -0.0004366222883161823 0 -0.020528291686092184 -0.000452164462816992 0 -0.020274858854029732 -0.0004366222883161823 0 -0.020653137746319584 -0.00042832006858322644 0 -0.02029286976519348 -0.00040723014370551425 0 -0.020417832062822553 -0.0005228463576148739 0 -0.019700099920826827 3.1031359782574719e-05 0 -0.02029286976519348 -0.00040723014370551425 0 -0.019956158262880198 -0.00043621702077848513 0 -0.019915977307077982 -0.00022252073706962208 0 -0.019133904533752313 0.00086640420194581303 0 -0.019026325893977496 0.001277029741194805 0 -0.018821857882128572 0.0010653558725386666 0 -0.019511105387714923 0.00031490905135741912 0 -0.019700099920826827 3.1031359782574719e-05 0 -0.019133904533752313 0.00086640420194581303 0 -0.018745682912357214 0.00082547505914299388 0 -0.01880726428176259 0.00050446354979125703 0 -0.019534900260032562 -8.9850674994171073e-05 0 -0.019511105387714923 0.00031490905135741912 0 -0.019133904533752313 0.00086640420194581303 0 -0.018821857882128572 0.0010653558725386666 0 -0.018745682912357214 0.00082547505914299388 0 -0.019274927563602242 0.00035530527865334469 0 -0.019133904533752313 0.00086640420194581303 0 -0.01880726428176259 0.00050446354979125703 0 -0.02029286976519348 -0.00040723014370551425 0 -0.019956158262880198 -0.00043621702077848513 0 -0.020040720190406508 -0.00044066509212821442 0 -0.019827450531180586 -0.00043557018399829032 0 -0.019956158262880198 -0.00043621702077848513 0 -0.020040720190406508 -0.00044066509212821442 0 -0.02069603792111616 -0.00046673055438324612 0 -0.020623803629349412 -0.00053518734768908858 0 -0.020634695531591144 -0.00049539339741339202 0 -0.020686425833738153 -0.00047523678170284013 0 -0.02069603792111616 -0.00046673055438324612 0 -0.020623803629349412 -0.00053518734768908858 0 -0.020514114202549706 -0.00065344053348672564 0 -0.020583547272651357 -0.00061947557109143128 0 -0.020623803629349412 -0.00053518734768908858 0 -0.020514114202549706 -0.00065344053348672564 0 -0.020623803629349412 -0.00053518734768908858 0 -0.020535272848149308 -0.00057799179738801101 0 -0.020623803629349412 -0.00053518734768908858 0 -0.020535272848149308 -0.00057799179738801101 0 -0.020634695531591144 -0.00049539339741339202 0 -0.020634695531591144 -0.00049539339741339202 0 -0.020469315659014688 -0.00054202577377052748 0 -0.020645084079691435 -0.00046529018461838816 0 -0.020219644355355348 -0.00064772191743242037 0 -0.020426642870807671 -0.0006565929488250963 0 -0.020469315659014688 -0.00054202577377052748 0 -0.020426642870807671 -0.0006565929488250963 0 -0.020535272848149308 -0.00057799179738801101 0 -0.020469315659014688 -0.00054202577377052748 0 -0.020535272848149308 -0.00057799179738801101 0 -0.020634695531591144 -0.00049539339741339202 0 -0.020469315659014688 -0.00054202577377052748 0 -0.020219644355355348 -0.00064772191743242037 0 -0.020272464090412265 -0.00047408005141922336 0 -0.020469315659014688 -0.00054202577377052748 0 -0.020272464090412265 -0.00047408005141922336 0 -0.020469315659014688 -0.00054202577377052748 0 -0.020645084079691435 -0.00046529018461838816 0 -0.020272464090412265 -0.00047408005141922336 0 -0.020528291686092184 -0.000452164462816992 0 -0.020645084079691435 -0.00046529018461838816 0 -0.020528291686092184 -0.000452164462816992 0 -0.020857451366070822 -0.00045327675897283701 0 -0.020645084079691435 -0.00046529018461838816 0 -0.020653137746319584 -0.00042832006858322644 0 -0.020528291686092184 -0.000452164462816992 0 -0.020857451366070822 -0.00045327675897283701 0 -0.020857451366070822 -0.00045327675897283701 0 -0.020645084079691435 -0.00046529018461838816 0 -0.02079372891322925 -0.00045361918855038277 0 -0.020634695531591144 -0.00049539339741339202 0 -0.020645084079691435 -0.00046529018461838816 0 -0.02079372891322925 -0.00045361918855038277 0 -0.02069603792111616 -0.00046673055438324612 0 -0.020634695531591144 -0.00049539339741339202 0 -0.02079372891322925 -0.00045361918855038277 0 -0.02079372891322925 -0.00045361918855038277 0 -0.020746247291488926 -0.00044614217082624802 0 -0.020992498667855485 -0.0004730290525328956 0 -0.020857451366070822 -0.00045327675897283701 0 -0.02079372891322925 -0.00045361918855038277 0 -0.020992498667855485 -0.0004730290525328956 0 -0.020745945573109856 -0.00054405445868155235 0 -0.020746247291488926 -0.00044614217082624802 0 -0.020992498667855485 -0.0004730290525328956 0 -0.02069603792111616 -0.00046673055438324612 0 -0.02079372891322925 -0.00045361918855038277 0 -0.020746247291488926 -0.00044614217082624802 0 -0.020686425833738153 -0.00047523678170284013 0 -0.02069603792111616 -0.00046673055438324612 0 -0.020746247291488926 -0.00044614217082624802 0 -0.022697356821341944 -0.00020248304084305614 0 -0.022510795085788515 -0.00058253309266937856 0 -0.023011226004932314 -0.0008879896982471161 0 -0.021373133087675977 -0.00048410642791923975 0 -0.022171101441084053 -0.00064031453420724388 0 -0.021373133087675977 -0.00048410642791923975 0 -0.020838264589316473 -0.0005048575992721671 0 -0.021231246671595327 -0.00049713368104278377 0 -0.021245970859033292 -0.00044496153764447507 0 -0.020992498667855485 -0.0004730290525328956 0 -0.021245970859033292 -0.00044496153764447507 0 -0.020992498667855485 -0.0004730290525328956 0 -0.021327803006699311 -0.00044827564065110312 0 -0.021245970859033292 -0.00044496153764447507 0 -0.021327803006699311 -0.00044827564065110312 0 -0.021996253509766219 -0.00062967614884818998 0 -0.021327803006699311 -0.00044827564065110312 0 -0.021192534718460776 -0.00031621543998099181 0 -0.021534982466536425 -0.00043969157061045209 0 -0.020857451366070822 -0.00045327675897283701 0 -0.021327803006699311 -0.00044827564065110312 0 -0.020951281580549621 -0.00041590858892392741 0 -0.020857451366070822 -0.00045327675897283701 0 -0.020992498667855485 -0.0004730290525328956 0 -0.021327803006699311 -0.00044827564065110312 0 -0.020653137746319584 -0.00042832006858322644 0 -0.020857451366070822 -0.00045327675897283701 0 -0.020951281580549621 -0.00041590858892392741 0 -0.021327803006699311 -0.00044827564065110312 0 -0.020951281580549621 -0.00041590858892392741 0 -0.021192534718460776 -0.00031621543998099181 0 -0.020951281580549621 -0.00041590858892392741 0 -0.021192534718460776 -0.00031621543998099181 0 -0.020701192271141092 -0.00034713613387811774 0 -0.021192534718460776 -0.00031621543998099181 0 -0.021303902395565382 -3.0742978406261023e-05 0 -0.021465477478171586 -0.00022949227023988196 0 -0.021192534718460776 -0.00031621543998099181 0 -0.021303902395565382 -3.0742978406261023e-05 0 -0.020930769280587409 -0.00015654030808659916 0 -0.021192534718460776 -0.00031621543998099181 0 -0.021465477478171586 -0.00022949227023988196 0 -0.021534982466536425 -0.00043969157061045209 0 -0.021303902395565382 -3.0742978406261023e-05 0 -0.021469546613950251 0.00021476023112826088 0 -0.021311233518363708 0.00025203112654496618 0 -0.021303902395565382 -3.0742978406261023e-05 0 -0.021469546613950251 0.00021476023112826088 0 -0.021575562541522725 8.506057100707151e-06 0 -0.021469546613950251 0.00021476023112826088 0 -0.021575562541522725 8.506057100707151e-06 0 -0.021636495066994017 0.00034357603873847955 0 -0.021303902395565382 -3.0742978406261023e-05 0 -0.021575562541522725 8.506057100707151e-06 0 -0.021465477478171586 -0.00022949227023988196 0 -0.021575562541522725 8.506057100707151e-06 0 -0.021746314398680994 -0.00025587010628392757 0 -0.021465477478171586 -0.00022949227023988196 0 -0.021746314398680994 -0.00025587010628392757 0 -0.022153280937909848 -0.00020009355198852849 0 -0.021885420899756924 0.00015328298649839922 0 -0.021575562541522725 8.506057100707151e-06 0 -0.021746314398680994 -0.00025587010628392757 0 -0.021885420899756924 0.00015328298649839922 0 -0.021746314398680994 -0.00025587010628392757 0 -0.021534982466536425 -0.00043969157061045209 0 -0.021996253509766219 -0.00062967614884818998 0 -0.021327803006699311 -0.00044827564065110312 0 -0.021534982466536425 -0.00043969157061045209 0 -0.021996253509766219 -0.00062967614884818998 0 -0.021746314398680994 -0.00025587010628392757 0 -0.021465477478171586 -0.00022949227023988196 0 -0.021534982466536425 -0.00043969157061045209 0 -0.021996253509766219 -0.00062967614884818998 0 -0.022787197872806784 -0.00070166288607816823 0 -0.023042380688070418 -0.00088288641188598901 0 -0.022171101441084053 -0.00064031453420724388 0 -0.021954255225369916 -0.00056444177287513222 0 -0.023011226004932314 -0.0008879896982471161 0 -0.021996253509766219 -0.00062967614884818998 0 -0.023042380688070418 -0.00088288641188598901 0 -0.021996253509766219 -0.00062967614884818998 0 -0.022153280937909848 -0.00020009355198852849 0 -0.022787197872806784 -0.00070166288607816823 0 -0.021746314398680994 -0.00025587010628392757 0 -0.021996253509766219 -0.00062967614884818998 0 -0.022153280937909848 -0.00020009355198852849 0 -0.022787197872806784 -0.00070166288607816823 0 -0.023293975581304135 -0.00099263403179109498 0 -0.024253564397173674 -0.0013873626181482412 0 -0.022153280937909848 -0.00020009355198852849 0 -0.022787197872806784 -0.00070166288607816823 0 -0.022351130341937794 0.00035911020318426542 0 -0.022904238004749035 -0.0008575962981403765 0 -0.023215321447363126 -0.00049886849932247862 0 -0.023257570251805838 -0.0014263092998104156 0 -0.023339581644368383 -0.0010901076850478738 0 -0.024120182504995771 -0.0012623820881898591 0 -0.023293975581304135 -0.00099263403179109498 0 -0.023942670558910688 -0.0012623002328485374 0 -0.022469580798208662 -0.0016865648567363097 0 -0.023293975581304135 -0.00099263403179109498 0 -0.022852514269296235 -0.0010724553676874932 0 -0.023293975581304135 -0.00099263403179109498 0 -0.023942670558910688 -0.0012623002328485374 0 -0.024253564397173674 -0.0013873626181482412 0 -0.023293975581304135 -0.00099263403179109498 0 -0.022852514269296235 -0.0010724553676874932 0 -0.023042380688070418 -0.00088288641188598901 0 -0.022596686327489058 -0.00091121902804660346 0 -0.022852514269296235 -0.0010724553676874932 0 -0.023042380688070418 -0.00088288641188598901 0 -0.022596686327489058 -0.00091121902804660346 0 -0.023011226004932314 -0.0008879896982471161 0 -0.023042380688070418 -0.00088288641188598901 0 -0.022787197872806784 -0.00070166288607816823 0 -0.023293975581304135 -0.00099263403179109498 0 -0.023042380688070418 -0.00088288641188598901 0 -0.020104941106773112 -0.00021060529318605133 0 -0.02031012084582139 -0.00036025731985355429 0 -0.020295019764678249 -0.00010941884272412155 0 -0.02031012084582139 -0.00036025731985355429 0 -0.020564052661350182 -0.00020436125689940089 0 -0.020295019764678249 -0.00010941884272412155 0 -0.020104941106773112 -0.00021060529318605133 0 -0.020012622928771987 -0.00037078316539297841 0 -0.02031012084582139 -0.00036025731985355429 0 -0.020104941106773112 -0.00021060529318605133 0 -0.020012622928771987 -0.00037078316539297841 0 -0.019898759272932991 -0.00017684596555259276 0 -0.020012622928771987 -0.00037078316539297841 0 -0.020116936228125982 -0.00048103175882968191 0 -0.02031012084582139 -0.00036025731985355429 0 -0.020012622928771987 -0.00037078316539297841 0 -0.020058511447815678 -0.00068365142026472348 0 -0.019856193570556811 -0.00048434620640738562 0 -0.020036746912658047 -0.00057778190659491684 0 -0.019700099920826827 3.1031359782574719e-05 0 -0.02029286976519348 -0.00040723014370551425 0 -0.020116936228125982 -0.00048103175882968191 0 -0.02031012084582139 -0.00036025731985355429 0 -0.02029286976519348 -0.00040723014370551425 0 -0.02031012084582139 -0.00036025731985355429 0 -0.020701192271141092 -0.00034713613387811774 0 -0.020653137746319584 -0.00042832006858322644 0 -0.02029286976519348 -0.00040723014370551425 0 -0.020701192271141092 -0.00034713613387811774 0 -0.020653137746319584 -0.00042832006858322644 0 -0.020951281580549621 -0.00041590858892392741 0 -0.020701192271141092 -0.00034713613387811774 0 -0.021192534718460776 -0.00031621543998099181 0 -0.020701192271141092 -0.00034713613387811774 0 -0.020930769280587409 -0.00015654030808659916 0 -0.020701192271141092 -0.00034713613387811774 0 -0.020564052661350182 -0.00020436125689940089 0 -0.020930769280587409 -0.00015654030808659916 0 -0.02031012084582139 -0.00036025731985355429 0 -0.020701192271141092 -0.00034713613387811774 0 -0.020564052661350182 -0.00020436125689940089 0 -0.020564052661350182 -0.00020436125689940089 0 -0.020752353851675915 -2.5512927635234986e-05 0 -0.020930769280587409 -0.00015654030808659916 0 -0.020564052661350182 -0.00020436125689940089 0 -0.020752353851675915 -2.5512927635234986e-05 0 -0.020510910988662222 -3.3432198046218699e-06 0 -0.020752353851675915 -2.5512927635234986e-05 0 -0.020603779630094368 0.00022134939689503038 0 -0.020510910988662222 -3.3432198046218699e-06 0 -0.020752353851675915 -2.5512927635234986e-05 0 -0.020930769280587409 -0.00015654030808659916 0 -0.0210868952315456 7.6015845574524106e-05 0 -0.021303902395565382 -3.0742978406261023e-05 0 -0.020930769280587409 -0.00015654030808659916 0 -0.0210868952315456 7.6015845574524106e-05 0 -0.021303902395565382 -3.0742978406261023e-05 0 -0.0210868952315456 7.6015845574524106e-05 0 -0.021311233518363708 0.00025203112654496618 0 -0.0210868952315456 7.6015845574524106e-05 0 -0.021150750871176172 0.00032133999225403579 0 -0.020892203778214491 0.00025187392452294562 0 -0.0210868952315456 7.6015845574524106e-05 0 -0.021150750871176172 0.00032133999225403579 0 -0.021311233518363708 0.00025203112654496618 0 -0.020752353851675915 -2.5512927635234986e-05 0 -0.020892203778214491 0.00025187392452294562 0 -0.020603779630094368 0.00022134939689503038 0 -0.020752353851675915 -2.5512927635234986e-05 0 -0.0210868952315456 7.6015845574524106e-05 0 -0.020892203778214491 0.00025187392452294562 0 -0.021150750871176172 0.00032133999225403579 0 -0.020892203778214491 0.00025187392452294562 0 -0.020997324346712205 0.00047893493439786185 0 -0.020892203778214491 0.00025187392452294562 0 -0.020603779630094368 0.00022134939689503038 0 -0.020711573250852162 0.00050571136603181255 0 -0.020392037001574069 0.00045449320777247179 0 -0.020603779630094368 0.00022134939689503038 0 -0.020711573250852162 0.00050571136603181255 0 -0.020392037001574069 0.00045449320777247179 0 -0.020315614708711068 0.00015186207264471176 0 -0.020099576049877499 0.00038450190579691294 0 -0.020392037001574069 0.00045449320777247179 0 -0.020603779630094368 0.00022134939689503038 0 -0.020315614708711068 0.00015186207264471176 0 -0.020603779630094368 0.00022134939689503038 0 -0.020510910988662222 -3.3432198046218699e-06 0 -0.020315614708711068 0.00015186207264471176 0 -0.020564052661350182 -0.00020436125689940089 0 -0.020510910988662222 -3.3432198046218699e-06 0 -0.020295019764678249 -0.00010941884272412155 0 -0.020510910988662222 -3.3432198046218699e-06 0 -0.020315614708711068 0.00015186207264471176 0 -0.020295019764678249 -0.00010941884272412155 0 -0.020104941106773112 -0.00021060529318605133 0 -0.020295019764678249 -0.00010941884272412155 0 -0.019926623289896399 6.2516319605477496e-05 0 -0.020315614708711068 0.00015186207264471176 0 -0.020295019764678249 -0.00010941884272412155 0 -0.019926623289896399 6.2516319605477496e-05 0 -0.020104941106773112 -0.00021060529318605133 0 -0.019926623289896399 6.2516319605477496e-05 0 -0.019898759272932991 -0.00017684596555259276 0 -0.019926623289896399 6.2516319605477496e-05 0 -0.020099576049877499 0.00038450190579691294 0 -0.019741451980602179 0.00045418231056162191 0 -0.020315614708711068 0.00015186207264471176 0 -0.019926623289896399 6.2516319605477496e-05 0 -0.020099576049877499 0.00038450190579691294 0 -0.020392037001574069 0.00045449320777247179 0 -0.020099576049877499 0.00038450190579691294 0 -0.020112837185082038 0.00079129103372926142 0 -0.020099576049877499 0.00038450190579691294 0 -0.019741451980602179 0.00045418231056162191 0 -0.020112837185082038 0.00079129103372926142 0 -0.019741451980602179 0.00045418231056162191 0 -0.019608559899988585 0.00023736971924553766 0 -0.01924766198263201 0.00053807427070086617 0 -0.019926623289896399 6.2516319605477496e-05 0 -0.019741451980602179 0.00045418231056162191 0 -0.019608559899988585 0.00023736971924553766 0 -0.018991489854929541 0.0023953777591404764 0 -0.019277865042665591 0.0024410711179569818 0 -0.019185028942726917 0.0021218697601340804 0 -0.018991489854929541 0.0023953777591404764 0 -0.019124412335233973 0.0025058033763380033 0 -0.019277865042665591 0.0024410711179569818 0 -0.018991489854929541 0.0023953777591404764 0 -0.019124412335233973 0.0025058033763380033 0 -0.019096076447190347 0.0025787038581901829 0 -0.019608559899988585 0.00023736971924553766 0 -0.01924766198263201 0.00053807427070086617 0 -0.019498925033052401 -7.6375722977851875e-05 0 -0.019131708262977155 0.0014777688621158854 0 -0.019309242613305022 0.0012268412001838894 0 -0.019124412335233973 0.0025058033763380033 0 -0.019096076447190347 0.0025787038581901829 0 -0.019124402937461555 0.0025756831889017346 0 -0.019926623289896399 6.2516319605477496e-05 0 -0.019498925033052401 -7.6375722977851875e-05 0 -0.019898759272932991 -0.00017684596555259276 0 -0.019926623289896399 6.2516319605477496e-05 0 -0.019608559899988585 0.00023736971924553766 0 -0.019498925033052401 -7.6375722977851875e-05 0 -0.01943421945049734 0.0027524704001111225 0 -0.019277865042665591 0.0024410711179569818 0 -0.019495385906286279 0.0022796981473665987 0 -0.01943421945049734 0.0027524704001111225 0 -0.019277865042665591 0.0024410711179569818 0 -0.019388905095463 0.0025007819758175024 0 -0.019124412335233973 0.0025058033763380033 0 -0.019277865042665591 0.0024410711179569818 0 -0.019124402937461555 0.0025756831889017346 0 -0.019277865042665591 0.0024410711179569818 0 -0.019509167989643039 0.0023974600455250283 0 -0.019388905095463 0.0025007819758175024 0 -0.019284062513550818 0.0024039948515975707 0 -0.019363616863102277 0.0025300927660202449 0 -0.019509167989643039 0.0023974600455250283 0 -0.019388905095463 0.0025007819758175024 0 -0.01938228320352086 0.0023134285516507942 0 -0.01943421945049734 0.0027524704001111225 0 -0.019388905095463 0.0025007819758175024 0 -0.019224550184425385 0.0023973299698186756 0 -0.019388905095463 0.0025007819758175024 0 -0.019224550184425385 0.0023973299698186756 0 -0.01938228320352086 0.0023134285516507942 0 -0.018709881915672487 0.0018415311298998253 0 -0.0180154141722224 0.002220600947704942 0 -0.019224550184425385 0.0023973299698186756 0 -0.019285776033448811 0.0020653902960410652 0 -0.01938228320352086 0.0023134285516507942 0 -0.019224550184425385 0.0023973299698186756 0 -0.019285776033448811 0.0020653902960410652 0 -0.019047351649952859 0.0021950629309587743 0 -0.019509167989643039 0.0023974600455250283 0 -0.019471272838642056 0.0021761825667171528 0 -0.019611690165237623 0.0020185518592986608 0 -0.019285776033448811 0.0020653902960410652 0 -0.019471272838642056 0.0021761825667171528 0 -0.019611690165237623 0.0020185518592986608 0 -0.019285776033448811 0.0020653902960410652 0 -0.01938228320352086 0.0023134285516507942 0 -0.019471272838642056 0.0021761825667171528 0 -0.019509167989643039 0.0023974600455250283 0 -0.01938228320352086 0.0023134285516507942 0 -0.019471272838642056 0.0021761825667171528 0 -0.018709881915672487 0.0018415311298998253 0 -0.018780959442841472 0.0019351950534917048 0 -0.017973049637225475 0.0017239003849323521 0 -0.018008303698626202 0.001514001726858489 0 -0.018344013527510323 0.0016440081914083104 0 -0.018008303698626202 0.001514001726858489 0 -0.018344013527510323 0.0016440081914083104 0 -0.018144775872548348 0.0013505505924781946 0 -0.017973049637225475 0.0017239003849323521 0 -0.018008303698626202 0.001514001726858489 0 -0.017788614959622639 0.0015528680238738079 0 -0.019498925033052401 -7.6375722977851875e-05 0 -0.019743678444163488 -0.00032256478339740544 0 -0.019621647337253981 -0.00055968870391750894 0 -0.019498925033052401 -7.6375722977851875e-05 0 -0.019743678444163488 -0.00032256478339740544 0 -0.019898759272932991 -0.00017684596555259276 0 -0.020012622928771987 -0.00037078316539297841 0 -0.019743678444163488 -0.00032256478339740544 0 -0.019898759272932991 -0.00017684596555259276 0 -0.019363616863102277 0.0025300927660202449 0 -0.018780959442841472 0.0019351950534917048 0 -0.019309242613305022 0.0012268412001838894 0 -0.019176667543198422 0.0010909078713097942 0 -0.019096076447190347 0.0025787038581901829 0 -0.019100052100021119 0.0025515927016847616 0 -0.019117292780227464 0.0025362456089733014 0 -0.019096076447190347 0.0025787038581901829 0 -0.019124402937461555 0.0025756831889017346 0 -0.019100052100021119 0.0025515927016847616 0 -0.018780959442841472 0.0019351950534917048 0 -0.019176667543198422 0.0010909078713097942 0 -0.018780959442841472 0.0019351950534917048 0 -0.018381614719767261 0.001063914828560006 0 -0.01832265486351857 0.0014589437467024291 0 -0.018617521915091251 0.0012300644074540253 0 -0.018388342524830483 0.0010410056535968054 0 -0.01832265486351857 0.0014589437467024291 0 -0.018602015669386393 0.0013820228403424485 0 -0.018617521915091251 0.0012300644074540253 0 -0.019176667543198422 0.0010909078713097942 0 -0.018922052148661033 0.0012965515886560791 0 -0.019700099920826827 3.1031359782574719e-05 0 -0.019176667543198422 0.0010909078713097942 0 -0.019026325893977496 0.001277029741194805 0 -0.018601669258333939 0.0013851702976055251 0 -0.018617521915091251 0.0012300644074540253 0 -0.020058511447815678 -0.00068365142026472348 0 -0.019621647337253981 -0.00055968870391750894 0 -0.019856193570556811 -0.00048434620640738562 0 -0.019743678444163488 -0.00032256478339740544 0 -0.019621647337253981 -0.00055968870391750894 0 -0.019856193570556811 -0.00048434620640738562 0 -0.020012622928771987 -0.00037078316539297841 0 -0.019743678444163488 -0.00032256478339740544 0 -0.019856193570556811 -0.00048434620640738562 0 -0.019026325893977496 0.001277029741194805 0 -0.018617521915091251 0.0012300644074540253 0 -0.018821857882128572 0.0010653558725386666 0 -0.018617521915091251 0.0012300644074540253 0 -0.018593411635522163 0.00097963481609437465 0 -0.018821857882128572 0.0010653558725386666 0 -0.018593411635522163 0.00097963481609437465 0 -0.018821857882128572 0.0010653558725386666 0 -0.018745682912357214 0.00082547505914299388 0 -0.018593411635522163 0.00097963481609437465 0 -0.018745682912357214 0.00082547505914299388 0 -0.018440023283679368 0.00065050809040999118 0 -0.018745682912357214 0.00082547505914299388 0 -0.018440023283679368 0.00065050809040999118 0 -0.01880726428176259 0.00050446354979125703 0 -0.018445484681688658 0.00072417985870266608 0 -0.018381614719767261 0.001063914828560006 0 -0.018593411635522163 0.00097963481609437465 0 -0.018440023283679368 0.00065050809040999118 0 -0.018388342524830483 0.0010410056535968054 0 -0.018440023283679368 0.00065050809040999118 0 -0.018427377119287991 0.0012426324686385785 0 -0.018108154508901356 0.00093362236519027532 0 -0.018344013527510323 0.0016440081914083104 0 -0.018427377119287991 0.0012426324686385785 0 -0.018144775872548348 0.0013505505924781946 0 -0.018617521915091251 0.0012300644074540253 0 -0.018593411635522163 0.00097963481609437465 0 -0.018388342524830483 0.0010410056535968054 0 -0.018144775872548348 0.0013505505924781946 0 -0.017928326535386011 0.001314114646319861 0 -0.018108154508901356 0.00093362236519027532 0 -0.018427377119287991 0.0012426324686385785 0 -0.018144775872548348 0.0013505505924781946 0 -0.018108154508901356 0.00093362236519027532 0 -0.017940091157430702 0.0013770872854966996 0 -0.017793889859898247 0.0018025720905434867 0 -0.018008303698626202 0.001514001726858489 0 -0.017928326535386011 0.001314114646319861 0 -0.017788614959622639 0.0015528680238738079 0 -0.018008303698626202 0.001514001726858489 0 -0.018144775872548348 0.0013505505924781946 0 -0.017928326535386011 0.001314114646319861 0 -0.017928326535386011 0.001314114646319861 0 -0.017686552806348774 0.00086480186476021244 0 -0.018108154508901356 0.00093362236519027532 0 -0.018108154508901356 0.00093362236519027532 0 -0.018183661879238523 0.00035097876527889906 0 -0.017877570198149371 0.0004569230867078574 0 -0.017686552806348774 0.00086480186476021244 0 -0.017877570198149371 0.0004569230867078574 0 -0.017570709229952523 0.00015754512791294349 0 -0.017686552806348774 0.00086480186476021244 0 -0.018108154508901356 0.00093362236519027532 0 -0.017877570198149371 0.0004569230867078574 0 -0.01782558104578524 -0.00010514083383694681 0 -0.017877570198149371 0.0004569230867078574 0 -0.017570709229952523 0.00015754512791294349 0 -0.01782558104578524 -0.00010514083383694681 0 -0.018183661879238523 0.00035097876527889906 0 -0.018140794635474532 -9.8933438913926847e-05 0 -0.01782558104578524 -0.00010514083383694681 0 -0.018183661879238523 0.00035097876527889906 0 -0.017877570198149371 0.0004569230867078574 0 -0.018340867211135693 -0.0004460915963043191 0 -0.018140794635474532 -9.8933438913926847e-05 0 -0.018618145939159097 2.637574111403519e-05 0 -0.018183661879238523 0.00035097876527889906 0 -0.018140794635474532 -9.8933438913926847e-05 0 -0.018618145939159097 2.637574111403519e-05 0 -0.018440023283679368 0.00065050809040999118 0 -0.018618145939159097 2.637574111403519e-05 0 -0.01880726428176259 0.00050446354979125703 0 -0.018440023283679368 0.00065050809040999118 0 -0.018183661879238523 0.00035097876527889906 0 -0.018618145939159097 2.637574111403519e-05 0 -0.018440023283679368 0.00065050809040999118 0 -0.018108154508901356 0.00093362236519027532 0 -0.018183661879238523 0.00035097876527889906 0 -0.016730826045999757 0.00093852712955634263 0 -0.016099487311064805 0.00051130030597554548 0 -0.016744482215101213 0.00028021761912733954 0 -0.016099487311064805 0.00051130030597554548 0 -0.016215750266273511 0.0013447764147888792 0 -0.015600408286460895 0.00071035704329411894 0 -0.016730826045999757 0.00093852712955634263 0 -0.016099487311064805 0.00051130030597554548 0 -0.016215750266273511 0.0013447764147888792 0 -0.016072222153692504 -0.00011327855890263952 0 -0.016083990379352923 0.00049179454033592611 0 -0.016206232406651384 -0.00032608654997203407 0 -0.016099487311064805 0.00051130030597554548 0 -0.016744482215101213 0.00028021761912733954 0 -0.017205475466442629 -2.8767048259555559e-05 0 -0.016744482215101213 0.00028021761912733954 0 -0.017237535009617496 0.00061486071419598724 0 -0.017205475466442629 -2.8767048259555559e-05 0 -0.017570709229952523 0.00015754512791294349 0 -0.017237535009617496 0.00061486071419598724 0 -0.017686552806348774 0.00086480186476021244 0 -0.017570709229952523 0.00015754512791294349 0 -0.017237535009617496 0.00061486071419598724 0 -0.016730826045999757 0.00093852712955634263 0 -0.016744482215101213 0.00028021761912733954 0 -0.017237535009617496 0.00061486071419598724 0 -0.016730826045999757 0.00093852712955634263 0 -0.017416834310847673 0.0013771070044149545 0 -0.016922158202159445 0.0018743709600675528 0 -0.016730826045999757 0.00093852712955634263 0 -0.017237535009617496 0.00061486071419598724 0 -0.017416834310847673 0.0013771070044149545 0 -0.017928326535386011 0.001314114646319861 0 -0.017686552806348774 0.00086480186476021244 0 -0.017416834310847673 0.0013771070044149545 0 -0.017686552806348774 0.00086480186476021244 0 -0.017237535009617496 0.00061486071419598724 0 -0.017416834310847673 0.0013771070044149545 0 -0.017416834310847673 0.0013771070044149545 0 -0.017872872012469898 0.0019984781008114661 0 -0.017429491963747289 0.0020412887243188194 0 -0.017928326535386011 0.001314114646319861 0 -0.017416834310847673 0.0013771070044149545 0 -0.017872872012469898 0.0019984781008114661 0 -0.017416834310847673 0.0013771070044149545 0 -0.016922158202159445 0.0018743709600675528 0 -0.017429491963747289 0.0020412887243188194 0 -0.016730826045999757 0.00093852712955634263 0 -0.016922158202159445 0.0018743709600675528 0 -0.016215750266273511 0.0013447764147888792 0 -0.016922158202159445 0.0018743709600675528 0 -0.016215750266273511 0.0013447764147888792 0 -0.016034500122413673 0.0023116553782688543 0 -0.016922158202159445 0.0018743709600675528 0 -0.017023489793692614 0.0026577529204897987 0 -0.016034500122413673 0.0023116553782688543 0 -0.016922158202159445 0.0018743709600675528 0 -0.017023489793692614 0.0026577529204897987 0 -0.017321384910907418 0.0024866391544320324 0 -0.017023489793692614 0.0026577529204897987 0 -0.017382218343251744 0.0029143163289228288 0 -0.017350174062237364 0.0033628226638725998 0 -0.017023489793692614 0.0026577529204897987 0 -0.017321384910907418 0.0024866391544320324 0 -0.017382218343251744 0.0029143163289228288 0 -0.017023489793692614 0.0026577529204897987 0 -0.01700728684002363 0.0033864127226128173 0 -0.016034500122413673 0.0023116553782688543 0 -0.016961737012599516 0.0033194571083469669 0 -0.016547757339455505 0.0024789860471183143 0 -0.017872872012469898 0.0019984781008114661 0 -0.01757419501329107 0.0024186913952063127 0 -0.017759248111777259 0.002629833852424599 0 -0.017973049637225475 0.0017239003849323521 0 -0.017788614959622639 0.0015528680238738079 0 -0.017646552904921307 0.0018120527264243321 0 -0.017872872012469898 0.0019984781008114661 0 -0.017429491963747289 0.0020412887243188194 0 -0.01757419501329107 0.0024186913952063127 0 -0.017793889859898247 0.0018025720905434867 0 -0.0180154141722224 0.002220600947704942 0 -0.016922158202159445 0.0018743709600675528 0 -0.017429491963747289 0.0020412887243188194 0 -0.017321384910907418 0.0024866391544320324 0 -0.017429491963747289 0.0020412887243188194 0 -0.017321384910907418 0.0024866391544320324 0 -0.01757419501329107 0.0024186913952063127 0 -0.017608974267872501 0.0027438429647315562 0 -0.017844832434424338 0.0026742266955716606 0 -0.017638022551197795 0.0031943577904535625 0 -0.0180154141722224 0.002220600947704942 0 -0.017982320412896977 0.002843338689354746 0 -0.017321384910907418 0.0024866391544320324 0 -0.017382218343251744 0.0029143163289228288 0 -0.017608974267872501 0.0027438429647315562 0 -0.017382218343251744 0.0029143163289228288 0 -0.017608974267872501 0.0027438429647315562 0 -0.017638022551197795 0.0031943577904535625 0 -0.017608974267872501 0.0027438429647315562 0 -0.01757419501329107 0.0024186913952063127 0 -0.017759248111777259 0.002629833852424599 0 -0.017321384910907418 0.0024866391544320324 0 -0.017608974267872501 0.0027438429647315562 0 -0.01757419501329107 0.0024186913952063127 0 -0.019285776033448811 0.0020653902960410652 0 -0.018799084731813121 0.0020301342024069526 0 -0.019047351649952859 0.0021950629309587743 0 -0.017628093291590385 0.002508969942282955 0 -0.0180154141722224 0.002220600947704942 0 -0.018799084731813121 0.0020301342024069526 0 -0.019047351649952859 0.0021950629309587743 0 -0.018834785001155256 0.0023413771262391883 0 -0.018799084731813121 0.0020301342024069526 0 -0.018834785001155256 0.0023413771262391883 0 -0.018327495045919469 0.002405101863722951 0 -0.01943421945049734 0.0027524704001111225 0 -0.019224550184425385 0.0023973299698186756 0 -0.018860779688150888 0.0026929762388603002 0 -0.019224550184425385 0.0023973299698186756 0 -0.018834785001155256 0.0023413771262391883 0 -0.018860779688150888 0.0026929762388603002 0 -0.019224550184425385 0.0023973299698186756 0 -0.019047351649952859 0.0021950629309587743 0 -0.018834785001155256 0.0023413771262391883 0 -0.018834785001155256 0.0023413771262391883 0 -0.018860779688150888 0.0026929762388603002 0 -0.018327495045919469 0.002405101863722951 0 -0.017382218343251744 0.0029143163289228288 0 -0.017638022551197795 0.0031943577904535625 0 -0.017350174062237364 0.0033628226638725998 0 -0.017638022551197795 0.0031943577904535625 0 -0.017620619298377386 0.0034649828783402076 0 -0.017350174062237364 0.0033628226638725998 0 -0.018860779688150888 0.0026929762388603002 0 -0.018327495045919469 0.002405101863722951 0 -0.018315138311985002 0.0030746880187497473 0 -0.018327495045919469 0.002405101863722951 0 -0.017620619298377386 0.0034649828783402076 0 -0.018315138311985002 0.0030746880187497473 0 -0.017982320412896977 0.002843338689354746 0 -0.017649342771396813 0.0034021531629898323 0 -0.017620619298377386 0.0034649828783402076 0 -0.018112130857831591 0.0035612362094094322 0 -0.017683691000526521 0.0038030393928326677 0 -0.018112130857831591 0.0035612362094094322 0 -0.018315138311985002 0.0030746880187497473 0 -0.018601449464420043 0.0032425586383931604 0 -0.017620619298377386 0.0034649828783402076 0 -0.018112130857831591 0.0035612362094094322 0 -0.018315138311985002 0.0030746880187497473 0 -0.01943421945049734 0.0027524704001111225 0 -0.018601449464420043 0.0032425586383931604 0 -0.018390993988526342 0.0043172675133567465 0 -0.01943421945049734 0.0027524704001111225 0 -0.018860779688150888 0.0026929762388603002 0 -0.018601449464420043 0.0032425586383931604 0 -0.018860779688150888 0.0026929762388603002 0 -0.018315138311985002 0.0030746880187497473 0 -0.018601449464420043 0.0032425586383931604 0 -0.017023489793692614 0.0026577529204897987 0 -0.01700728684002363 0.0033864127226128173 0 -0.017350174062237364 0.0033628226638725998 0 -0.017350174062237364 0.0033628226638725998 0 -0.017408736405351937 0.0037261566116630236 0 -0.017221678969272677 0.0039206524032455057 0 -0.017620619298377386 0.0034649828783402076 0 -0.017350174062237364 0.0033628226638725998 0 -0.017408736405351937 0.0037261566116630236 0 -0.017620619298377386 0.0034649828783402076 0 -0.017408736405351937 0.0037261566116630236 0 -0.017683691000526521 0.0038030393928326677 0 -0.01700728684002363 0.0033864127226128173 0 -0.017221678969272677 0.0039206524032455057 0 -0.017126442384764799 0.0042044955843877525 0 -0.01700728684002363 0.0033864127226128173 0 -0.017350174062237364 0.0033628226638725998 0 -0.017221678969272677 0.0039206524032455057 0 -0.017221678969272677 0.0039206524032455057 0 -0.017183647497999537 0.0043104450310109373 0 -0.017126442384764799 0.0042044955843877525 0 -0.017221678969272677 0.0039206524032455057 0 -0.017279474305981975 0.0041758642587515389 0 -0.017183647497999537 0.0043104450310109373 0 -0.017221678969272677 0.0039206524032455057 0 -0.017405091879096841 0.0039806056872279489 0 -0.017279474305981975 0.0041758642587515389 0 -0.017408736405351937 0.0037261566116630236 0 -0.017405091879096841 0.0039806056872279489 0 -0.017683691000526521 0.0038030393928326677 0 -0.017408736405351937 0.0037261566116630236 0 -0.017221678969272677 0.0039206524032455057 0 -0.017405091879096841 0.0039806056872279489 0 -0.017405091879096841 0.0039806056872279489 0 -0.017463148054046369 0.0041839754464794796 0 -0.017683691000526521 0.0038030393928326677 0 -0.017405091879096841 0.0039806056872279489 0 -0.017279474305981975 0.0041758642587515389 0 -0.017463148054046369 0.0041839754464794796 0 -0.017279474305981975 0.0041758642587515389 0 -0.017463148054046369 0.0041839754464794796 0 -0.017289251598202517 0.0042378957002875955 0 -0.017279474305981975 0.0041758642587515389 0 -0.017289251598202517 0.0042378957002875955 0 -0.017204281015996026 0.004251342310685865 0 -0.017289251598202517 0.0042378957002875955 0 -0.017218980436970361 0.0042551190588843192 0 -0.017311606728880623 0.0042769969418584783 0 -0.017289251598202517 0.0042378957002875955 0 -0.017204281015996026 0.004251342310685865 0 -0.017218980436970361 0.0042551190588843192 0 -0.017502847785646088 0.0045867494048840137 0 -0.019004282020260607 0.0034829947039949492 0 -0.017463148054046369 0.0041839754464794796 0 -0.017289251598202517 0.0042378957002875955 0 -0.017311606728880623 0.0042769969418584783 0 -0.017279474305981975 0.0041758642587515389 0 -0.017183647497999537 0.0043104450310109373 0 -0.017204281015996026 0.004251342310685865 0 -0.017204281015996026 0.004251342310685865 0 -0.017147936380857411 0.0042266556354490104 0 -0.017218980436970361 0.0042551190588843192 0 -0.017183647497999537 0.0043104450310109373 0 -0.017204281015996026 0.004251342310685865 0 -0.017147936380857411 0.0042266556354490104 0 -0.017183647497999537 0.0043104450310109373 0 -0.017147936380857411 0.0042266556354490104 0 -0.017272108854205791 0.0043786070441403143 0 -0.019510421709236454 0.0017895668215760032 0 -0.015741336693657404 0.0043458065789010016 0 -0.017147936380857411 0.0042266556354490104 0 -0.017175923084507577 0.0042521429935523233 0 -0.017135827237300678 0.0039191865943478893 0 -0.017147936380857411 0.0042266556354490104 0 -0.017218980436970361 0.0042551190588843192 0 -0.017175923084507577 0.0042521429935523233 0 -0.019004282020260607 0.0034829947039949492 0 -0.019510421709236454 0.0017895668215760032 0 -0.017218980436970361 0.0042551190588843192 0 -0.017311606728880623 0.0042769969418584783 0 -0.017175923084507577 0.0042521429935523233 0 -0.020613747256429251 0.0016848269684731913 0 -0.020676041381096046 0.0014552757686674088 0 -0.02021525910681966 0.001757303667351605 0 -0.019912128741384875 0.0023518770407006495 0 -0.020141550531611749 0.0014128163574845338 0 -0.020928088419025173 0.0013209731911453901 0 -0.019004282020260607 0.0034829947039949492 0 -0.022642186664484618 5.0271305357006357e-05 0 -0.025134611620272269 -0.0021838012108455415 0 -0.025119823477807175 -0.0021656713578086756 0 -0.025120887922066338 -0.0021512235922462571 0 -0.022642186664484618 5.0271305357006357e-05 0 -0.019510421709236454 0.0017895668215760032 0 -0.025134611620272269 -0.0021838012108455415 0 -0.025120887922066338 -0.0021512235922462571 0 -0.025193924172047921 -0.002033103179824928 0 -0.024799052545049466 -0.00037495121247848082 0 -0.02447914992535119 -0.00074123778459273253 0 -0.024962307789871761 -0.0009013535393438205 0 -0.022642186664484618 5.0271305357006357e-05 0 -0.025389206611496431 -0.0018024437502076156 0 -0.025120887922066338 -0.0021512235922462571 0 -0.02509556461644994 -0.0019510569137273033 0 -0.025044537361912415 -0.0022050441454852321 0 -0.019510421709236454 0.0017895668215760032 0 -0.020939902716333461 -8.0352356109454038e-05 0 -0.015077087666045218 0.0041096366759105366 0 -0.017135827237300678 0.0039191865943478893 0 -0.016641784458348317 0.0024033901631100125 0 -0.025119823477807175 -0.0021656713578086756 0 -0.025120887922066338 -0.0021512235922462571 0 -0.025044537361912415 -0.0022050441454852321 0 -0.024170224081554659 -0.0008467023746816097 0 -0.02447914992535119 -0.00074123778459273253 0 -0.02423105782239298 -0.00031767277868473623 0 -0.024170224081554659 -0.0008467023746816097 0 -0.02423105782239298 -0.00031767277868473623 0 -0.023895398959411281 -0.00078854500056045845 0 -0.020676041381096046 0.0014552757686674088 0 -0.019981180437182011 0.0015377535044806122 0 -0.02021525910681966 0.001757303667351605 0 -0.024799052545049466 -0.00037495121247848082 0 -0.02447914992535119 -0.00074123778459273253 0 -0.02423105782239298 -0.00031767277868473623 0 -0.022642186664484618 5.0271305357006357e-05 0 -0.022124787117994059 0.00067461748095452455 0 -0.019697911912646335 0.0019177569961825733 0 -0.02021525910681966 0.001757303667351605 0 -0.020110421663879236 0.0021765856972002211 0 -0.019981180437182011 0.0015377535044806122 0 -0.019697911912646335 0.0019177569961825733 0 -0.02021525910681966 0.001757303667351605 0 -0.019004282020260607 0.0034829947039949492 0 -0.019236451102636627 0.0032245046578720936 0 -0.017563930303488216 0.004543819798010375 0 -0.017384667898244145 0.0052573178722729935 0 -0.018390993988526342 0.0043172675133567465 0 -0.020613747256429251 0.0016848269684731913 0 -0.02021525910681966 0.001757303667351605 0 -0.020110421663879236 0.0021765856972002211 0 -0.017563930303488216 0.004543819798010375 0 -0.018390993988526342 0.0043172675133567465 0 -0.017683691000526521 0.0038030393928326677 0 -0.018112130857831591 0.0035612362094094322 0 -0.018601449464420043 0.0032425586383931604 0 -0.018390993988526342 0.0043172675133567465 0 -0.017502847785646088 0.0045867494048840137 0 -0.017676547737515716 0.0037956637381448143 0 -0.018112130857831591 0.0035612362094094322 0 -0.018390993988526342 0.0043172675133567465 0 -0.017683691000526521 0.0038030393928326677 0 -0.01943421945049734 0.0027524704001111225 0 -0.020110421663879236 0.0021765856972002211 0 -0.019495385906286279 0.0022796981473665987 0 -0.019433250724451172 0.0028121999139588331 0 -0.019236451102636627 0.0032245046578720936 0 -0.019697911912646335 0.0019177569961825733 0 -0.020110421663879236 0.0021765856972002211 0 -0.019495385906286279 0.0022796981473665987 0 -0.019697911912646335 0.0019177569961825733 0 -0.019495385906286279 0.0022796981473665987 0 -0.019325219866797607 0.0020042516932941936 0 -0.019325219866797607 0.0020042516932941936 0 -0.019185028942726917 0.0021218697601340804 0 -0.019100035161566761 0.0016495967676627165 0 -0.019277865042665591 0.0024410711179569818 0 -0.019495385906286279 0.0022796981473665987 0 -0.019325219866797607 0.0020042516932941936 0 -0.019277865042665591 0.0024410711179569818 0 -0.019325219866797607 0.0020042516932941936 0 -0.019185028942726917 0.0021218697601340804 0 -0.019325219866797607 0.0020042516932941936 0 -0.019100035161566761 0.0016495967676627165 0 -0.019365342839568755 0.0016385863701791671 0 -0.019981180437182011 0.0015377535044806122 0 -0.019697911912646335 0.0019177569961825733 0 -0.019365342839568755 0.0016385863701791671 0 -0.019697911912646335 0.0019177569961825733 0 -0.019325219866797607 0.0020042516932941936 0 -0.019365342839568755 0.0016385863701791671 0 -0.019741451980602179 0.00045418231056162191 0 -0.01924766198263201 0.00053807427070086617 0 -0.019635967271406839 0.0010520116520850258 0 -0.019741451980602179 0.00045418231056162191 0 -0.019635967271406839 0.0010520116520850258 0 -0.020112837185082038 0.00079129103372926142 0 -0.019131708262977155 0.0014777688621158854 0 -0.019097987225390762 0.0016383711992548811 0 -0.018991489854929541 0.0023953777591404764 0 -0.019185028942726917 0.0021218697601340804 0 -0.019100035161566761 0.0016495967676627165 0 -0.01924766198263201 0.00053807427070086617 0 -0.019635967271406839 0.0010520116520850258 0 -0.019100035161566761 0.0016495967676627165 0 -0.019100035161566761 0.0016495967676627165 0 -0.019177684816545599 0.0016927432974680209 0 -0.019365342839568755 0.0016385863701791671 0 -0.019100035161566761 0.0016495967676627165 0 -0.019177684816545599 0.0016927432974680209 0 -0.019446148720197919 0.0014176288500122002 0 -0.019177684816545599 0.0016927432974680209 0 -0.019446148720197919 0.0014176288500122002 0 -0.020083879040749736 0.0014424527967587056 0 -0.021167772072254763 0.0007667501785110696 0 -0.021190336450124886 0.00071550079894093011 0 -0.019635967271406839 0.0010520116520850258 0 -0.019100035161566761 0.0016495967676627165 0 -0.019446148720197919 0.0014176288500122002 0 -0.019635967271406839 0.0010520116520850258 0 -0.019446148720197919 0.0014176288500122002 0 -0.020083879040749736 0.0014424527967587056 0 -0.023102991790637777 -0.00013744624970146512 0 -0.022907350616525882 -0.00044738320559721334 0 -0.022486846922168676 -4.384890339967617e-05 0 -0.022907350616525882 -0.00044738320559721334 0 -0.023259194513847989 -0.00039378317111658741 0 -0.023160077138211842 -0.00059172531811224833 0 -0.023102991790637777 -0.00013744624970146512 0 -0.023259194513847989 -0.00039378317111658741 0 -0.023684506556376467 -0.00024060910209452766 0 -0.023102991790637777 -0.00013744624970146512 0 -0.022907350616525882 -0.00044738320559721334 0 -0.023259194513847989 -0.00039378317111658741 0 -0.023297425525221831 -0.00079452163546666862 0 -0.023160077138211842 -0.00059172531811224833 0 -0.023420869791772294 -0.00056147484567141957 0 -0.023259194513847989 -0.00039378317111658741 0 -0.023160077138211842 -0.00059172531811224833 0 -0.023420869791772294 -0.00056147484567141957 0 -0.023297425525221831 -0.00079452163546666862 0 -0.023160077138211842 -0.00059172531811224833 0 -0.023022509680638403 -0.00079214784704682406 0 -0.022907350616525882 -0.00044738320559721334 0 -0.023022509680638403 -0.00079214784704682406 0 -0.022791295986367158 -0.00070273066648619169 0 -0.022907350616525882 -0.00044738320559721334 0 -0.023160077138211842 -0.00059172531811224833 0 -0.023022509680638403 -0.00079214784704682406 0 -0.023022509680638403 -0.00079214784704682406 0 -0.022791295986367158 -0.00070273066648619169 0 -0.022903610403372954 -0.00096141073559837822 0 -0.022907350616525882 -0.00044738320559721334 0 -0.022791295986367158 -0.00070273066648619169 0 -0.022557969364318361 -0.00050440044023698078 0 -0.02423105782239298 -0.00031767277868473623 0 -0.023684506556376467 -0.00024060910209452766 0 -0.023664079422406475 -0.00056432595301748943 0 -0.022124787117994059 0.00067461748095452455 0 -0.02152060051468388 0.00069294347194023094 0 -0.023259194513847989 -0.00039378317111658741 0 -0.023684506556376467 -0.00024060910209452766 0 -0.023420869791772294 -0.00056147484567141957 0 -0.021167772072254763 0.0007667501785110696 0 -0.02152060051468388 0.00069294347194023094 0 -0.023684506556376467 -0.00024060910209452766 0 -0.023664079422406475 -0.00056432595301748943 0 -0.023420869791772294 -0.00056147484567141957 0 -0.023664079422406475 -0.00056432595301748943 0 -0.023578579254415824 -0.00082531229193162083 0 -0.023895398959411281 -0.00078854500056045845 0 -0.023664079422406475 -0.00056432595301748943 0 -0.023420869791772294 -0.00056147484567141957 0 -0.023578579254415824 -0.00082531229193162083 0 -0.023297425525221831 -0.00079452163546666862 0 -0.023420869791772294 -0.00056147484567141957 0 -0.023578579254415824 -0.00082531229193162083 0 -0.02423105782239298 -0.00031767277868473623 0 -0.023664079422406475 -0.00056432595301748943 0 -0.023895398959411281 -0.00078854500056045845 0 -0.023578579254415824 -0.00082531229193162083 0 -0.023895398959411281 -0.00078854500056045845 0 -0.023745807106656001 -0.0010834944627265849 0 -0.024170224081554659 -0.0008467023746816097 0 -0.023895398959411281 -0.00078854500056045845 0 -0.023983303944947017 -0.0010504290316975294 0 -0.023983303944947017 -0.0010504290316975294 0 -0.023745807106656001 -0.0010834944627265849 0 -0.023899212463896553 -0.0013325761345187358 0 -0.023895398959411281 -0.00078854500056045845 0 -0.023983303944947017 -0.0010504290316975294 0 -0.023745807106656001 -0.0010834944627265849 0 -0.023578579254415824 -0.00082531229193162083 0 -0.02344836951690903 -0.001075521321518845 0 -0.023745807106656001 -0.0010834944627265849 0 -0.023297425525221831 -0.00079452163546666862 0 -0.023578579254415824 -0.00082531229193162083 0 -0.02344836951690903 -0.001075521321518845 0 -0.023745807106656001 -0.0010834944627265849 0 -0.023672102838706622 -0.0015010208166636328 0 -0.023899212463896553 -0.0013325761345187358 0 -0.02344836951690903 -0.001075521321518845 0 -0.023745807106656001 -0.0010834944627265849 0 -0.023672102838706622 -0.0015010208166636328 0 -0.023983303944947017 -0.0010504290316975294 0 -0.023899212463896553 -0.0013325761345187358 0 -0.024207411345411309 -0.0011860536985019324 0 -0.023672102838706622 -0.0015010208166636328 0 -0.023899212463896553 -0.0013325761345187358 0 -0.023847399470844681 -0.00155458027696133 0 -0.023899212463896553 -0.0013325761345187358 0 -0.023847399470844681 -0.00155458027696133 0 -0.024031664279053386 -0.0015068437598645494 0 -0.022761826630918403 -0.001124487487136447 0 -0.022903610403372954 -0.00096141073559837822 0 -0.022973615827097841 -0.0011819058052526768 0 -0.022791295986367158 -0.00070273066648619169 0 -0.022903610403372954 -0.00096141073559837822 0 -0.022692906623972886 -0.0009206244462646718 0 -0.022761826630918403 -0.001124487487136447 0 -0.022903610403372954 -0.00096141073559837822 0 -0.022692906623972886 -0.0009206244462646718 0 -0.023022509680638403 -0.00079214784704682406 0 -0.022903610403372954 -0.00096141073559837822 0 -0.023143857281349791 -0.0010069954388289451 0 -0.022903610403372954 -0.00096141073559837822 0 -0.022973615827097841 -0.0011819058052526768 0 -0.023143857281349791 -0.0010069954388289451 0 -0.022973615827097841 -0.0011819058052526768 0 -0.023143857281349791 -0.0010069954388289451 0 -0.023235382152948611 -0.001273206101165327 0 -0.023297425525221831 -0.00079452163546666862 0 -0.023022509680638403 -0.00079214784704682406 0 -0.023143857281349791 -0.0010069954388289451 0 -0.023297425525221831 -0.00079452163546666862 0 -0.02344836951690903 -0.001075521321518845 0 -0.023143857281349791 -0.0010069954388289451 0 -0.02344836951690903 -0.001075521321518845 0 -0.023143857281349791 -0.0010069954388289451 0 -0.023235382152948611 -0.001273206101165327 0 -0.023672102838706622 -0.0015010208166636328 0 -0.023204823050003171 -0.0015362937099106019 0 -0.023235382152948611 -0.001273206101165327 0 -0.02344836951690903 -0.001075521321518845 0 -0.023672102838706622 -0.0015010208166636328 0 -0.023235382152948611 -0.001273206101165327 0 -0.023649558097963146 -0.0015073497491117766 0 -0.023412628005451394 -0.0015137647935173815 0 -0.023204823050003171 -0.0015362937099106019 0 -0.023235382152948611 -0.001273206101165327 0 -0.022999771364847627 -0.0013641057876809439 0 -0.023412628005451394 -0.0015137647935173815 0 -0.023343545571560886 -0.001380827221193606 0 -0.023204823050003171 -0.0015362937099106019 0 -0.022999771364847627 -0.0013641057876809439 0 -0.022795124499868882 -0.0015322711383114766 0 -0.022973615827097841 -0.0011819058052526768 0 -0.022999771364847627 -0.0013641057876809439 0 -0.022821814283760289 -0.0013120715383816276 0 -0.022973615827097841 -0.0011819058052526768 0 -0.023235382152948611 -0.001273206101165327 0 -0.022999771364847627 -0.0013641057876809439 0 -0.022999771364847627 -0.0013641057876809439 0 -0.022795124499868882 -0.0015322711383114766 0 -0.022821814283760289 -0.0013120715383816276 0 -0.022795124499868882 -0.0015322711383114766 0 -0.022821814283760289 -0.0013120715383816276 0 -0.022587035522392888 -0.0013048509329468209 0 -0.023343545571560886 -0.001380827221193606 0 -0.023644566303036837 -0.0013342967854029517 0 -0.022761826630918403 -0.001124487487136447 0 -0.022821814283760289 -0.0013120715383816276 0 -0.022587035522392888 -0.0013048509329468209 0 -0.022761826630918403 -0.001124487487136447 0 -0.022973615827097841 -0.0011819058052526768 0 -0.022821814283760289 -0.0013120715383816276 0 -0.023665572405485388 -0.0015015497597459055 0 -0.023604624970336295 -0.0014822893351787408 0 -0.023617486841647148 -0.0014978154053329352 0 -0.023621824091891026 -0.0014974863414685131 0 -0.023605380487158375 -0.0014943573813134957 0 -0.023637424115831331 -0.0014623498884936729 0 -0.023621824091891026 -0.0014974863414685131 0 -0.023619927029242014 -0.0014969971015333511 0 -0.023637424115831331 -0.0014623498884936729 0 -0.023619927029242014 -0.0014969971015333511 0 -0.023631726381515551 -0.0015345679681158524 0 -0.023637424115831331 -0.0014623498884936729 0 -0.023618972310947287 -0.0015242530608518589 0 -0.023619927029242014 -0.0014969971015333511 0 -0.023631726381515551 -0.0015345679681158524 0 -0.023618972310947287 -0.0015242530608518589 0 -0.023619927029242014 -0.0014969971015333511 0 -0.023617486841647148 -0.0014978154053329352 0 -0.023343545571560886 -0.001380827221193606 0 -0.023483302731307248 -0.0014913593128927083 0 -0.023621824091891026 -0.0014974863414685131 0 -0.023619927029242014 -0.0014969971015333511 0 -0.023617486841647148 -0.0014978154053329352 0 -0.023665572405485388 -0.0015015497597459055 0 -0.023617486841647148 -0.0014978154053329352 0 -0.023657306865840406 -0.0015296164718496929 0 -0.023621824091891026 -0.0014974863414685131 0 -0.023657306865840406 -0.0015296164718496929 0 -0.023605380487158375 -0.0014943573813134957 0 -0.023621824091891026 -0.0014974863414685131 0 -0.023617486841647148 -0.0014978154053329352 0 -0.023657306865840406 -0.0015296164718496929 0 -0.023672102838706622 -0.0015010208166636328 0 -0.023665572405485388 -0.0015015497597459055 0 -0.023696876375401285 -0.0015486534861095613 0 -0.023665572405485388 -0.0015015497597459055 0 -0.023657306865840406 -0.0015296164718496929 0 -0.023696876375401285 -0.0015486534861095613 0 -0.023657306865840406 -0.0015296164718496929 0 -0.023696876375401285 -0.0015486534861095613 0 -0.02373347135860392 -0.0016300324855956798 0 -0.02373347135860392 -0.0016300324855956798 0 -0.023833545377668408 -0.0017368033256637051 0 -0.023699457097874708 -0.0016633342972958549 0 -0.023657306865840406 -0.0015296164718496929 0 -0.02373347135860392 -0.0016300324855956798 0 -0.023699457097874708 -0.0016633342972958549 0 -0.023657306865840406 -0.0015296164718496929 0 -0.023605380487158375 -0.0014943573813134957 0 -0.023699457097874708 -0.0016633342972958549 0 -0.023605380487158375 -0.0014943573813134957 0 -0.023650828862228038 -0.0016209172711100569 0 -0.023699457097874708 -0.0016633342972958549 0 -0.023948588078739338 -0.0016740298553824648 0 -0.023847399470844681 -0.00155458027696133 0 -0.023804822607476055 -0.0016369981836045989 0 -0.023948588078739338 -0.0016740298553824648 0 -0.024064850692875336 -0.0017877919453863499 0 -0.024063103050784341 -0.0016644379822503609 0 -0.023948588078739338 -0.0016740298553824648 0 -0.023847399470844681 -0.00155458027696133 0 -0.024031664279053386 -0.0015068437598645494 0 -0.023948588078739338 -0.0016740298553824648 0 -0.024063103050784341 -0.0016644379822503609 0 -0.024031664279053386 -0.0015068437598645494 0 -0.023672102838706622 -0.0015010208166636328 0 -0.023696876375401285 -0.0015486534861095613 0 -0.023804822607476055 -0.0016369981836045989 0 -0.023672102838706622 -0.0015010208166636328 0 -0.023847399470844681 -0.00155458027696133 0 -0.023804822607476055 -0.0016369981836045989 0 -0.023804822607476055 -0.0016369981836045989 0 -0.023991247058228971 -0.0017901839904853841 0 -0.023833545377668408 -0.0017368033256637051 0 -0.02373347135860392 -0.0016300324855956798 0 -0.023804822607476055 -0.0016369981836045989 0 -0.023833545377668408 -0.0017368033256637051 0 -0.023696876375401285 -0.0015486534861095613 0 -0.02373347135860392 -0.0016300324855956798 0 -0.023804822607476055 -0.0016369981836045989 0 -0.023948588078739338 -0.0016740298553824648 0 -0.023804822607476055 -0.0016369981836045989 0 -0.023991247058228971 -0.0017901839904853841 0 -0.023948588078739338 -0.0016740298553824648 0 -0.023991247058228971 -0.0017901839904853841 0 -0.024064850692875336 -0.0017877919453863499 0 -0.023991247058228971 -0.0017901839904853841 0 -0.024111499210033992 -0.0018789580743696177 0 -0.024064850692875336 -0.0017877919453863499 0 -0.023991247058228971 -0.0017901839904853841 0 -0.024111499210033992 -0.0018789580743696177 0 -0.024078074580459762 -0.0018712631225840557 0 -0.024056489022694211 -0.0018786394046421955 0 -0.024325839482067436 -0.0020059970703195616 0 -0.024111499210033992 -0.0018789580743696177 0 -0.024156420350233961 -0.0019293134798658606 0 -0.02414001484843651 -0.001911111293682427 0 -0.024156420350233961 -0.0019293134798658606 0 -0.024064850692875336 -0.0017877919453863499 0 -0.024167438576638486 -0.0017505758775024163 0 -0.024111499210033992 -0.0018789580743696177 0 -0.024156420350233961 -0.0019293134798658606 0 -0.024064850692875336 -0.0017877919453863499 0 -0.024064850692875336 -0.0017877919453863499 0 -0.024063103050784341 -0.0016644379822503609 0 -0.024167438576638486 -0.0017505758775024163 0 -0.024063103050784341 -0.0016644379822503609 0 -0.024167438576638486 -0.0017505758775024163 0 -0.024231518208219317 -0.001548153757918568 0 -0.024156420350233961 -0.0019293134798658606 0 -0.024167438576638486 -0.0017505758775024163 0 -0.024390514654209366 -0.0017858934798132421 0 -0.024167438576638486 -0.0017505758775024163 0 -0.024231518208219317 -0.001548153757918568 0 -0.024390514654209366 -0.0017858934798132421 0 -0.024063103050784341 -0.0016644379822503609 0 -0.024231518208219317 -0.001548153757918568 0 -0.024031664279053386 -0.0015068437598645494 0 -0.024390514654209366 -0.0017858934798132421 0 -0.024706686689665167 -0.0017833726424179069 0 -0.02462627327945506 -0.0013527025684853249 0 -0.024231518208219317 -0.001548153757918568 0 -0.024390514654209366 -0.0017858934798132421 0 -0.02462627327945506 -0.0013527025684853249 0 -0.024390514654209366 -0.0017858934798132421 0 -0.024558602681449156 -0.0021164065322532466 0 -0.024706686689665167 -0.0017833726424179069 0 -0.024156420350233961 -0.0019293134798658606 0 -0.024390514654209366 -0.0017858934798132421 0 -0.024558602681449156 -0.0021164065322532466 0 -0.024156420350233961 -0.0019293134798658606 0 -0.024558602681449156 -0.0021164065322532466 0 -0.024342065123645725 -0.0023658405233491068 0 -0.024202395532490113 -0.0019795284374725503 0 -0.024325839482067436 -0.0020059970703195616 0 -0.024558602681449156 -0.0021164065322532466 0 -0.024612575767380015 -0.0025074735535335992 0 -0.024342065123645725 -0.0023658405233491068 0 -0.024558602681449156 -0.0021164065322532466 0 -0.024790725833157598 -0.002603096793055525 0 -0.024612575767380015 -0.0025074735535335992 0 -0.024558602681449156 -0.0021164065322532466 0 -0.024974333042430182 -0.0021899858784641848 0 -0.024790725833157598 -0.002603096793055525 0 -0.024558602681449156 -0.0021164065322532466 0 -0.024974333042430182 -0.0021899858784641848 0 -0.024706686689665167 -0.0017833726424179069 0 -0.025394378335669533 -0.0023071203632371103 0 -0.025244318863065676 -0.002836150677696533 0 -0.026004270677389266 -0.0025999063321028564 0 -0.024974333042430182 -0.0021899858784641848 0 -0.025394378335669533 -0.0023071203632371103 0 -0.025244318863065676 -0.002836150677696533 0 -0.025394378335669533 -0.0023071203632371103 0 -0.025183973790845464 -0.0017639868796787543 0 -0.025565534813192965 -0.0019768956896645314 0 -0.024974333042430182 -0.0021899858784641848 0 -0.025394378335669533 -0.0023071203632371103 0 -0.025162677826413602 -0.0014668077136900195 0 -0.025388143567478354 -0.0022952651785365986 0 -0.025132283148750205 -0.0015552402514690561 0 -0.024974333042430182 -0.0021899858784641848 0 -0.024706686689665167 -0.0017833726424179069 0 -0.025162677826413602 -0.0014668077136900195 0 -0.024706686689665167 -0.0017833726424179069 0 -0.025162677826413602 -0.0014668077136900195 0 -0.02462627327945506 -0.0013527025684853249 0 -0.025162677826413602 -0.0014668077136900195 0 -0.024962307789871761 -0.0009013535393438205 0 -0.02462627327945506 -0.0013527025684853249 0 -0.025183973790845464 -0.0017639868796787543 0 -0.02509556461644994 -0.0019510569137273033 0 -0.025231430914568899 -0.0017408839031333055 0 -0.025183973790845464 -0.0017639868796787543 0 -0.025231430914568899 -0.0017408839031333055 0 -0.025565534813192965 -0.0019768956896645314 0 -0.025132283148750205 -0.0015552402514690561 0 -0.025389206611496431 -0.0018024437502076156 0 -0.025120887922066338 -0.0021512235922462571 0 -0.02509556461644994 -0.0019510569137273033 0 -0.025193924172047921 -0.002033103179824928 0 -0.025183973790845464 -0.0017639868796787543 0 -0.02509556461644994 -0.0019510569137273033 0 -0.025193924172047921 -0.002033103179824928 0 -0.02447914992535119 -0.00074123778459273253 0 -0.024962307789871761 -0.0009013535393438205 0 -0.024565039753516746 -0.0010463452198195789 0 -0.024962307789871761 -0.0009013535393438205 0 -0.024565039753516746 -0.0010463452198195789 0 -0.02462627327945506 -0.0013527025684853249 0 -0.02447914992535119 -0.00074123778459273253 0 -0.024565039753516746 -0.0010463452198195789 0 -0.024207411345411309 -0.0011860536985019324 0 -0.024170224081554659 -0.0008467023746816097 0 -0.02447914992535119 -0.00074123778459273253 0 -0.024207411345411309 -0.0011860536985019324 0 -0.024170224081554659 -0.0008467023746816097 0 -0.023983303944947017 -0.0010504290316975294 0 -0.024207411345411309 -0.0011860536985019324 0 -0.023899212463896553 -0.0013325761345187358 0 -0.024031664279053386 -0.0015068437598645494 0 -0.024207411345411309 -0.0011860536985019324 0 -0.024231518208219317 -0.001548153757918568 0 -0.024031664279053386 -0.0015068437598645494 0 -0.024207411345411309 -0.0011860536985019324 0 -0.024565039753516746 -0.0010463452198195789 0 -0.024207411345411309 -0.0011860536985019324 0 -0.02462627327945506 -0.0013527025684853249 0 -0.024231518208219317 -0.001548153757918568 0 -0.024207411345411309 -0.0011860536985019324 0 -0.02462627327945506 -0.0013527025684853249 0 -0.026106108843728909 -0.0027743371169600419 0 -0.025636519931023238 -0.0026856576350861843 0 -0.025710802421219172 -0.0028447248318075927 0 -0.025636519931023238 -0.0026856576350861843 0 -0.025710802421219172 -0.0028447248318075927 0 -0.025440031010713619 -0.0025509137452533709 0 -0.024261601448184195 -0.0012899838528504395 0 -0.024205232329320869 -0.0013034468406382161 0 -0.024229340262814245 -0.0012435660657750325 0 -0.024205232329320869 -0.0013034468406382161 0 -0.024253583933920218 -0.0013780597774303612 0 -0.024167393885019539 -0.0013639279441372274 0 -0.024261601448184195 -0.0012899838528504395 0 -0.024205232329320869 -0.0013034468406382161 0 -0.024253583933920218 -0.0013780597774303612 0 -0.024001073262373877 -0.001088593095995365 0 -0.022743735345347064 -0.00026029277874290194 0 -0.025710802421219172 -0.0028447248318075927 0 -0.025440031010713619 -0.0025509137452533709 0 -0.025665246442536458 -0.0022582688744148755 0 -0.025105826767007174 -0.0022262159049130001 0 -0.024001073262373877 -0.001088593095995365 0 -0.025440031010713619 -0.0025509137452533709 0 -0.024908746745010348 -0.0019879935641479289 0 -0.025665246442536458 -0.0022582688744148755 0 -0.025062453317835152 -0.0024579885588330453 0 -0.025636519931023238 -0.0026856576350861843 0 -0.025440031010713619 -0.0025509137452533709 0 -0.025062453317835152 -0.0024579885588330453 0 -0.025440031010713619 -0.0025509137452533709 0 -0.024908746745010348 -0.0019879935641479289 0 -0.024460937879128803 -0.0016226754120947833 0 -0.024253564397173674 -0.0013873626181482412 0 -0.024744512127520747 -0.0018701571870443539 0 -0.025278525026672993 -0.0019335950005523281 0 -0.024001073262373877 -0.001088593095995365 0 -0.024908746745010348 -0.0019879935641479289 0 -0.024460937879128803 -0.0016226754120947833 0 -0.024744512127520747 -0.0018701571870443539 0 -0.024282440244077642 -0.0014663351913266384 0 -0.024908746745010348 -0.0019879935641479289 0 -0.024460937879128803 -0.0016226754120947833 0 -0.024282440244077642 -0.0014663351913266384 0 -0.024460937879128803 -0.0016226754120947833 0 -0.023942670558910688 -0.0012623002328485374 0 -0.024460937879128803 -0.0016226754120947833 0 -0.023942670558910688 -0.0012623002328485374 0 -0.024253564397173674 -0.0013873626181482412 0 -0.022351130341937794 0.00035911020318426542 0 -0.021875845706943113 0.00051137928260028016 0 -0.021885420899756924 0.00015328298649839922 0 -0.022153280937909848 -0.00020009355198852849 0 -0.022351130341937794 0.00035911020318426542 0 -0.021885420899756924 0.00015328298649839922 0 -0.022230763799121679 0.00073562007108246401 0 -0.021875845706943113 0.00051137928260028016 0 -0.021654949508124688 0.00070287746658221012 0 -0.023215321447363126 -0.00049886849932247862 0 -0.024001073262373877 -0.001088593095995365 0 -0.022351130341937794 0.00035911020318426542 0 -0.022230763799121679 0.00073562007108246401 0 -0.021875845706943113 0.00051137928260028016 0 -0.021875845706943113 0.00051137928260028016 0 -0.021568295315035787 0.0005556309659169869 0 -0.021654949508124688 0.00070287746658221012 0 -0.021875845706943113 0.00051137928260028016 0 -0.021636495066994017 0.00034357603873847955 0 -0.021568295315035787 0.0005556309659169869 0 -0.021875845706943113 0.00051137928260028016 0 -0.021636495066994017 0.00034357603873847955 0 -0.021885420899756924 0.00015328298649839922 0 -0.021575562541522725 8.506057100707151e-06 0 -0.021636495066994017 0.00034357603873847955 0 -0.021885420899756924 0.00015328298649839922 0 -0.021469546613950251 0.00021476023112826088 0 -0.021311233518363708 0.00025203112654496618 0 -0.021478275794551232 0.00043102252305996582 0 -0.021311233518363708 0.00025203112654496618 0 -0.021478275794551232 0.00043102252305996582 0 -0.021362043814222461 0.00047024772674032327 0 -0.021469546613950251 0.00021476023112826088 0 -0.021636495066994017 0.00034357603873847955 0 -0.021478275794551232 0.00043102252305996582 0 -0.021636495066994017 0.00034357603873847955 0 -0.021478275794551232 0.00043102252305996582 0 -0.021568295315035787 0.0005556309659169869 0 -0.021478275794551232 0.00043102252305996582 0 -0.021501479887402204 0.00062376982867716566 0 -0.021568295315035787 0.0005556309659169869 0 -0.021478275794551232 0.00043102252305996582 0 -0.021501479887402204 0.00062376982867716566 0 -0.021362043814222461 0.00047024772674032327 0 -0.021568295315035787 0.0005556309659169869 0 -0.021498427951555852 0.00056682988318105566 0 -0.021654949508124688 0.00070287746658221012 0 -0.021501479887402204 0.00062376982867716566 0 -0.021568295315035787 0.0005556309659169869 0 -0.021498427951555852 0.00056682988318105566 0 -0.022880327846741027 -0.00063765468690891449 0 -0.022743735345347064 -0.00026029277874290194 0 -0.021498427951555852 0.00056682988318105566 0 -0.021478006504192276 0.00012180506060708901 0 -0.021654949508124688 0.00070287746658221012 0 -0.024028356957104473 -0.0013624089434902224 0 -0.024167393885019539 -0.0013639279441372274 0 -0.02413456670865859 -0.0013086476428571128 0 -0.024205232329320869 -0.0013034468406382161 0 -0.024167393885019539 -0.0013639279441372274 0 -0.02413456670865859 -0.0013086476428571128 0 -0.024205232329320869 -0.0013034468406382161 0 -0.024166648990609583 -0.001245504488788888 0 -0.024229340262814245 -0.0012435660657750325 0 -0.024205232329320869 -0.0013034468406382161 0 -0.02413456670865859 -0.0013086476428571128 0 -0.024166648990609583 -0.001245504488788888 0 -0.02413456670865859 -0.0013086476428571128 0 -0.024002154069412661 -0.0012143707429564962 0 -0.024166648990609583 -0.001245504488788888 0 -0.024028356957104473 -0.0013624089434902224 0 -0.02413456670865859 -0.0013086476428571128 0 -0.024002154069412661 -0.0012143707429564962 0 -0.024028356957104473 -0.0013624089434902224 0 -0.023818905171885563 -0.0011523076939713294 0 -0.024002154069412661 -0.0012143707429564962 0 -0.023818905171885563 -0.0011523076939713294 0 -0.023866680198676129 -0.0011945967769362257 0 -0.023760164090562953 -0.0011313727053446005 0 -0.023818905171885563 -0.0011523076939713294 0 -0.024002154069412661 -0.0012143707429564962 0 -0.023866680198676129 -0.0011945967769362257 0 -0.024002154069412661 -0.0012143707429564962 0 -0.023866680198676129 -0.0011945967769362257 0 -0.024013130222918695 -0.0012293124234221539 0 -0.023866680198676129 -0.0011945967769362257 0 -0.023927331004296823 -0.0012317451071684204 0 -0.023967693668341332 -0.0012518193059871258 0 -0.023866680198676129 -0.0011945967769362257 0 -0.023927331004296823 -0.0012317451071684204 0 -0.023811488543527898 -0.0011845040121012129 0 -0.023972147419985667 -0.0012472285549133303 0 -0.023927331004296823 -0.0012317451071684204 0 -0.024006104862038229 -0.0012027505209943625 0 -0.023972147419985667 -0.0012472285549133303 0 -0.023927331004296823 -0.0012317451071684204 0 -0.023967693668341332 -0.0012518193059871258 0 -0.023927331004296823 -0.0012317451071684204 0 -0.024006104862038229 -0.0012027505209943625 0 -0.023811488543527898 -0.0011845040121012129 0 -0.022644334028612788 -0.00019947822364002079 0 -0.022781725078408973 -1.2999680995996342e-07 0 -0.022869521964048276 -0.00014517051327317482 0 -0.023818905171885563 -0.0011523076939713294 0 -0.023760164090562953 -0.0011313727053446005 0 -0.02358788789090439 -0.00097162837119570665 0 -0.023866680198676129 -0.0011945967769362257 0 -0.023760164090562953 -0.0011313727053446005 0 -0.023811488543527898 -0.0011845040121012129 0 -0.023760164090562953 -0.0011313727053446005 0 -0.023811488543527898 -0.0011845040121012129 0 -0.02358788789090439 -0.00097162837119570665 0 -0.024006104862038229 -0.0012027505209943625 0 -0.023811488543527898 -0.0011845040121012129 0 -0.02358788789090439 -0.00097162837119570665 0 -0.024006104862038229 -0.0012027505209943625 0 -0.02358788789090439 -0.00097162837119570665 0 -0.022137281552561575 0.00045496392433930563 0 -0.022714264174856062 0.00027474033022100824 0 -0.022696687134011805 0.00078526880792675923 0 -0.023019590673315989 1.382325833676653e-06 0 -0.02169414350101068 0.00049555750544288837 0 -0.022626098012227633 -0.00025000747484978824 0 -0.022644334028612788 -0.00019947822364002079 0 -0.022444967445163059 0.00028443240733847137 0 -0.022137281552561575 0.00045496392433930563 0 -0.023258199742232442 -0.00065542486340976766 0 -0.02226881965162638 0.00034693609065889841 0 -0.022644334028612788 -0.00019947822364002079 0 -0.022624548626886339 0.0001366296949046117 0 -0.022444967445163059 0.00028443240733847137 0 -0.022644334028612788 -0.00019947822364002079 0 -0.022781725078408973 -1.2999680995996342e-07 0 -0.022624548626886339 0.0001366296949046117 0 -0.022781725078408973 -1.2999680995996342e-07 0 -0.022624548626886339 0.0001366296949046117 0 -0.022714264174856062 0.00027474033022100824 0 -0.022714264174856062 0.00027474033022100824 0 -0.022591519195381129 0.00038725099651067937 0 -0.022537243548649864 0.00032263409137825379 0 -0.022624548626886339 0.0001366296949046117 0 -0.022714264174856062 0.00027474033022100824 0 -0.022537243548649864 0.00032263409137825379 0 -0.022714264174856062 0.00027474033022100824 0 -0.022591519195381129 0.00038725099651067937 0 -0.02262918481135455 0.0005154418247499754 0 -0.022591519195381129 0.00038725099651067937 0 -0.022497720455014577 0.00052645862054020065 0 -0.02262918481135455 0.0005154418247499754 0 -0.022444967445163059 0.00028443240733847137 0 -0.022137281552561575 0.00045496392433930563 0 -0.022274038373626483 0.00052429209521108878 0 -0.022624548626886339 0.0001366296949046117 0 -0.022444967445163059 0.00028443240733847137 0 -0.022537243548649864 0.00032263409137825379 0 -0.022444967445163059 0.00028443240733847137 0 -0.022537243548649864 0.00032263409137825379 0 -0.022433660366949562 0.00042931735914221095 0 -0.022433660366949562 0.00042931735914221095 0 -0.022497720455014577 0.00052645862054020065 0 -0.022274038373626483 0.00052429209521108878 0 -0.022591519195381129 0.00038725099651067937 0 -0.022537243548649864 0.00032263409137825379 0 -0.022433660366949562 0.00042931735914221095 0 -0.022591519195381129 0.00038725099651067937 0 -0.022433660366949562 0.00042931735914221095 0 -0.022497720455014577 0.00052645862054020065 0 -0.022444967445163059 0.00028443240733847137 0 -0.022433660366949562 0.00042931735914221095 0 -0.022274038373626483 0.00052429209521108878 0 -0.021478006504192276 0.00012180506060708901 0 -0.02358788789090439 -0.00097162837119570665 0 -0.022137281552561575 0.00045496392433930563 0 -0.022880327846741027 -0.00063765468690891449 0 -0.023547366489490344 -0.00093550918831793574 0 -0.024028356957104473 -0.0013624089434902224 0 -0.023818905171885563 -0.0011523076939713294 0 -0.02358788789090439 -0.00097162837119570665 0 -0.021498427951555852 0.00056682988318105566 0 -0.021478006504192276 0.00012180506060708901 0 -0.022137281552561575 0.00045496392433930563 0 -0.021498427951555852 0.00056682988318105566 0 -0.022137281552561575 0.00045496392433930563 0 -0.021685733759427915 0.00079099858048287477 0 -0.021685733759427915 0.00079099858048287477 0 -0.022408316891350113 0.00064365697139573419 0 -0.022274038373626483 0.00052429209521108878 0 -0.022137281552561575 0.00045496392433930563 0 -0.021685733759427915 0.00079099858048287477 0 -0.022274038373626483 0.00052429209521108878 0 -0.021685733759427915 0.00079099858048287477 0 -0.021462505523314232 0.00063695736790288454 0 -0.021201803398842627 0.0008044227659490383 0 -0.021501479887402204 0.00062376982867716566 0 -0.021498427951555852 0.00056682988318105566 0 -0.021685733759427915 0.00079099858048287477 0 -0.021501479887402204 0.00062376982867716566 0 -0.021685733759427915 0.00079099858048287477 0 -0.021462505523314232 0.00063695736790288454 0 -0.021501479887402204 0.00062376982867716566 0 -0.021462505523314232 0.00063695736790288454 0 -0.021362043814222461 0.00047024772674032327 0 -0.021462505523314232 0.00063695736790288454 0 -0.021219258066283379 0.00055995989241981433 0 -0.021201803398842627 0.0008044227659490383 0 -0.021462505523314232 0.00063695736790288454 0 -0.021219258066283379 0.00055995989241981433 0 -0.021362043814222461 0.00047024772674032327 0 -0.021150750871176172 0.00032133999225403579 0 -0.021219258066283379 0.00055995989241981433 0 -0.020997324346712205 0.00047893493439786185 0 -0.021150750871176172 0.00032133999225403579 0 -0.021219258066283379 0.00055995989241981433 0 -0.021362043814222461 0.00047024772674032327 0 -0.021150750871176172 0.00032133999225403579 0 -0.021311233518363708 0.00025203112654496618 0 -0.021362043814222461 0.00047024772674032327 0 -0.020711573250852162 0.00050571136603181255 0 -0.020997324346712205 0.00047893493439786185 0 -0.02087024226630621 0.00070946668550483591 0 -0.020892203778214491 0.00025187392452294562 0 -0.020711573250852162 0.00050571136603181255 0 -0.020997324346712205 0.00047893493439786185 0 -0.021219258066283379 0.00055995989241981433 0 -0.020997324346712205 0.00047893493439786185 0 -0.021068302147458702 0.00066962514724375059 0 -0.021219258066283379 0.00055995989241981433 0 -0.021068302147458702 0.00066962514724375059 0 -0.021201803398842627 0.0008044227659490383 0 -0.020997324346712205 0.00047893493439786185 0 -0.021068302147458702 0.00066962514724375059 0 -0.02087024226630621 0.00070946668550483591 0 -0.021068302147458702 0.00066962514724375059 0 -0.02087024226630621 0.00070946668550483591 0 -0.020956211970009443 0.00086811100234918202 0 -0.020711573250852162 0.00050571136603181255 0 -0.02087024226630621 0.00070946668550483591 0 -0.020657719380989675 0.00080674672847072775 0 -0.02087024226630621 0.00070946668550483591 0 -0.020771087972094256 0.00094736286616245197 0 -0.020657719380989675 0.00080674672847072775 0 -0.021685733759427915 0.00079099858048287477 0 -0.020977097585891568 0.0010078315973930179 0 -0.020848699002169083 0.0011466002032741289 0 -0.020771087972094256 0.00094736286616245197 0 -0.020848699002169083 0.0011466002032741289 0 -0.020529785156410692 0.0010417974248113908 0 -0.021695618935243976 0.00086448354467658919 0 -0.02169414350101068 0.00049555750544288837 0 -0.021685733759427915 0.00079099858048287477 0 -0.022408316891350113 0.00064365697139573419 0 -0.022696687134011805 0.00078526880792675923 0 -0.02087024226630621 0.00070946668550483591 0 -0.020771087972094256 0.00094736286616245197 0 -0.020956211970009443 0.00086811100234918202 0 -0.020771087972094256 0.00094736286616245197 0 -0.020956211970009443 0.00086811100234918202 0 -0.020850552557171945 0.0010095863854199551 0 -0.020956211970009443 0.00086811100234918202 0 -0.020850552557171945 0.0010095863854199551 0 -0.020977097585891568 0.0010078315973930179 0 -0.020771087972094256 0.00094736286616245197 0 -0.020850552557171945 0.0010095863854199551 0 -0.020848699002169083 0.0011466002032741289 0 -0.020850552557171945 0.0010095863854199551 0 -0.020977097585891568 0.0010078315973930179 0 -0.020848699002169083 0.0011466002032741289 0 -0.021685733759427915 0.00079099858048287477 0 -0.021201803398842627 0.0008044227659490383 0 -0.020977097585891568 0.0010078315973930179 0 -0.021068302147458702 0.00066962514724375059 0 -0.020956211970009443 0.00086811100234918202 0 -0.021201803398842627 0.0008044227659490383 0 -0.020956211970009443 0.00086811100234918202 0 -0.021201803398842627 0.0008044227659490383 0 -0.020977097585891568 0.0010078315973930179 0 -0.022408316891350113 0.00064365697139573419 0 -0.022696687134011805 0.00078526880792675923 0 -0.022565368699232053 0.00059004977928818481 0 -0.022497720455014577 0.00052645862054020065 0 -0.022408316891350113 0.00064365697139573419 0 -0.022274038373626483 0.00052429209521108878 0 -0.022497720455014577 0.00052645862054020065 0 -0.022408316891350113 0.00064365697139573419 0 -0.022565368699232053 0.00059004977928818481 0 -0.022714264174856062 0.00027474033022100824 0 -0.022696687134011805 0.00078526880792675923 0 -0.02262918481135455 0.0005154418247499754 0 -0.022696687134011805 0.00078526880792675923 0 -0.022565368699232053 0.00059004977928818481 0 -0.02262918481135455 0.0005154418247499754 0 -0.022497720455014577 0.00052645862054020065 0 -0.022565368699232053 0.00059004977928818481 0 -0.02262918481135455 0.0005154418247499754 0 -0.020312458845310258 0.001003974906301565 0 -0.020529785156410692 0.0010417974248113908 0 -0.020083879040749736 0.0014424527967587056 0 -0.021852750528725231 3.9487147417860088e-05 0 -0.022486846922168676 -4.384890339967617e-05 0 -0.022188867535750542 -0.00018893868697906794 0 -0.020848699002169083 0.0011466002032741289 0 -0.020529785156410692 0.0010417974248113908 0 -0.020083879040749736 0.0014424527967587056 0 -0.02169414350101068 0.00049555750544288837 0 -0.021190336450124886 0.00071550079894093011 0 -0.020312458845310258 0.001003974906301565 0 -0.020529785156410692 0.0010417974248113908 0 -0.020487840619842268 0.00090190954781540751 0 -0.020771087972094256 0.00094736286616245197 0 -0.020529785156410692 0.0010417974248113908 0 -0.020657719380989675 0.00080674672847072775 0 -0.020711573250852162 0.00050571136603181255 0 -0.020657719380989675 0.00080674672847072775 0 -0.020455725877433086 0.00075554120911639183 0 -0.020529785156410692 0.0010417974248113908 0 -0.020657719380989675 0.00080674672847072775 0 -0.020487840619842268 0.00090190954781540751 0 -0.020657719380989675 0.00080674672847072775 0 -0.020487840619842268 0.00090190954781540751 0 -0.020455725877433086 0.00075554120911639183 0 -0.020312458845310258 0.001003974906301565 0 -0.020487840619842268 0.00090190954781540751 0 -0.020455725877433086 0.00075554120911639183 0 -0.020312458845310258 0.001003974906301565 0 -0.020455725877433086 0.00075554120911639183 0 -0.020112837185082038 0.00079129103372926142 0 -0.020392037001574069 0.00045449320777247179 0 -0.020455725877433086 0.00075554120911639183 0 -0.020112837185082038 0.00079129103372926142 0 -0.020392037001574069 0.00045449320777247179 0 -0.020711573250852162 0.00050571136603181255 0 -0.020455725877433086 0.00075554120911639183 0 -0.019635967271406839 0.0010520116520850258 0 -0.020112837185082038 0.00079129103372926142 0 -0.020083879040749736 0.0014424527967587056 0 -0.020312458845310258 0.001003974906301565 0 -0.020112837185082038 0.00079129103372926142 0 -0.020083879040749736 0.0014424527967587056 0 -0.022486846922168676 -4.384890339967617e-05 0 -0.022318371363741974 -0.00033329396610207656 0 -0.022557969364318361 -0.00050440044023698078 0 -0.022907350616525882 -0.00044738320559721334 0 -0.022486846922168676 -4.384890339967617e-05 0 -0.022557969364318361 -0.00050440044023698078 0 -0.022318371363741974 -0.00033329396610207656 0 -0.022318634627128128 -0.00058912951935230007 0 -0.022557969364318361 -0.00050440044023698078 0 -0.021852750528725231 3.9487147417860088e-05 0 -0.022188867535750542 -0.00018893868697906794 0 -0.022096253343257072 -0.00041915465200808368 0 -0.022486846922168676 -4.384890339967617e-05 0 -0.022188867535750542 -0.00018893868697906794 0 -0.022318371363741974 -0.00033329396610207656 0 -0.022781725078408973 -1.2999680995996342e-07 0 -0.022714264174856062 0.00027474033022100824 0 -0.023019590673315989 1.382325833676653e-06 0 -0.022781725078408973 -1.2999680995996342e-07 0 -0.023019590673315989 1.382325833676653e-06 0 -0.022869521964048276 -0.00014517051327317482 0 -0.022096253343257072 -0.00041915465200808368 0 -0.022318371363741974 -0.00033329396610207656 0 -0.022318634627128128 -0.00058912951935230007 0 -0.022188867535750542 -0.00018893868697906794 0 -0.022096253343257072 -0.00041915465200808368 0 -0.022318371363741974 -0.00033329396610207656 0 -0.023972147419985667 -0.0012472285549133303 0 -0.024006104862038229 -0.0012027505209943625 0 -0.023964100492122362 -0.0012665840458002523 0 -0.022626098012227633 -0.00025000747484978824 0 -0.022826730469456734 -0.00076841145115173737 0 -0.022096253343257072 -0.00041915465200808368 0 -0.022318634627128128 -0.00058912951935230007 0 -0.022344674162032452 -0.00086475845253059902 0 -0.023258199742232442 -0.00065542486340976766 0 -0.02364742418352966 -0.0010647195688095179 0 -0.023019590673315989 1.382325833676653e-06 0 -0.023028960902849432 -0.00038248754188448285 0 -0.023376457223832938 -0.00070395246953006369 0 -0.022644334028612788 -0.00019947822364002079 0 -0.023028960902849432 -0.00038248754188448285 0 -0.023203219553863768 -0.00080228543463866915 0 -0.023019590673315989 1.382325833676653e-06 0 -0.022869521964048276 -0.00014517051327317482 0 -0.023028960902849432 -0.00038248754188448285 0 -0.022644334028612788 -0.00019947822364002079 0 -0.022869521964048276 -0.00014517051327317482 0 -0.023028960902849432 -0.00038248754188448285 0 -0.023028960902849432 -0.00038248754188448285 0 -0.023203219553863768 -0.00080228543463866915 0 -0.023376457223832938 -0.00070395246953006369 0 -0.022431859998406734 -0.00071889108830365913 0 -0.022523288371019762 -0.00086441724179874468 0 -0.022344674162032452 -0.00086475845253059902 0 -0.022318634627128128 -0.00058912951935230007 0 -0.022431859998406734 -0.00071889108830365913 0 -0.022344674162032452 -0.00086475845253059902 0 -0.022431859998406734 -0.00071889108830365913 0 -0.022591456831682 -0.00075111187123156253 0 -0.022523288371019762 -0.00086441724179874468 0 -0.022791295986367158 -0.00070273066648619169 0 -0.022591456831682 -0.00075111187123156253 0 -0.022692906623972886 -0.0009206244462646718 0 -0.022431859998406734 -0.00071889108830365913 0 -0.022591456831682 -0.00075111187123156253 0 -0.022557969364318361 -0.00050440044023698078 0 -0.022791295986367158 -0.00070273066648619169 0 -0.022591456831682 -0.00075111187123156253 0 -0.022557969364318361 -0.00050440044023698078 0 -0.022318634627128128 -0.00058912951935230007 0 -0.022431859998406734 -0.00071889108830365913 0 -0.022557969364318361 -0.00050440044023698078 0 -0.02364742418352966 -0.0010647195688095179 0 -0.023416846326292349 -0.0012729756187727652 0 -0.022581938190191612 -0.0010157641863003108 0 -0.022344674162032452 -0.00086475845253059902 0 -0.022587035522392888 -0.0013048509329468209 0 -0.023964100492122362 -0.0012665840458002523 0 -0.02394384129389638 -0.0012378763903469585 0 -0.023902630880584017 -0.0012239526293383602 0 -0.023203219553863768 -0.00080228543463866915 0 -0.023376457223832938 -0.00070395246953006369 0 -0.023713007325097547 -0.00136391639480116 0 -0.022826730469456734 -0.00076841145115173737 0 -0.023416846326292349 -0.0012729756187727652 0 -0.022761826630918403 -0.001124487487136447 0 -0.022581938190191612 -0.0010157641863003108 0 -0.022587035522392888 -0.0013048509329468209 0 -0.022761826630918403 -0.001124487487136447 0 -0.022581938190191612 -0.0010157641863003108 0 -0.022692906623972886 -0.0009206244462646718 0 -0.022581938190191612 -0.0010157641863003108 0 -0.022692906623972886 -0.0009206244462646718 0 -0.022523288371019762 -0.00086441724179874468 0 -0.022591456831682 -0.00075111187123156253 0 -0.022692906623972886 -0.0009206244462646718 0 -0.022523288371019762 -0.00086441724179874468 0 -0.022581938190191612 -0.0010157641863003108 0 -0.022523288371019762 -0.00086441724179874468 0 -0.022344674162032452 -0.00086475845253059902 0 -0.023964100492122362 -0.0012665840458002523 0 -0.02397980114638432 -0.001258375580011156 0 -0.023967371906619506 -0.0012524519660001589 0 -0.023972147419985667 -0.0012472285549133303 0 -0.023964100492122362 -0.0012665840458002523 0 -0.02397980114638432 -0.001258375580011156 0 -0.023967371906619506 -0.0012524519660001589 0 -0.02394384129389638 -0.0012378763903469585 0 -0.023984188897491217 -0.0012429923146644235 0 -0.02397980114638432 -0.001258375580011156 0 -0.023967371906619506 -0.0012524519660001589 0 -0.023984188897491217 -0.0012429923146644235 0 -0.023964100492122362 -0.0012665840458002523 0 -0.023967371906619506 -0.0012524519660001589 0 -0.02394384129389638 -0.0012378763903469585 0 -0.02394384129389638 -0.0012378763903469585 0 -0.02398110490078962 -0.001188090517117731 0 -0.023902630880584017 -0.0012239526293383602 0 -0.02394384129389638 -0.0012378763903469585 0 -0.023984188897491217 -0.0012429923146644235 0 -0.02398110490078962 -0.001188090517117731 0 -0.023994751248513742 -0.0013308754773909181 0 -0.023644566303036837 -0.0013342967854029517 0 -0.02398110490078962 -0.001188090517117731 0 -0.023902630880584017 -0.0012239526293383602 0 -0.023883724947767408 -0.0011908869170125899 0 -0.023343545571560886 -0.001380827221193606 0 -0.023416846326292349 -0.0012729756187727652 0 -0.023416846326292349 -0.0012729756187727652 0 -0.023644566303036837 -0.0013342967854029517 0 -0.023509663294006139 -0.0013923289547551989 0 -0.023413831607572985 -0.0012864317076720702 0 -0.023468468124957245 -0.0013919044874030127 0 -0.02396342251643771 -0.0014701744763142572 0 -0.023631726381515551 -0.0015345679681158524 0 -0.023779289619665012 -0.0014354608050692087 0 -0.023631726381515551 -0.0015345679681158524 0 -0.023779289619665012 -0.0014354608050692087 0 -0.023637424115831331 -0.0014623498884936729 0 -0.023779289619665012 -0.0014354608050692087 0 -0.023637424115831331 -0.0014623498884936729 0 -0.023694652377448111 -0.001342226871931458 0 -0.023779289619665012 -0.0014354608050692087 0 -0.023694652377448111 -0.001342226871931458 0 -0.02382595840841013 -0.0012257170783429503 0 -0.023605380487158375 -0.0014943573813134957 0 -0.023637424115831331 -0.0014623498884936729 0 -0.023694652377448111 -0.001342226871931458 0 -0.023694652377448111 -0.001342226871931458 0 -0.02382595840841013 -0.0012257170783429503 0 -0.023661605358286986 -0.00095538152147430606 0 -0.023605380487158375 -0.0014943573813134957 0 -0.023694652377448111 -0.001342226871931458 0 -0.023661605358286986 -0.00095538152147430606 0 -0.023785142124625812 -0.0014042052291511474 0 -0.023237021915400436 -0.0013101751934046571 0 -0.023779289619665012 -0.0014354608050692087 0 -0.02382595840841013 -0.0012257170783429503 0 -0.02407369942457295 -0.0012682594152046076 0 -0.02382595840841013 -0.0012257170783429503 0 -0.02407369942457295 -0.0012682594152046076 0 -0.02394638169457531 -0.0010060435317893529 0 -0.02396342251643771 -0.0014701744763142572 0 -0.023779289619665012 -0.0014354608050692087 0 -0.02407369942457295 -0.0012682594152046076 0 -0.02396342251643771 -0.0014701744763142572 0 -0.02407369942457295 -0.0012682594152046076 0 -0.024213310060380629 -0.0012818989923720503 0 -0.02407369942457295 -0.0012682594152046076 0 -0.02418336009842326 -0.00092258242564880117 0 -0.02394638169457531 -0.0010060435317893529 0 -0.02407369942457295 -0.0012682594152046076 0 -0.024548973104765972 -0.0012420193714604559 0 -0.02418336009842326 -0.00092258242564880117 0 -0.02407369942457295 -0.0012682594152046076 0 -0.024548973104765972 -0.0012420193714604559 0 -0.024213310060380629 -0.0012818989923720503 0 -0.024213310060380629 -0.0012818989923720503 0 -0.024033459595611741 -0.0012571514827423931 0 -0.024013130222918695 -0.0012293124234221539 0 -0.024213310060380629 -0.0012818989923720503 0 -0.024013130222918695 -0.0012293124234221539 0 -0.024147160015493992 -0.0012348384332891234 0 -0.02398110490078962 -0.001188090517117731 0 -0.024213310060380629 -0.0012818989923720503 0 -0.024033459595611741 -0.0012571514827423931 0 -0.023994751248513742 -0.0013308754773909181 0 -0.024174885581054167 -0.0012889301377796163 0 -0.023984188897491217 -0.0012429923146644235 0 -0.02398110490078962 -0.001188090517117731 0 -0.024033459595611741 -0.0012571514827423931 0 -0.024033459595611741 -0.0012571514827423931 0 -0.023967693668341332 -0.0012518193059871258 0 -0.024013130222918695 -0.0012293124234221539 0 -0.02397980114638432 -0.001258375580011156 0 -0.023984188897491217 -0.0012429923146644235 0 -0.024033459595611741 -0.0012571514827423931 0 -0.02397980114638432 -0.001258375580011156 0 -0.024033459595611741 -0.0012571514827423931 0 -0.023967693668341332 -0.0012518193059871258 0 -0.023972147419985667 -0.0012472285549133303 0 -0.02397980114638432 -0.001258375580011156 0 -0.023967693668341332 -0.0012518193059871258 0 -0.023866680198676129 -0.0011945967769362257 0 -0.023967693668341332 -0.0012518193059871258 0 -0.024013130222918695 -0.0012293124234221539 0 -0.024002154069412661 -0.0012143707429564962 0 -0.024013130222918695 -0.0012293124234221539 0 -0.024147160015493992 -0.0012348384332891234 0 -0.024002154069412661 -0.0012143707429564962 0 -0.024147160015493992 -0.0012348384332891234 0 -0.024166648990609583 -0.001245504488788888 0 -0.024147160015493992 -0.0012348384332891234 0 -0.024166648990609583 -0.001245504488788888 0 -0.024233445236367231 -0.0012243634635937944 0 -0.024166648990609583 -0.001245504488788888 0 -0.024233445236367231 -0.0012243634635937944 0 -0.024229340262814245 -0.0012435660657750325 0 -0.024147160015493992 -0.0012348384332891234 0 -0.024233445236367231 -0.0012243634635937944 0 -0.024299627748305543 -0.0012365825448606049 0 -0.024213310060380629 -0.0012818989923720503 0 -0.024147160015493992 -0.0012348384332891234 0 -0.024299627748305543 -0.0012365825448606049 0 -0.024548973104765972 -0.0012420193714604559 0 -0.024213310060380629 -0.0012818989923720503 0 -0.024299627748305543 -0.0012365825448606049 0 -0.024613731091291193 -0.0012662487541566314 0 -0.025234859624503427 -0.0016752754100909564 0 -0.024548973104765972 -0.0012420193714604559 0 -0.024299627748305543 -0.0012365825448606049 0 -0.024266423679455307 -0.0012686657281742219 0 -0.024233445236367231 -0.0012243634635937944 0 -0.024266423679455307 -0.0012686657281742219 0 -0.024247742760573957 -0.0012351655072389096 0 -0.024233445236367231 -0.0012243634635937944 0 -0.024299627748305543 -0.0012365825448606049 0 -0.024266423679455307 -0.0012686657281742219 0 -0.024266423679455307 -0.0012686657281742219 0 -0.024247742760573957 -0.0012351655072389096 0 -0.024256566022236338 -0.00124378172732574 0 -0.026357911527517992 -0.0019780135392908661 0 -0.027760359989106358 -0.0018357616119749158 0 -0.028157494589091565 -0.0025400495228760302 0 -0.026357911527517992 -0.0019780135392908661 0 -0.027760359989106358 -0.0018357616119749158 0 -0.027229756004144696 -0.0014689286502453595 0 -0.025234859624503427 -0.0016752754100909564 0 -0.026614723043236956 -0.0013438432974889583 0 -0.026357911527517992 -0.0019780135392908661 0 -0.027229756004144696 -0.0014689286502453595 0 -0.026957860247119575 -0.00076253447596516522 0 -0.027760359989106358 -0.0018357616119749158 0 -0.027229756004144696 -0.0014689286502453595 0 -0.027727905279878687 -0.0012288486988168441 0 -0.026614723043236956 -0.0013438432974889583 0 -0.028486788740014243 -0.0011030007574961867 0 -0.028826399268529614 -0.0010485155393581093 0 -0.028676795472339197 -0.0012677107452128016 0 -0.028635048447533819 -0.00079287113534771525 0 -0.027760359989106358 -0.0018357616119749158 0 -0.028157494589091565 -0.0025400495228760302 0 -0.028277939390160999 -0.0013345418608548788 0 -0.028826399268529614 -0.0010485155393581093 0 -0.028635048447533819 -0.00079287113534771525 0 -0.028831091494789168 -0.00076739674922471997 0 -0.029088481457305044 -0.00080671086675373571 0 -0.028826399268529614 -0.0010485155393581093 0 -0.028831091494789168 -0.00076739674922471997 0 -0.027760359989106358 -0.0018357616119749158 0 -0.028277939390160999 -0.0013345418608548788 0 -0.027727905279878687 -0.0012288486988168441 0 -0.024247742760573957 -0.0012351655072389096 0 -0.024256566022236338 -0.00124378172732574 0 -0.024254470518694244 -0.0012371717604758709 0 -0.026409123033576315 -0.0017077858144175012 0 -0.026901698469403827 -0.00084259167744466098 0 -0.025741433082986018 -0.00061335708184521531 0 -0.02912473593047089 -0.0013228195639641094 0 -0.028826399268529614 -0.0010485155393581093 0 -0.028676795472339197 -0.0012677107452128016 0 -0.026614723043236956 -0.0013438432974889583 0 -0.024809034121575622 -0.001638086574747528 0 -0.028118954086468601 -0.0011356611573061174 0 -0.026614723043236956 -0.0013438432974889583 0 -0.026455897994145858 -0.0024614810421432266 0 -0.026409123033576315 -0.0017077858144175012 0 -0.025754994905697541 -0.002291267982575057 0 -0.026409123033576315 -0.0017077858144175012 0 -0.025741433082986018 -0.00061335708184521531 0 -0.025754994905697541 -0.002291267982575057 0 -0.024233445236367231 -0.0012243634635937944 0 -0.024247742760573957 -0.0012351655072389096 0 -0.024229340262814245 -0.0012435660657750325 0 -0.024247742760573957 -0.0012351655072389096 0 -0.024254470518694244 -0.0012371717604758709 0 -0.024229340262814245 -0.0012435660657750325 0 -0.024261601448184195 -0.0012899838528504395 0 -0.024254470518694244 -0.0012371717604758709 0 -0.024229340262814245 -0.0012435660657750325 0 -0.026106108843728909 -0.0027743371169600419 0 -0.025710802421219172 -0.0028447248318075927 0 -0.025754994905697541 -0.002291267982575057 0 -0.026455897994145858 -0.0024614810421432266 0 -0.026106108843728909 -0.0027743371169600419 0 -0.025754994905697541 -0.002291267982575057 0 -0.025105826767007174 -0.0022262159049130001 0 -0.024809034121575622 -0.001638086574747528 0 -0.034989906302403069 -0.00088310300301126213 0 -0.034572987021842486 -0.00049332077432283567 0 -0.034301836093050694 -0.0011882694615526048 0 -0.034572987021842486 -0.00049332077432283567 0 -0.034372219366014159 -0.00057173728942168812 0 -0.034274312645269651 -0.00095905341918891087 0 -0.034572987021842486 -0.00049332077432283567 0 -0.034301836093050694 -0.0011882694615526048 0 -0.03317781923437995 -0.00091776734724950345 0 -0.034247420638360858 -0.00054702273337460582 0 -0.03438349035894215 -0.0010082950985190961 0 -0.031074423742239884 -4.1115530847338684e-05 0 -0.029562057504881795 -0.00029372534697340178 0 -0.034301836093050694 -0.0011882694615526048 0 -0.032998497238301297 -0.0015113125952012825 0 -0.03317781923437995 -0.00091776734724950345 0 -0.027873089372863775 0.0012178537353625431 0 -0.027454876732970774 0.00024195840982476908 0 -0.026241881178544521 0.00088455896002771121 0 -0.029405760302442702 0.0014540083916945491 0 -0.027873089372863775 0.0012178537353625431 0 -0.02829674276035464 0.0005835422751046636 0 -0.032174381495484579 0.00080144397862119319 0 -0.031074423742239884 -4.1115530847338684e-05 0 -0.027873089372863775 0.0012178537353625431 0 -0.02829674276035464 0.0005835422751046636 0 -0.027454876732970774 0.00024195840982476908 0 -0.028847253268681976 0.00022008442201442764 0 -0.028467129856299407 -6.6980257144843382e-05 0 -0.028628531459014537 -0.00061122144964285041 0 -0.028847253268681976 0.00022008442201442764 0 -0.02829674276035464 0.0005835422751046636 0 -0.028467129856299407 -6.6980257144843382e-05 0 -0.02829674276035464 0.0005835422751046636 0 -0.028467129856299407 -6.6980257144843382e-05 0 -0.027454876732970774 0.00024195840982476908 0 -0.028467129856299407 -6.6980257144843382e-05 0 -0.027774819755146087 -0.00064065059214766227 0 -0.027454876732970774 0.00024195840982476908 0 -0.028467129856299407 -6.6980257144843382e-05 0 -0.028277939390160999 -0.0013345418608548788 0 -0.027774819755146087 -0.00064065059214766227 0 -0.028985388121207534 -0.00048039847197120262 0 -0.029010005358432182 0.00025644233631391802 0 -0.028628531459014537 -0.00061122144964285041 0 -0.028467129856299407 -6.6980257144843382e-05 0 -0.028635048447533819 -0.00079287113534771525 0 -0.028628531459014537 -0.00061122144964285041 0 -0.028481759162566476 -0.00012480384771285108 0 -0.028486788740014243 -0.0011030007574961867 0 -0.028744351807020268 0.00020448058558598188 0 -0.028673796989150974 -0.00052484461065881855 0 -0.028277939390160999 -0.0013345418608548788 0 -0.027727905279878687 -0.0012288486988168441 0 -0.027774819755146087 -0.00064065059214766227 0 -0.028635048447533819 -0.00079287113534771525 0 -0.028831091494789168 -0.00076739674922471997 0 -0.028628531459014537 -0.00061122144964285041 0 -0.028985388121207534 -0.00048039847197120262 0 -0.028831091494789168 -0.00076739674922471997 0 -0.028628531459014537 -0.00061122144964285041 0 -0.027774819755146087 -0.00064065059214766227 0 -0.026957860247119575 -0.00076253447596516522 0 -0.027454876732970774 0.00024195840982476908 0 -0.027229756004144696 -0.0014689286502453595 0 -0.027727905279878687 -0.0012288486988168441 0 -0.026957860247119575 -0.00076253447596516522 0 -0.027727905279878687 -0.0012288486988168441 0 -0.027774819755146087 -0.00064065059214766227 0 -0.026957860247119575 -0.00076253447596516522 0 -0.026957860247119575 -0.00076253447596516522 0 -0.027454876732970774 0.00024195840982476908 0 -0.026418591138070564 2.301654889869307e-05 0 -0.027454876732970774 0.00024195840982476908 0 -0.026418591138070564 2.301654889869307e-05 0 -0.026241881178544521 0.00088455896002771121 0 -0.025746583304251617 0.00019259202262908719 0 -0.026418591138070564 2.301654889869307e-05 0 -0.026241881178544521 0.00088455896002771121 0 -0.025746583304251617 0.00019259202262908719 0 -0.026418591138070564 2.301654889869307e-05 0 -0.025574242664140455 -0.00048616350550120753 0 -0.026357911527517992 -0.0019780135392908661 0 -0.026957860247119575 -0.00076253447596516522 0 -0.025574242664140455 -0.00048616350550120753 0 -0.026957860247119575 -0.00076253447596516522 0 -0.026418591138070564 2.301654889869307e-05 0 -0.025574242664140455 -0.00048616350550120753 0 -0.024548973104765972 -0.0012420193714604559 0 -0.025574242664140455 -0.00048616350550120753 0 -0.024537003502633555 -0.00058439362372416162 0 -0.024548973104765972 -0.0012420193714604559 0 -0.026357911527517992 -0.0019780135392908661 0 -0.025574242664140455 -0.00048616350550120753 0 -0.025746583304251617 0.00019259202262908719 0 -0.026241881178544521 0.00088455896002771121 0 -0.024821369933895422 0.0003525062530177587 0 -0.025574242664140455 -0.00048616350550120753 0 -0.024821369933895422 0.0003525062530177587 0 -0.024537003502633555 -0.00058439362372416162 0 -0.025746583304251617 0.00019259202262908719 0 -0.025574242664140455 -0.00048616350550120753 0 -0.024821369933895422 0.0003525062530177587 0 -0.029562057504881795 -0.00029372534697340178 0 -0.028423153117332269 -0.00091971486720445047 0 -0.03438349035894215 -0.0010082950985190961 0 -0.028423153117332269 -0.00091971486720445047 0 -0.032861343683673591 -0.0011601974725122667 0 -0.034274312645269651 -0.00095905341918891087 0 -0.032166955310129274 -0.0022486061486289865 0 -0.032998497238301297 -0.0015113125952012825 0 -0.03317781923437995 -0.00091776734724950345 0 -0.031292782815907506 -0.0017442746059582726 0 -0.032861343683673591 -0.0011601974725122667 0 -0.034274312645269651 -0.00095905341918891087 0 -0.033995420383697537 -0.00064405477697483833 0 -0.034274312645269651 -0.00095905341918891087 0 -0.033995420383697537 -0.00064405477697483833 0 -0.034187568366021374 -0.00062425935486193004 0 -0.034372219366014159 -0.00057173728942168812 0 -0.034274312645269651 -0.00095905341918891087 0 -0.034187568366021374 -0.00062425935486193004 0 -0.034372219366014159 -0.00057173728942168812 0 -0.034187568366021374 -0.00062425935486193004 0 -0.034132591871226664 -0.00045540984022953297 0 -0.033995420383697537 -0.00064405477697483833 0 -0.034187568366021374 -0.00062425935486193004 0 -0.034132591871226664 -0.00045540984022953297 0 -0.032861343683673591 -0.0011601974725122667 0 -0.033995420383697537 -0.00064405477697483833 0 -0.032020635637983567 -0.0001617060842309001 0 -0.033782926806942712 -0.00059969453198765348 0 -0.033175447705411573 -0.00039736827036204161 0 -0.033995420383697537 -0.00064405477697483833 0 -0.03366745895838217 -0.00058634398639285891 0 -0.034132591871226664 -0.00045540984022953297 0 -0.032861343683673591 -0.0011601974725122667 0 -0.032020635637983567 -0.0001617060842309001 0 -0.030782487392592175 -0.0014075996099469136 0 -0.031596077743386519 -0.0006976473964380854 0 -0.030636256710605214 -0.0005533454038025861 0 -0.031078329463901676 -0.0012230673803755535 0 -0.033175447705411573 -0.00039736827036204161 0 -0.032820833931758636 -0.00028243207603152146 0 -0.033175447705411573 -0.00039736827036204161 0 -0.031072642564527932 -0.0012883329803975629 0 -0.030636256710605214 -0.0005533454038025861 0 -0.031078329463901676 -0.0012230673803755535 0 -0.03051143293286868 -0.0011020967294698984 0 -0.031078329463901676 -0.0012230673803755535 0 -0.030597656036737499 -0.0017408888661171716 0 -0.03051143293286868 -0.0011020967294698984 0 -0.031072642564527932 -0.0012883329803975629 0 -0.02700841977821844 -0.0015733386454157756 0 -0.030782487392592175 -0.0014075996099469136 0 -0.032166955310129274 -0.0022486061486289865 0 -0.029496987164034354 -0.0027209286904683458 0 -0.032861343683673591 -0.0011601974725122667 0 -0.030782487392592175 -0.0014075996099469136 0 -0.032166955310129274 -0.0022486061486289865 0 -0.028423153117332269 -0.00091971486720445047 0 -0.022749128353898491 -0.00041990513352419418 0 -0.024821369933895422 0.0003525062530177587 0 -0.024537003502633555 -0.00058439362372416162 0 -0.024014037457586256 -0.00058540607812335394 0 -0.028423153117332269 -0.00091971486720445047 0 -0.02700841977821844 -0.0015733386454157756 0 -0.024548973104765972 -0.0012420193714604559 0 -0.024537003502633555 -0.00058439362372416162 0 -0.02418336009842326 -0.00092258242564880117 0 -0.024537003502633555 -0.00058439362372416162 0 -0.02418336009842326 -0.00092258242564880117 0 -0.024014037457586256 -0.00058540607812335394 0 -0.02418336009842326 -0.00092258242564880117 0 -0.024014037457586256 -0.00058540607812335394 0 -0.02394638169457531 -0.0010060435317893529 0 -0.025133508046818676 -0.00010640431043574758 0 -0.024014037457586256 -0.00058540607812335394 0 -0.02392211444911756 -0.00031958314068533525 0 -0.024014037457586256 -0.00058540607812335394 0 -0.02392211444911756 -0.00031958314068533525 0 -0.023661605358286986 -0.00095538152147430606 0 -0.02700841977821844 -0.0015733386454157756 0 -0.023237021915400436 -0.0013101751934046571 0 -0.024068574451288068 -0.001413800062805501 0 -0.023754922842000061 -0.0016326720787438391 0 -0.023743810461242871 -0.0014780774391721372 0 -0.030597656036737499 -0.0017408888661171716 0 -0.029763668752215117 -0.0019219178956866221 0 -0.030110847895959046 -0.0013257303753221904 0 -0.02700841977821844 -0.0015733386454157756 0 -0.026988608343044986 -0.0016603857913533133 0 -0.02382595840841013 -0.0012257170783429503 0 -0.02394638169457531 -0.0010060435317893529 0 -0.023661605358286986 -0.00095538152147430606 0 -0.024014037457586256 -0.00058540607812335394 0 -0.02394638169457531 -0.0010060435317893529 0 -0.023661605358286986 -0.00095538152147430606 0 -0.023754922842000061 -0.0016326720787438391 0 -0.023743810461242871 -0.0014780774391721372 0 -0.023650828862228038 -0.0016209172711100569 0 -0.023605380487158375 -0.0014943573813134957 0 -0.023754922842000061 -0.0016326720787438391 0 -0.023650828862228038 -0.0016209172711100569 0 -0.029502008097095401 -0.001304965488647958 0 -0.030110847895959046 -0.0013257303753221904 0 -0.030156472640088201 -0.00072111409758742872 0 -0.029763668752215117 -0.0019219178956866221 0 -0.029502008097095401 -0.001304965488647958 0 -0.030110847895959046 -0.0013257303753221904 0 -0.030597656036737499 -0.0017408888661171716 0 -0.03051143293286868 -0.0011020967294698984 0 -0.030110847895959046 -0.0013257303753221904 0 -0.03051143293286868 -0.0011020967294698984 0 -0.030110847895959046 -0.0013257303753221904 0 -0.030156472640088201 -0.00072111409758742872 0 -0.030636256710605214 -0.0005533454038025861 0 -0.03051143293286868 -0.0011020967294698984 0 -0.030156472640088201 -0.00072111409758742872 0 -0.030636256710605214 -0.0005533454038025861 0 -0.030156472640088201 -0.00072111409758742872 0 -0.030077895687519663 -0.00059243778197712825 0 -0.029502008097095401 -0.001304965488647958 0 -0.030156472640088201 -0.00072111409758742872 0 -0.029168295529933365 -0.00056738043238499655 0 -0.030156472640088201 -0.00072111409758742872 0 -0.030077895687519663 -0.00059243778197712825 0 -0.030123887770382798 -0.00057794685826461538 0 -0.030125853902312375 -0.00069788126662160893 0 -0.029667608800711613 -0.00058799380220856084 0 -0.034946495885283313 -1.9903436308123197e-06 0 -0.0349663056788879 7.8225309350448912e-07 0 -0.034975865663415436 -3.8676290661889275e-08 0 -0.032820833931758636 -0.00028243207603152146 0 -0.032520791896538385 -0.00029591497526037673 0 -0.034947094650670023 -4.233377947041816e-06 0 -0.034946495885283313 -1.9903436308123197e-06 0 -0.0349663056788879 7.8225309350448912e-07 0 -0.034975865663415436 -3.8676290661889275e-08 0 -0.034999978041292956 1.4813209031429276e-09 0 -0.034999974449124262 -1.3091599367503424e-09 0 -0.0349663056788879 7.8225309350448912e-07 0 -0.034975865663415436 -3.8676290661889275e-08 0 -0.034983812345247514 1.6324508631904897e-06 0 -0.034975865663415436 -3.8676290661889275e-08 0 -0.034999978041292956 1.4813209031429276e-09 0 -0.034983812345247514 1.6324508631904897e-06 0 -0.03499997042015833 4.1580007985481791e-09 0 -0.034975842775435764 4.3291119082363368e-06 0 -0.034986401039753409 1.0516594484021262e-05 0 -0.0349663056788879 7.8225309350448912e-07 0 -0.034983812345247514 1.6324508631904897e-06 0 -0.034975842775435764 4.3291119082363368e-06 0 -0.034983812345247514 1.6324508631904897e-06 0 -0.03499997042015833 4.1580007985481791e-09 0 -0.034975842775435764 4.3291119082363368e-06 0 -0.034999978041292956 1.4813209031429276e-09 0 -0.034983812345247514 1.6324508631904897e-06 0 -0.03499997042015833 4.1580007985481791e-09 0 -0.034975842775435764 4.3291119082363368e-06 0 -0.03496775401004671 7.8409572234570176e-07 0 -0.034986401039753409 1.0516594484021262e-05 0 -0.034947094650670023 -4.233377947041816e-06 0 -0.0349663056788879 7.8225309350448912e-07 0 -0.034975842775435764 4.3291119082363368e-06 0 -0.034947094650670023 -4.233377947041816e-06 0 -0.034975842775435764 4.3291119082363368e-06 0 -0.03496775401004671 7.8409572234570176e-07 0 -0.034955519247784908 -1.0848697866779735e-05 0 -0.034947094650670023 -4.233377947041816e-06 0 -0.03496775401004671 7.8409572234570176e-07 0 -0.03366745895838217 -0.00058634398639285891 0 -0.03400438781814847 -0.00028468433543186219 0 -0.034132591871226664 -0.00045540984022953297 0 -0.033175447705411573 -0.00039736827036204161 0 -0.03468256343119952 -6.70934396013277e-05 0 -0.034955519247784908 -1.0848697866779735e-05 0 -0.03496775401004671 7.8409572234570176e-07 0 -0.034978275714342533 2.7825687428477988e-06 0 -0.03400438781814847 -0.00028468433543186219 0 -0.034132591871226664 -0.00045540984022953297 0 -0.034515140756147068 -0.00028834444968171353 0 -0.03400438781814847 -0.00028468433543186219 0 -0.034433259247264709 -2.4713226846414342e-05 0 -0.034515140756147068 -0.00028834444968171353 0 -0.03468256343119952 -6.70934396013277e-05 0 -0.034668585559183521 -4.006297697902952e-05 0 -0.034978275714342533 2.7825687428477988e-06 0 -0.034986401039753409 1.0516594484021262e-05 0 -0.034983932987578403 2.4504316827599618e-05 0 -0.03496775401004671 7.8409572234570176e-07 0 -0.034978275714342533 2.7825687428477988e-06 0 -0.034986401039753409 1.0516594484021262e-05 0 -0.03499997042015833 4.1580007985481791e-09 0 -0.034986401039753409 1.0516594484021262e-05 0 -0.035000028520369764 1.0478729590689183e-08 0 -0.035000028520369764 1.0478729590689183e-08 0 -0.034990448511567143 1.1342792188472406e-05 0 -0.034999822766449112 8.0494528688967569e-09 0 -0.034986401039753409 1.0516594484021262e-05 0 -0.035000028520369764 1.0478729590689183e-08 0 -0.034990448511567143 1.1342792188472406e-05 0 -0.034986401039753409 1.0516594484021262e-05 0 -0.034990448511567143 1.1342792188472406e-05 0 -0.034983932987578403 2.4504316827599618e-05 0 -0.034911884049011951 3.5709237412783104e-05 0 -0.034746475496445599 -4.8894001331325305e-05 0 -0.034433259247264709 -2.4713226846414342e-05 0 -0.034990448511567143 1.1342792188472406e-05 0 -0.034911884049011951 3.5709237412783104e-05 0 -0.034983932987578403 2.4504316827599618e-05 0 -0.034888464003727318 4.3518414442322514e-05 0 -0.034668585559183521 -4.006297697902952e-05 0 -0.034990448511567143 1.1342792188472406e-05 0 -0.034999822766449112 8.0494528688967569e-09 0 -0.034911884049011951 3.5709237412783104e-05 0 -0.034999920499145486 1.5881957870685302e-08 0 -0.034999822766449112 8.0494528688967569e-09 0 -0.034911884049011951 3.5709237412783104e-05 0 -0.034942400427078059 -1.8663560583320914e-05 0 -0.034746475496445599 -4.8894001331325305e-05 0 -0.034813905335538603 -0.00014108651455883956 0 -0.034942400427078059 -1.8663560583320914e-05 0 -0.034911884049011951 3.5709237412783104e-05 0 -0.034746475496445599 -4.8894001331325305e-05 0 -0.034746475496445599 -4.8894001331325305e-05 0 -0.034813905335538603 -0.00014108651455883956 0 -0.034515140756147068 -0.00028834444968171353 0 -0.034746475496445599 -4.8894001331325305e-05 0 -0.034433259247264709 -2.4713226846414342e-05 0 -0.034515140756147068 -0.00028834444968171353 0 -0.034372219366014159 -0.00057173728942168812 0 -0.034132591871226664 -0.00045540984022953297 0 -0.034515140756147068 -0.00028834444968171353 0 -0.034572987021842486 -0.00049332077432283567 0 -0.034372219366014159 -0.00057173728942168812 0 -0.034515140756147068 -0.00028834444968171353 0 -0.03481400113405729 -0.00031859573839074928 0 -0.034813905335538603 -0.00014108651455883956 0 -0.034515140756147068 -0.00028834444968171353 0 -0.03481400113405729 -0.00031859573839074928 0 -0.034572987021842486 -0.00049332077432283567 0 -0.034515140756147068 -0.00028834444968171353 0 -0.026920414791228614 -0.0020452518958867382 0 -0.028617730252821452 -0.0017876288542243413 0 -0.029518195955782922 -0.002271941294622706 0 -0.0296825403039374 -0.0017892816440709777 0 -0.029167945082312866 -0.0018380614622056741 0 -0.029518195955782922 -0.002271941294622706 0 -0.029167945082312866 -0.0018380614622056741 0 -0.029127794285793058 -0.0022293648701954536 0 -0.026920414791228614 -0.0020452518958867382 0 -0.025711107156579455 -0.0019487147107264591 0 -0.024096151873464495 -0.0018634139783534026 0 -0.02409695897395478 -0.0018332440322340363 0 -0.024089034530399484 -0.0018626726787316211 0 -0.027467422000722181 -0.0020180544221009671 0 -0.02776806300920192 -0.001789265442081543 0 -0.02756892898525988 -0.0017196229999003605 0 -0.028617730252821452 -0.0017876288542243413 0 -0.030049251866309429 -0.0011745157590612788 0 -0.02756892898525988 -0.0017196229999003605 0 -0.02781068588443433 -0.0015953663509376088 0 -0.027674648482554486 -0.0014318952466770337 0 -0.02776806300920192 -0.001789265442081543 0 -0.02756892898525988 -0.0017196229999003605 0 -0.02781068588443433 -0.0015953663509376088 0 -0.0296825403039374 -0.0017892816440709777 0 -0.029461609601766317 -0.001537825651400853 0 -0.029167945082312866 -0.0018380614622056741 0 -0.029461609601766317 -0.001537825651400853 0 -0.029167945082312866 -0.0018380614622056741 0 -0.029153867685776248 -0.001215565799171957 0 -0.0296825403039374 -0.0017892816440709777 0 -0.029461609601766317 -0.001537825651400853 0 -0.029840735197919566 -0.0013099149469918297 0 -0.028808384877772285 -0.0014986999447708701 0 -0.029167945082312866 -0.0018380614622056741 0 -0.029153867685776248 -0.001215565799171957 0 -0.028808384877772285 -0.0014986999447708701 0 -0.028799966368453795 -0.0018388377915519959 0 -0.029167945082312866 -0.0018380614622056741 0 -0.032104774202981974 -0.00018632432564644129 0 -0.03218204205838731 0.00024779824812496516 0 -0.03199454410620052 0.00033903864299113506 0 -0.030708171946130697 -0.0006575493938654999 0 -0.029732527746614966 -0.0019471256538393332 0 -0.032435448321326735 0.00010357569765899455 0 -0.032104774202981974 -0.00018632432564644129 0 -0.03218204205838731 0.00024779824812496516 0 -0.028808384877772285 -0.0014986999447708701 0 -0.028799966368453795 -0.0018388377915519959 0 -0.028467189674334131 -0.0017836471809279954 0 -0.026223277150361303 -0.0050584435078336503 0 -0.025850901537010276 -0.0046123996159259922 0 -0.026264980761823722 -0.0046051117266938295 0 -0.029732527746614966 -0.0019471256538393332 0 -0.027281107698504434 -0.0034420464644278992 0 -0.028799966368453795 -0.0018388377915519959 0 -0.028467189674334131 -0.0017836471809279954 0 -0.028764308158848357 -0.0021965988153686872 0 -0.025850901537010276 -0.0046123996159259922 0 -0.026264980761823722 -0.0046051117266938295 0 -0.025958382671745769 -0.0042028719793793098 0 -0.029167945082312866 -0.0018380614622056741 0 -0.028764308158848357 -0.0021965988153686872 0 -0.029127794285793058 -0.0022293648701954536 0 -0.028799966368453795 -0.0018388377915519959 0 -0.029167945082312866 -0.0018380614622056741 0 -0.028764308158848357 -0.0021965988153686872 0 -0.025488050317673622 -0.0041318480546926528 0 -0.025958382671745769 -0.0042028719793793098 0 -0.025987489091468755 -0.0037443944687124476 0 -0.025850901537010276 -0.0046123996159259922 0 -0.025488050317673622 -0.0041318480546926528 0 -0.025958382671745769 -0.0042028719793793098 0 -0.028764308158848357 -0.0021965988153686872 0 -0.029127794285793058 -0.0022293648701954536 0 -0.029061950276294154 -0.0026109486714752388 0 -0.027281107698504434 -0.0034420464644278992 0 -0.026953957415565895 -0.0031615838360336246 0 -0.026953957415565895 -0.0031615838360336246 0 -0.025148884521132359 -0.0023711283285251946 0 -0.026264980761823722 -0.0046051117266938295 0 -0.025958382671745769 -0.0042028719793793098 0 -0.026379542733737629 -0.0042349567611909104 0 -0.025958382671745769 -0.0042028719793793098 0 -0.025987489091468755 -0.0037443944687124476 0 -0.026379542733737629 -0.0042349567611909104 0 -0.026953957415565895 -0.0031615838360336246 0 -0.025438711130628816 -0.0033399284049070209 0 -0.025438711130628816 -0.0033399284049070209 0 -0.025277163194891223 -0.0026357333161909731 0 -0.025743029303716265 -0.0029613256832378893 0 -0.025873197519916728 -0.0028617492830723054 0 -0.0257444196306824 -0.0028835234576992863 0 -0.024974333042430182 -0.0021899858784641848 0 -0.025244318863065676 -0.002836150677696533 0 -0.024790725833157598 -0.002603096793055525 0 -0.025873197519916728 -0.0028617492830723054 0 -0.0257444196306824 -0.0028835234576992863 0 -0.025738201322762052 -0.0028196958824696148 0 -0.0257444196306824 -0.0028835234576992863 0 -0.025738201322762052 -0.0028196958824696148 0 -0.025663963998454317 -0.0028640910136155475 0 -0.025743029303716265 -0.0029613256832378893 0 -0.0257444196306824 -0.0028835234576992863 0 -0.025663963998454317 -0.0028640910136155475 0 -0.025738201322762052 -0.0028196958824696148 0 -0.025681447578619742 -0.0028024989727600674 0 -0.025663963998454317 -0.0028640910136155475 0 -0.025277163194891223 -0.0026357333161909731 0 -0.025039488703101558 -0.0023836323681414827 0 -0.024997911618472181 -0.0021960305463913287 0 -0.024619544322641539 -0.0020916063295670453 0 -0.024912246892463991 -0.0024705953033496023 0 -0.024099965954925241 -0.0018741256893190887 0 -0.024090535329638268 -0.0018727852653365501 0 -0.024096727061410771 -0.0018720527206794245 0 -0.024325839482067436 -0.0020059970703195616 0 -0.025148884521132359 -0.0023711283285251946 0 -0.025039488703101558 -0.0023836323681414827 0 -0.024325839482067436 -0.0020059970703195616 0 -0.025039488703101558 -0.0023836323681414827 0 -0.025148884521132359 -0.0023711283285251946 0 -0.024096133925798208 -0.0018752173443917183 0 -0.024099965954925241 -0.0018741256893190887 0 -0.024096727061410771 -0.0018720527206794245 0 -0.026458919386530333 -0.0022430910026092626 0 -0.026140421091195076 -0.0024823209096684531 0 -0.026305615286114258 -0.0027028180563540565 0 -0.029518195955782922 -0.002271941294622706 0 -0.029127794285793058 -0.0022293648701954536 0 -0.029061950276294154 -0.0026109486714752388 0 -0.026920414791228614 -0.0020452518958867382 0 -0.026953957415565895 -0.0031615838360336246 0 -0.026920414791228614 -0.0020452518958867382 0 -0.025148884521132359 -0.0023711283285251946 0 -0.024096151873464495 -0.0018634139783534026 0 -0.024099965954925241 -0.0018741256893190887 0 -0.024090535329638268 -0.0018727852653365501 0 -0.024089034530399484 -0.0018626726787316211 0 -0.024090535329638268 -0.0018727852653365501 0 -0.024038149762799881 -0.0018850881228576685 0 -0.024096151873464495 -0.0018634139783534026 0 -0.024089034530399484 -0.0018626726787316211 0 -0.024090535329638268 -0.0018727852653365501 0 -0.024090535329638268 -0.0018727852653365501 0 -0.024078074580459762 -0.0018712631225840557 0 -0.024038149762799881 -0.0018850881228576685 0 -0.024090535329638268 -0.0018727852653365501 0 -0.024096727061410771 -0.0018720527206794245 0 -0.024078074580459762 -0.0018712631225840557 0 -0.024111499210033992 -0.0018789580743696177 0 -0.024096133925798208 -0.0018752173443917183 0 -0.024096727061410771 -0.0018720527206794245 0 -0.024111499210033992 -0.0018789580743696177 0 -0.024096727061410771 -0.0018720527206794245 0 -0.024078074580459762 -0.0018712631225840557 0 -0.023991247058228971 -0.0017901839904853841 0 -0.024038149762799881 -0.0018850881228576685 0 -0.023833545377668408 -0.0017368033256637051 0 -0.023991247058228971 -0.0017901839904853841 0 -0.024078074580459762 -0.0018712631225840557 0 -0.024038149762799881 -0.0018850881228576685 0 -0.024038149762799881 -0.0018850881228576685 0 -0.023833545377668408 -0.0017368033256637051 0 -0.023800386779699718 -0.0018217978714149348 0 -0.024141946502334873 -0.0018598432797342903 0 -0.023709131385868176 -0.001887399776058952 0 -0.024038149762799881 -0.0018850881228576685 0 -0.02414995957132764 -0.0019012758765006659 0 -0.024102911682642461 -0.0018489625675600361 0 -0.02414995957132764 -0.0019012758765006659 0 -0.024102911682642461 -0.0018489625675600361 0 -0.024169275223655782 -0.0018305595056039277 0 -0.024089034530399484 -0.0018626726787316211 0 -0.024038149762799881 -0.0018850881228576685 0 -0.024102911682642461 -0.0018489625675600361 0 -0.023650828862228038 -0.0016209172711100569 0 -0.023699457097874708 -0.0016633342972958549 0 -0.023684971338679209 -0.0017598359332805346 0 -0.023743810461242871 -0.0014780774391721372 0 -0.023650828862228038 -0.0016209172711100569 0 -0.023592716709044993 -0.0015300554387850742 0 -0.023353250567753083 -0.0012749344829210143 0 -0.025393419284880425 -0.0019931967041106132 0 -0.023833545377668408 -0.0017368033256637051 0 -0.023800386779699718 -0.0018217978714149348 0 -0.023699457097874708 -0.0016633342972958549 0 -0.023800386779699718 -0.0018217978714149348 0 -0.023699457097874708 -0.0016633342972958549 0 -0.023684971338679209 -0.0017598359332805346 0 -0.023709131385868176 -0.001887399776058952 0 -0.025393419284880425 -0.0019931967041106132 0 -0.02414995957132764 -0.0019012758765006659 0 -0.024240596870590575 -0.0018938587598588729 0 -0.024169275223655782 -0.0018305595056039277 0 -0.025393419284880425 -0.0019931967041106132 0 -0.02631173198172725 -0.0016272028101014175 0 -0.029763668752215117 -0.0019219178956866221 0 -0.029502008097095401 -0.001304965488647958 0 -0.028861934833626573 -0.0020853250673674023 0 -0.026988608343044986 -0.0016603857913533133 0 -0.025393419284880425 -0.0019931967041106132 0 -0.029502008097095401 -0.001304965488647958 0 -0.028861934833626573 -0.0020853250673674023 0 -0.028844292754289017 -0.0011685206687736998 0 -0.029502008097095401 -0.001304965488647958 0 -0.028844292754289017 -0.0011685206687736998 0 -0.029168295529933365 -0.00056738043238499655 0 -0.028861934833626573 -0.0020853250673674023 0 -0.028844292754289017 -0.0011685206687736998 0 -0.028199801867886971 -0.0013120634896101153 0 -0.028844292754289017 -0.0011685206687736998 0 -0.028254978436336869 -0.00046205027264242701 0 -0.029168295529933365 -0.00056738043238499655 0 -0.028844292754289017 -0.0011685206687736998 0 -0.028254978436336869 -0.00046205027264242701 0 -0.028199801867886971 -0.0013120634896101153 0 -0.029313184622680292 -0.00047462870821648019 0 -0.029667608800711613 -0.00058799380220856084 0 -0.02409695897395478 -0.0018332440322340363 0 -0.024102911682642461 -0.0018489625675600361 0 -0.024133902232066393 -0.0017930986295788599 0 -0.02409695897395478 -0.0018332440322340363 0 -0.024089034530399484 -0.0018626726787316211 0 -0.024102911682642461 -0.0018489625675600361 0 -0.024102911682642461 -0.0018489625675600361 0 -0.024169275223655782 -0.0018305595056039277 0 -0.024133902232066393 -0.0017930986295788599 0 -0.02631173198172725 -0.0016272028101014175 0 -0.026257399117728519 -0.0010555274915534951 0 -0.028254978436336869 -0.00046205027264242701 0 -0.028199801867886971 -0.0013120634896101153 0 -0.027557989490588623 -0.00055968495424122441 0 -0.028254978436336869 -0.00046205027264242701 0 -0.027557989490588623 -0.00055968495424122441 0 -0.027381107819079976 -0.00035871555680028541 0 -0.02776806300920192 -0.001789265442081543 0 -0.02781068588443433 -0.0015953663509376088 0 -0.028054924431521307 -0.001564991184310747 0 -0.025711107156579455 -0.0019487147107264591 0 -0.026257399117728519 -0.0010555274915534951 0 -0.026257399117728519 -0.0010555274915534951 0 -0.029102409998407682 -0.00091935174737046228 0 -0.02781068588443433 -0.0015953663509376088 0 -0.028054924431521307 -0.001564991184310747 0 -0.027978309163983795 -0.0014735310112430108 0 -0.032742631060736986 -0.00040076276082526979 0 -0.033094732027868272 -0.00031832502578312948 0 -0.030587954709637797 -0.00077078828990623347 0 -0.030974245772241955 -0.00085411349498830369 0 -0.030930130506186714 -0.00081263580726782586 0 -0.030748183388150271 -0.00061168133663457014 0 -0.030587954709637797 -0.00077078828990623347 0 -0.030930130506186714 -0.00081263580726782586 0 -0.029102409998407682 -0.00091935174737046228 0 -0.031101431802098289 -0.00098472756561632018 0 -0.029313184622680292 -0.00047462870821648019 0 -0.029102409998407682 -0.00091935174737046228 0 -0.030399520863570614 -0.00057046753466571259 0 -0.030748183388150271 -0.00061168133663457014 0 -0.030587954709637797 -0.00077078828990623347 0 -0.034953289503218833 -8.3203813009011977e-06 0 -0.034968620771083002 -2.0744226984254176e-06 0 -0.034974087965604451 -4.6753725745727975e-07 0 -0.034953289503218833 -8.3203813009011977e-06 0 -0.034959939940601682 -4.2607994792000347e-06 0 -0.034974087965604451 -4.6753725745727975e-07 0 -0.034953289503218833 -8.3203813009011977e-06 0 -0.034959939940601682 -4.2607994792000347e-06 0 -0.034937617676615136 -1.3296001310454948e-05 0 -0.034959939940601682 -4.2607994792000347e-06 0 -0.034956859177463967 -9.2380300210663058e-07 0 -0.034937617676615136 -1.3296001310454948e-05 0 -0.034946495885283313 -1.9903436308123197e-06 0 -0.034975865663415436 -3.8676290661889275e-08 0 -0.034950466798395786 -3.0871507716183786e-06 0 -0.032520791896538385 -0.00029591497526037673 0 -0.032600306440063218 -0.00034227972214218472 0 -0.030077895687519663 -0.00059243778197712825 0 -0.030123887770382798 -0.00057794685826461538 0 -0.030231673240376206 -0.00068471020299573377 0 -0.032742631060736986 -0.00040076276082526979 0 -0.032600306440063218 -0.00034227972214218472 0 -0.030399520863570614 -0.00057046753466571259 0 -0.030587954709637797 -0.00077078828990623347 0 -0.030231673240376206 -0.00068471020299573377 0 -0.030399520863570614 -0.00057046753466571259 0 -0.030123887770382798 -0.00057794685826461538 0 -0.030231673240376206 -0.00068471020299573377 0 -0.034953289503218833 -8.3203813009011977e-06 0 -0.034950466798395786 -3.0871507716183786e-06 0 -0.034968620771083002 -2.0744226984254176e-06 0 -0.034975865663415436 -3.8676290661889275e-08 0 -0.034950466798395786 -3.0871507716183786e-06 0 -0.034968620771083002 -2.0744226984254176e-06 0 -0.034975865663415436 -3.8676290661889275e-08 0 -0.034968620771083002 -2.0744226984254176e-06 0 -0.034986396588331338 -1.3790315264279439e-07 0 -0.034968620771083002 -2.0744226984254176e-06 0 -0.034986396588331338 -1.3790315264279439e-07 0 -0.034974087965604451 -4.6753725745727975e-07 0 -0.034986396588331338 -1.3790315264279439e-07 0 -0.034999974449124262 -1.3091599367503424e-09 0 -0.034999966269668469 4.4017617032360137e-09 0 -0.034975865663415436 -3.8676290661889275e-08 0 -0.034986396588331338 -1.3790315264279439e-07 0 -0.034999974449124262 -1.3091599367503424e-09 0 -0.034967695330987557 -3.1896095512495673e-05 0 -0.034964016664228999 0.00010226845087800442 0 -0.034976846334401145 1.3441299371583501e-06 0 -0.034985870211148587 2.878486760174058e-06 0 -0.034956859177463967 -9.2380300210663058e-07 0 -0.034985870211148587 2.878486760174058e-06 0 -0.034974759642609751 -2.1688676817647984e-05 0 -0.034973301561627076 -9.7915927056224105e-06 0 -0.034959939940601682 -4.2607994792000347e-06 0 -0.034976846334401145 1.3441299371583501e-06 0 -0.034956859177463967 -9.2380300210663058e-07 0 -0.034959939940601682 -4.2607994792000347e-06 0 -0.034976846334401145 1.3441299371583501e-06 0 -0.034974087965604451 -4.6753725745727975e-07 0 -0.034976846334401145 1.3441299371583501e-06 0 -0.034974087965604451 -4.6753725745727975e-07 0 -0.034999966269668469 4.4017617032360137e-09 0 -0.034986396588331338 -1.3790315264279439e-07 0 -0.034974087965604451 -4.6753725745727975e-07 0 -0.034999966269668469 4.4017617032360137e-09 0 -0.034976846334401145 1.3441299371583501e-06 0 -0.034999966269668469 4.4017617032360137e-09 0 -0.034985870211148587 2.878486760174058e-06 0 -0.034999966269668469 4.4017617032360137e-09 0 -0.034985870211148587 2.878486760174058e-06 0 -0.034999983193848262 -3.9207836662642987e-09 0 -0.034999983193848262 -3.9207836662642987e-09 0 -0.034989116083125091 -4.1668933599879015e-07 0 -0.034985717722443389 -2.0913571895079699e-06 0 -0.034985870211148587 2.878486760174058e-06 0 -0.034999983193848262 -3.9207836662642987e-09 0 -0.034985717722443389 -2.0913571895079699e-06 0 -0.034999983193848262 -3.9207836662642987e-09 0 -0.034989116083125091 -4.1668933599879015e-07 0 -0.034999941707514998 1.2591872110152474e-08 0 -0.034989116083125091 -4.1668933599879015e-07 0 -0.034983356441149145 -2.6398166022223741e-06 0 -0.034975924374682527 -2.5126244857064802e-06 0 -0.034989116083125091 -4.1668933599879015e-07 0 -0.034983356441149145 -2.6398166022223741e-06 0 -0.034985717722443389 -2.0913571895079699e-06 0 -0.034983356441149145 -2.6398166022223741e-06 0 -0.03498089150046485 -4.6644598606648155e-06 0 -0.034985717722443389 -2.0913571895079699e-06 0 -0.03498089150046485 -4.6644598606648155e-06 0 -0.034977391216002456 -5.779672005355985e-06 0 -0.03497727521523248 -6.9351032283816647e-06 0 -0.034983356441149145 -2.6398166022223741e-06 0 -0.03498089150046485 -4.6644598606648155e-06 0 -0.034977391216002456 -5.779672005355985e-06 0 -0.034983356441149145 -2.6398166022223741e-06 0 -0.034977391216002456 -5.779672005355985e-06 0 -0.034975924374682527 -2.5126244857064802e-06 0 -0.034985870211148587 2.878486760174058e-06 0 -0.034980871046035589 -3.4650232182930192e-06 0 -0.034973301561627076 -9.7915927056224105e-06 0 -0.034985870211148587 2.878486760174058e-06 0 -0.034980871046035589 -3.4650232182930192e-06 0 -0.034985717722443389 -2.0913571895079699e-06 0 -0.03498089150046485 -4.6644598606648155e-06 0 -0.034985717722443389 -2.0913571895079699e-06 0 -0.034979626136209238 -5.3665914054795465e-06 0 -0.034980871046035589 -3.4650232182930192e-06 0 -0.034985717722443389 -2.0913571895079699e-06 0 -0.034979626136209238 -5.3665914054795465e-06 0 -0.034979626136209238 -5.3665914054795465e-06 0 -0.03497727521523248 -6.9351032283816647e-06 0 -0.034973301561627076 -9.7915927056224105e-06 0 -0.03498089150046485 -4.6644598606648155e-06 0 -0.034979626136209238 -5.3665914054795465e-06 0 -0.03497727521523248 -6.9351032283816647e-06 0 -0.034980871046035589 -3.4650232182930192e-06 0 -0.034979626136209238 -5.3665914054795465e-06 0 -0.034973301561627076 -9.7915927056224105e-06 0 -0.034964016664228999 0.00010226845087800442 0 -0.033094732027868272 -0.00031832502578312948 0 -0.034974759642609751 -2.1688676817647984e-05 0 -0.034870979308214568 -0.00028521868873028153 0 -0.034632874025942145 -0.00023399400622054617 0 -0.034974759642609751 -2.1688676817647984e-05 0 -0.034973301561627076 -9.7915927056224105e-06 0 -0.034632874025942145 -0.00023399400622054617 0 -0.03497727521523248 -6.9351032283816647e-06 0 -0.034973301561627076 -9.7915927056224105e-06 0 -0.034973193073463332 -6.9302591759485475e-06 0 -0.03527240381871119 5.7467847991846566e-05 0 -0.033712976791591694 6.7705866070025595e-05 0 -0.033094732027868272 -0.00031832502578312948 0 -0.033712976791591694 6.7705866070025595e-05 0 -0.034977391216002456 -5.779672005355985e-06 0 -0.03497727521523248 -6.9351032283816647e-06 0 -0.034973193073463332 -6.9302591759485475e-06 0 -0.034977391216002456 -5.779672005355985e-06 0 -0.034973193073463332 -6.9302591759485475e-06 0 -0.034965098753299825 -1.0981727308571693e-05 0 -0.033155705041090368 0.00068849865506741606 0 -0.032749459387568167 0.00036576423956443961 0 -0.032661780489599473 0.00078590407926739444 0 -0.033712976791591694 6.7705866070025595e-05 0 -0.033902163372856051 0.00038717257341809146 0 -0.031901260573525055 -0.00035801173680913463 0 -0.032053858752096868 -0.00064305145463348381 0 -0.031622268324642835 -0.00058312091467838448 0 -0.029461609601766317 -0.001537825651400853 0 -0.029840735197919566 -0.0013099149469918297 0 -0.029153867685776248 -0.001215565799171957 0 -0.030049251866309429 -0.0011745157590612788 0 -0.031406741735004337 -0.0003535135600699177 0 -0.033712976791591694 6.7705866070025595e-05 0 -0.031406741735004337 -0.0003535135600699177 0 -0.029102409998407682 -0.00091935174737046228 0 -0.030049251866309429 -0.0011745157590612788 0 -0.032137475356532531 -0.00040340787070747454 0 -0.031901260573525055 -0.00035801173680913463 0 -0.032053858752096868 -0.00064305145463348381 0 -0.02781068588443433 -0.0015953663509376088 0 -0.027978309163983795 -0.0014735310112430108 0 -0.027674648482554486 -0.0014318952466770337 0 -0.030684357054958027 -0.0005623623803129587 0 -0.031053463814770702 -0.00061259665443282594 0 -0.030930130506186714 -0.00081263580726782586 0 -0.030974245772241955 -0.00085411349498830369 0 -0.031053463814770702 -0.00061259665443282594 0 -0.030930130506186714 -0.00081263580726782586 0 -0.033094732027868272 -0.00031832502578312948 0 -0.030049251866309429 -0.0011745157590612788 0 -0.032333646695289923 0.0004298257340925798 0 -0.032304872195024426 0.00054687340162745072 0 -0.032510995776795171 0.00057538228284763034 0 -0.032333646695289923 0.0004298257340925798 0 -0.032304872195024426 0.00054687340162745072 0 -0.032142439836553037 0.00050594478422698948 0 -0.032304872195024426 0.00054687340162745072 0 -0.032142439836553037 0.00050594478422698948 0 -0.032302392062361615 0.00067275820535350468 0 -0.032333646695289923 0.0004298257340925798 0 -0.032142439836553037 0.00050594478422698948 0 -0.03218204205838731 0.00024779824812496516 0 -0.032142439836553037 0.00050594478422698948 0 -0.03218204205838731 0.00024779824812496516 0 -0.03199454410620052 0.00033903864299113506 0 -0.032435448321326735 0.00010357569765899455 0 -0.032333646695289923 0.0004298257340925798 0 -0.03218204205838731 0.00024779824812496516 0 -0.030708171946130697 -0.0006575493938654999 0 -0.031406741735004337 -0.0003535135600699177 0 -0.032435448321326735 0.00010357569765899455 0 -0.032333646695289923 0.0004298257340925798 0 -0.032732069475019512 0.00035920814087731954 0 -0.032333646695289923 0.0004298257340925798 0 -0.032749459387568167 0.00036576423956443961 0 -0.032510995776795171 0.00057538228284763034 0 -0.032762623592943282 0.00033400789292849085 0 -0.031406741735004337 -0.0003535135600699177 0 -0.032749459387568167 0.00036576423956443961 0 -0.032510995776795171 0.00057538228284763034 0 -0.032661780489599473 0.00078590407926739444 0 -0.032510995776795171 0.00057538228284763034 0 -0.032661780489599473 0.00078590407926739444 0 -0.032302392062361615 0.00067275820535350468 0 -0.033902163372856051 0.00038717257341809146 0 -0.033353300712741826 0.00032541542874455496 0 -0.034965098753299825 -1.0981727308571693e-05 0 -0.03494097140983609 -1.0438218045282551e-05 0 -0.0349598781331295 -4.9623054160709823e-06 0 -0.032661780489599473 0.00078590407926739444 0 -0.032302392062361615 0.00067275820535350468 0 -0.03218667233325722 0.00087094660243418928 0 -0.03494097140983609 -1.0438218045282551e-05 0 -0.034942521476117983 -6.3334554694541669e-06 0 -0.0349598781331295 -4.9623054160709823e-06 0 -0.032304872195024426 0.00054687340162745072 0 -0.032510995776795171 0.00057538228284763034 0 -0.032302392062361615 0.00067275820535350468 0 -0.032142439836553037 0.00050594478422698948 0 -0.032201483584676553 0.0010118530681990274 0 -0.03192008978587129 0.00069762065362536892 0 -0.032142439836553037 0.00050594478422698948 0 -0.032302392062361615 0.00067275820535350468 0 -0.03218667233325722 0.00087094660243418928 0 -0.032254388939604167 0.0007121745417655519 0 -0.033353300712741826 0.00032541542874455496 0 -0.033222503024001211 0.00027361601882055142 0 -0.032049151821452182 0.00038775224552007275 0 -0.032201483584676553 0.0010118530681990274 0 -0.032145952035559623 0.0010221988238547288 0 -0.03192008978587129 0.00069762065362536892 0 -0.033965016114105906 0.00019176206378374079 0 -0.033222503024001211 0.00027361601882055142 0 -0.033353300712741826 0.00032541542874455496 0 -0.033965016114105906 0.00019176206378374079 0 -0.033680143664291944 0.00024946781964608913 0 -0.033676656963731469 0.0001955885494743025 0 -0.03370758870745947 0.00024423557124943093 0 -0.033353300712741826 0.00032541542874455496 0 -0.033222503024001211 0.00027361601882055142 0 -0.034739478263779169 -0.00027826787709700842 0 -0.034675601017493382 -0.00048081939991988291 0 -0.034116827769156657 0.00010224824579450559 0 -0.034942521476117983 -6.3334554694541669e-06 0 -0.0349598781331295 -4.9623054160709823e-06 0 -0.034970063042331627 2.576412683823424e-06 0 -0.034981537497585175 -3.7783481133551247e-06 0 -0.034992083217328107 8.4646898452199224e-08 0 -0.034995868648057149 1.0640584839442871e-07 0 -0.034739478263779169 -0.00027826787709700842 0 -0.034713999402622986 0.000191822792331391 0 -0.034116827769156657 0.00010224824579450559 0 -0.033965016114105906 0.00019176206378374079 0 -0.034856680388426799 4.6349279524383145e-05 0 -0.033965016114105906 0.00019176206378374079 0 -0.035043858285578225 4.1615871019242261e-05 0 -0.034989116083125091 -4.1668933599879015e-07 0 -0.034970063042331627 2.576412683823424e-06 0 -0.034975924374682527 -2.5126244857064802e-06 0 -0.034977391216002456 -5.779672005355985e-06 0 -0.034965098753299825 -1.0981727308571693e-05 0 -0.034975924374682527 -2.5126244857064802e-06 0 -0.034965098753299825 -1.0981727308571693e-05 0 -0.0349598781331295 -4.9623054160709823e-06 0 -0.034975924374682527 -2.5126244857064802e-06 0 -0.0349598781331295 -4.9623054160709823e-06 0 -0.034970063042331627 2.576412683823424e-06 0 -0.034975924374682527 -2.5126244857064802e-06 0 -0.035043858285578225 4.1615871019242261e-05 0 -0.034999949444185038 -5.6817545611012011e-08 0 -0.034989116083125091 -4.1668933599879015e-07 0 -0.034970063042331627 2.576412683823424e-06 0 -0.034999941707514998 1.2591872110152474e-08 0 -0.034995868648057149 1.0640584839442871e-07 0 -0.035000003179262038 -1.8026157968044394e-09 0 -0.034999987787741875 3.9622284793392669e-09 0 -0.034856680388426799 4.6349279524383145e-05 0 -0.034999915278270254 1.4371129604965918e-07 0 -0.034713999402622986 0.000191822792331391 0 -0.034999521550238284 3.3038770793260744e-07 0 -0.034627003879310038 0.00015686339783648091 0 -0.034992083217328107 8.4646898452199224e-08 0 -0.034995868648057149 1.0640584839442871e-07 0 -0.034999987787741875 3.9622284793392669e-09 0 -0.034627003879310038 0.00015686339783648091 0 -0.034998809195153316 5.1907330692475304e-08 0 -0.034230041917741337 0.00016114122988297372 0 -0.034999521550238284 3.3038770793260744e-07 0 -0.034627003879310038 0.00015686339783648091 0 -0.034998809195153316 5.1907330692475304e-08 0 -0.034998809195153316 5.1907330692475304e-08 0 -0.034999913038014141 -4.9094482960789066e-08 0 -0.034785577540095057 2.2600763175737349e-05 0 -0.034998809195153316 5.1907330692475304e-08 0 -0.034230041917741337 0.00016114122988297372 0 -0.034785577540095057 2.2600763175737349e-05 0 -0.034230041917741337 0.00016114122988297372 0 -0.0347604951488103 0.00017220252847277291 0 -0.034784866748903465 0.00029755052088906061 0 -0.034230041917741337 0.00016114122988297372 0 -0.03309069003701922 0.00011301980695718717 0 -0.03252772368231318 0.0003558479651901727 0 -0.033883972131318378 -7.6333638505729005e-05 0 -0.034206692710100829 0.0006543692505523005 0 -0.034230041917741337 0.00016114122988297372 0 -0.034785577540095057 2.2600763175737349e-05 0 -0.0347604951488103 0.00017220252847277291 0 -0.034230041917741337 0.00016114122988297372 0 -0.03309069003701922 0.00011301980695718717 0 -0.034116827769156657 0.00010224824579450559 0 -0.034675601017493382 -0.00048081939991988291 0 -0.03309069003701922 0.00011301980695718717 0 -0.034116827769156657 0.00010224824579450559 0 -0.034713999402622986 0.000191822792331391 0 -0.034627003879310038 0.00015686339783648091 0 -0.034116827769156657 0.00010224824579450559 0 -0.034627003879310038 0.00015686339783648091 0 -0.034230041917741337 0.00016114122988297372 0 -0.034116827769156657 0.00010224824579450559 0 -0.034959586660804828 6.5880311185315661e-05 0 -0.034999913038014141 -4.9094482960789066e-08 0 -0.0349011199442422 0.0001042115673487206 0 -0.034959586660804828 6.5880311185315661e-05 0 -0.034999913038014141 -4.9094482960789066e-08 0 -0.034999949311029704 7.3002641586665994e-08 0 -0.034999913038014141 -4.9094482960789066e-08 0 -0.034785577540095057 2.2600763175737349e-05 0 -0.0349011199442422 0.0001042115673487206 0 -0.034785577540095057 2.2600763175737349e-05 0 -0.0347604951488103 0.00017220252847277291 0 -0.0349011199442422 0.0001042115673487206 0 -0.0347604951488103 0.00017220252847277291 0 -0.03484360391967057 0.00021862529062715853 0 -0.034784866748903465 0.00029755052088906061 0 -0.0347604951488103 0.00017220252847277291 0 -0.0349011199442422 0.0001042115673487206 0 -0.03484360391967057 0.00021862529062715853 0 -0.0349011199442422 0.0001042115673487206 0 -0.034923053924857977 0.00015892869577795892 0 -0.03484360391967057 0.00021862529062715853 0 -0.034959586660804828 6.5880311185315661e-05 0 -0.0349011199442422 0.0001042115673487206 0 -0.034923053924857977 0.00015892869577795892 0 -0.034923053924857977 0.00015892869577795892 0 -0.034852958550085369 0.00023422425031840175 0 -0.034891134145434391 0.00021532386110534416 0 -0.034923053924857977 0.00015892869577795892 0 -0.034852958550085369 0.00023422425031840175 0 -0.03484360391967057 0.00021862529062715853 0 -0.034852958550085369 0.00023422425031840175 0 -0.03484360391967057 0.00021862529062715853 0 -0.034784866748903465 0.00029755052088906061 0 -0.034852958550085369 0.00023422425031840175 0 -0.034784866748903465 0.00029755052088906061 0 -0.03483436304669521 0.00024140530943157228 0 -0.034206692710100829 0.0006543692505523005 0 -0.030921934417361588 -0.00013327207451919445 0 -0.030921934417361588 -0.00013327207451919445 0 -0.031529250309845457 0.0010255479952361471 0 -0.027590519780344835 -0.00026583645331603096 0 -0.031830582635005822 0.00079015299107329496 0 -0.029773499285792523 -0.00014001026891970181 0 -0.03252772368231318 0.0003558479651901727 0 -0.033295771832305664 0.0016808001690377561 0 -0.031830582635005822 0.00079015299107329496 0 -0.027590519780344835 -0.00026583645331603096 0 -0.029773499285792523 -0.00014001026891970181 0 -0.028683699554156172 -0.00066666472682285459 0 -0.034852958550085369 0.00023422425031840175 0 -0.03483436304669521 0.00024140530943157228 0 -0.034858830542911008 0.00023290364273586872 0 -0.03483436304669521 0.00024140530943157228 0 -0.034858830542911008 0.00023290364273586872 0 -0.034869033737488953 0.00023721590650918251 0 -0.034858830542911008 0.00023290364273586872 0 -0.034869033737488953 0.00023721590650918251 0 -0.034891134145434391 0.00021532386110534416 0 -0.034852958550085369 0.00023422425031840175 0 -0.034858830542911008 0.00023290364273586872 0 -0.034891134145434391 0.00021532386110534416 0 -0.033222503024001211 0.00027361601882055142 0 -0.032997346818989179 8.9818193414269407e-07 0 -0.031255639354890306 0.00020397215352923708 0 -0.03309069003701922 0.00011301980695718717 0 -0.032060479451829771 0.00049205064303001526 0 -0.032071042007953993 0.00064951921082009314 0 -0.03192008978587129 0.00069762065362536892 0 -0.031620935393509582 0.00047195641128881642 0 -0.032071042007953993 0.00064951921082009314 0 -0.03192008978587129 0.00069762065362536892 0 -0.032060479451829771 0.00049205064303001526 0 -0.031255639354890306 0.00020397215352923708 0 -0.03192008978587129 0.00069762065362536892 0 -0.032060479451829771 0.00049205064303001526 0 -0.03309069003701922 0.00011301980695718717 0 -0.032071042007953993 0.00064951921082009314 0 -0.032060479451829771 0.00049205064303001526 0 -0.03309069003701922 0.00011301980695718717 0 -0.032071042007953993 0.00064951921082009314 0 -0.031830582635005822 0.00079015299107329496 0 -0.03309069003701922 0.00011301980695718717 0 -0.03252772368231318 0.0003558479651901727 0 -0.031830582635005822 0.00079015299107329496 0 -0.032071042007953993 0.00064951921082009314 0 -0.031830582635005822 0.00079015299107329496 0 -0.031620935393509582 0.00047195641128881642 0 -0.031830582635005822 0.00079015299107329496 0 -0.030843933193026581 9.0144008993869e-05 0 -0.031620935393509582 0.00047195641128881642 0 -0.031830582635005822 0.00079015299107329496 0 -0.029773499285792523 -0.00014001026891970181 0 -0.030843933193026581 9.0144008993869e-05 0 -0.029773499285792523 -0.00014001026891970181 0 -0.030843933193026581 9.0144008993869e-05 0 -0.029851877816762854 -0.0005796367949534682 0 -0.030843933193026581 9.0144008993869e-05 0 -0.031620935393509582 0.00047195641128881642 0 -0.030768774094543559 -0.00044375529387986982 0 -0.030843933193026581 9.0144008993869e-05 0 -0.030768774094543559 -0.00044375529387986982 0 -0.029851877816762854 -0.0005796367949534682 0 -0.032104774202981974 -0.00018632432564644129 0 -0.031620935393509582 0.00047195641128881642 0 -0.03199454410620052 0.00033903864299113506 0 -0.031620935393509582 0.00047195641128881642 0 -0.031357162618703215 -0.00083862685481513337 0 -0.030768774094543559 -0.00044375529387986982 0 -0.03192008978587129 0.00069762065362536892 0 -0.031620935393509582 0.00047195641128881642 0 -0.03199454410620052 0.00033903864299113506 0 -0.032142439836553037 0.00050594478422698948 0 -0.03192008978587129 0.00069762065362536892 0 -0.03199454410620052 0.00033903864299113506 0 -0.032432406220593464 -0.0014023000595059273 0 -0.031357162618703215 -0.00083862685481513337 0 -0.030786689541198689 -0.0027018963042337273 0 -0.032432406220593464 -0.0014023000595059273 0 -0.031620935393509582 0.00047195641128881642 0 -0.031357162618703215 -0.00083862685481513337 0 -0.031357162618703215 -0.00083862685481513337 0 -0.030786689541198689 -0.0027018963042337273 0 -0.030105440095154843 -0.0014304987491529726 0 -0.029732527746614966 -0.0019471256538393332 0 -0.032362572016914719 0.00065745241678598614 0 -0.026223277150361303 -0.0050584435078336503 0 -0.026264980761823722 -0.0046051117266938295 0 -0.026764198691741216 -0.0046924483722328818 0 -0.029732527746614966 -0.0019471256538393332 0 -0.028602971331731442 -0.0038505070951339593 0 -0.026264980761823722 -0.0046051117266938295 0 -0.026764198691741216 -0.0046924483722328818 0 -0.026379542733737629 -0.0042349567611909104 0 -0.030786689541198689 -0.0027018963042337273 0 -0.028649841644965094 -0.0019098494822793225 0 -0.027766820288200683 -0.0029130088806759492 0 -0.030786689541198689 -0.0027018963042337273 0 -0.030105440095154843 -0.0014304987491529726 0 -0.028649841644965094 -0.0019098494822793225 0 -0.029207864726370457 -0.0012035846193200858 0 -0.030105440095154843 -0.0014304987491529726 0 -0.029851877816762854 -0.0005796367949534682 0 -0.029207864726370457 -0.0012035846193200858 0 -0.030105440095154843 -0.0014304987491529726 0 -0.028649841644965094 -0.0019098494822793225 0 -0.030105440095154843 -0.0014304987491529726 0 -0.030768774094543559 -0.00044375529387986982 0 -0.029851877816762854 -0.0005796367949534682 0 -0.031357162618703215 -0.00083862685481513337 0 -0.030105440095154843 -0.0014304987491529726 0 -0.030768774094543559 -0.00044375529387986982 0 -0.029207864726370457 -0.0012035846193200858 0 -0.029851877816762854 -0.0005796367949534682 0 -0.028683699554156172 -0.00066666472682285459 0 -0.029773499285792523 -0.00014001026891970181 0 -0.029851877816762854 -0.0005796367949534682 0 -0.028683699554156172 -0.00066666472682285459 0 -0.028683699554156172 -0.00066666472682285459 0 -0.027715783894077292 -0.00046794361404049739 0 -0.028348361921682708 -0.0012323584993939225 0 -0.027590519780344835 -0.00026583645331603096 0 -0.028683699554156172 -0.00066666472682285459 0 -0.027715783894077292 -0.00046794361404049739 0 -0.027715783894077292 -0.00046794361404049739 0 -0.028348361921682708 -0.0012323584993939225 0 -0.027404303147075662 -0.0020060594631167912 0 -0.029207864726370457 -0.0012035846193200858 0 -0.028683699554156172 -0.00066666472682285459 0 -0.028348361921682708 -0.0012323584993939225 0 -0.029207864726370457 -0.0012035846193200858 0 -0.028348361921682708 -0.0012323584993939225 0 -0.028649841644965094 -0.0019098494822793225 0 -0.027697208063847151 -0.002430972854098564 0 -0.028708489063047765 -0.00050909687302080832 0 -0.029068951201223769 -0.0015215508764539947 0 -0.027590519780344835 -0.00026583645331603096 0 -0.027715783894077292 -0.00046794361404049739 0 -0.028708489063047765 -0.00050909687302080832 0 -0.03483436304669521 0.00024140530943157228 0 -0.034869033737488953 0.00023721590650918251 0 -0.034869563328638338 0.00025633048604365642 0 -0.030921934417361588 -0.00013327207451919445 0 -0.027560804259354282 -0.0011710010226779295 0 -0.030921934417361588 -0.00013327207451919445 0 -0.031957937067997766 -0.00074335258679116326 0 -0.027715783894077292 -0.00046794361404049739 0 -0.02659766626041711 -0.0020942781157787232 0 -0.025122659445395792 -0.0027867222839337877 0 -0.027615838298305884 -0.00063450160850527914 0 -0.027046040813323274 -0.0014921244338498879 0 -0.027715783894077292 -0.00046794361404049739 0 -0.028708489063047765 -0.00050909687302080832 0 -0.02893733486844231 -0.00031036211566109356 0 -0.02659766626041711 -0.0020942781157787232 0 -0.027404303147075662 -0.0020060594631167912 0 -0.026140587064819257 -0.0030733139006630266 0 -0.02659766626041711 -0.0020942781157787232 0 -0.025122659445395792 -0.0027867222839337877 0 -0.026140587064819257 -0.0030733139006630266 0 -0.027715783894077292 -0.00046794361404049739 0 -0.02659766626041711 -0.0020942781157787232 0 -0.027404303147075662 -0.0020060594631167912 0 -0.028649841644965094 -0.0019098494822793225 0 -0.027404303147075662 -0.0020060594631167912 0 -0.027766820288200683 -0.0029130088806759492 0 -0.028348361921682708 -0.0012323584993939225 0 -0.028649841644965094 -0.0019098494822793225 0 -0.027404303147075662 -0.0020060594631167912 0 -0.027404303147075662 -0.0020060594631167912 0 -0.027766820288200683 -0.0029130088806759492 0 -0.026140587064819257 -0.0030733139006630266 0 -0.027766820288200683 -0.0029130088806759492 0 -0.026140587064819257 -0.0030733139006630266 0 -0.027877116897183175 -0.003974164072879309 0 -0.026140587064819257 -0.0030733139006630266 0 -0.027636763209511465 -0.0040034360964584202 0 -0.027877116897183175 -0.003974164072879309 0 -0.026010566593154504 -0.0030076015074543818 0 -0.025837595959144463 -0.0033016776580903884 0 -0.025122659445395792 -0.0027867222839337877 0 -0.026140587064819257 -0.0030733139006630266 0 -0.024951409859857936 -0.0029522469878934718 0 -0.026140587064819257 -0.0030733139006630266 0 -0.024951409859857936 -0.0029522469878934718 0 -0.024148553792362699 -0.0029188181817867026 0 -0.024951409859857936 -0.0029522469878934718 0 -0.02437761868590349 -0.0026699061073393688 0 -0.024148553792362699 -0.0029188181817867026 0 -0.024951409859857936 -0.0029522469878934718 0 -0.02437761868590349 -0.0026699061073393688 0 -0.024546643587027871 -0.0026188049987339785 0 -0.027636763209511465 -0.0040034360964584202 0 -0.02741771013395675 -0.0038119039920786243 0 -0.027877116897183175 -0.003974164072879309 0 -0.02437761868590349 -0.0026699061073393688 0 -0.024148553792362699 -0.0029188181817867026 0 -0.023850372602937091 -0.0024176134050039274 0 -0.027636763209511465 -0.0040034360964584202 0 -0.026999638491278011 -0.003331550101543151 0 -0.026968774777410595 -0.0024185656959389407 0 -0.027636763209511465 -0.0040034360964584202 0 -0.026999638491278011 -0.003331550101543151 0 -0.02741771013395675 -0.0038119039920786243 0 -0.026999638491278011 -0.003331550101543151 0 -0.02741771013395675 -0.0038119039920786243 0 -0.026948058813272051 -0.0039432921658845085 0 -0.026999638491278011 -0.003331550101543151 0 -0.026227594073956223 -0.0033650581755470151 0 -0.026948058813272051 -0.0039432921658845085 0 -0.025438711130628816 -0.0033399284049070209 0 -0.026870310993910584 -0.0040453756215403274 0 -0.025438711130628816 -0.0033399284049070209 0 -0.025836151910878624 -0.0026170768183076815 0 -0.02482214755317769 -0.0036174543752270204 0 -0.026227594073956223 -0.0033650581755470151 0 -0.026004270677389266 -0.0025999063321028564 0 -0.02482214755317769 -0.0036174543752270204 0 -0.026227594073956223 -0.0033650581755470151 0 -0.026948058813272051 -0.0039432921658845085 0 -0.026999638491278011 -0.003331550101543151 0 -0.026227594073956223 -0.0033650581755470151 0 -0.026004270677389266 -0.0025999063321028564 0 -0.025987489091468755 -0.0037443944687124476 0 -0.026379542733737629 -0.0042349567611909104 0 -0.026948058813272051 -0.0039432921658845085 0 -0.026764198691741216 -0.0046924483722328818 0 -0.026379542733737629 -0.0042349567611909104 0 -0.026948058813272051 -0.0039432921658845085 0 -0.030786689541198689 -0.0027018963042337273 0 -0.027766820288200683 -0.0029130088806759492 0 -0.027877116897183175 -0.003974164072879309 0 -0.028602971331731442 -0.0038505070951339593 0 -0.028106234405495232 -0.0038898785020978475 0 -0.026764198691741216 -0.0046924483722328818 0 -0.027877116897183175 -0.003974164072879309 0 -0.026948058813272051 -0.0039432921658845085 0 -0.02741771013395675 -0.0038119039920786243 0 -0.027877116897183175 -0.003974164072879309 0 -0.026948058813272051 -0.0039432921658845085 0 -0.031918820148579032 0.00096516161847623092 0 -0.033470014055883783 0.00078973806527370322 0 -0.0332772305661573 0.001545094195857075 0 -0.031918820148579032 0.00096516161847623092 0 -0.033470014055883783 0.00078973806527370322 0 -0.032031625817585001 -0.00015404708513612361 0 -0.033470014055883783 0.00078973806527370322 0 -0.033709515512632918 0.00065180218257275123 0 -0.033766271104889986 0.00062580825989944425 0 -0.033470874702735909 0.00072984353213964711 0 -0.032814889507079788 0.0002219535389977546 0 -0.033470014055883783 0.00078973806527370322 0 -0.033709515512632918 0.00065180218257275123 0 -0.033842012828288366 0.00062062248614988503 0 -0.034058972264904577 0.00088671438556983868 0 -0.033470014055883783 0.00078973806527370322 0 -0.033842012828288366 0.00062062248614988503 0 -0.034058972264904577 0.00088671438556983868 0 -0.034020278071029392 0.00061069800684508755 0 -0.033842012828288366 0.00062062248614988503 0 -0.034058972264904577 0.00088671438556983868 0 -0.033470014055883783 0.00078973806527370322 0 -0.0332772305661573 0.001545094195857075 0 -0.034058972264904577 0.00088671438556983868 0 -0.0332772305661573 0.001545094195857075 0 -0.033531589429643308 0.0023958624342784113 0 -0.0332772305661573 0.001545094195857075 0 -0.033531589429643308 0.0023958624342784113 0 -0.032409116505566778 0.0018640719758736821 0 -0.033946188567604972 0.0011457382543393559 0 -0.033578906903772979 0.0022827417000665794 0 -0.033867693303890549 0.0013156839996997182 0 -0.033531589429643308 0.0023958624342784113 0 -0.034182693060814222 0.0016675057325352984 0 -0.031918820148579032 0.00096516161847623092 0 -0.0332772305661573 0.001545094195857075 0 -0.032409116505566778 0.0018640719758736821 0 -0.033531589429643308 0.0023958624342784113 0 -0.032409116505566778 0.0018640719758736821 0 -0.032689913159510219 0.0029233187797545971 0 -0.032409116505566778 0.0018640719758736821 0 -0.030428743474000354 0.0017942733109383424 0 -0.031998894432477491 0.0026293138031648487 0 -0.031918820148579032 0.00096516161847623092 0 -0.032409116505566778 0.0018640719758736821 0 -0.030428743474000354 0.0017942733109383424 0 -0.024951409859857936 -0.0029522469878934718 0 -0.024627747074901448 -0.0026689721665888785 0 -0.024546643587027871 -0.0026188049987339785 0 -0.02893733486844231 -0.00031036211566109356 0 -0.030601198050771803 0.00059172275884890248 0 -0.030152638378581745 -0.00012065936685707301 0 -0.02893733486844231 -0.00031036211566109356 0 -0.030428743474000354 0.0017942733109383424 0 -0.030601198050771803 0.00059172275884890248 0 -0.025122659445395792 -0.0027867222839337877 0 -0.024951409859857936 -0.0029522469878934718 0 -0.024627747074901448 -0.0026689721665888785 0 -0.027046040813323274 -0.0014921244338498879 0 -0.027437379174278513 -0.00056174311541448067 0 -0.031918820148579032 0.00096516161847623092 0 -0.030428743474000354 0.0017942733109383424 0 -0.030601198050771803 0.00059172275884890248 0 -0.030601198050771803 0.00059172275884890248 0 -0.03112806554000629 -2.3589834748312997e-05 0 -0.030152638378581745 -0.00012065936685707301 0 -0.031918820148579032 0.00096516161847623092 0 -0.030601198050771803 0.00059172275884890248 0 -0.03112806554000629 -2.3589834748312997e-05 0 -0.031918820148579032 0.00096516161847623092 0 -0.03112806554000629 -2.3589834748312997e-05 0 -0.032031625817585001 -0.00015404708513612361 0 -0.03112806554000629 -2.3589834748312997e-05 0 -0.030638205978577738 -0.00091973606662640642 0 -0.032031625817585001 -0.00015404708513612361 0 -0.032857399315689803 -0.0001326238754827793 0 -0.032814889507079788 0.0002219535389977546 0 -0.03112806554000629 -2.3589834748312997e-05 0 -0.030485273466785267 -0.00060265687806954115 0 -0.030152638378581745 -0.00012065936685707301 0 -0.03112806554000629 -2.3589834748312997e-05 0 -0.030485273466785267 -0.00060265687806954115 0 -0.030638205978577738 -0.00091973606662640642 0 -0.030485273466785267 -0.00060265687806954115 0 -0.030570622520828372 -0.00082533024108882359 0 -0.030100837131556681 -0.00070361525579510937 0 -0.032509809281217578 -8.792279024443932e-05 0 -0.032857399315689803 -0.0001326238754827793 0 -0.033698733475490426 0.00056151748614498222 0 -0.033826286163680816 0.00052332682761986843 0 -0.033766271104889986 0.00062580825989944425 0 -0.02893733486844231 -0.00031036211566109356 0 -0.029629391197682049 -0.00039199003651040076 0 -0.029287541953582234 -0.00053993473861560558 0 -0.02893733486844231 -0.00031036211566109356 0 -0.029629391197682049 -0.00039199003651040076 0 -0.030152638378581745 -0.00012065936685707301 0 -0.028708489063047765 -0.00050909687302080832 0 -0.02893733486844231 -0.00031036211566109356 0 -0.029287541953582234 -0.00053993473861560558 0 -0.029629391197682049 -0.00039199003651040076 0 -0.029723382117941042 -0.00062315483243965573 0 -0.029287541953582234 -0.00053993473861560558 0 -0.029629391197682049 -0.00039199003651040076 0 -0.030152638378581745 -0.00012065936685707301 0 -0.030055720151977564 -0.00048616755045526077 0 -0.029629391197682049 -0.00039199003651040076 0 -0.030055720151977564 -0.00048616755045526077 0 -0.029723382117941042 -0.00062315483243965573 0 -0.030485273466785267 -0.00060265687806954115 0 -0.030055720151977564 -0.00048616755045526077 0 -0.030100837131556681 -0.00070361525579510937 0 -0.030485273466785267 -0.00060265687806954115 0 -0.030152638378581745 -0.00012065936685707301 0 -0.030055720151977564 -0.00048616755045526077 0 -0.030570622520828372 -0.00082533024108882359 0 -0.030100837131556681 -0.00070361525579510937 0 -0.029663048177939307 -0.00094310037868381921 0 -0.030055720151977564 -0.00048616755045526077 0 -0.030100837131556681 -0.00070361525579510937 0 -0.029723382117941042 -0.00062315483243965573 0 -0.030100837131556681 -0.00070361525579510937 0 -0.029663048177939307 -0.00094310037868381921 0 -0.029723382117941042 -0.00062315483243965573 0 -0.028708489063047765 -0.00050909687302080832 0 -0.029663048177939307 -0.00094310037868381921 0 -0.029287541953582234 -0.00053993473861560558 0 -0.028708489063047765 -0.00050909687302080832 0 -0.029663048177939307 -0.00094310037868381921 0 -0.029068951201223769 -0.0015215508764539947 0 -0.029663048177939307 -0.00094310037868381921 0 -0.029723382117941042 -0.00062315483243965573 0 -0.029287541953582234 -0.00053993473861560558 0 -0.032857399315689803 -0.0001326238754827793 0 -0.031957937067997766 -0.00074335258679116326 0 -0.030570622520828372 -0.00082533024108882359 0 -0.029663048177939307 -0.00094310037868381921 0 -0.029068951201223769 -0.0015215508764539947 0 -0.034916392191916841 0.00029163432668000632 0 -0.034869563328638338 0.00025633048604365642 0 -0.034918708372263123 0.00025312353801642168 0 -0.034869563328638338 0.00025633048604365642 0 -0.034918708372263123 0.00025312353801642168 0 -0.034907770833691946 0.00023005967199369909 0 -0.034869033737488953 0.00023721590650918251 0 -0.034869563328638338 0.00025633048604365642 0 -0.034907770833691946 0.00023005967199369909 0 -0.032857399315689803 -0.0001326238754827793 0 -0.03453403128011294 0.00034749658195978069 0 -0.033698733475490426 0.00056151748614498222 0 -0.033826286163680816 0.00052332682761986843 0 -0.033843914413613695 0.00037786355971593011 0 -0.034916392191916841 0.00029163432668000632 0 -0.034918708372263123 0.00025312353801642168 0 -0.034971173478074706 0.000234950185575574 0 -0.034918708372263123 0.00025312353801642168 0 -0.034907770833691946 0.00023005967199369909 0 -0.034971173478074706 0.000234950185575574 0 -0.033826286163680816 0.00052332682761986843 0 -0.034040074982790929 0.00043553393380627454 0 -0.033843914413613695 0.00037786355971593011 0 -0.034040074982790929 0.00043553393380627454 0 -0.034067585637564061 0.00031503082065455055 0 -0.033843914413613695 0.00037786355971593011 0 -0.033826286163680816 0.00052332682761986843 0 -0.033842667768728234 0.00057481774823937945 0 -0.034040074982790929 0.00043553393380627454 0 -0.033826286163680816 0.00052332682761986843 0 -0.033842667768728234 0.00057481774823937945 0 -0.033766271104889986 0.00062580825989944425 0 -0.033842667768728234 0.00057481774823937945 0 -0.033709515512632918 0.00065180218257275123 0 -0.033766271104889986 0.00062580825989944425 0 -0.034058972264904577 0.00088671438556983868 0 -0.034020278071029392 0.00061069800684508755 0 -0.034189370354380855 0.00051948952754590652 0 -0.034020278071029392 0.00061069800684508755 0 -0.033842012828288366 0.00062062248614988503 0 -0.03404376081435645 0.00050645614603299588 0 -0.033842667768728234 0.00057481774823937945 0 -0.033709515512632918 0.00065180218257275123 0 -0.033842012828288366 0.00062062248614988503 0 -0.033842667768728234 0.00057481774823937945 0 -0.033842012828288366 0.00062062248614988503 0 -0.03404376081435645 0.00050645614603299588 0 -0.034020278071029392 0.00061069800684508755 0 -0.03404376081435645 0.00050645614603299588 0 -0.034189370354380855 0.00051948952754590652 0 -0.03404376081435645 0.00050645614603299588 0 -0.034040074982790929 0.00043553393380627454 0 -0.034193951570133142 0.00041402558850580311 0 -0.034040074982790929 0.00043553393380627454 0 -0.034193951570133142 0.00041402558850580311 0 -0.034284675676276674 0.00027703623157619662 0 -0.03404376081435645 0.00050645614603299588 0 -0.034193951570133142 0.00041402558850580311 0 -0.034189370354380855 0.00051948952754590652 0 -0.033842667768728234 0.00057481774823937945 0 -0.03404376081435645 0.00050645614603299588 0 -0.034040074982790929 0.00043553393380627454 0 -0.034040074982790929 0.00043553393380627454 0 -0.034284675676276674 0.00027703623157619662 0 -0.034067585637564061 0.00031503082065455055 0 -0.034284675676276674 0.00027703623157619662 0 -0.034067585637564061 0.00031503082065455055 0 -0.03412741125626613 0.00016010659358380058 0 -0.034067585637564061 0.00031503082065455055 0 -0.03412741125626613 0.00016010659358380058 0 -0.033843914413613695 0.00037786355971593011 0 -0.034560727584733116 0.00016484637049173553 0 -0.03453403128011294 0.00034749658195978069 0 -0.034284675676276674 0.00027703623157619662 0 -0.03412741125626613 0.00016010659358380058 0 -0.034528992526716352 8.3056862140918795e-05 0 -0.034891134145434391 0.00021532386110534416 0 -0.034907770833691946 0.00023005967199369909 0 -0.034944718663038589 0.00017938023207349988 0 -0.034869033737488953 0.00023721590650918251 0 -0.034891134145434391 0.00021532386110534416 0 -0.034907770833691946 0.00023005967199369909 0 -0.035020729304730026 0.00014925510618895882 0 -0.034971173478074706 0.000234950185575574 0 -0.034944718663038589 0.00017938023207349988 0 -0.034907770833691946 0.00023005967199369909 0 -0.034971173478074706 0.000234950185575574 0 -0.034944718663038589 0.00017938023207349988 0 -0.035020729304730026 0.00014925510618895882 0 -0.034944718663038589 0.00017938023207349988 0 -0.034984314318475318 7.8578576227322184e-05 0 -0.034923053924857977 0.00015892869577795892 0 -0.034891134145434391 0.00021532386110534416 0 -0.034944718663038589 0.00017938023207349988 0 -0.034923053924857977 0.00015892869577795892 0 -0.034944718663038589 0.00017938023207349988 0 -0.034984314318475318 7.8578576227322184e-05 0 -0.034959586660804828 6.5880311185315661e-05 0 -0.034923053924857977 0.00015892869577795892 0 -0.034984314318475318 7.8578576227322184e-05 0 -0.034984314318475318 7.8578576227322184e-05 0 -0.034999949311029704 7.3002641586665994e-08 0 -0.035000006888250626 1.9330710484064595e-08 0 -0.034959586660804828 6.5880311185315661e-05 0 -0.034984314318475318 7.8578576227322184e-05 0 -0.034999949311029704 7.3002641586665994e-08 0 -0.03449585153727245 -2.3655994025391178e-06 0 -0.034528992526716352 8.3056862140918795e-05 0 -0.034797092681588093 -6.3906860296313196e-06 0 -0.03412741125626613 0.00016010659358380058 0 -0.03449585153727245 -2.3655994025391178e-06 0 -0.034528992526716352 8.3056862140918795e-05 0 -0.034560727584733116 0.00016484637049173553 0 -0.034760385234493346 6.0098714178072319e-05 0 -0.035020729304730026 0.00014925510618895882 0 -0.034984314318475318 7.8578576227322184e-05 0 -0.03503195079130187 5.8684144892787942e-05 0 -0.03503195079130187 5.8684144892787942e-05 0 -0.035000006888250626 1.9330710484064595e-08 0 -0.035000076839062803 2.4700191591623917e-08 0 -0.034984314318475318 7.8578576227322184e-05 0 -0.03503195079130187 5.8684144892787942e-05 0 -0.035000006888250626 1.9330710484064595e-08 0 -0.03449585153727245 -2.3655994025391178e-06 0 -0.03499938858798117 -1.3386190506189459e-07 0 -0.034797092681588093 -6.3906860296313196e-06 0 -0.034760385234493346 6.0098714178072319e-05 0 -0.034999867696729824 6.7488624927283286e-08 0 -0.034999987089642498 5.7878805612509937e-10 0 -0.034991741169238651 5.8463652460999956e-06 0 -0.034998686046240519 1.9111972867497306e-06 0 -0.034999960515588874 1.8400460128635734e-08 0 -0.034797092681588093 -6.3906860296313196e-06 0 -0.03476040217244368 1.556077385540202e-05 0 -0.03499938858798117 -1.3386190506189459e-07 0 -0.034999960515588874 1.8400460128635734e-08 0 -0.034797092681588093 -6.3906860296313196e-06 0 -0.034999938307954927 -3.3215622733847557e-08 0 -0.034879386831742437 -9.2907716526071152e-06 0 -0.034528992526716352 8.3056862140918795e-05 0 -0.034797092681588093 -6.3906860296313196e-06 0 -0.03476040217244368 1.556077385540202e-05 0 -0.034879386831742437 -9.2907716526071152e-06 0 -0.034779377825433354 0.00011842307276642682 0 -0.034528992526716352 8.3056862140918795e-05 0 -0.03476040217244368 1.556077385540202e-05 0 -0.034568396513848812 0.00015889754855796993 0 -0.03497358142153157 8.1699191368739392e-06 0 -0.034974704590932354 -7.2487534829072896e-06 0 -0.034991741169238651 5.8463652460999956e-06 0 -0.034999069119642762 5.9169464150789117e-06 0 -0.034990642028396489 2.1816591045952895e-05 0 -0.034991741169238651 5.8463652460999956e-06 0 -0.034999069119642762 5.9169464150789117e-06 0 -0.034998686046240519 1.9111972867497306e-06 0 -0.034999987089642498 5.7878805612509937e-10 0 -0.035000007281226576 -1.2271941685536146e-10 0 -0.034998686046240519 1.9111972867497306e-06 0 -0.03497358142153157 8.1699191368739392e-06 0 -0.034999987270934611 5.2103059929322545e-09 0 -0.034951478593852302 1.1896584638905969e-06 0 -0.034999917719726353 -9.4669448655253404e-10 0 -0.0349530111069161 8.0494866047062585e-06 0 -0.034999069119642762 5.9169464150789117e-06 0 -0.035000007281226576 -1.2271941685536146e-10 0 -0.034998686046240519 1.9111972867497306e-06 0 -0.034999917719726353 -9.4669448655253404e-10 0 -0.034999900735914281 2.3887604318323493e-08 0 -0.0349530111069161 8.0494866047062585e-06 0 -0.034999900735914281 2.3887604318323493e-08 0 -0.0349530111069161 8.0494866047062585e-06 0 -0.034885259089032651 3.0886274737771665e-05 0 -0.0349530111069161 8.0494866047062585e-06 0 -0.034895935777163538 -1.2295036505683611e-05 0 -0.034885259089032651 3.0886274737771665e-05 0 -0.034951478593852302 1.1896584638905969e-06 0 -0.0349530111069161 8.0494866047062585e-06 0 -0.034923658861546476 -1.1815873482538987e-05 0 -0.0349530111069161 8.0494866047062585e-06 0 -0.034923658861546476 -1.1815873482538987e-05 0 -0.034895935777163538 -1.2295036505683611e-05 0 -0.034923658861546476 -1.1815873482538987e-05 0 -0.034895935777163538 -1.2295036505683611e-05 0 -0.034890635385557617 -4.9224449718254554e-05 0 -0.034895935777163538 -1.2295036505683611e-05 0 -0.034890635385557617 -4.9224449718254554e-05 0 -0.034828403562193772 -8.9691417792442304e-05 0 -0.034895935777163538 -1.2295036505683611e-05 0 -0.034885259089032651 3.0886274737771665e-05 0 -0.034818512159997032 -7.0448641407922435e-06 0 -0.034895935777163538 -1.2295036505683611e-05 0 -0.034818512159997032 -7.0448641407922435e-06 0 -0.034828403562193772 -8.9691417792442304e-05 0 -0.034890635385557617 -4.9224449718254554e-05 0 -0.03489378781989852 -4.7775010501883443e-05 0 -0.034923899753691132 -2.3214680637233012e-05 0 -0.034977291832251296 4.0145441737618844e-05 0 -0.034985197488479718 2.197831774117188e-05 0 -0.034990642028396489 2.1816591045952895e-05 0 -0.034193951570133142 0.00041402558850580311 0 -0.034284675676276674 0.00027703623157619662 0 -0.034404773175804995 0.00034218050928113509 0 -0.034670543756757939 -1.1264580666018572e-05 0 -0.034974704590932354 -7.2487534829072896e-06 0 -0.034670543756757939 -1.1264580666018572e-05 0 -0.034779377825433354 0.00011842307276642682 0 -0.034284675676276674 0.00027703623157619662 0 -0.034404773175804995 0.00034218050928113509 0 -0.034568396513848812 0.00015889754855796993 0 -0.034991741169238651 5.8463652460999956e-06 0 -0.034985197488479718 2.197831774117188e-05 0 -0.034990642028396489 2.1816591045952895e-05 0 -0.034284675676276674 0.00027703623157619662 0 -0.034528992526716352 8.3056862140918795e-05 0 -0.034568396513848812 0.00015889754855796993 0 -0.034951478593852302 1.1896584638905969e-06 0 -0.034923658861546476 -1.1815873482538987e-05 0 -0.034923899753691132 -2.3214680637233012e-05 0 -0.034923658861546476 -1.1815873482538987e-05 0 -0.034890635385557617 -4.9224449718254554e-05 0 -0.034923899753691132 -2.3214680637233012e-05 0 -0.03478638193106888 2.6850686436525313e-05 0 -0.034726544501076338 5.5643604824961899e-05 0 -0.034844232936484011 4.3516300532402127e-05 0 -0.034999708373455833 1.5049475767025849e-08 0 -0.03478638193106888 2.6850686436525313e-05 0 -0.034844232936484011 4.3516300532402127e-05 0 -0.034999708373455833 1.5049475767025849e-08 0 -0.03499993765715189 -1.784922293736978e-08 0 -0.034844232936484011 4.3516300532402127e-05 0 -0.034999708373455833 1.5049475767025849e-08 0 -0.03478638193106888 2.6850686436525313e-05 0 -0.034999818422989382 4.9367617579143084e-08 0 -0.03478638193106888 2.6850686436525313e-05 0 -0.034885259089032651 3.0886274737771665e-05 0 -0.03460737789198514 1.8273260329708978e-05 0 -0.03478638193106888 2.6850686436525313e-05 0 -0.034999818422989382 4.9367617579143084e-08 0 -0.034885259089032651 3.0886274737771665e-05 0 -0.034999900735914281 2.3887604318323493e-08 0 -0.034999818422989382 4.9367617579143084e-08 0 -0.034885259089032651 3.0886274737771665e-05 0 -0.034885259089032651 3.0886274737771665e-05 0 -0.034818512159997032 -7.0448641407922435e-06 0 -0.03460737789198514 1.8273260329708978e-05 0 -0.034818512159997032 -7.0448641407922435e-06 0 -0.03460737789198514 1.8273260329708978e-05 0 -0.034828403562193772 -8.9691417792442304e-05 0 -0.03460737789198514 1.8273260329708978e-05 0 -0.034318477409615779 0.00025151602959298678 0 -0.034001351703892339 0.00023419427283075881 0 -0.034625311058618172 -5.1555894194569193e-06 0 -0.034281188687764606 0.00014477952645446028 0 -0.03478638193106888 2.6850686436525313e-05 0 -0.03459167703548411 8.3425364526937303e-05 0 -0.034726544501076338 5.5643604824961899e-05 0 -0.03478638193106888 2.6850686436525313e-05 0 -0.03460737789198514 1.8273260329708978e-05 0 -0.03459167703548411 8.3425364526937303e-05 0 -0.03460737789198514 1.8273260329708978e-05 0 -0.03459167703548411 8.3425364526937303e-05 0 -0.034318477409615779 0.00025151602959298678 0 -0.03459167703548411 8.3425364526937303e-05 0 -0.03443662544126154 0.00026591827433791948 0 -0.034318477409615779 0.00025151602959298678 0 -0.03459167703548411 8.3425364526937303e-05 0 -0.03463628979064555 0.00011104003492311836 0 -0.03443662544126154 0.00026591827433791948 0 -0.03463628979064555 0.00011104003492311836 0 -0.03443662544126154 0.00026591827433791948 0 -0.034581740615738023 0.00024188004160070602 0 -0.03459167703548411 8.3425364526937303e-05 0 -0.03463628979064555 0.00011104003492311836 0 -0.034726544501076338 5.5643604824961899e-05 0 -0.03463628979064555 0.00011104003492311836 0 -0.034726544501076338 5.5643604824961899e-05 0 -0.034749910721204438 5.0823188711781002e-05 0 -0.034432619764214585 0.0003585125649422809 0 -0.034287092415956524 0.00055391345771233836 0 -0.034419386838671809 0.00048222925299575665 0 -0.034286615799512546 0.00044460978421647111 0 -0.034432619764214585 0.0003585125649422809 0 -0.034287092415956524 0.00055391345771233836 0 -0.034286615799512546 0.00044460978421647111 0 -0.03413504995303554 0.00058784303485221801 0 -0.034287092415956524 0.00055391345771233836 0 -0.034432619764214585 0.0003585125649422809 0 -0.03443662544126154 0.00026591827433791948 0 -0.034581740615738023 0.00024188004160070602 0 -0.034286615799512546 0.00044460978421647111 0 -0.034432619764214585 0.0003585125649422809 0 -0.03443662544126154 0.00026591827433791948 0 -0.03443662544126154 0.00026591827433791948 0 -0.034158527910399535 0.000470663210265467 0 -0.034318477409615779 0.00025151602959298678 0 -0.034286615799512546 0.00044460978421647111 0 -0.03443662544126154 0.00026591827433791948 0 -0.034158527910399535 0.000470663210265467 0 -0.034286615799512546 0.00044460978421647111 0 -0.034158527910399535 0.000470663210265467 0 -0.03413504995303554 0.00058784303485221801 0 -0.034158527910399535 0.000470663210265467 0 -0.034016515765039779 0.0004546268449297308 0 -0.033989689725150776 0.00062270069612595713 0 -0.034158527910399535 0.000470663210265467 0 -0.034318477409615779 0.00025151602959298678 0 -0.034016515765039779 0.0004546268449297308 0 -0.034318477409615779 0.00025151602959298678 0 -0.034001351703892339 0.00023419427283075881 0 -0.034016515765039779 0.0004546268449297308 0 -0.034001351703892339 0.00023419427283075881 0 -0.034016515765039779 0.0004546268449297308 0 -0.033742435631323106 0.00044705534683189585 0 -0.034016515765039779 0.0004546268449297308 0 -0.033894623494970307 0.00058500695374246727 0 -0.033742435631323106 0.00044705534683189585 0 -0.033894623494970307 0.00058500695374246727 0 -0.033989689725150776 0.00062270069612595713 0 -0.034044727921319094 0.00066301522844599452 0 -0.034016515765039779 0.0004546268449297308 0 -0.033894623494970307 0.00058500695374246727 0 -0.033989689725150776 0.00062270069612595713 0 -0.033894623494970307 0.00058500695374246727 0 -0.033763969414496102 0.00070406702925960045 0 -0.034044727921319094 0.00066301522844599452 0 -0.027970078634416279 -0.00071618412847230151 0 -0.02905468939420941 -0.0004922638297863663 0 -0.033926219402961762 0.00068589386578400571 0 -0.033695686159685115 0.00084355876249857405 0 -0.034044727921319094 0.00066301522844599452 0 -0.033989689725150776 0.00062270069612595713 0 -0.033926219402961762 0.00068589386578400571 0 -0.034044727921319094 0.00066301522844599452 0 -0.034158527910399535 0.000470663210265467 0 -0.033989689725150776 0.00062270069612595713 0 -0.033926219402961762 0.00068589386578400571 0 -0.034158527910399535 0.000470663210265467 0 -0.033926219402961762 0.00068589386578400571 0 -0.03413504995303554 0.00058784303485221801 0 -0.033926219402961762 0.00068589386578400571 0 -0.034044510597189132 0.00067578431438351024 0 -0.03413504995303554 0.00058784303485221801 0 -0.033926219402961762 0.00068589386578400571 0 -0.033695686159685115 0.00084355876249857405 0 -0.034044510597189132 0.00067578431438351024 0 -0.034044510597189132 0.00067578431438351024 0 -0.034245689037645563 0.00063960617864135781 0 -0.034307132492529632 0.00068302306184879751 0 -0.033695686159685115 0.00084355876249857405 0 -0.033359171063109254 -0.00022339211396907058 0 -0.030155009035075422 0.0010411704170826368 0 -0.033695686159685115 0.00084355876249857405 0 -0.034044510597189132 0.00067578431438351024 0 -0.034307132492529632 0.00068302306184879751 0 -0.033571084885766579 0.00088492039594853002 0 -0.03217309064949106 0.00079174428394552794 0 -0.034044510597189132 0.00067578431438351024 0 -0.034245689037645563 0.00063960617864135781 0 -0.03413504995303554 0.00058784303485221801 0 -0.034245689037645563 0.00063960617864135781 0 -0.034287092415956524 0.00055391345771233836 0 -0.034351130517265141 0.0006451541412210778 0 -0.034245689037645563 0.00063960617864135781 0 -0.03413504995303554 0.00058784303485221801 0 -0.034287092415956524 0.00055391345771233836 0 -0.03484519674300101 -5.3403969440969914e-05 0 -0.0348590468300463 -5.352078872355932e-05 0 -0.034869178222091353 -5.5802679872008469e-05 0 -0.03484519674300101 -5.3403969440969914e-05 0 -0.0348590468300463 -5.352078872355932e-05 0 -0.034827909317381119 -4.3589743934069443e-05 0 -0.034422381026291679 0.00034907971070865412 0 -0.034165244622144264 0.0003676800168249137 0 -0.034215871266298846 0.0012026570083411314 0 -0.033946188567604972 0.0011457382543393559 0 -0.034169473586810342 0.00043032759868778336 0 -0.034712139585836806 -1.2082190160891444e-06 0 -0.033353896535257783 0.0011494287501167145 0 -0.034434295527527234 -0.00050815880573155578 0 -0.034422381026291679 0.00034907971070865412 0 -0.034165244622144264 0.0003676800168249137 0 -0.034193951570133142 0.00041402558850580311 0 -0.034404773175804995 0.00034218050928113509 0 -0.034189370354380855 0.00051948952754590652 0 -0.03489378781989852 -4.7775010501883443e-05 0 -0.0348590468300463 -5.352078872355932e-05 0 -0.034869178222091353 -5.5802679872008469e-05 0 -0.034670543756757939 -1.1264580666018572e-05 0 -0.034169473586810342 0.00043032759868778336 0 -0.034670543756757939 -1.1264580666018572e-05 0 -0.034712139585836806 -1.2082190160891444e-06 0 -0.034890635385557617 -4.9224449718254554e-05 0 -0.03489378781989852 -4.7775010501883443e-05 0 -0.034869178222091353 -5.5802679872008469e-05 0 -0.034890635385557617 -4.9224449718254554e-05 0 -0.034828403562193772 -8.9691417792442304e-05 0 -0.034853616252582729 -7.0311922829978231e-05 0 -0.034890635385557617 -4.9224449718254554e-05 0 -0.034869178222091353 -5.5802679872008469e-05 0 -0.034853616252582729 -7.0311922829978231e-05 0 -0.034281188687764606 0.00014477952645446028 0 -0.034996321858662291 6.2754996377746303e-05 0 -0.03484519674300101 -5.3403969440969914e-05 0 -0.034869178222091353 -5.5802679872008469e-05 0 -0.034853616252582729 -7.0311922829978231e-05 0 -0.03484519674300101 -5.3403969440969914e-05 0 -0.034853616252582729 -7.0311922829978231e-05 0 -0.034822465541777863 -4.2511745222052443e-05 0 -0.033742435631323106 0.00044705534683189585 0 -0.033763969414496102 0.00070406702925960045 0 -0.033494931412058497 0.00063618030733298585 0 -0.034996321858662291 6.2754996377746303e-05 0 -0.030161639303427058 2.6511112374979094e-05 0 -0.033894623494970307 0.00058500695374246727 0 -0.033742435631323106 0.00044705534683189585 0 -0.033763969414496102 0.00070406702925960045 0 -0.023127397906517678 -0.001811404681716638 0 -0.022527149672910429 -0.0015431788319403541 0 -0.022413793962704296 -0.0020232547631014127 0 -0.027970078634416279 -0.00071618412847230151 0 -0.030161639303427058 2.6511112374979094e-05 0 -0.029853702737251107 0.00085911380996823192 0 -0.029698698990257903 0.0010454189781612779 0 -0.030042943760954743 0.0011617236879692039 0 -0.022527149672910429 -0.0015431788319403541 0 -0.022055073905424903 -0.0016534665462602555 0 -0.022413793962704296 -0.0020232547631014127 0 -0.025797201308426346 2.0402138291222541e-05 0 -0.030161639303427058 2.6511112374979094e-05 0 -0.030161639303427058 2.6511112374979094e-05 0 -0.033353896535257783 0.0011494287501167145 0 -0.03484519674300101 -5.3403969440969914e-05 0 -0.034822465541777863 -4.2511745222052443e-05 0 -0.034827909317381119 -4.3589743934069443e-05 0 -0.034422381026291679 0.00034907971070865412 0 -0.034215871266298846 0.0012026570083411314 0 -0.034417658266385993 0.0012708458716931118 0 -0.033867693303890549 0.0013156839996997182 0 -0.034165244622144264 0.0003676800168249137 0 -0.034215871266298846 0.0012026570083411314 0 -0.033867240963910271 0.0012740506752999836 0 -0.033353896535257783 0.0011494287501167145 0 -0.033867693303890549 0.0013156839996997182 0 -0.034215871266298846 0.0012026570083411314 0 -0.034182693060814222 0.0016675057325352984 0 -0.034215871266298846 0.0012026570083411314 0 -0.034448857818278666 0.0012753715313668084 0 -0.034182693060814222 0.0016675057325352984 0 -0.033531589429643308 0.0023958624342784113 0 -0.034473196932906076 0.0020614822677802592 0 -0.034489109342806544 0.002930605563512489 0 -0.033531589429643308 0.0023958624342784113 0 -0.034182693060814222 0.0016675057325352984 0 -0.034473196932906076 0.0020614822677802592 0 -0.029853702737251107 0.00085911380996823192 0 -0.030042943760954743 0.0011617236879692039 0 -0.030022798040212829 0.000915880178955363 0 -0.034448857818278666 0.0012753715313668084 0 -0.034182693060814222 0.0016675057325352984 0 -0.034473196932906076 0.0020614822677802592 0 -0.033353896535257783 0.0011494287501167145 0 -0.032098232669083078 0.0017152311534717132 0 -0.029853702737251107 0.00085911380996823192 0 -0.030022798040212829 0.000915880178955363 0 -0.029996249085978113 0.00067690902335873927 0 -0.032098232669083078 0.0017152311534717132 0 -0.027322461632311043 0.00038086701693351374 0 -0.025797201308426346 2.0402138291222541e-05 0 -0.027322461632311043 0.00038086701693351374 0 -0.021705687417358864 -0.0012596709082512811 0 -0.021697643591124475 -0.0010617904434164309 0 -0.0219895224460788 -0.0011708578103894914 0 -0.027322461632311043 0.00038086701693351374 0 -0.025728723346472446 -0.00070046452415335389 0 -0.021711967415838335 -0.0012471008682263445 0 -0.021697643591124475 -0.0010617904434164309 0 -0.021296789135278976 -0.00075885657682437605 0 -0.027322461632311043 0.00038086701693351374 0 -0.027417710839789118 0.001745638252173739 0 -0.021697643591124475 -0.0010617904434164309 0 -0.021685669127916068 -0.00059980706445872357 0 -0.021296789135278976 -0.00075885657682437605 0 -0.021685669127916068 -0.00059980706445872357 0 -0.021391267932396634 -0.00023798356793621953 0 -0.021296789135278976 -0.00075885657682437605 0 -0.021697643591124475 -0.0010617904434164309 0 -0.021685669127916068 -0.00059980706445872357 0 -0.022028640126786694 -0.00084586506043494254 0 -0.022028640126786694 -0.00084586506043494254 0 -0.022388610430045648 -0.0010687546368588628 0 -0.0224985589329816 -0.00065687715946402873 0 -0.022028640126786694 -0.00084586506043494254 0 -0.0224985589329816 -0.00065687715946402873 0 -0.022073342628259499 -0.00042784089829412775 0 -0.021685669127916068 -0.00059980706445872357 0 -0.022028640126786694 -0.00084586506043494254 0 -0.022073342628259499 -0.00042784089829412775 0 -0.022028640126786694 -0.00084586506043494254 0 -0.0219895224460788 -0.0011708578103894914 0 -0.022388610430045648 -0.0010687546368588628 0 -0.022527149672910429 -0.0015431788319403541 0 -0.0219895224460788 -0.0011708578103894914 0 -0.022388610430045648 -0.0010687546368588628 0 -0.022527149672910429 -0.0015431788319403541 0 -0.022055073905424903 -0.0016534665462602555 0 -0.0219895224460788 -0.0011708578103894914 0 -0.021697643591124475 -0.0010617904434164309 0 -0.022028640126786694 -0.00084586506043494254 0 -0.0219895224460788 -0.0011708578103894914 0 -0.022055073905424903 -0.0016534665462602555 0 -0.021705687417358864 -0.0012596709082512811 0 -0.0219895224460788 -0.0011708578103894914 0 -0.022527149672910429 -0.0015431788319403541 0 -0.022388610430045648 -0.0010687546368588628 0 -0.022980507700087201 -0.0010466272581777473 0 -0.023127397906517678 -0.001811404681716638 0 -0.022980507700087201 -0.0010466272581777473 0 -0.023460254093544092 -0.0013012207351004144 0 -0.023127397906517678 -0.001811404681716638 0 -0.022527149672910429 -0.0015431788319403541 0 -0.022980507700087201 -0.0010466272581777473 0 -0.022980507700087201 -0.0010466272581777473 0 -0.023235848160901292 -0.0005324806655857972 0 -0.023573546773850578 -0.00084729914850895625 0 -0.022980507700087201 -0.0010466272581777473 0 -0.023235848160901292 -0.0005324806655857972 0 -0.02283136701192591 -0.000371033218431571 0 -0.022388610430045648 -0.0010687546368588628 0 -0.022980507700087201 -0.0010466272581777473 0 -0.0224985589329816 -0.00065687715946402873 0 -0.022980507700087201 -0.0010466272581777473 0 -0.0224985589329816 -0.00065687715946402873 0 -0.02283136701192591 -0.000371033218431571 0 -0.0224985589329816 -0.00065687715946402873 0 -0.022417826705140743 -0.00014117667464032401 0 -0.022073342628259499 -0.00042784089829412775 0 -0.022417826705140743 -0.00014117667464032401 0 -0.02283136701192591 -0.000371033218431571 0 -0.022781021160832488 0.00019837076348552847 0 -0.0224985589329816 -0.00065687715946402873 0 -0.022417826705140743 -0.00014117667464032401 0 -0.02283136701192591 -0.000371033218431571 0 -0.02283136701192591 -0.000371033218431571 0 -0.022781021160832488 0.00019837076348552847 0 -0.023288884383794384 -0.00010510560086075837 0 -0.023235848160901292 -0.0005324806655857972 0 -0.02283136701192591 -0.000371033218431571 0 -0.023288884383794384 -0.00010510560086075837 0 -0.022781021160832488 0.00019837076348552847 0 -0.023288884383794384 -0.00010510560086075837 0 -0.023198329387746353 0.00052919691277722263 0 -0.022417826705140743 -0.00014117667464032401 0 -0.022781021160832488 0.00019837076348552847 0 -0.022306393907449623 0.00040494408959166321 0 -0.022417826705140743 -0.00014117667464032401 0 -0.022306393907449623 0.00040494408959166321 0 -0.022049244951718804 -1.7357049453128451e-05 0 -0.022306393907449623 0.00040494408959166321 0 -0.022049244951718804 -1.7357049453128451e-05 0 -0.021802285285780432 0.00044343995841294526 0 -0.022049244951718804 -1.7357049453128451e-05 0 -0.021802285285780432 0.00044343995841294526 0 -0.021764442764464043 8.0314798177433426e-05 0 -0.02148133205306315 0.00011370871452590626 0 -0.021391267932396634 -0.00023798356793621953 0 -0.021256379447701458 0.00027745736231849649 0 -0.021802285285780432 0.00044343995841294526 0 -0.02148133205306315 0.00011370871452590626 0 -0.021183679613050215 0.00031677409322797772 0 -0.021740517834511426 4.8574982825668065e-05 0 -0.018911040624447092 0.0021601512157987638 0 -0.02148133205306315 0.00011370871452590626 0 -0.021764442764464043 8.0314798177433426e-05 0 -0.021726431814939735 -0.00021123826774171886 0 -0.021802285285780432 0.00044343995841294526 0 -0.02148133205306315 0.00011370871452590626 0 -0.021764442764464043 8.0314798177433426e-05 0 -0.02148133205306315 0.00011370871452590626 0 -0.021726431814939735 -0.00021123826774171886 0 -0.021391267932396634 -0.00023798356793621953 0 -0.021685669127916068 -0.00059980706445872357 0 -0.021726431814939735 -0.00021123826774171886 0 -0.021391267932396634 -0.00023798356793621953 0 -0.021685669127916068 -0.00059980706445872357 0 -0.021726431814939735 -0.00021123826774171886 0 -0.022073342628259499 -0.00042784089829412775 0 -0.022417826705140743 -0.00014117667464032401 0 -0.022049244951718804 -1.7357049453128451e-05 0 -0.022073342628259499 -0.00042784089829412775 0 -0.022049244951718804 -1.7357049453128451e-05 0 -0.021764442764464043 8.0314798177433426e-05 0 -0.021726431814939735 -0.00021123826774171886 0 -0.022049244951718804 -1.7357049453128451e-05 0 -0.021726431814939735 -0.00021123826774171886 0 -0.022073342628259499 -0.00042784089829412775 0 -0.025366472122261417 -0.00079680374591709698 0 -0.025107895089682378 -0.0011341211655111309 0 -0.024729758126641285 -0.00075447071846934568 0 -0.025366472122261417 -0.00079680374591709698 0 -0.025107895089682378 -0.0011341211655111309 0 -0.02571871362156947 -0.0013889005094237905 0 -0.028973592425392193 -0.00085295239975985405 0 -0.027968478086984896 -0.0011663663489815449 0 -0.033359171063109254 -0.00022339211396907058 0 -0.030155009035075422 0.0010411704170826368 0 -0.030132892397068019 -0.0010617570453531032 0 -0.025107895089682378 -0.0011341211655111309 0 -0.024730379751635761 -0.0015123817353217368 0 -0.02571871362156947 -0.0013889005094237905 0 -0.033695686159685115 0.00084355876249857405 0 -0.033359171063109254 -0.00022339211396907058 0 -0.034044727921319094 0.00066301522844599452 0 -0.024730379751635761 -0.0015123817353217368 0 -0.024729758126641285 -0.00075447071846934568 0 -0.02413957851597456 -0.0010574663167996726 0 -0.025107895089682378 -0.0011341211655111309 0 -0.024730379751635761 -0.0015123817353217368 0 -0.024729758126641285 -0.00075447071846934568 0 -0.024729758126641285 -0.00075447071846934568 0 -0.02413957851597456 -0.0010574663167996726 0 -0.024251290972916551 -0.00060614413568442862 0 -0.02413957851597456 -0.0010574663167996726 0 -0.023772304969428264 -0.0004621671490894845 0 -0.024251290972916551 -0.00060614413568442862 0 -0.02413957851597456 -0.0010574663167996726 0 -0.023573546773850578 -0.00084729914850895625 0 -0.023772304969428264 -0.0004621671490894845 0 -0.028973592425392193 -0.00085295239975985405 0 -0.02905468939420941 -0.0004922638297863663 0 -0.024730379751635761 -0.0015123817353217368 0 -0.02413957851597456 -0.0010574663167996726 0 -0.023886181995883094 -0.0016442517545559863 0 -0.02413957851597456 -0.0010574663167996726 0 -0.023886181995883094 -0.0016442517545559863 0 -0.023460254093544092 -0.0013012207351004144 0 -0.023127397906517678 -0.001811404681716638 0 -0.023886181995883094 -0.0016442517545559863 0 -0.023460254093544092 -0.0013012207351004144 0 -0.022980507700087201 -0.0010466272581777473 0 -0.023460254093544092 -0.0013012207351004144 0 -0.023573546773850578 -0.00084729914850895625 0 -0.023235848160901292 -0.0005324806655857972 0 -0.023573546773850578 -0.00084729914850895625 0 -0.023772304969428264 -0.0004621671490894845 0 -0.02413957851597456 -0.0010574663167996726 0 -0.023460254093544092 -0.0013012207351004144 0 -0.023573546773850578 -0.00084729914850895625 0 -0.023235848160901292 -0.0005324806655857972 0 -0.023772304969428264 -0.0004621671490894845 0 -0.023288884383794384 -0.00010510560086075837 0 -0.023772304969428264 -0.0004621671490894845 0 -0.023288884383794384 -0.00010510560086075837 0 -0.023709019374627122 9.5766313308113317e-05 0 -0.023288884383794384 -0.00010510560086075837 0 -0.023709019374627122 9.5766313308113317e-05 0 -0.023198329387746353 0.00052919691277722263 0 -0.023709019374627122 9.5766313308113317e-05 0 -0.023876769042636272 0.00058742874565704411 0 -0.023198329387746353 0.00052919691277722263 0 -0.024229929666072611 0.00017866133457486371 0 -0.024625592030579142 0.00047315415323709564 0 -0.023876769042636272 0.00058742874565704411 0 -0.023709019374627122 9.5766313308113317e-05 0 -0.024229929666072611 0.00017866133457486371 0 -0.02410370282718555 -0.00018343601868240736 0 -0.023709019374627122 9.5766313308113317e-05 0 -0.024229929666072611 0.00017866133457486371 0 -0.023876769042636272 0.00058742874565704411 0 -0.024229929666072611 0.00017866133457486371 0 -0.02410370282718555 -0.00018343601868240736 0 -0.024646102469109893 -0.00010774214230626859 0 -0.02410370282718555 -0.00018343601868240736 0 -0.024251290972916551 -0.00060614413568442862 0 -0.024646102469109893 -0.00010774214230626859 0 -0.023772304969428264 -0.0004621671490894845 0 -0.023709019374627122 9.5766313308113317e-05 0 -0.02410370282718555 -0.00018343601868240736 0 -0.023772304969428264 -0.0004621671490894845 0 -0.02410370282718555 -0.00018343601868240736 0 -0.024251290972916551 -0.00060614413568442862 0 -0.024729758126641285 -0.00075447071846934568 0 -0.024646102469109893 -0.00010774214230626859 0 -0.025332172175833671 -0.00019884278859892194 0 -0.024729758126641285 -0.00075447071846934568 0 -0.024251290972916551 -0.00060614413568442862 0 -0.024646102469109893 -0.00010774214230626859 0 -0.024229929666072611 0.00017866133457486371 0 -0.024646102469109893 -0.00010774214230626859 0 -0.024625592030579142 0.00047315415323709564 0 -0.024646102469109893 -0.00010774214230626859 0 -0.025289198464252531 0.00037898310601737636 0 -0.024625592030579142 0.00047315415323709564 0 -0.024646102469109893 -0.00010774214230626859 0 -0.025289198464252531 0.00037898310601737636 0 -0.025332172175833671 -0.00019884278859892194 0 -0.025289198464252531 0.00037898310601737636 0 -0.025332172175833671 -0.00019884278859892194 0 -0.026013836530515578 0.00022512522735465345 0 -0.025366472122261417 -0.00079680374591709698 0 -0.025332172175833671 -0.00019884278859892194 0 -0.026057014988777476 -0.00056193716275590411 0 -0.025366472122261417 -0.00079680374591709698 0 -0.024729758126641285 -0.00075447071846934568 0 -0.025332172175833671 -0.00019884278859892194 0 -0.025390903557365622 0.0015751276133136455 0 -0.025022156797729882 0.00089555333866199243 0 -0.024662095989344962 0.0014589764573346724 0 -0.022015706987926632 0.0021659105330391775 0 -0.02474406235234828 0.0014956499788117833 0 -0.025390903557365622 0.0015751276133136455 0 -0.025022156797729882 0.00089555333866199243 0 -0.025664421864620295 0.00083983568648177652 0 -0.022015706987926632 0.0021659105330391775 0 -0.025764967842254301 0.00030653984311591691 0 -0.025289198464252531 0.00037898310601737636 0 -0.025022156797729882 0.00089555333866199243 0 -0.025664421864620295 0.00083983568648177652 0 -0.025289198464252531 0.00037898310601737636 0 -0.025022156797729882 0.00089555333866199243 0 -0.024625592030579142 0.00047315415323709564 0 -0.024625592030579142 0.00047315415323709564 0 -0.024362749090935606 0.00093523554417884486 0 -0.023876769042636272 0.00058742874565704411 0 -0.025022156797729882 0.00089555333866199243 0 -0.024625592030579142 0.00047315415323709564 0 -0.024362749090935606 0.00093523554417884486 0 -0.023965025878595086 0.0013692768119499879 0 -0.023805138713257023 0.00126644108637617 0 -0.023677446815283599 0.0017055863922421789 0 -0.024362749090935606 0.00093523554417884486 0 -0.024662095989344962 0.0014589764573346724 0 -0.023805138713257023 0.00126644108637617 0 -0.02474406235234828 0.0014956499788117833 0 -0.023720080223942029 0.001270721142034125 0 -0.025022156797729882 0.00089555333866199243 0 -0.024362749090935606 0.00093523554417884486 0 -0.024662095989344962 0.0014589764573346724 0 -0.023805138713257023 0.00126644108637617 0 -0.02346084204147161 0.0010160805867322218 0 -0.023421003063440225 0.0015555894137799359 0 -0.024362749090935606 0.00093523554417884486 0 -0.023805138713257023 0.00126644108637617 0 -0.023876769042636272 0.00058742874565704411 0 -0.023805138713257023 0.00126644108637617 0 -0.023876769042636272 0.00058742874565704411 0 -0.02346084204147161 0.0010160805867322218 0 -0.023876769042636272 0.00058742874565704411 0 -0.023198329387746353 0.00052919691277722263 0 -0.02346084204147161 0.0010160805867322218 0 -0.023198329387746353 0.00052919691277722263 0 -0.02346084204147161 0.0010160805867322218 0 -0.023042479306469712 0.001342221930584206 0 -0.02346084204147161 0.0010160805867322218 0 -0.023421003063440225 0.0015555894137799359 0 -0.023042479306469712 0.001342221930584206 0 -0.023421003063440225 0.0015555894137799359 0 -0.023207486398076162 0.0019691496081085391 0 -0.023042479306469712 0.001342221930584206 0 -0.023207486398076162 0.0019691496081085391 0 -0.023042479306469712 0.001342221930584206 0 -0.022694266713238459 0.00184162113654297 0 -0.023207486398076162 0.0019691496081085391 0 -0.022842033296490916 0.0021547247658859911 0 -0.023014479700967691 0.0024412867485060046 0 -0.023207486398076162 0.0019691496081085391 0 -0.023551417729165327 0.0022163457372711606 0 -0.023285722925493697 0.0023978990856475275 0 -0.023207486398076162 0.0019691496081085391 0 -0.023551417729165327 0.0022163457372711606 0 -0.023677446815283599 0.0017055863922421789 0 -0.023421003063440225 0.0015555894137799359 0 -0.023207486398076162 0.0019691496081085391 0 -0.023677446815283599 0.0017055863922421789 0 -0.023805138713257023 0.00126644108637617 0 -0.023421003063440225 0.0015555894137799359 0 -0.023677446815283599 0.0017055863922421789 0 -0.023965025878595086 0.0013692768119499879 0 -0.023677446815283599 0.0017055863922421789 0 -0.024030919388754141 0.0019968277908010081 0 -0.023551417729165327 0.0022163457372711606 0 -0.023677446815283599 0.0017055863922421789 0 -0.024030919388754141 0.0019968277908010081 0 -0.015649265521495308 0.0025006427403009876 0 -0.015675639855182246 0.0024938241406623615 0 -0.015634728342134283 0.0025130440983213878 0 -0.015649265521495308 0.0025006427403009876 0 -0.015634728342134283 0.0025130440983213878 0 -0.015613535225531871 0.002520505964287626 0 -0.022015706987926632 0.0021659105330391775 0 -0.020107211902279445 0.0019447200904313098 0 -0.024265560741209707 0.001441406087827416 0 -0.023965025878595086 0.0013692768119499879 0 -0.024030919388754141 0.0019968277908010081 0 -0.015719599094098709 0.0024771276523825269 0 -0.015649265521495308 0.0025006427403009876 0 -0.015675639855182246 0.0024938241406623615 0 -0.015893104970630442 0.0047824416299712498 0 -0.015816595310162201 0.0040233215113573122 0 -0.022157485065960214 0.0011210883577417118 0 -0.021630067748918839 0.0010749852305829588 0 -0.022068983928671862 0.0017658712730426003 0 -0.0107339241036771 0.0077007911558516634 0 -0.011022452942416088 0.0066633416609542711 0 -0.011795188694734901 0.0077889433298031002 0 -0.021802285285780432 0.00044343995841294526 0 -0.021630067748918839 0.0010749852305829588 0 -0.021183679613050215 0.00031677409322797772 0 -0.0107339241036771 0.0077007911558516634 0 -0.011795188694734901 0.0077889433298031002 0 -0.011712478909480189 0.0089710820387385436 0 -0.015893104970630442 0.0047824416299712498 0 -0.018911040624447092 0.0021601512157987638 0 -0.021802285285780432 0.00044343995841294526 0 -0.022157485065960214 0.0011210883577417118 0 -0.021630067748918839 0.0010749852305829588 0 -0.022306393907449623 0.00040494408959166321 0 -0.021802285285780432 0.00044343995841294526 0 -0.022157485065960214 0.0011210883577417118 0 -0.022306393907449623 0.00040494408959166321 0 -0.022157485065960214 0.0011210883577417118 0 -0.022672039920398766 0.00084525296201226586 0 -0.022781021160832488 0.00019837076348552847 0 -0.022306393907449623 0.00040494408959166321 0 -0.022672039920398766 0.00084525296201226586 0 -0.023198329387746353 0.00052919691277722263 0 -0.022672039920398766 0.00084525296201226586 0 -0.023042479306469712 0.001342221930584206 0 -0.022781021160832488 0.00019837076348552847 0 -0.023198329387746353 0.00052919691277722263 0 -0.022672039920398766 0.00084525296201226586 0 -0.022672039920398766 0.00084525296201226586 0 -0.023042479306469712 0.001342221930584206 0 -0.022555386396015575 0.0014008086529479582 0 -0.022157485065960214 0.0011210883577417118 0 -0.022555386396015575 0.0014008086529479582 0 -0.022068983928671862 0.0017658712730426003 0 -0.022157485065960214 0.0011210883577417118 0 -0.022672039920398766 0.00084525296201226586 0 -0.022555386396015575 0.0014008086529479582 0 -0.022555386396015575 0.0014008086529479582 0 -0.022694266713238459 0.00184162113654297 0 -0.022068983928671862 0.0017658712730426003 0 -0.023042479306469712 0.001342221930584206 0 -0.022555386396015575 0.0014008086529479582 0 -0.022694266713238459 0.00184162113654297 0 -0.023207486398076162 0.0019691496081085391 0 -0.022694266713238459 0.00184162113654297 0 -0.022842033296490916 0.0021547247658859911 0 -0.022694266713238459 0.00184162113654297 0 -0.022842033296490916 0.0021547247658859911 0 -0.022454277970297486 0.0023497114366745394 0 -0.022694266713238459 0.00184162113654297 0 -0.022068983928671862 0.0017658712730426003 0 -0.022454277970297486 0.0023497114366745394 0 -0.015816595310162201 0.0040233215113573122 0 -0.015966917324715283 0.0037113881218324672 0 -0.010225615366491071 0.0055726969019572747 0 -0.009691425277003788 0.0064552853888698745 0 -0.008448501781661278 0.0051703364626895128 0 -0.010225615366491071 0.0055726969019572747 0 -0.009691425277003788 0.0064552853888698745 0 -0.011022452942416088 0.0066633416609542711 0 -0.0107339241036771 0.0077007911558516634 0 -0.009691425277003788 0.0064552853888698745 0 -0.011022452942416088 0.0066633416609542711 0 -0.010225615366491071 0.0055726969019572747 0 -0.011022452942416088 0.0066633416609542711 0 -0.011487336426541902 0.0055695407303849986 0 -0.010225615366491071 0.0055726969019572747 0 -0.011487336426541902 0.0055695407303849986 0 -0.010833553506820491 0.0048240499823935237 0 -0.011487336426541902 0.0055695407303849986 0 -0.012305136731163627 0.0068603697493364452 0 -0.012664937977913807 0.0050762163445677256 0 -0.012305136731163627 0.0068603697493364452 0 -0.013478713868456864 0.0057417817248640573 0 -0.012664937977913807 0.0050762163445677256 0 -0.013297603983085285 0.0067630869730434017 0 -0.012305136731163627 0.0068603697493364452 0 -0.013478713868456864 0.0057417817248640573 0 -0.011022452942416088 0.0066633416609542711 0 -0.011487336426541902 0.0055695407303849986 0 -0.012305136731163627 0.0068603697493364452 0 -0.012305136731163627 0.0068603697493364452 0 -0.011795188694734901 0.0077889433298031002 0 -0.012760856628217528 0.0083148993691613358 0 -0.011022452942416088 0.0066633416609542711 0 -0.012305136731163627 0.0068603697493364452 0 -0.011795188694734901 0.0077889433298031002 0 -0.013297603983085285 0.0067630869730434017 0 -0.012760856628217528 0.0083148993691613358 0 -0.013955522303600061 0.0076067416615904051 0 -0.013297603983085285 0.0067630869730434017 0 -0.012305136731163627 0.0068603697493364452 0 -0.012760856628217528 0.0083148993691613358 0 -0.018327985864341652 0.0060779859995316945 0 -0.01804156736109493 0.0058807337722132638 0 -0.018327985864341652 0.0060779859995316945 0 -0.018911040624447092 0.0021601512157987638 0 -0.011795188694734901 0.0077889433298031002 0 -0.012760856628217528 0.0083148993691613358 0 -0.011712478909480189 0.0089710820387385436 0 -0.019714291144422816 0.0035095369386704944 0 -0.021653334703099283 0.0025733559112499807 0 -0.019465027898575057 0.0011672132715124311 0 -0.019714291144422816 0.0035095369386704944 0 -0.021653334703099283 0.0025733559112499807 0 -0.021989628115289549 0.0043347131034074775 0 -0.024241358748688054 0.0030733932302141336 0 -0.021653334703099283 0.0025733559112499807 0 -0.021989628115289549 0.0043347131034074775 0 -0.013297603983085285 0.0067630869730434017 0 -0.013955522303600061 0.0076067416615904051 0 -0.015308230317841081 0.0067963120847002335 0 -0.01804156736109493 0.0058807337722132638 0 -0.017501948370815573 0.005887788414525915 0 -0.019714291144422816 0.0035095369386704944 0 -0.021989628115289549 0.0043347131034074775 0 -0.019681152747333581 0.0051408605737627558 0 -0.013297603983085285 0.0067630869730434017 0 -0.015308230317841081 0.0067963120847002335 0 -0.014598184300808861 0.0056390330037843764 0 -0.013297603983085285 0.0067630869730434017 0 -0.013478713868456864 0.0057417817248640573 0 -0.014598184300808861 0.0056390330037843764 0 -0.013478713868456864 0.0057417817248640573 0 -0.014598184300808861 0.0056390330037843764 0 -0.013847435444204826 0.0047944978828346422 0 -0.013478713868456864 0.0057417817248640573 0 -0.013847435444204826 0.0047944978828346422 0 -0.012664937977913807 0.0050762163445677256 0 -0.014598184300808861 0.0056390330037843764 0 -0.015236937182447511 0.0044889691997779474 0 -0.013847435444204826 0.0047944978828346422 0 -0.017142278427915006 0.005320595417780666 0 -0.016313770153855579 0.0042515932381406354 0 -0.015236937182447511 0.0044889691997779474 0 -0.014598184300808861 0.0056390330037843764 0 -0.017142278427915006 0.005320595417780666 0 -0.015236937182447511 0.0044889691997779474 0 -0.017142278427915006 0.005320595417780666 0 -0.016917144644112321 0.0042720292732385187 0 -0.016313770153855579 0.0042515932381406354 0 -0.017142278427915006 0.005320595417780666 0 -0.017618703309653514 0.0046648647121804738 0 -0.017338669742350953 0.0046028145746415082 0 -0.017142278427915006 0.005320595417780666 0 -0.017618703309653514 0.0046648647121804738 0 -0.01804663597819119 0.0044073719114025977 0 -0.019681152747333581 0.0051408605737627558 0 -0.017142278427915006 0.005320595417780666 0 -0.01804663597819119 0.0044073719114025977 0 -0.015308230317841081 0.0067963120847002335 0 -0.014598184300808861 0.0056390330037843764 0 -0.017142278427915006 0.005320595417780666 0 -0.017501948370815573 0.005887788414525915 0 -0.017287127846481301 0.0054307802900585844 0 -0.017126442384764799 0.0042044955843877525 0 -0.017338669742350953 0.0046028145746415082 0 -0.016917144644112321 0.0042720292732385187 0 -0.017183647497999537 0.0043104450310109373 0 -0.017126442384764799 0.0042044955843877525 0 -0.017338669742350953 0.0046028145746415082 0 -0.017142278427915006 0.005320595417780666 0 -0.017338669742350953 0.0046028145746415082 0 -0.016917144644112321 0.0042720292732385187 0 -0.017338669742350953 0.0046028145746415082 0 -0.017272108854205791 0.0043786070441403143 0 -0.018132758874786915 0.0043224022822748957 0 -0.017618703309653514 0.0046648647121804738 0 -0.017338669742350953 0.0046028145746415082 0 -0.018132758874786915 0.0043224022822748957 0 -0.017183647497999537 0.0043104450310109373 0 -0.017338669742350953 0.0046028145746415082 0 -0.017272108854205791 0.0043786070441403143 0 -0.017272108854205791 0.0043786070441403143 0 -0.017135827237300678 0.0039191865943478893 0 -0.018132758874786915 0.0043224022822748957 0 -0.017147936380857411 0.0042266556354490104 0 -0.017272108854205791 0.0043786070441403143 0 -0.017135827237300678 0.0039191865943478893 0 -0.017135827237300678 0.0039191865943478893 0 -0.018132758874786915 0.0043224022822748957 0 -0.018459163058350707 0.0025727490620429594 0 -0.018459163058350707 0.0025727490620429594 0 -0.021878672984895629 0.0023951426072700709 0 -0.020154829249183489 0.0013605001054945592 0 -0.018132758874786915 0.0043224022822748957 0 -0.018459163058350707 0.0025727490620429594 0 -0.021878672984895629 0.0023951426072700709 0 -0.017135827237300678 0.0039191865943478893 0 -0.018459163058350707 0.0025727490620429594 0 -0.016641784458348317 0.0024033901631100125 0 -0.019714291144422816 0.0035095369386704944 0 -0.019681152747333581 0.0051408605737627558 0 -0.01804663597819119 0.0044073719114025977 0 -0.018132758874786915 0.0043224022822748957 0 -0.01804663597819119 0.0044073719114025977 0 -0.017991043812175908 0.0031430108458800569 0 -0.017618703309653514 0.0046648647121804738 0 -0.018132758874786915 0.0043224022822748957 0 -0.01804663597819119 0.0044073719114025977 0 -0.018381207190872176 0.0041504239658494944 0 -0.019937004067693317 0.0026908885570673838 0 -0.019714291144422816 0.0035095369386704944 0 -0.01804663597819119 0.0044073719114025977 0 -0.017991043812175908 0.0031430108458800569 0 -0.019714291144422816 0.0035095369386704944 0 -0.017991043812175908 0.0031430108458800569 0 -0.019465027898575057 0.0011672132715124311 0 -0.019937004067693317 0.0026908885570673838 0 -0.021742165215872154 0.00054792579313572669 0 -0.021878672984895629 0.0023951426072700709 0 -0.024093397696473659 -0.00012935250187002631 0 -0.021524324490390746 0.00024032220200359753 0 -0.021878672984895629 0.0023951426072700709 0 -0.021524324490390746 0.00024032220200359753 0 -0.020154829249183489 0.0013605001054945592 0 -0.024093397696473659 -0.00012935250187002631 0 -0.021524324490390746 0.00024032220200359753 0 -0.022958814037271444 -0.00090419679999044153 0 -0.022471225411979434 -0.0017061606737177723 0 -0.022958814037271444 -0.00090419679999044153 0 -0.023715975871535861 -0.0016533857825219793 0 -0.021524324490390746 0.00024032220200359753 0 -0.022471225411979434 -0.0017061606737177723 0 -0.022958814037271444 -0.00090419679999044153 0 -0.024093397696473659 -0.00012935250187002631 0 -0.022958814037271444 -0.00090419679999044153 0 -0.023715975871535861 -0.0016533857825219793 0 -0.024093397696473659 -0.00012935250187002631 0 -0.023715975871535861 -0.0016533857825219793 0 -0.024653180186250737 -0.0017557199928607719 0 -0.025044537361912415 -0.0022050441454852321 0 -0.024654946652511205 -0.0019313978051061619 0 -0.023863083274203729 -0.0020254303942647293 0 -0.020939902716333461 -8.0352356109454038e-05 0 -0.021277169450925965 -0.00081169363587048219 0 -0.018459163058350707 0.0025727490620429594 0 -0.016641784458348317 0.0024033901631100125 0 -0.018685037074133243 0.00015437577457091557 0 -0.02509556461644994 -0.0019510569137273033 0 -0.024654946652511205 -0.0019313978051061619 0 -0.025231430914568899 -0.0017408839031333055 0 -0.02509556461644994 -0.0019510569137273033 0 -0.025044537361912415 -0.0022050441454852321 0 -0.024654946652511205 -0.0019313978051061619 0 -0.018459163058350707 0.0025727490620429594 0 -0.018685037074133243 0.00015437577457091557 0 -0.020154829249183489 0.0013605001054945592 0 -0.021524324490390746 0.00024032220200359753 0 -0.018685037074133243 0.00015437577457091557 0 -0.020154829249183489 0.0013605001054945592 0 -0.022265649859874226 -0.0016140386426039355 0 -0.021277169450925965 -0.00081169363587048219 0 -0.021524324490390746 0.00024032220200359753 0 -0.022471225411979434 -0.0017061606737177723 0 -0.018685037074133243 0.00015437577457091557 0 -0.022471225411979434 -0.0017061606737177723 0 -0.023863083274203729 -0.0020254303942647293 0 -0.023223548315819697 -0.0016248422846350716 0 -0.024654946652511205 -0.0019313978051061619 0 -0.023863083274203729 -0.0020254303942647293 0 -0.023223548315819697 -0.0016248422846350716 0 -0.024693103108645607 -0.0020216144111249203 0 -0.024585847097464284 -0.0017629544927240891 0 -0.025796144531733629 -0.0016811167980758095 0 -0.025231430914568899 -0.0017408839031333055 0 -0.025565534813192965 -0.0019768956896645314 0 -0.024654946652511205 -0.0019313978051061619 0 -0.025796144531733629 -0.0016811167980758095 0 -0.025231430914568899 -0.0017408839031333055 0 -0.025565534813192965 -0.0019768956896645314 0 -0.026072428526721099 -0.002147631179623976 0 -0.026004270677389266 -0.0025999063321028564 0 -0.025796144531733629 -0.0016811167980758095 0 -0.025565534813192965 -0.0019768956896645314 0 -0.026072428526721099 -0.002147631179623976 0 -0.024585847097464284 -0.0017629544927240891 0 -0.02502494147653414 -0.0022855062790985833 0 -0.025796144531733629 -0.0016811167980758095 0 -0.026072428526721099 -0.002147631179623976 0 -0.026968774777410595 -0.0024185656959389407 0 -0.022471225411979434 -0.0017061606737177723 0 -0.023223548315819697 -0.0016248422846350716 0 -0.023031120423917317 -0.0020780020157412965 0 -0.026072428526721099 -0.002147631179623976 0 -0.026968774777410595 -0.0024185656959389407 0 -0.026004270677389266 -0.0025999063321028564 0 -0.026999638491278011 -0.003331550101543151 0 -0.026968774777410595 -0.0024185656959389407 0 -0.026004270677389266 -0.0025999063321028564 0 -0.025394378335669533 -0.0023071203632371103 0 -0.025565534813192965 -0.0019768956896645314 0 -0.026004270677389266 -0.0025999063321028564 0 -0.023715975871535861 -0.0016533857825219793 0 -0.0241473691732026 -0.0023262934773103103 0 -0.024231426432054285 -0.0020428475482474622 0 -0.023715975871535861 -0.0016533857825219793 0 -0.02341356568070474 -0.0020716641005747044 0 -0.0241473691732026 -0.0023262934773103103 0 -0.022471225411979434 -0.0017061606737177723 0 -0.023715975871535861 -0.0016533857825219793 0 -0.02341356568070474 -0.0020716641005747044 0 -0.022471225411979434 -0.0017061606737177723 0 -0.023031120423917317 -0.0020780020157412965 0 -0.02341356568070474 -0.0020716641005747044 0 -0.025837595959144463 -0.0033016776580903884 0 -0.02502494147653414 -0.0022855062790985833 0 -0.024148553792362699 -0.0029188181817867026 0 -0.023031120423917317 -0.0020780020157412965 0 -0.023850372602937091 -0.0024176134050039274 0 -0.023031120423917317 -0.0020780020157412965 0 -0.02341356568070474 -0.0020716641005747044 0 -0.023850372602937091 -0.0024176134050039274 0 -0.02437761868590349 -0.0026699061073393688 0 -0.023850372602937091 -0.0024176134050039274 0 -0.0241473691732026 -0.0023262934773103103 0 -0.02341356568070474 -0.0020716641005747044 0 -0.023850372602937091 -0.0024176134050039274 0 -0.0241473691732026 -0.0023262934773103103 0 -0.02437761868590349 -0.0026699061073393688 0 -0.024546643587027871 -0.0026188049987339785 0 -0.0241473691732026 -0.0023262934773103103 0 -0.024546643587027871 -0.0026188049987339785 0 -0.0241473691732026 -0.0023262934773103103 0 -0.024411795892101882 -0.0022687419827420881 0 -0.024627747074901448 -0.0026689721665888785 0 -0.024546643587027871 -0.0026188049987339785 0 -0.024411795892101882 -0.0022687419827420881 0 -0.024411795892101882 -0.0022687419827420881 0 -0.024231426432054285 -0.0020428475482474622 0 -0.024653180186250737 -0.0017557199928607719 0 -0.023715975871535861 -0.0016533857825219793 0 -0.024231426432054285 -0.0020428475482474622 0 -0.024653180186250737 -0.0017557199928607719 0 -0.0241473691732026 -0.0023262934773103103 0 -0.024411795892101882 -0.0022687419827420881 0 -0.024231426432054285 -0.0020428475482474622 0 -0.022927175433678816 -0.00093496487648692757 0 -0.024047222306789892 -0.0023058030919629671 0 -0.021450574174161796 -0.00073869883039458652 0 -0.024411795892101882 -0.0022687419827420881 0 -0.024047222306789892 -0.0023058030919629671 0 -0.024653180186250737 -0.0017557199928607719 0 -0.023915844313482596 -0.0021758465475159865 0 -0.023028243931311931 -0.0011770057644453112 0 -0.023690300749035911 -0.001255408552666451 0 -0.022927175433678816 -0.00093496487648692757 0 -0.024047222306789892 -0.0023058030919629671 0 -0.023690300749035911 -0.001255408552666451 0 -0.024047222306789892 -0.0023058030919629671 0 -0.024178446944726404 -0.0012963239448207085 0 -0.024047222306789892 -0.0023058030919629671 0 -0.024104666194946681 -0.0023346058067681202 0 -0.024178446944726404 -0.0012963239448207085 0 -0.024627747074901448 -0.0026689721665888785 0 -0.024411795892101882 -0.0022687419827420881 0 -0.024047222306789892 -0.0023058030919629671 0 -0.024627747074901448 -0.0026689721665888785 0 -0.024047222306789892 -0.0023058030919629671 0 -0.024104666194946681 -0.0023346058067681202 0 -0.027437379174278513 -0.00056174311541448067 0 -0.028286716569113031 0.00085048960474035096 0 -0.030428743474000354 0.0017942733109383424 0 -0.031849000529486998 0.0034192967264782665 0 -0.031998894432477491 0.0026293138031648487 0 -0.031998894432477491 0.0026293138031648487 0 -0.032689913159510219 0.0029233187797545971 0 -0.032231496760888982 0.0030818076748616789 0 -0.032409116505566778 0.0018640719758736821 0 -0.031998894432477491 0.0026293138031648487 0 -0.032689913159510219 0.0029233187797545971 0 -0.032689913159510219 0.0029233187797545971 0 -0.032539902687433252 0.0033543580582767901 0 -0.032231496760888982 0.0030818076748616789 0 -0.032689913159510219 0.0029233187797545971 0 -0.032539902687433252 0.0033543580582767901 0 -0.033302076372279485 0.0032360237834538129 0 -0.031849000529486998 0.0034192967264782665 0 -0.032539902687433252 0.0033543580582767901 0 -0.032231496760888982 0.0030818076748616789 0 -0.031849000529486998 0.0034192967264782665 0 -0.031998894432477491 0.0026293138031648487 0 -0.032231496760888982 0.0030818076748616789 0 -0.034489109342806544 0.002930605563512489 0 -0.033302076372279485 0.0032360237834538129 0 -0.033697325503188207 0.0039000588187023239 0 -0.033531589429643308 0.0023958624342784113 0 -0.034489109342806544 0.002930605563512489 0 -0.033302076372279485 0.0032360237834538129 0 -0.033531589429643308 0.0023958624342784113 0 -0.032689913159510219 0.0029233187797545971 0 -0.033302076372279485 0.0032360237834538129 0 -0.033302076372279485 0.0032360237834538129 0 -0.033697325503188207 0.0039000588187023239 0 -0.032704963693043453 0.0039004577823274324 0 -0.033697325503188207 0.0039000588187023239 0 -0.032704963693043453 0.0039004577823274324 0 -0.032859262640153729 0.0048162434981437324 0 -0.027417710839789118 0.001745638252173739 0 -0.027281299244747703 0.0010412759086879046 0 -0.024104666194946681 -0.0023346058067681202 0 -0.024178446944726404 -0.0012963239448207085 0 -0.024949050045016373 -0.00024607651326997472 0 -0.031849000529486998 0.0034192967264782665 0 -0.032704963693043453 0.0039004577823274324 0 -0.032859262640153729 0.0048162434981437324 0 -0.028286716569113031 0.00085048960474035096 0 -0.027281299244747703 0.0010412759086879046 0 -0.031849000529486998 0.0034192967264782665 0 -0.032539902687433252 0.0033543580582767901 0 -0.032704963693043453 0.0039004577823274324 0 -0.032539902687433252 0.0033543580582767901 0 -0.033302076372279485 0.0032360237834538129 0 -0.032704963693043453 0.0039004577823274324 0 -0.024178446944726404 -0.0012963239448207085 0 -0.02403123354272765 -0.0010081254774107434 0 -0.024429599959126226 -0.00058816831279066915 0 -0.023690300749035911 -0.001255408552666451 0 -0.02403123354272765 -0.0010081254774107434 0 -0.023878550081356874 -0.00040393519305715703 0 -0.023690300749035911 -0.001255408552666451 0 -0.024178446944726404 -0.0012963239448207085 0 -0.02403123354272765 -0.0010081254774107434 0 -0.023878550081356874 -0.00040393519305715703 0 -0.024429599959126226 -0.00058816831279066915 0 -0.024381782051548308 -0.00015345819743276204 0 -0.02403123354272765 -0.0010081254774107434 0 -0.023878550081356874 -0.00040393519305715703 0 -0.024429599959126226 -0.00058816831279066915 0 -0.024178446944726404 -0.0012963239448207085 0 -0.024429599959126226 -0.00058816831279066915 0 -0.024949050045016373 -0.00024607651326997472 0 -0.024949050045016373 -0.00024607651326997472 0 -0.024655579421690131 -0.00027150141781462068 0 -0.024853508299101278 -7.9649578550340051e-05 0 -0.024429599959126226 -0.00058816831279066915 0 -0.024949050045016373 -0.00024607651326997472 0 -0.024655579421690131 -0.00027150141781462068 0 -0.027281299244747703 0.0010412759086879046 0 -0.027092808343288855 0.0010512505454988151 0 -0.024429599959126226 -0.00058816831279066915 0 -0.024655579421690131 -0.00027150141781462068 0 -0.024381782051548308 -0.00015345819743276204 0 -0.024655579421690131 -0.00027150141781462068 0 -0.024381782051548308 -0.00015345819743276204 0 -0.024853508299101278 -7.9649578550340051e-05 0 -0.024853508299101278 -7.9649578550340051e-05 0 -0.024163912065074889 0.00031990161178086358 0 -0.024661568501392041 0.0013521601558706849 0 -0.024381782051548308 -0.00015345819743276204 0 -0.024853508299101278 -7.9649578550340051e-05 0 -0.024163912065074889 0.00031990161178086358 0 -0.023878550081356874 -0.00040393519305715703 0 -0.024163912065074889 0.00031990161178086358 0 -0.022911261335171209 0.00079244470410685974 0 -0.023878550081356874 -0.00040393519305715703 0 -0.024381782051548308 -0.00015345819743276204 0 -0.024163912065074889 0.00031990161178086358 0 -0.021391267932396634 -0.00023798356793621953 0 -0.021296789135278976 -0.00075885657682437605 0 -0.020932973465132676 -0.00029285220183145549 0 -0.021391267932396634 -0.00023798356793621953 0 -0.020932973465132676 -0.00029285220183145549 0 -0.021256379447701458 0.00027745736231849649 0 -0.025005210706257212 -0.00025535856981854767 0 -0.024853508299101278 -7.9649578550340051e-05 0 -0.026223539370662387 0.0017470770037890679 0 -0.024853508299101278 -7.9649578550340051e-05 0 -0.026223539370662387 0.0017470770037890679 0 -0.024661568501392041 0.0013521601558706849 0 -0.024241358748688054 0.0030733932302141336 0 -0.026223539370662387 0.0017470770037890679 0 -0.024661568501392041 0.0013521601558706849 0 -0.027281299244747703 0.0010412759086879046 0 -0.018911040624447092 0.0021601512157987638 0 -0.024241358748688054 0.0030733932302141336 0 -0.024661568501392041 0.0013521601558706849 0 -0.022911261335171209 0.00079244470410685974 0 -0.024163912065074889 0.00031990161178086358 0 -0.024661568501392041 0.0013521601558706849 0 -0.022911261335171209 0.00079244470410685974 0 -0.024241358748688054 0.0030733932302141336 0 -0.021653334703099283 0.0025733559112499807 0 -0.022911261335171209 0.00079244470410685974 0 -0.021653334703099283 0.0025733559112499807 0 -0.019465027898575057 0.0011672132715124311 0 -0.022911261335171209 0.00079244470410685974 0 -0.021742165215872154 0.00054792579313572669 0 -0.023028243931311931 -0.0011770057644453112 0 -0.019465027898575057 0.0011672132715124311 0 -0.022911261335171209 0.00079244470410685974 0 -0.021450574174161796 -0.00073869883039458652 0 -0.022927175433678816 -0.00093496487648692757 0 -0.023878550081356874 -0.00040393519305715703 0 -0.022911261335171209 0.00079244470410685974 0 -0.022927175433678816 -0.00093496487648692757 0 -0.022911261335171209 0.00079244470410685974 0 -0.021450574174161796 -0.00073869883039458652 0 -0.023690300749035911 -0.001255408552666451 0 -0.022927175433678816 -0.00093496487648692757 0 -0.023878550081356874 -0.00040393519305715703 0 -0.029454729581799184 -8.769022487985036e-05 0 -0.030106016618148632 -0.00020845371664275994 0 -0.029714341265446653 -5.9700151115053712e-05 0 -0.028267027758371352 -4.4291217256820498e-05 0 -0.029454729581799184 -8.769022487985036e-05 0 -0.029714341265446653 -5.9700151115053712e-05 0 -0.026768702333290238 -2.3561739338637266e-07 0 -0.028267027758371352 -4.4291217256820498e-05 0 -0.029714341265446653 -5.9700151115053712e-05 0 -0.026768702333290238 -2.3561739338637266e-07 0 -0.028267027758371352 -4.4291217256820498e-05 0 -0.027039310218077633 -0.00017988307167186098 0 -0.028267027758371352 -4.4291217256820498e-05 0 -0.028405149170493939 -0.00033605261976798508 0 -0.027039310218077633 -0.00017988307167186098 0 -0.029094091254812705 -0.00024268298304252139 0 -0.028988516969584082 -0.00012519458232527526 0 -0.028405149170493939 -0.00033605261976798508 0 -0.028267027758371352 -4.4291217256820498e-05 0 -0.028988516969584082 -0.00012519458232527526 0 -0.028405149170493939 -0.00033605261976798508 0 -0.028988516969584082 -0.00012519458232527526 0 -0.029444269111691856 -7.7834006946070523e-05 0 -0.029454729581799184 -8.769022487985036e-05 0 -0.029094091254812705 -0.00024268298304252139 0 -0.028988516969584082 -0.00012519458232527526 0 -0.029444269111691856 -7.7834006946070523e-05 0 -0.028267027758371352 -4.4291217256820498e-05 0 -0.028988516969584082 -0.00012519458232527526 0 -0.029454729581799184 -8.769022487985036e-05 0 -0.029352705987520003 -0.00024564096155116713 0 -0.029407116261960999 -0.00017363906326445258 0 -0.029515017432912322 -0.00030854691830388626 0 -0.029094091254812705 -0.00024268298304252139 0 -0.029352705987520003 -0.00024564096155116713 0 -0.029444269111691856 -7.7834006946070523e-05 0 -0.029352705987520003 -0.00024564096155116713 0 -0.029444269111691856 -7.7834006946070523e-05 0 -0.029407116261960999 -0.00017363906326445258 0 -0.029444269111691856 -7.7834006946070523e-05 0 -0.02938903041308525 -0.00010086735562186291 0 -0.029941647269735475 -0.00015944396794147084 0 -0.029444269111691856 -7.7834006946070523e-05 0 -0.029407116261960999 -0.00017363906326445258 0 -0.02938903041308525 -0.00010086735562186291 0 -0.029444269111691856 -7.7834006946070523e-05 0 -0.029454729581799184 -8.769022487985036e-05 0 -0.029941647269735475 -0.00015944396794147084 0 -0.029454729581799184 -8.769022487985036e-05 0 -0.029941647269735475 -0.00015944396794147084 0 -0.030106016618148632 -0.00020845371664275994 0 -0.029941647269735475 -0.00015944396794147084 0 -0.030106016618148632 -0.00020845371664275994 0 -0.031029749099247765 -0.00047355249579503472 0 -0.030106016618148632 -0.00020845371664275994 0 -0.031029749099247765 -0.00047355249579503472 0 -0.029714341265446653 -5.9700151115053712e-05 0 -0.031799267136443925 -0.0013335926639218706 0 -0.030656580499628439 -0.00034556843835911163 0 -0.032574639232541995 -0.002215661395610647 0 -0.031029749099247765 -0.00047355249579503472 0 -0.032424656378895265 -0.0015214286676478637 0 -0.031029749099247765 -0.00047355249579503472 0 -0.032313171993323932 -0.0012001426779957712 0 -0.032424656378895265 -0.0015214286676478637 0 -0.02938903041308525 -0.00010086735562186291 0 -0.029941647269735475 -0.00015944396794147084 0 -0.031029749099247765 -0.00047355249579503472 0 -0.032313171993323932 -0.0012001426779957712 0 -0.032433852343964772 -0.00080422264518187022 0 -0.032845977179943905 -0.0014351212184129498 0 -0.031029749099247765 -0.00047355249579503472 0 -0.032313171993323932 -0.0012001426779957712 0 -0.032433852343964772 -0.00080422264518187022 0 -0.031029749099247765 -0.00047355249579503472 0 -0.032777142079407504 -0.00027497777786641037 0 -0.032597752802991604 3.4160939986845412e-05 0 -0.031029749099247765 -0.00047355249579503472 0 -0.032433852343964772 -0.00080422264518187022 0 -0.032777142079407504 -0.00027497777786641037 0 -0.031029749099247765 -0.00047355249579503472 0 -0.031319003937001634 -6.8469980255192066e-05 0 -0.032597752802991604 3.4160939986845412e-05 0 -0.031029749099247765 -0.00047355249579503472 0 -0.031319003937001634 -6.8469980255192066e-05 0 -0.029714341265446653 -5.9700151115053712e-05 0 -0.031319003937001634 -6.8469980255192066e-05 0 -0.029714341265446653 -5.9700151115053712e-05 0 -0.030307544812904957 2.0373335957205847e-07 0 -0.026768702333290238 -2.3561739338637266e-07 0 -0.029714341265446653 -5.9700151115053712e-05 0 -0.030307544812904957 2.0373335957205847e-07 0 -0.034997262615504079 2.9697613335603506e-07 0 -0.033223888371754613 0.00022487332022194428 0 -0.034997858195896465 5.8777499216331338e-07 0 -0.030307544812904957 2.0373335957205847e-07 0 -0.034997262615504079 2.9697613335603506e-07 0 -0.033223888371754613 0.00022487332022194428 0 -0.031319003937001634 -6.8469980255192066e-05 0 -0.030307544812904957 2.0373335957205847e-07 0 -0.033223888371754613 0.00022487332022194428 0 -0.033223888371754613 0.00022487332022194428 0 -0.033901331473369725 0.00016897392135535233 0 -0.034997858195896465 5.8777499216331338e-07 0 -0.033223888371754613 0.00022487332022194428 0 -0.032597752802991604 3.4160939986845412e-05 0 -0.033901331473369725 0.00016897392135535233 0 -0.031319003937001634 -6.8469980255192066e-05 0 -0.033223888371754613 0.00022487332022194428 0 -0.032597752802991604 3.4160939986845412e-05 0 -0.032777142079407504 -0.00027497777786641037 0 -0.032597752802991604 3.4160939986845412e-05 0 -0.033533908279708591 -0.00011895132209671587 0 -0.032597752802991604 3.4160939986845412e-05 0 -0.033533908279708591 -0.00011895132209671587 0 -0.033901331473369725 0.00016897392135535233 0 -0.033533908279708591 -0.00011895132209671587 0 -0.034165908390130131 -0.00017646739903048983 0 -0.03432693308968391 8.2772006643776186e-05 0 -0.033533908279708591 -0.00011895132209671587 0 -0.034165908390130131 -0.00017646739903048983 0 -0.03384182580559366 -0.00050464125288052762 0 -0.034165908390130131 -0.00017646739903048983 0 -0.034492806206639942 -0.00019881434157681806 0 -0.034280869215424982 -0.00066479559184618158 0 -0.034165908390130131 -0.00017646739903048983 0 -0.034481800968887109 -1.8178904296102404e-05 0 -0.034492806206639942 -0.00019881434157681806 0 -0.034165908390130131 -0.00017646739903048983 0 -0.03432693308968391 8.2772006643776186e-05 0 -0.034481800968887109 -1.8178904296102404e-05 0 -0.033533908279708591 -0.00011895132209671587 0 -0.03432693308968391 8.2772006643776186e-05 0 -0.033901331473369725 0.00016897392135535233 0 -0.034997858195896465 5.8777499216331338e-07 0 -0.034710908988200381 0.00013181971017321272 0 -0.035000056246506386 3.1770453215433111e-08 0 -0.033901331473369725 0.00016897392135535233 0 -0.034997858195896465 5.8777499216331338e-07 0 -0.034710908988200381 0.00013181971017321272 0 -0.03432693308968391 8.2772006643776186e-05 0 -0.034710908988200381 0.00013181971017321272 0 -0.034782891771462265 9.9474579567454186e-05 0 -0.03432693308968391 8.2772006643776186e-05 0 -0.033901331473369725 0.00016897392135535233 0 -0.034710908988200381 0.00013181971017321272 0 -0.034710908988200381 0.00013181971017321272 0 -0.035000056246506386 3.1770453215433111e-08 0 -0.034782891771462265 9.9474579567454186e-05 0 -0.034782891771462265 9.9474579567454186e-05 0 -0.03489131630413219 6.1618760178368053e-05 0 -0.034851106480181901 9.0554972562314185e-05 0 -0.035000056246506386 3.1770453215433111e-08 0 -0.034782891771462265 9.9474579567454186e-05 0 -0.03489131630413219 6.1618760178368053e-05 0 -0.03489131630413219 6.1618760178368053e-05 0 -0.034851106480181901 9.0554972562314185e-05 0 -0.034834446910788214 0.00010777000171349611 0 -0.034782891771462265 9.9474579567454186e-05 0 -0.034851106480181901 9.0554972562314185e-05 0 -0.034861143960854983 0.00011142131215341666 0 -0.034851106480181901 9.0554972562314185e-05 0 -0.034861143960854983 0.00011142131215341666 0 -0.034834148902511033 0.00013189065932891063 0 -0.034851106480181901 9.0554972562314185e-05 0 -0.034834148902511033 0.00013189065932891063 0 -0.034834446910788214 0.00010777000171349611 0 -0.03432693308968391 8.2772006643776186e-05 0 -0.034782891771462265 9.9474579567454186e-05 0 -0.034481800968887109 -1.8178904296102404e-05 0 -0.034763253926351441 0.00011863357711372432 0 -0.034787218107444833 1.7404386121026365e-05 0 -0.034782891771462265 9.9474579567454186e-05 0 -0.034481800968887109 -1.8178904296102404e-05 0 -0.034635008832022647 -5.314141112702292e-05 0 -0.034635008832022647 -5.314141112702292e-05 0 -0.034492806206639942 -0.00019881434157681806 0 -0.034676317108950014 -0.00037809268287595821 0 -0.034481800968887109 -1.8178904296102404e-05 0 -0.034635008832022647 -5.314141112702292e-05 0 -0.034492806206639942 -0.00019881434157681806 0 -0.034787218107444833 1.7404386121026365e-05 0 -0.034364256889427548 -2.9887874657573393e-05 0 -0.034861143960854983 0.00011142131215341666 0 -0.034825832724514331 0.00018131826860543968 0 -0.034848844870493299 0.00022127082375121692 0 -0.034834148902511033 0.00013189065932891063 0 -0.034832865514199486 0.00015625443544556316 0 -0.034815071872603701 0.00017125232851340389 0 -0.034861143960854983 0.00011142131215341666 0 -0.034834148902511033 0.00013189065932891063 0 -0.034832865514199486 0.00015625443544556316 0 -0.034861143960854983 0.00011142131215341666 0 -0.034832865514199486 0.00015625443544556316 0 -0.034825832724514331 0.00018131826860543968 0 -0.034832865514199486 0.00015625443544556316 0 -0.034825832724514331 0.00018131826860543968 0 -0.034827908184916233 0.00018560847238001797 0 -0.034832865514199486 0.00015625443544556316 0 -0.034827908184916233 0.00018560847238001797 0 -0.034815071872603701 0.00017125232851340389 0 -0.034827908184916233 0.00018560847238001797 0 -0.034815071872603701 0.00017125232851340389 0 -0.034804426947343751 0.0002018780977328016 0 -0.034827908184916233 0.00018560847238001797 0 -0.034796715746917756 0.00023857092991731252 0 -0.034804426947343751 0.0002018780977328016 0 -0.034827908184916233 0.00018560847238001797 0 -0.034815410638799782 0.00035756246825835295 0 -0.034793182360707241 0.00028419152577188565 0 -0.034827908184916233 0.00018560847238001797 0 -0.034793182360707241 0.00028419152577188565 0 -0.034796715746917756 0.00023857092991731252 0 -0.0352553547924103 0.00020788679365918593 0 -0.033269330277305512 0.0002042904812259075 0 -0.034827908184916233 0.00018560847238001797 0 -0.034795563507026103 0.00016583014026267027 0 -0.03478301871635521 0.00012092461030680148 0 -0.034825832724514331 0.00018131826860543968 0 -0.034827908184916233 0.00018560847238001797 0 -0.034795563507026103 0.00016583014026267027 0 -0.034743636364539608 0.00027415805598524578 0 -0.034364256889427548 -2.9887874657573393e-05 0 -0.034364256889427548 -2.9887874657573393e-05 0 -0.032280144000022097 -0.00042095605221137064 0 -0.033218076277987681 -0.00015892716920573057 0 -0.033277199562084366 -0.00058441995731407217 0 -0.033020667088621621 -0.00047920454377705469 0 -0.034795563507026103 0.00016583014026267027 0 -0.034773633464623706 0.00012252925564242579 0 -0.03478301871635521 0.00012092461030680148 0 -0.032280144000022097 -0.00042095605221137064 0 -0.033269330277305512 0.0002042904812259075 0 -0.030634044874939446 -0.0014967664737233191 0 -0.030628344823516344 -0.0014956116280751459 0 -0.030613627645586439 -0.0014709732116280645 0 -0.03003778736032597 -0.0012539986190323446 0 -0.030723636277972699 -0.0013705800640322471 0 -0.030625404634730607 -0.00079298676867155997 0 -0.032280144000022097 -0.00042095605221137064 0 -0.032280307342458299 -0.001040935573612604 0 -0.032280307342458299 -0.001040935573612604 0 -0.029504392420709017 -0.0014537584386320698 0 -0.033277199562084366 -0.00058441995731407217 0 -0.033029430656799981 -0.00054292253367571228 0 -0.033020667088621621 -0.00047920454377705469 0 -0.032733363840340507 -0.0015183696630338727 0 -0.0331314804447592 -0.0015859423689487458 0 -0.033041892646023863 -0.0010003406711853429 0 -0.033017061805886781 -0.0011853108381389553 0 -0.032280307342458299 -0.001040935573612604 0 -0.032280307342458299 -0.001040935573612604 0 -0.033286391271927701 -0.00088702337167335282 0 -0.033017061805886781 -0.0011853108381389553 0 -0.033286391271927701 -0.00088702337167335282 0 -0.034647757797536843 -0.001086349801738192 0 -0.03435315404166963 -0.0009879767364955798 0 -0.034280869215424982 -0.00066479559184618158 0 -0.034596725447181384 -0.0011785454115874525 0 -0.034647757797536843 -0.001086349801738192 0 -0.03435315404166963 -0.0009879767364955798 0 -0.034830472759593757 -0.00024838076240084127 0 -0.033286391271927701 -0.00088702337167335282 0 -0.034492806206639942 -0.00019881434157681806 0 -0.034676317108950014 -0.00037809268287595821 0 -0.03453425313181141 -0.0006015816017526526 0 -0.034492806206639942 -0.00019881434157681806 0 -0.034647757797536843 -0.001086349801738192 0 -0.034280869215424982 -0.00066479559184618158 0 -0.034364256889427548 -2.9887874657573393e-05 0 -0.033286391271927701 -0.00088702337167335282 0 -0.034165908390130131 -0.00017646739903048983 0 -0.03384182580559366 -0.00050464125288052762 0 -0.034280869215424982 -0.00066479559184618158 0 -0.03384182580559366 -0.00050464125288052762 0 -0.034280869215424982 -0.00066479559184618158 0 -0.033835692203222342 -0.0011281996231464128 0 -0.032777142079407504 -0.00027497777786641037 0 -0.033533908279708591 -0.00011895132209671587 0 -0.033330092724311776 -0.00056292436766678376 0 -0.033533908279708591 -0.00011895132209671587 0 -0.03384182580559366 -0.00050464125288052762 0 -0.033330092724311776 -0.00056292436766678376 0 -0.03384182580559366 -0.00050464125288052762 0 -0.033330092724311776 -0.00056292436766678376 0 -0.033835692203222342 -0.0011281996231464128 0 -0.032433852343964772 -0.00080422264518187022 0 -0.032777142079407504 -0.00027497777786641037 0 -0.033330092724311776 -0.00056292436766678376 0 -0.032433852343964772 -0.00080422264518187022 0 -0.033330092724311776 -0.00056292436766678376 0 -0.033835692203222342 -0.0011281996231464128 0 -0.032433852343964772 -0.00080422264518187022 0 -0.033136618647374327 -0.0010330300695557276 0 -0.032845977179943905 -0.0014351212184129498 0 -0.032427180887310066 -0.00083109206802551422 0 -0.03369473570482015 -0.0010839111506261885 0 -0.032313171993323932 -0.0012001426779957712 0 -0.032424656378895265 -0.0015214286676478637 0 -0.03328902664845719 -0.0017561302894030385 0 -0.032510006808862429 -0.0016450602595425915 0 -0.033076266921606708 -0.001924157610280398 0 -0.032362000771349292 -0.0012570808200933759 0 -0.033076266921606708 -0.001924157610280398 0 -0.033782073390728924 -0.0011607180554262088 0 -0.033136618647374327 -0.0010330300695557276 0 -0.033531505205446809 -0.0015909191802320143 0 -0.033136618647374327 -0.0010330300695557276 0 -0.033531505205446809 -0.0015909191802320143 0 -0.032845977179943905 -0.0014351212184129498 0 -0.033017061805886781 -0.0011853108381389553 0 -0.03369473570482015 -0.0010839111506261885 0 -0.034596725447181384 -0.0011785454115874525 0 -0.03435315404166963 -0.0009879767364955798 0 -0.033835692203222342 -0.0011281996231464128 0 -0.03435315404166963 -0.0009879767364955798 0 -0.034280869215424982 -0.00066479559184618158 0 -0.033835692203222342 -0.0011281996231464128 0 -0.031140536090611067 -0.001810666718516422 0 -0.033076266921606708 -0.001924157610280398 0 -0.030611269291623146 -0.0019566794672985321 0 -0.030879975777625579 -0.0015048104930566451 0 -0.032724150164367014 -0.0024859856377502324 0 -0.030056006042884234 -0.0024808138960268435 0 -0.033076266921606708 -0.001924157610280398 0 -0.033136229048770373 -0.0022230536966846748 0 -0.03286723337982761 -0.0019237864466257451 0 -0.032886828765915969 -0.002239981516724603 0 -0.031140536090611067 -0.001810666718516422 0 -0.030056006042884234 -0.0024808138960268435 0 -0.032574639232541995 -0.002215661395610647 0 -0.032424656378895265 -0.0015214286676478637 0 -0.03286723337982761 -0.0019237864466257451 0 -0.032574639232541995 -0.002215661395610647 0 -0.03286723337982761 -0.0019237864466257451 0 -0.032886828765915969 -0.002239981516724603 0 -0.02938903041308525 -0.00010086735562186291 0 -0.029515017432912322 -0.00030854691830388626 0 -0.029644149375616206 -0.00032526287663150826 0 -0.032574639232541995 -0.002215661395610647 0 -0.032886828765915969 -0.002239981516724603 0 -0.032938258556797245 -0.0025533427787177657 0 -0.029407116261960999 -0.00017363906326445258 0 -0.02938903041308525 -0.00010086735562186291 0 -0.029515017432912322 -0.00030854691830388626 0 -0.031799267136443925 -0.0013335926639218706 0 -0.027059255054442843 -0.0012945063328833721 0 -0.026265771965150755 -0.0031742813268531302 0 -0.023907385777074588 -0.0013095775351944427 0 -0.027606166640713692 -0.00058868834173880552 0 -0.033136229048770373 -0.0022230536966846748 0 -0.032886828765915969 -0.002239981516724603 0 -0.032938258556797245 -0.0025533427787177657 0 -0.019936454397434886 -0.0012129520481675964 0 -0.023487479418680648 -0.00053920883173814473 0 -0.023139782024910443 -0.00010290754697641983 0 -0.030056006042884234 -0.0024808138960268435 0 -0.027059255054442843 -0.0012945063328833721 0 -0.020400461873924709 -0.00097726036796392732 0 -0.027059255054442843 -0.0012945063328833721 0 -0.019936454397434886 -0.0012129520481675964 0 -0.019902024505259387 -0.00099683305275429629 0 -0.023139782024910443 -0.00010290754697641983 0 -0.030056006042884234 -0.0024808138960268435 0 -0.023739566777630103 -0.0013953205678432121 0 -0.026265771965150755 -0.0031742813268531302 0 -0.024014997091879497 -0.0019744136746746993 0 -0.023907385777074588 -0.0013095775351944427 0 -0.023739566777630103 -0.0013953205678432121 0 -0.020400461873924709 -0.00097726036796392732 0 -0.020400461873924709 -0.00097726036796392732 0 -0.018747059092203793 -0.0005676017398533131 0 -0.016257397441705224 -0.0006968016019316942 0 -0.016153127961778792 -0.00065622284575876525 0 -0.016165999752484186 -0.00069834895852467055 0 -0.016153127961778792 -0.00065622284575876525 0 -0.016135606601573971 -0.00070112789154818799 0 -0.016058226485149998 -0.00069610836114019443 0 -0.016153127961778792 -0.00065622284575876525 0 -0.016135606601573971 -0.00070112789154818799 0 -0.016165999752484186 -0.00069834895852467055 0 -0.016135606601573971 -0.00070112789154818799 0 -0.016154019526296602 -0.0007480802560513272 0 -0.016058226485149998 -0.00069610836114019443 0 -0.024275049641933152 -0.00037523754908395197 0 -0.023635980298503931 -0.00048026577029907687 0 -0.024028721146615369 -0.00078873868936282928 0 -0.016135606601573971 -0.00070112789154818799 0 -0.016165999752484186 -0.00069834895852467055 0 -0.016154019526296602 -0.0007480802560513272 0 -0.020472565578027058 -0.00084522726916779498 0 -0.021430856297867628 -0.00066850396143781584 0 -0.020400461873924709 -0.00097726036796392732 0 -0.020472565578027058 -0.00084522726916779498 0 -0.021969000940315942 -0.0010778812008757671 0 -0.021864357790024533 -0.00042447704490424176 0 -0.021049312073225565 -0.00058358976408963469 0 -0.016257397441705224 -0.0006968016019316942 0 -0.016165999752484186 -0.00069834895852467055 0 -0.016154019526296602 -0.0007480802560513272 0 -0.016265286442489427 -0.00072722839049631086 0 -0.016257397441705224 -0.0006968016019316942 0 -0.016154019526296602 -0.0007480802560513272 0 -0.018150019615010629 -0.00048236751281034495 0 -0.017133017105128521 -0.00051348392003313411 0 -0.017031700483277644 -0.00094613597877367048 0 -0.016993461696780596 -0.0010060253303797466 0 -0.016909377967135732 -0.00090369498338338397 0 -0.020257711373941802 -0.0012954364281491052 0 -0.019695763693009984 -0.000992160618897005 0 -0.019761624349478223 -0.001375817834011565 0 -0.020472565578027058 -0.00084522726916779498 0 -0.018150019615010629 -0.00048236751281034495 0 -0.017031700483277644 -0.00094613597877367048 0 -0.017046410955694587 -0.00099737147279686388 0 -0.016993461696780596 -0.0010060253303797466 0 -0.018150019615010629 -0.00048236751281034495 0 -0.021430856297867628 -0.00066850396143781584 0 -0.021430856297867628 -0.00066850396143781584 0 -0.022703017751902796 3.3437564844216164e-05 0 -0.026479865088722462 -0.00065021397912424096 0 -0.026029666556678648 -0.00016724262653466029 0 -0.026140923544216769 0.0003158932194154637 0 -0.021430856297867628 -0.00066850396143781584 0 -0.025831845306714608 -0.00075186104206265429 0 -0.023862272234697723 0.00061404285846827344 0 -0.023016780812857324 0.00040892655111600981 0 -0.024091021198598711 -0.00073399331133722494 0 -0.022703017751902796 3.3437564844216164e-05 0 -0.025831845306714608 -0.00075186104206265429 0 -0.023635980298503931 -0.00048026577029907687 0 -0.023760923142433742 -0.0011910990336751514 0 -0.024028721146615369 -0.00078873868936282928 0 -0.025831845306714608 -0.00075186104206265429 0 -0.028750893395766371 -0.0005984370123916121 0 -0.025831845306714608 -0.00075186104206265429 0 -0.02828289473894308 -0.0007350377543211082 0 -0.025205241032128456 -0.00087238111319974361 0 -0.02442843162368085 -0.0010680848176273141 0 -0.024549315649240212 -0.0020225496673067942 0 -0.025205241032128456 -0.00087238111319974361 0 -0.024275049641933152 -0.00037523754908395197 0 -0.02442843162368085 -0.0010680848176273141 0 -0.023739566777630103 -0.0013953205678432121 0 -0.020472565578027058 -0.00084522726916779498 0 -0.024275049641933152 -0.00037523754908395197 0 -0.024028721146615369 -0.00078873868936282928 0 -0.02442843162368085 -0.0010680848176273141 0 -0.023760923142433742 -0.0011910990336751514 0 -0.024028721146615369 -0.00078873868936282928 0 -0.02442843162368085 -0.0010680848176273141 0 -0.023760923142433742 -0.0011910990336751514 0 -0.02442843162368085 -0.0010680848176273141 0 -0.024549315649240212 -0.0020225496673067942 0 -0.032050192187471918 0.00088445421132287122 0 -0.032018389026134901 -0.00027495104508239474 0 -0.032734354243490554 0.00017207168551132 0 -0.030772884742098966 -0.00051252594792533578 0 -0.030750057993906486 -0.00026161703396676062 0 -0.030778448473716347 -0.00026866896808210245 0 -0.03003778736032597 -0.0012539986190323446 0 -0.030155763925013193 -0.00030125776783021806 0 -0.029848690354113541 -0.00022374453504006675 0 -0.03003778736032597 -0.0012539986190323446 0 -0.030155763925013193 -0.00030125776783021806 0 -0.030625404634730607 -0.00079298676867155997 0 -0.030847343600128443 -0.00052540587083357707 0 -0.030772884742098966 -0.00051252594792533578 0 -0.030778448473716347 -0.00026866896808210245 0 -0.033269330277305512 0.0002042904812259075 0 -0.028750893395766371 -0.0005984370123916121 0 -0.032280144000022097 -0.00042095605221137064 0 -0.02828289473894308 -0.0007350377543211082 0 -0.026734515984317284 -0.00071237919729844111 0 -0.027380673523840528 -0.0014006777787552909 0 -0.026827009931709733 -0.001259430478802603 0 -0.027571156215742271 -0.0010471630538463118 0 -0.02828289473894308 -0.0007350377543211082 0 -0.025831845306714608 -0.00075186104206265429 0 -0.027571156215742271 -0.0010471630538463118 0 -0.027086562848418892 -0.00056691150221740289 0 -0.027004491850370963 -0.00095704325351628672 0 -0.02716271906107439 -0.00099727484795790878 0 -0.028750893395766371 -0.0005984370123916121 0 -0.02828289473894308 -0.0007350377543211082 0 -0.027571156215742271 -0.0010471630538463118 0 -0.029504392420709017 -0.0014537584386320698 0 -0.02972581521186907 -0.0021946052188487213 0 -0.026341636427964679 -0.00038770893045852816 0 -0.026676534796336814 -0.0024790173767713017 0 -0.029504392420709017 -0.0014537584386320698 0 -0.027745480620362858 -0.001539691376232225 0 -0.033017061805886781 -0.0011853108381389553 0 -0.031140536090611067 -0.001810666718516422 0 -0.030634044874939446 -0.0014967664737233191 0 -0.030649472367752117 -0.0014631663106108876 0 -0.030613627645586439 -0.0014709732116280645 0 -0.030649472367752117 -0.0014631663106108876 0 -0.030613627645586439 -0.0014709732116280645 0 -0.030603478644573034 -0.0014517160515042508 0 -0.029180545275201631 -0.0031117789314222296 0 -0.02972581521186907 -0.0021946052188487213 0 -0.026676534796336814 -0.0024790173767713017 0 -0.031140536090611067 -0.001810666718516422 0 -0.027745480620362858 -0.001539691376232225 0 -0.027968367384130666 -0.00089192028603719668 0 -0.028692295568498977 -0.001659873059647862 0 -0.028595204003172687 -0.001051075647633188 0 -0.023739566777630103 -0.0013953205678432121 0 -0.027745480620362858 -0.001539691376232225 0 -0.025205241032128456 -0.00087238111319974361 0 -0.024549315649240212 -0.0020225496673067942 0 -0.02543169320261331 -0.0022452456919035057 0 -0.027571156215742271 -0.0010471630538463118 0 -0.027745480620362858 -0.001539691376232225 0 -0.034443860538194655 0.000382907473049274 0 -0.034017120448982259 0.00051599262212908593 0 -0.033900926620061701 7.5125219973644277e-05 0 -0.034502695950102524 0.00034482746949452737 0 -0.033280734633328042 0.000670144270109907 0 -0.033900926620061701 7.5125219973644277e-05 0 -0.033530061330465211 -0.00029362507713570467 0 -0.033315652270532396 -7.5875784838758071e-05 0 -0.033900926620061701 7.5125219973644277e-05 0 -0.033530061330465211 -0.00029362507713570467 0 -0.033992882275376786 -0.00023192863075600565 0 -0.033992882275376786 -0.00023192863075600565 0 -0.034461254929128535 -0.00032519312886690818 0 -0.034446737251956974 -0.00018688966884624177 0 -0.033992882275376786 -0.00023192863075600565 0 -0.034195067279307587 -2.1214179387525956e-05 0 -0.034446737251956974 -0.00018688966884624177 0 -0.034195067279307587 -2.1214179387525956e-05 0 -0.034287179473623336 0.00010962520915345002 0 -0.034500857393445779 5.757519878193805e-05 0 -0.033900926620061701 7.5125219973644277e-05 0 -0.033992882275376786 -0.00023192863075600565 0 -0.034195067279307587 -2.1214179387525956e-05 0 -0.033900926620061701 7.5125219973644277e-05 0 -0.034195067279307587 -2.1214179387525956e-05 0 -0.034287179473623336 0.00010962520915345002 0 -0.033900926620061701 7.5125219973644277e-05 0 -0.034287179473623336 0.00010962520915345002 0 -0.034502695950102524 0.00034482746949452737 0 -0.033900926620061701 7.5125219973644277e-05 0 -0.033315652270532396 -7.5875784838758071e-05 0 -0.033280734633328042 0.000670144270109907 0 -0.032734354243490554 0.00017207168551132 0 -0.033315652270532396 -7.5875784838758071e-05 0 -0.033280734633328042 0.000670144270109907 0 -0.032050192187471918 0.00088445421132287122 0 -0.032734354243490554 0.00017207168551132 0 -0.033280734633328042 0.000670144270109907 0 -0.032018389026134901 -0.00027495104508239474 0 -0.032935736544732121 -0.00021735157362229115 0 -0.033337542172751887 -0.00058207271630279377 0 -0.032018389026134901 -0.00027495104508239474 0 -0.032734354243490554 0.00017207168551132 0 -0.032935736544732121 -0.00021735157362229115 0 -0.032734354243490554 0.00017207168551132 0 -0.033315652270532396 -7.5875784838758071e-05 0 -0.032935736544732121 -0.00021735157362229115 0 -0.033315652270532396 -7.5875784838758071e-05 0 -0.032935736544732121 -0.00021735157362229115 0 -0.033280969214627656 -0.00029175106243850411 0 -0.032935736544732121 -0.00021735157362229115 0 -0.033280969214627656 -0.00029175106243850411 0 -0.033337542172751887 -0.00058207271630279377 0 -0.033530061330465211 -0.00029362507713570467 0 -0.033315652270532396 -7.5875784838758071e-05 0 -0.033280969214627656 -0.00029175106243850411 0 -0.022703017751902796 3.3437564844216164e-05 0 -0.029127724903009598 -0.0002324648438839103 0 -0.033530061330465211 -0.00029362507713570467 0 -0.033280969214627656 -0.00029175106243850411 0 -0.033337542172751887 -0.00058207271630279377 0 -0.028750893395766371 -0.0005984370123916121 0 -0.029127724903009598 -0.0002324648438839103 0 -0.024372812856773708 0.00030287938287711482 0 -0.024475880674187982 0.00032840209959361096 0 -0.024463493685444815 0.00020221090975474677 0 -0.026479865088722462 -0.00065021397912424096 0 -0.026140923544216769 0.0003158932194154637 0 -0.028158549432113083 -0.00018631312548625891 0 -0.029127724903009598 -0.0002324648438839103 0 -0.029115681562270755 6.4777390785235409e-05 0 -0.024520046097457459 0.00026790729420896872 0 -0.024593151697998968 0.00034017561451178728 0 -0.024543401704243871 0.00021571133651836119 0 -0.024475880674187982 0.00032840209959361096 0 -0.024520046097457459 0.00026790729420896872 0 -0.024593151697998968 0.00034017561451178728 0 -0.024475880674187982 0.00032840209959361096 0 -0.024520046097457459 0.00026790729420896872 0 -0.024463493685444815 0.00020221090975474677 0 -0.033992882275376786 -0.00023192863075600565 0 -0.033337542172751887 -0.00058207271630279377 0 -0.034461254929128535 -0.00032519312886690818 0 -0.033530061330465211 -0.00029362507713570467 0 -0.033992882275376786 -0.00023192863075600565 0 -0.033337542172751887 -0.00058207271630279377 0 -0.029115681562270755 6.4777390785235409e-05 0 -0.026162516289994862 -4.0428405312436181e-05 0 -0.027348750248556437 -0.00044757796916087417 0 -0.027480083046404806 -0.00053657425609849197 0 -0.027335080004374637 -0.00056916841268430795 0 -0.027348750248556437 -0.00044757796916087417 0 -0.027480083046404806 -0.00053657425609849197 0 -0.027433847303188413 -0.00033584702841392926 0 -0.027348750248556437 -0.00044757796916087417 0 -0.027222809127570132 -0.00045738588662166523 0 -0.027233304321136308 -0.00038665209288751693 0 -0.027348750248556437 -0.00044757796916087417 0 -0.027222809127570132 -0.00045738588662166523 0 -0.027335080004374637 -0.00056916841268430795 0 -0.030057137774378895 2.9683647422568427e-05 0 -0.031979218975609555 0.00068484121218905934 0 -0.034060639057029066 6.8037779816257262e-05 0 -0.034109614595847777 0.00046644032535388011 0 -0.033041867619515525 0.00038875248936765899 0 -0.032902089430379707 0.00057581456294883893 0 -0.033601520287436557 0.00061207916121081376 0 -0.031979218975609555 0.00068484121218905934 0 -0.034060639057029066 6.8037779816257262e-05 0 -0.034669262519337843 0.00031235631395238326 0 -0.03467521329684143 0.00032298805705542464 0 -0.034674353107086726 0.00033937762224535835 0 -0.034669262519337843 0.00031235631395238326 0 -0.034666563094694625 0.0002981611346409424 0 -0.03467521329684143 0.00032298805705542464 0 -0.029115681562270755 6.4777390785235409e-05 0 -0.031979218975609555 0.00068484121218905934 0 -0.034449191748956151 -0.00026162324228380408 0 -0.035092770176944788 -8.0845580609608436e-05 0 -0.034985315953013713 7.1094438373095576e-05 0 -0.034985315953013713 7.1094438373095576e-05 0 -0.034500857393445779 5.757519878193805e-05 0 -0.034446737251956974 -0.00018688966884624177 0 -0.034449191748956151 -0.00026162324228380408 0 -0.034985315953013713 7.1094438373095576e-05 0 -0.034446737251956974 -0.00018688966884624177 0 -0.034195067279307587 -2.1214179387525956e-05 0 -0.034500857393445779 5.757519878193805e-05 0 -0.034446737251956974 -0.00018688966884624177 0 -0.029115681562270755 6.4777390785235409e-05 0 -0.02935094298831337 -3.8343671947766467e-05 0 -0.034060639057029066 6.8037779816257262e-05 0 -0.03476329815006006 8.3781609541318789e-05 0 -0.034818364178264297 0.00015005889299502727 0 -0.034500857393445779 5.757519878193805e-05 0 -0.034600064846788459 0.00026063630724910232 0 -0.034818364178264297 0.00015005889299502727 0 -0.034666563094694625 0.0002981611346409424 0 -0.034600064846788459 0.00026063630724910232 0 -0.034060639057029066 6.8037779816257262e-05 0 -0.034440123057692319 8.3677788326685823e-05 0 -0.034666563094694625 0.0002981611346409424 0 -0.034600064846788459 0.00026063630724910232 0 -0.034597903734847939 0.00033434732358500718 0 -0.034600064846788459 0.00026063630724910232 0 -0.034502695950102524 0.00034482746949452737 0 -0.034597903734847939 0.00033434732358500718 0 -0.034500857393445779 5.757519878193805e-05 0 -0.034600064846788459 0.00026063630724910232 0 -0.034502695950102524 0.00034482746949452737 0 -0.034287179473623336 0.00010962520915345002 0 -0.034500857393445779 5.757519878193805e-05 0 -0.034502695950102524 0.00034482746949452737 0 -0.034657866719766346 0.00032257144359938792 0 -0.034687165787254316 0.00032237936168622022 0 -0.034637244595744889 0.00030273836073844198 0 -0.034666563094694625 0.0002981611346409424 0 -0.034597903734847939 0.00033434732358500718 0 -0.034657866719766346 0.00032257144359938792 0 -0.034597903734847939 0.00033434732358500718 0 -0.034657866719766346 0.00032257144359938792 0 -0.034637244595744889 0.00030273836073844198 0 -0.034597903734847939 0.00033434732358500718 0 -0.034637244595744889 0.00030273836073844198 0 -0.034624237703690441 0.00031864396629127526 0 -0.03467521329684143 0.00032298805705542464 0 -0.034687165787254316 0.00032237936168622022 0 -0.034675570353267099 0.00034171135518908579 0 -0.034666563094694625 0.0002981611346409424 0 -0.034657866719766346 0.00032257144359938792 0 -0.03467521329684143 0.00032298805705542464 0 -0.034657866719766346 0.00032257144359938792 0 -0.03467521329684143 0.00032298805705542464 0 -0.034687165787254316 0.00032237936168622022 0 -0.034687165787254316 0.00032237936168622022 0 -0.034819424447379829 0.00024594295884060969 0 -0.034681037798824484 0.00029902896190577027 0 -0.034691614879419977 0.00031037078478138796 0 -0.034732282214843174 0.00023475523577362489 0 -0.034637244595744889 0.00030273836073844198 0 -0.034692164682567091 0.00026592041823602654 0 -0.034633453961650927 0.00023267653730478518 0 -0.034687165787254316 0.00032237936168622022 0 -0.034637244595744889 0.00030273836073844198 0 -0.034633453961650927 0.00023267653730478518 0 -0.034637244595744889 0.00030273836073844198 0 -0.034692164682567091 0.00026592041823602654 0 -0.034624237703690441 0.00031864396629127526 0 -0.034502695950102524 0.00034482746949452737 0 -0.034624237703690441 0.00031864396629127526 0 -0.034709352548812265 0.00037696862768001602 0 -0.034692164682567091 0.00026592041823602654 0 -0.034624237703690441 0.00031864396629127526 0 -0.034701642800826479 0.00030091585376262734 0 -0.034624237703690441 0.00031864396629127526 0 -0.034709352548812265 0.00037696862768001602 0 -0.034701642800826479 0.00030091585376262734 0 -0.034502695950102524 0.00034482746949452737 0 -0.034597903734847939 0.00033434732358500718 0 -0.034624237703690441 0.00031864396629127526 0 -0.034815410638799782 0.00035756246825835295 0 -0.034709352548812265 0.00037696862768001602 0 -0.034753883613373955 0.00032123015918404191 0 -0.033269330277305512 0.0002042904812259075 0 -0.034017120448982259 0.00051599262212908593 0 -0.034709352548812265 0.00037696862768001602 0 -0.034701642800826479 0.00030091585376262734 0 -0.034753883613373955 0.00032123015918404191 0 -0.034701642800826479 0.00030091585376262734 0 -0.034753883613373955 0.00032123015918404191 0 -0.03475300224731271 0.00027333385422614642 0 -0.034753883613373955 0.00032123015918404191 0 -0.034793182360707241 0.00028419152577188565 0 -0.03475300224731271 0.00027333385422614642 0 -0.034815410638799782 0.00035756246825835295 0 -0.034753883613373955 0.00032123015918404191 0 -0.034793182360707241 0.00028419152577188565 0 -0.034793182360707241 0.00028419152577188565 0 -0.03475300224731271 0.00027333385422614642 0 -0.034796715746917756 0.00023857092991731252 0 -0.034692164682567091 0.00026592041823602654 0 -0.034701642800826479 0.00030091585376262734 0 -0.03475300224731271 0.00027333385422614642 0 -0.034692164682567091 0.00026592041823602654 0 -0.034776696045524587 0.00021669157246898845 0 -0.034735993805180318 0.00020241956810015572 0 -0.034692164682567091 0.00026592041823602654 0 -0.03475300224731271 0.00027333385422614642 0 -0.034776696045524587 0.00021669157246898845 0 -0.03475300224731271 0.00027333385422614642 0 -0.034796715746917756 0.00023857092991731252 0 -0.034776696045524587 0.00021669157246898845 0 -0.034796715746917756 0.00023857092991731252 0 -0.034776696045524587 0.00021669157246898845 0 -0.034804426947343751 0.0002018780977328016 0 -0.034815071872603701 0.00017125232851340389 0 -0.034776696045524587 0.00021669157246898845 0 -0.034804426947343751 0.0002018780977328016 0 -0.034815071872603701 0.00017125232851340389 0 -0.034776696045524587 0.00021669157246898845 0 -0.034797727499081811 0.00015978444057543426 0 -0.034776696045524587 0.00021669157246898845 0 -0.034797727499081811 0.00015978444057543426 0 -0.034735993805180318 0.00020241956810015572 0 -0.034797727499081811 0.00015978444057543426 0 -0.034735993805180318 0.00020241956810015572 0 -0.034765355474437591 0.00014288366372884677 0 -0.034834148902511033 0.00013189065932891063 0 -0.034815071872603701 0.00017125232851340389 0 -0.034797727499081811 0.00015978444057543426 0 -0.034735993805180318 0.00020241956810015572 0 -0.034765355474437591 0.00014288366372884677 0 -0.034633453961650927 0.00023267653730478518 0 -0.034692164682567091 0.00026592041823602654 0 -0.034735993805180318 0.00020241956810015572 0 -0.034633453961650927 0.00023267653730478518 0 -0.034765355474437591 0.00014288366372884677 0 -0.034731044579596797 8.8435150178357844e-05 0 -0.034633453961650927 0.00023267653730478518 0 -0.034765355474437591 0.00014288366372884677 0 -0.034731044579596797 8.8435150178357844e-05 0 -0.034842229519214653 7.8702705997309028e-05 0 -0.03489131630413219 6.1618760178368053e-05 0 -0.034834446910788214 0.00010777000171349611 0 -0.034842229519214653 7.8702705997309028e-05 0 -0.034834148902511033 0.00013189065932891063 0 -0.034797727499081811 0.00015978444057543426 0 -0.034834446910788214 0.00010777000171349611 0 -0.034797727499081811 0.00015978444057543426 0 -0.034765355474437591 0.00014288366372884677 0 -0.034834446910788214 0.00010777000171349611 0 -0.034765355474437591 0.00014288366372884677 0 -0.034834446910788214 0.00010777000171349611 0 -0.034842229519214653 7.8702705997309028e-05 0 -0.035000056246506386 3.1770453215433111e-08 0 -0.034948165639503988 1.6480160505197947e-05 0 -0.034999873734566526 4.0133388305772287e-08 0 -0.03489131630413219 6.1618760178368053e-05 0 -0.034842229519214653 7.8702705997309028e-05 0 -0.034948165639503988 1.6480160505197947e-05 0 -0.034731044579596797 8.8435150178357844e-05 0 -0.034842229519214653 7.8702705997309028e-05 0 -0.034948165639503988 1.6480160505197947e-05 0 -0.034841288116632473 9.9023266238079587e-05 0 -0.034931475223340898 2.5203747499533224e-05 0 -0.034950976350326318 9.7217367789151146e-05 0 -0.034951605444771945 2.8777532561303544e-05 0 -0.034948165639503988 1.6480160505197947e-05 0 -0.034950976350326318 9.7217367789151146e-05 0 -0.034951605444771945 2.8777532561303544e-05 0 -0.034889046178021924 6.8465216355959572e-05 0 -0.034951605444771945 2.8777532561303544e-05 0 -0.034948165639503988 1.6480160505197947e-05 0 -0.034999873734566526 4.0133388305772287e-08 0 -0.035000056246506386 3.1770453215433111e-08 0 -0.03489131630413219 6.1618760178368053e-05 0 -0.034948165639503988 1.6480160505197947e-05 0 -0.034993035196767754 6.4101005165813581e-06 0 -0.034996160858054869 5.0227084776289681e-06 0 -0.035000039047336673 -1.4291595668992518e-08 0 -0.034999873734566526 4.0133388305772287e-08 0 -0.034993035196767754 6.4101005165813581e-06 0 -0.035000039047336673 -1.4291595668992518e-08 0 -0.034951605444771945 2.8777532561303544e-05 0 -0.034999873734566526 4.0133388305772287e-08 0 -0.034993035196767754 6.4101005165813581e-06 0 -0.034951605444771945 2.8777532561303544e-05 0 -0.034889046178021924 6.8465216355959572e-05 0 -0.034813150219412482 3.1785067522082626e-05 0 -0.034889046178021924 6.8465216355959572e-05 0 -0.034813150219412482 3.1785067522082626e-05 0 -0.034838589819443759 0.00011659597121816587 0 -0.034950028982824941 2.6864986118233083e-05 0 -0.034905762523076977 2.1639775288867838e-05 0 -0.034813150219412482 3.1785067522082626e-05 0 -0.034746682638794352 0.00013415787428799769 0 -0.034838589819443759 0.00011659597121816587 0 -0.034905762523076977 2.1639775288867838e-05 0 -0.034849823339039618 2.2721577109240016e-05 0 -0.034813150219412482 3.1785067522082626e-05 0 -0.034746682638794352 0.00013415787428799769 0 -0.034703849673822174 4.5853102840699182e-05 0 -0.034746682638794352 0.00013415787428799769 0 -0.034838589819443759 0.00011659597121816587 0 -0.034819424447379829 0.00024594295884060969 0 -0.034950976350326318 9.7217367789151146e-05 0 -0.034889046178021924 6.8465216355959572e-05 0 -0.034838589819443759 0.00011659597121816587 0 -0.034841288116632473 9.9023266238079587e-05 0 -0.034732282214843174 0.00023475523577362489 0 -0.034950976350326318 9.7217367789151146e-05 0 -0.034838589819443759 0.00011659597121816587 0 -0.034819424447379829 0.00024594295884060969 0 -0.034746682638794352 0.00013415787428799769 0 -0.034819424447379829 0.00024594295884060969 0 -0.034682966925644675 0.00021342369898240662 0 -0.034819424447379829 0.00024594295884060969 0 -0.034682966925644675 0.00021342369898240662 0 -0.034681037798824484 0.00029902896190577027 0 -0.034682966925644675 0.00021342369898240662 0 -0.03464225111235545 0.00027758208477035747 0 -0.034681037798824484 0.00029902896190577027 0 -0.034590746616417936 0.00015120624847736794 0 -0.034589070027008083 0.00025025052832199773 0 -0.03464225111235545 0.00027758208477035747 0 -0.034682966925644675 0.00021342369898240662 0 -0.034590746616417936 0.00015120624847736794 0 -0.03464225111235545 0.00027758208477035747 0 -0.034682966925644675 0.00021342369898240662 0 -0.034665095067748231 0.00011916027354676164 0 -0.034590746616417936 0.00015120624847736794 0 -0.034746682638794352 0.00013415787428799769 0 -0.034682966925644675 0.00021342369898240662 0 -0.034665095067748231 0.00011916027354676164 0 -0.034703849673822174 4.5853102840699182e-05 0 -0.034665095067748231 0.00011916027354676164 0 -0.034608266113361694 4.830321643505361e-05 0 -0.034746682638794352 0.00013415787428799769 0 -0.034703849673822174 4.5853102840699182e-05 0 -0.034665095067748231 0.00011916027354676164 0 -0.034849823339039618 2.2721577109240016e-05 0 -0.034800294562463072 5.9349836249883756e-05 0 -0.034800294562463072 5.9349836249883756e-05 0 -0.034672337650215601 0.00011171446052680776 0 -0.034665095067748231 0.00011916027354676164 0 -0.034608266113361694 4.830321643505361e-05 0 -0.034590746616417936 0.00015120624847736794 0 -0.034996160858054869 5.0227084776289681e-06 0 -0.034985281552931548 5.5876659012201326e-06 0 -0.034986933174701071 1.5847865952095251e-06 0 -0.034999904699666878 8.2842985146995247e-09 0 -0.034999999501692511 5.2704315487777918e-11 0 -0.035000000116477054 -5.1796989922489137e-11 0 -0.034800294562463072 5.9349836249883756e-05 0 -0.034963829247273252 -3.8966412015649895e-07 0 -0.034963829247273252 -3.8966412015649895e-07 0 -0.034999964504969769 -5.1674789223423441e-09 0 -0.034996160858054869 5.0227084776289681e-06 0 -0.034986933174701071 1.5847865952095251e-06 0 -0.035000039047336673 -1.4291595668992518e-08 0 -0.034963829247273252 -3.8966412015649895e-07 0 -0.035000033900983774 -8.2960419301585523e-09 0 -0.03499993765715189 -1.784922293736978e-08 0 -0.034993685902295742 3.0274912237896881e-05 0 -0.034844232936484011 4.3516300532402127e-05 0 -0.035002868547520466 6.7682605947954885e-06 0 -0.035000050576966008 2.6023028404233477e-08 0 -0.03499993765715189 -1.784922293736978e-08 0 -0.035002868547520466 6.7682605947954885e-06 0 -0.03499993765715189 -1.784922293736978e-08 0 -0.034993685902295742 3.0274912237896881e-05 0 -0.034963829247273252 -3.8966412015649895e-07 0 -0.034871794101704143 4.1081095581410335e-05 0 -0.034800294562463072 5.9349836249883756e-05 0 -0.034871794101704143 4.1081095581410335e-05 0 -0.034886288985907288 4.3637247086614396e-05 0 -0.034889149727373732 3.3049392017942923e-05 0 -0.03486374571644512 4.2108374261409222e-05 0 -0.034763012060496354 5.7855309378018092e-05 0 -0.034761723029650082 5.9249431887016332e-05 0 -0.034769704404326369 6.5751617402503377e-05 0 -0.03476227724281019 6.5292321913290496e-05 0 -0.034761723029650082 5.9249431887016332e-05 0 -0.034749910721204438 5.0823188711781002e-05 0 -0.034763012060496354 5.7855309378018092e-05 0 -0.03476227724281019 6.5292321913290496e-05 0 -0.034761723029650082 5.9249431887016332e-05 0 -0.034761723029650082 5.9249431887016332e-05 0 -0.034749910721204438 5.0823188711781002e-05 0 -0.034769704404326369 6.5751617402503377e-05 0 -0.03476227724281019 6.5292321913290496e-05 0 -0.034844232936484011 4.3516300532402127e-05 0 -0.034749910721204438 5.0823188711781002e-05 0 -0.034871794101704143 4.1081095581410335e-05 0 -0.034852998449214391 4.5645731424906557e-05 0 -0.034726544501076338 5.5643604824961899e-05 0 -0.034844232936484011 4.3516300532402127e-05 0 -0.034749910721204438 5.0823188711781002e-05 0 -0.03463628979064555 0.00011104003492311836 0 -0.034749910721204438 5.0823188711781002e-05 0 -0.034683024481537768 0.00012225103939345004 0 -0.034749910721204438 5.0823188711781002e-05 0 -0.034769704404326369 6.5751617402503377e-05 0 -0.034683024481537768 0.00012225103939345004 0 -0.034672337650215601 0.00011171446052680776 0 -0.03466011019963304 0.00020287230936330517 0 -0.034769704404326369 6.5751617402503377e-05 0 -0.034736272693587734 0.00016128885277533157 0 -0.034683024481537768 0.00012225103939345004 0 -0.034736272693587734 0.00016128885277533157 0 -0.034683024481537768 0.00012225103939345004 0 -0.034581740615738023 0.00024188004160070602 0 -0.03463628979064555 0.00011104003492311836 0 -0.034683024481537768 0.00012225103939345004 0 -0.034581740615738023 0.00024188004160070602 0 -0.034581740615738023 0.00024188004160070602 0 -0.034528751806688671 0.00037974729330555806 0 -0.034611309872450369 0.00032969146362713762 0 -0.034432619764214585 0.0003585125649422809 0 -0.034581740615738023 0.00024188004160070602 0 -0.034528751806688671 0.00037974729330555806 0 -0.034432619764214585 0.0003585125649422809 0 -0.034528751806688671 0.00037974729330555806 0 -0.034419386838671809 0.00048222925299575665 0 -0.034528751806688671 0.00037974729330555806 0 -0.034419386838671809 0.00048222925299575665 0 -0.034519393554593852 0.00051121091512452814 0 -0.034604108710768383 0.00040495404842866707 0 -0.034519393554593852 0.00051121091512452814 0 -0.034639857511400009 0.00041819008069835233 0 -0.034604108710768383 0.00040495404842866707 0 -0.034647261769597142 0.00037311221926852677 0 -0.034639857511400009 0.00041819008069835233 0 -0.034528751806688671 0.00037974729330555806 0 -0.034604108710768383 0.00040495404842866707 0 -0.034519393554593852 0.00051121091512452814 0 -0.034528751806688671 0.00037974729330555806 0 -0.034604108710768383 0.00040495404842866707 0 -0.034611309872450369 0.00032969146362713762 0 -0.034604108710768383 0.00040495404842866707 0 -0.034611309872450369 0.00032969146362713762 0 -0.034647261769597142 0.00037311221926852677 0 -0.03466011019963304 0.00020287230936330517 0 -0.034621146665143161 0.00031220748965073131 0 -0.034736272693587734 0.00016128885277533157 0 -0.034581740615738023 0.00024188004160070602 0 -0.034611309872450369 0.00032969146362713762 0 -0.034589070027008083 0.00025025052832199773 0 -0.034611309872450369 0.00032969146362713762 0 -0.03464225111235545 0.00027758208477035747 0 -0.034611309872450369 0.00032969146362713762 0 -0.03464225111235545 0.00027758208477035747 0 -0.034653649073736026 0.00032782237410181725 0 -0.03464225111235545 0.00027758208477035747 0 -0.034653649073736026 0.00032782237410181725 0 -0.034681037798824484 0.00029902896190577027 0 -0.034653649073736026 0.00032782237410181725 0 -0.034681037798824484 0.00029902896190577027 0 -0.034675570353267099 0.00034171135518908579 0 -0.034687165787254316 0.00032237936168622022 0 -0.034681037798824484 0.00029902896190577027 0 -0.034675570353267099 0.00034171135518908579 0 -0.03467521329684143 0.00032298805705542464 0 -0.034675570353267099 0.00034171135518908579 0 -0.034674353107086726 0.00033937762224535835 0 -0.034675570353267099 0.00034171135518908579 0 -0.034647261769597142 0.00037311221926852677 0 -0.034666468927351771 0.00037311000822036071 0 -0.034611309872450369 0.00032969146362713762 0 -0.034653649073736026 0.00032782237410181725 0 -0.034647261769597142 0.00037311221926852677 0 -0.034653649073736026 0.00032782237410181725 0 -0.034675570353267099 0.00034171135518908579 0 -0.034647261769597142 0.00037311221926852677 0 -0.034391707731319193 0.00065627099161566342 0 -0.034329932903609257 0.00075249045854278976 0 -0.034391707731319193 0.00065627099161566342 0 -0.034796379318097391 0.00051654863589597241 0 -0.034647261769597142 0.00037311221926852677 0 -0.034666468927351771 0.00037311000822036071 0 -0.034639857511400009 0.00041819008069835233 0 -0.03343173664306516 0.0009627009364466581 0 -0.033820062906242794 0.00079620121888808698 0 -0.0339747007134251 0.00090018486082894626 0 -0.035079708266134192 0.00061715031052945785 0 -0.034837414095387848 0.00057868583222017288 0 -0.034778783868573027 0.00061970988933914375 0 -0.03343173664306516 0.0009627009364466581 0 -0.033820062906242794 0.00079620121888808698 0 -0.033670638393136137 0.00067962921959100787 0 -0.033820062906242794 0.00079620121888808698 0 -0.033670638393136137 0.00067962921959100787 0 -0.033975249985425948 0.00068373385201571184 0 -0.031979218975609555 0.00068484121218905934 0 -0.034391707731319193 0.00065627099161566342 0 -0.033041867619515525 0.00038875248936765899 0 -0.034302289401339801 0.00064754284220772671 0 -0.033601520287436557 0.00061207916121081376 0 -0.03290291695478062 0.00046057169558210901 0 -0.032622224602523023 0.00082733667395050827 0 -0.03343173664306516 0.0009627009364466581 0 -0.034675570353267099 0.00034171135518908579 0 -0.034666468927351771 0.00037311000822036071 0 -0.034674353107086726 0.00033937762224535835 0 -0.034391707731319193 0.00065627099161566342 0 -0.034109614595847777 0.00046644032535388011 0 -0.03290291695478062 0.00046057169558210901 0 -0.03343173664306516 0.0009627009364466581 0 -0.033382476958788626 0.00053596510522654385 0 -0.03290291695478062 0.00046057169558210901 0 -0.033382476958788626 0.00053596510522654385 0 -0.033171467426033711 0.00010111595256008034 0 -0.033382476958788626 0.00053596510522654385 0 -0.033633864377824355 0.00047642141428843736 0 -0.033171467426033711 0.00010111595256008034 0 -0.03343173664306516 0.0009627009364466581 0 -0.033382476958788626 0.00053596510522654385 0 -0.033670638393136137 0.00067962921959100787 0 -0.033670638393136137 0.00067962921959100787 0 -0.033633864377824355 0.00047642141428843736 0 -0.033975249985425948 0.00068373385201571184 0 -0.033382476958788626 0.00053596510522654385 0 -0.033670638393136137 0.00067962921959100787 0 -0.033633864377824355 0.00047642141428843736 0 -0.033633864377824355 0.00047642141428843736 0 -0.033975249985425948 0.00068373385201571184 0 -0.033912492164203424 0.00031386404036551531 0 -0.033975249985425948 0.00068373385201571184 0 -0.034138874459744582 0.00062143474430121097 0 -0.033912492164203424 0.00031386404036551531 0 -0.034138874459744582 0.00062143474430121097 0 -0.034307132492529632 0.00068302306184879751 0 -0.033912492164203424 0.00031386404036551531 0 -0.033975249985425948 0.00068373385201571184 0 -0.034138874459744582 0.00062143474430121097 0 -0.034132623503126847 0.0007220423349192488 0 -0.034245689037645563 0.00063960617864135781 0 -0.034307132492529632 0.00068302306184879751 0 -0.034266637378141021 0.00066351357771318416 0 -0.034138874459744582 0.00062143474430121097 0 -0.034266637378141021 0.00066351357771318416 0 -0.034132623503126847 0.0007220423349192488 0 -0.034138874459744582 0.00062143474430121097 0 -0.034307132492529632 0.00068302306184879751 0 -0.034266637378141021 0.00066351357771318416 0 -0.034351130517265141 0.0006451541412210778 0 -0.034519393554593852 0.00051121091512452814 0 -0.034778783868573027 0.00061970988933914375 0 -0.034266637378141021 0.00066351357771318416 0 -0.034351130517265141 0.0006451541412210778 0 -0.034132623503126847 0.0007220423349192488 0 -0.034245689037645563 0.00063960617864135781 0 -0.034266637378141021 0.00066351357771318416 0 -0.034351130517265141 0.0006451541412210778 0 -0.034287092415956524 0.00055391345771233836 0 -0.034419386838671809 0.00048222925299575665 0 -0.034351130517265141 0.0006451541412210778 0 -0.034419386838671809 0.00048222925299575665 0 -0.034351130517265141 0.0006451541412210778 0 -0.034519393554593852 0.00051121091512452814 0 -0.034343174010801662 0.00067604000493272419 0 -0.034329932903609257 0.00075249045854278976 0 -0.034516704477743493 0.00049142773404599934 0 -0.034796379318097391 0.00051654863589597241 0 -0.034519393554593852 0.00051121091512452814 0 -0.034837414095387848 0.00057868583222017288 0 -0.034778783868573027 0.00061970988933914375 0 -0.034351130517265141 0.0006451541412210778 0 -0.0339747007134251 0.00090018486082894626 0 -0.034132623503126847 0.0007220423349192488 0 -0.0339747007134251 0.00090018486082894626 0 -0.03398043044693206 0.00077519796332954638 0 -0.034132623503126847 0.0007220423349192488 0 -0.033820062906242794 0.00079620121888808698 0 -0.0339747007134251 0.00090018486082894626 0 -0.03398043044693206 0.00077519796332954638 0 -0.033820062906242794 0.00079620121888808698 0 -0.033975249985425948 0.00068373385201571184 0 -0.03398043044693206 0.00077519796332954638 0 -0.033975249985425948 0.00068373385201571184 0 -0.03398043044693206 0.00077519796332954638 0 -0.034132623503126847 0.0007220423349192488 0 -0.02709166473400931 -0.0010772060075857832 0 -0.030132892397068019 -0.0010617570453531032 0 -0.028359380621400525 -0.00037585852104164388 0 -0.02709166473400931 -0.0010772060075857832 0 -0.02571871362156947 -0.0013889005094237905 0 -0.026057014988777476 -0.00056193716275590411 0 -0.025366472122261417 -0.00079680374591709698 0 -0.02571871362156947 -0.0013889005094237905 0 -0.026057014988777476 -0.00056193716275590411 0 -0.027207964656535532 -0.0011292552197593516 0 -0.027968478086984896 -0.0011663663489815449 0 -0.030155009035075422 0.0010411704170826368 0 -0.030132892397068019 -0.0010617570453531032 0 -0.028359380621400525 -0.00037585852104164388 0 -0.03217309064949106 0.00079174428394552794 0 -0.030809095610796162 0.00036388707209100869 0 -0.030155009035075422 0.0010411704170826368 0 -0.027270418757664446 0.00026821688389510782 0 -0.028359380621400525 -0.00037585852104164388 0 -0.02709166473400931 -0.0010772060075857832 0 -0.027270418757664446 0.00026821688389510782 0 -0.026863167454219586 -0.00048268235906377747 0 -0.02709166473400931 -0.0010772060075857832 0 -0.027270418757664446 0.00026821688389510782 0 -0.028359380621400525 -0.00037585852104164388 0 -0.033633864377824355 0.00047642141428843736 0 -0.033912492164203424 0.00031386404036551531 0 -0.033171467426033711 0.00010111595256008034 0 -0.030809095610796162 0.00036388707209100869 0 -0.028810321784052136 -0.00036611573116082343 0 -0.027270418757664446 0.00026821688389510782 0 -0.026863167454219586 -0.00048268235906377747 0 -0.026145715778673802 -0.00022643677620437337 0 -0.030057137774378895 2.9683647422568427e-05 0 -0.028810321784052136 -0.00036611573116082343 0 -0.027122555037639919 -0.00034424347656180336 0 -0.027173670691944835 -0.00033445563041954366 0 -0.027233304321136308 -0.00038665209288751693 0 -0.027222809127570132 -0.00045738588662166523 0 -0.027122555037639919 -0.00034424347656180336 0 -0.027233304321136308 -0.00038665209288751693 0 -0.027091150749128396 -0.00035727585746526779 0 -0.027173670691944835 -0.00033445563041954366 0 -0.027097755045139487 -0.00024579725067602959 0 -0.027173670691944835 -0.00033445563041954366 0 -0.027097755045139487 -0.00024579725067602959 0 -0.027179979162118915 -0.00025449789928321968 0 -0.028810321784052136 -0.00036611573116082343 0 -0.027419122759288015 -0.0005010045517241104 0 -0.027097755045139487 -0.00024579725067602959 0 -0.02703917654273837 -0.00016214603935568964 0 -0.026894753981824386 -0.00016655498499838612 0 -0.027091150749128396 -0.00035727585746526779 0 -0.027097755045139487 -0.00024579725067602959 0 -0.026894753981824386 -0.00016655498499838612 0 -0.028810321784052136 -0.00036611573116082343 0 -0.026582867365872814 -0.00035842579508459484 0 -0.027097755045139487 -0.00024579725067602959 0 -0.027143956847780235 -0.00014610973280611048 0 -0.027179979162118915 -0.00025449789928321968 0 -0.02703917654273837 -0.00016214603935568964 0 -0.026894753981824386 -0.00016655498499838612 0 -0.027020043793892137 -8.9905717027488261e-05 0 -0.027097755045139487 -0.00024579725067602959 0 -0.02703917654273837 -0.00016214603935568964 0 -0.027143956847780235 -0.00014610973280611048 0 -0.02703917654273837 -0.00016214603935568964 0 -0.027143956847780235 -0.00014610973280611048 0 -0.027020043793892137 -8.9905717027488261e-05 0 -0.026863167454219586 -0.00048268235906377747 0 -0.026145715778673802 -0.00022643677620437337 0 -0.026977484995693045 -0.00093149638293816433 0 -0.02709166473400931 -0.0010772060075857832 0 -0.026863167454219586 -0.00048268235906377747 0 -0.026977484995693045 -0.00093149638293816433 0 -0.026582867365872814 -0.00035842579508459484 0 -0.026801334177345496 -0.00020208684734435991 0 -0.026894753981824386 -0.00016655498499838612 0 -0.026944336239171061 1.6059788077773168e-05 0 -0.026698406175060758 -9.0089543647455555e-05 0 -0.026894753981824386 -0.00016655498499838612 0 -0.026944336239171061 1.6059788077773168e-05 0 -0.027020043793892137 -8.9905717027488261e-05 0 -0.027143956847780235 -0.00014610973280611048 0 -0.027020043793892137 -8.9905717027488261e-05 0 -0.027147876060387668 1.4506884883947662e-05 0 -0.026944336239171061 1.6059788077773168e-05 0 -0.027147876060387668 1.4506884883947662e-05 0 -0.027069318377165322 0.00018812250178997761 0 -0.026944336239171061 1.6059788077773168e-05 0 -0.027020043793892137 -8.9905717027488261e-05 0 -0.027147876060387668 1.4506884883947662e-05 0 -0.027147876060387668 1.4506884883947662e-05 0 -0.027069318377165322 0.00018812250178997761 0 -0.027265316365432203 0.00018786840317769603 0 -0.026944336239171061 1.6059788077773168e-05 0 -0.027069318377165322 0.00018812250178997761 0 -0.026877036373598388 0.00030962491840879421 0 -0.027069318377165322 0.00018812250178997761 0 -0.026877036373598388 0.00030962491840879421 0 -0.027100253921334996 0.00044603404764718963 0 -0.027069318377165322 0.00018812250178997761 0 -0.027100253921334996 0.00044603404764718963 0 -0.027265316365432203 0.00018786840317769603 0 -0.026877036373598388 0.00030962491840879421 0 -0.026587642882031824 0.00035702878569998615 0 -0.026698406175060758 -9.0089543647455555e-05 0 -0.026944336239171061 1.6059788077773168e-05 0 -0.026877036373598388 0.00030962491840879421 0 -0.026698406175060758 -9.0089543647455555e-05 0 -0.026587642882031824 0.00035702878569998615 0 -0.026698406175060758 -9.0089543647455555e-05 0 -0.026013836530515578 0.00022512522735465345 0 -0.02709166473400931 -0.0010772060075857832 0 -0.026698406175060758 -9.0089543647455555e-05 0 -0.026057014988777476 -0.00056193716275590411 0 -0.02709166473400931 -0.0010772060075857832 0 -0.026977484995693045 -0.00093149638293816433 0 -0.026698406175060758 -9.0089543647455555e-05 0 -0.026698406175060758 -9.0089543647455555e-05 0 -0.026057014988777476 -0.00056193716275590411 0 -0.026013836530515578 0.00022512522735465345 0 -0.025332172175833671 -0.00019884278859892194 0 -0.026057014988777476 -0.00056193716275590411 0 -0.026013836530515578 0.00022512522735465345 0 -0.025289198464252531 0.00037898310601737636 0 -0.026013836530515578 0.00022512522735465345 0 -0.025664421864620295 0.00083983568648177652 0 -0.026013836530515578 0.00022512522735465345 0 -0.025664421864620295 0.00083983568648177652 0 -0.02629194127292921 0.00077820812249087168 0 -0.026587642882031824 0.00035702878569998615 0 -0.026013836530515578 0.00022512522735465345 0 -0.02629194127292921 0.00077820812249087168 0 -0.026587642882031824 0.00035702878569998615 0 -0.02629194127292921 0.00077820812249087168 0 -0.026683327747743311 0.00073976622908835613 0 -0.02629194127292921 0.00077820812249087168 0 -0.02618610035875912 0.0013249011980867502 0 -0.026522604294661623 0.0011391686917822971 0 -0.02629194127292921 0.00077820812249087168 0 -0.026522604294661623 0.0011391686917822971 0 -0.026683327747743311 0.00073976622908835613 0 -0.022015706987926632 0.0021659105330391775 0 -0.0208667536463483 0.001971802272400406 0 -0.025479856330244466 0.0012565403718940854 0 -0.025664421864620295 0.00083983568648177652 0 -0.02618610035875912 0.0013249011980867502 0 -0.025664421864620295 0.00083983568648177652 0 -0.02629194127292921 0.00077820812249087168 0 -0.02618610035875912 0.0013249011980867502 0 -0.015710454427126781 0.0024805429678402807 0 -0.015675639855182246 0.0024938241406623615 0 -0.015662862725812299 0.0025032298384655084 0 -0.015719599094098709 0.0024771276523825269 0 -0.015710454427126781 0.0024805429678402807 0 -0.015675639855182246 0.0024938241406623615 0 -0.015710454427126781 0.0024805429678402807 0 -0.015662862725812299 0.0025032298384655084 0 -0.015698034428767476 0.0024905309109343721 0 -0.015662862725812299 0.0025032298384655084 0 -0.015661119882517397 0.002514114091281027 0 -0.015698034428767476 0.0024905309109343721 0 -0.015652918993990815 0.0025165558099902066 0 -0.015661119882517397 0.002514114091281027 0 -0.01563305238933135 0.0025178059944783119 0 -0.015662862725812299 0.0025032298384655084 0 -0.015661119882517397 0.002514114091281027 0 -0.01563305238933135 0.0025178059944783119 0 -0.015662862725812299 0.0025032298384655084 0 -0.015634728342134283 0.0025130440983213878 0 -0.01563305238933135 0.0025178059944783119 0 -0.015675639855182246 0.0024938241406623615 0 -0.015662862725812299 0.0025032298384655084 0 -0.015634728342134283 0.0025130440983213878 0 -0.013004281988820612 0.0011882800618802588 0 -0.013497792661660533 0.0021322881167477868 0 -0.013546781497844005 0.0020141568666648614 0 -0.014857481964042532 0.00023409182383964583 0 -0.017411312748724456 0.00054854747000859219 0 -0.013004281988820612 0.0011882800618802588 0 -0.013324403425340471 0.0013209628758905319 0 -0.013546781497844005 0.0020141568666648614 0 -0.012105523816451337 0.0027699362724138482 0 -0.016256628365866173 0.0017333446230693016 0 -0.01258448294801685 0.0019649515573545223 0 -0.012816874495326492 0.0018964774360577415 0 -0.012676250740859499 0.0022439448434794411 0 -0.015668224122377675 0.0025227446042280751 0 -0.015661119882517397 0.002514114091281027 0 -0.015731202494409794 0.0024835265300837796 0 -0.012105523816451337 0.0027699362724138482 0 -0.013732269329930359 0.0033293431754092902 0 -0.015661119882517397 0.002514114091281027 0 -0.015731202494409794 0.0024835265300837796 0 -0.015698034428767476 0.0024905309109343721 0 -0.012926970896854108 0.0015701173987300694 0 -0.016256628365866173 0.0017333446230693016 0 -0.015710454427126781 0.0024805429678402807 0 -0.015698034428767476 0.0024905309109343721 0 -0.015739379683523607 0.0024702651420907182 0 -0.0208667536463483 0.001971802272400406 0 -0.020394120329664367 0.00098643136721243262 0 -0.015731202494409794 0.0024835265300837796 0 -0.015698034428767476 0.0024905309109343721 0 -0.015739379683523607 0.0024702651420907182 0 -0.018298687740396828 0.00096724676897294137 0 -0.018310425361763378 0.00093094153621993176 0 -0.018334590600228982 0.001025499465266469 0 -0.017411312748724456 0.00054854747000859219 0 -0.016256628365866173 0.0017333446230693016 0 -0.017411312748724456 0.00054854747000859219 0 -0.020394120329664367 0.00098643136721243262 0 -0.018364769230063579 0.00025611214994368926 0 -0.01829784135351253 8.9612109032983131e-05 0 -0.018434539829038431 0.00011320870149692213 0 -0.016256628365866173 0.0017333446230693016 0 -0.020394120329664367 0.00098643136721243262 0 -0.020394120329664367 0.00098643136721243262 0 -0.01904977687808437 -0.00022922692826347731 0 -0.020394120329664367 0.00098643136721243262 0 -0.024197381654598078 0.0017441159417996457 0 -0.01904977687808437 -0.00022922692826347731 0 -0.015387594855556479 -0.00051154569892974911 0 -0.016431209722834846 -0.00039219636634042207 0 -0.016457289108571846 -0.0003780778439895634 0 -0.016441294531647489 -0.00038702872872950185 0 -0.016457289108571846 -0.0003780778439895634 0 -0.016458622416572224 -0.00037696399028139423 0 -0.016441294531647489 -0.00038702872872950185 0 -0.016583068475223509 -0.0004070774903787497 0 -0.016517372538717899 -0.000384368280162273 0 -0.016441294531647489 -0.00038702872872950185 0 -0.017411312748724456 0.00054854747000859219 0 -0.01904977687808437 -0.00022922692826347731 0 -0.01904977687808437 -0.00022922692826347731 0 -0.021856219069890742 0.00015308952261848776 0 -0.026845234953036881 0.0011165464925951549 0 -0.026870441313472004 0.00084012233969333477 0 -0.027109018912853913 0.00066662130361939021 0 -0.016583068475223509 -0.0004070774903787497 0 -0.016541937793504709 -0.00037209781578102541 0 -0.016517372538717899 -0.000384368280162273 0 -0.026522604294661623 0.0011391686917822971 0 -0.026826741651282675 0.0012944167836718182 0 -0.026683327747743311 0.00073976622908835613 0 -0.024197381654598078 0.0017441159417996457 0 -0.026912817750181322 0.00086793797214358823 0 -0.026870441313472004 0.00084012233969333477 0 -0.026769995688226404 0.0010159055957107263 0 -0.026683327747743311 0.00073976622908835613 0 -0.02618610035875912 0.0013249011980867502 0 -0.026522604294661623 0.0011391686917822971 0 -0.026869669883006531 0.0014139952634289225 0 -0.026788641916876032 0.0011019404754859785 0 -0.026870441313472004 0.00084012233969333477 0 -0.026769995688226404 0.0010159055957107263 0 -0.026788641916876032 0.0011019404754859785 0 -0.026845234953036881 0.0011165464925951549 0 -0.026870441313472004 0.00084012233969333477 0 -0.026522604294661623 0.0011391686917822971 0 -0.026869669883006531 0.0014139952634289225 0 -0.026826741651282675 0.0012944167836718182 0 -0.026877036373598388 0.00030962491840879421 0 -0.026587642882031824 0.00035702878569998615 0 -0.026683327747743311 0.00073976622908835613 0 -0.026877036373598388 0.00030962491840879421 0 -0.026683327747743311 0.00073976622908835613 0 -0.026933340275165939 0.00060267012927922798 0 -0.026870441313472004 0.00084012233969333477 0 -0.026683327747743311 0.00073976622908835613 0 -0.026933340275165939 0.00060267012927922798 0 -0.027109018912853913 0.00066662130361939021 0 -0.027100253921334996 0.00044603404764718963 0 -0.027258632962097115 0.00020865507895270977 0 -0.027109018912853913 0.00066662130361939021 0 -0.026933340275165939 0.00060267012927922798 0 -0.027100253921334996 0.00044603404764718963 0 -0.026870441313472004 0.00084012233969333477 0 -0.027109018912853913 0.00066662130361939021 0 -0.026933340275165939 0.00060267012927922798 0 -0.026877036373598388 0.00030962491840879421 0 -0.026933340275165939 0.00060267012927922798 0 -0.027100253921334996 0.00044603404764718963 0 -0.021856219069890742 0.00015308952261848776 0 -0.024288393147412841 0.00037235604153137861 0 -0.016541937793504709 -0.00037209781578102541 0 -0.016530828173457145 -0.00038854829736442476 0 -0.016587071191874317 -0.00042554658684641294 0 -0.016558053542302588 -0.00040779515903287429 0 -0.016408147421792998 -0.00044343485071593073 0 -0.016530828173457145 -0.00038854829736442476 0 -0.016463190293298752 -0.00037575736924936302 0 -0.016569285482396057 -0.00040944092523870467 0 -0.016530828173457145 -0.00038854829736442476 0 -0.016569285482396057 -0.00040944092523870467 0 -0.016529087530857651 -0.00045942927572423118 0 -0.016530828173457145 -0.00038854829736442476 0 -0.016463190293298752 -0.00037575736924936302 0 -0.016494596670852093 -0.00037936121008766009 0 -0.016541937793504709 -0.00037209781578102541 0 -0.016530828173457145 -0.00038854829736442476 0 -0.016494596670852093 -0.00037936121008766009 0 -0.016541937793504709 -0.00037209781578102541 0 -0.016517372538717899 -0.000384368280162273 0 -0.016494596670852093 -0.00037936121008766009 0 -0.016517372538717899 -0.000384368280162273 0 -0.016494596670852093 -0.00037936121008766009 0 -0.016441294531647489 -0.00038702872872950185 0 -0.016463190293298752 -0.00037575736924936302 0 -0.016441294531647489 -0.00038702872872950185 0 -0.016393684743708822 -0.00038394189972238113 0 -0.016463190293298752 -0.00037575736924936302 0 -0.016494596670852093 -0.00037936121008766009 0 -0.016441294531647489 -0.00038702872872950185 0 -0.016441294531647489 -0.00038702872872950185 0 -0.016351509625616406 -0.00039403749630964824 0 -0.016393684743708822 -0.00038394189972238113 0 -0.016441294531647489 -0.00038702872872950185 0 -0.016351509625616406 -0.00039403749630964824 0 -0.016339941381505785 -0.00040882052780319634 0 -0.016351509625616406 -0.00039403749630964824 0 -0.016322274772882273 -0.00040174417158181819 0 -0.016278574878347343 -0.00041357546036732272 0 -0.016431209722834846 -0.00039219636634042207 0 -0.016441294531647489 -0.00038702872872950185 0 -0.016339941381505785 -0.00040882052780319634 0 -0.015746676277176484 0.00059185012441821401 0 -0.01580077621469245 0.00065350354166888286 0 -0.015689071011575812 0.00070095370782894426 0 -0.016359679595749341 0.00012128594968509315 0 -0.013851949485788188 -9.1192036629506737e-05 0 -0.016322274772882273 -0.00040174417158181819 0 -0.016393684743708822 -0.00038394189972238113 0 -0.016418985731294564 -0.00037621936220621371 0 -0.016322274772882273 -0.00040174417158181819 0 -0.016418985731294564 -0.00037621936220621371 0 -0.016276046844299424 -0.00041218229573610567 0 -0.016351509625616406 -0.00039403749630964824 0 -0.016322274772882273 -0.00040174417158181819 0 -0.016393684743708822 -0.00038394189972238113 0 -0.016463190293298752 -0.00037575736924936302 0 -0.016393684743708822 -0.00038394189972238113 0 -0.016418985731294564 -0.00037621936220621371 0 -0.015746676277176484 0.00059185012441821401 0 -0.015785455791790672 0.00047263808206118272 0 -0.015904343751343586 0.00053596266050926346 0 -0.016359679595749341 0.00012128594968509315 0 -0.016133714212620411 3.7197002654977688e-05 0 -0.016463190293298752 -0.00037575736924936302 0 -0.016560762406506894 -0.00037797840288967855 0 -0.016569285482396057 -0.00040944092523870467 0 -0.016463190293298752 -0.00037575736924936302 0 -0.016418985731294564 -0.00037621936220621371 0 -0.016560762406506894 -0.00037797840288967855 0 -0.016133714212620411 3.7197002654977688e-05 0 -0.016299731406861129 -0.00013917353661231543 0 -0.016560762406506894 -0.00037797840288967855 0 -0.016569285482396057 -0.00040944092523870467 0 -0.0167161880553959 -0.00046504920930817028 0 -0.015785455791790672 0.00047263808206118272 0 -0.01581620637715949 0.00018887505901211369 0 -0.016005425460827699 0.00027565860629271771 0 -0.0167161880553959 -0.00046504920930817028 0 -0.016613975069821086 -0.00049945049114570952 0 -0.016713354089187119 -0.00061582332481412171 0 -0.0167161880553959 -0.00046504920930817028 0 -0.016713354089187119 -0.00061582332481412171 0 -0.016869148171187592 -0.00066952121598650111 0 -0.016299731406861129 -0.00013917353661231543 0 -0.016184301832521609 -0.0005130056199859188 0 -0.016613975069821086 -0.00049945049114570952 0 -0.016548504237182585 -0.00058799331049411206 0 -0.016713354089187119 -0.00061582332481412171 0 -0.016569285482396057 -0.00040944092523870467 0 -0.016613975069821086 -0.00049945049114570952 0 -0.016529087530857651 -0.00045942927572423118 0 -0.016569285482396057 -0.00040944092523870467 0 -0.0167161880553959 -0.00046504920930817028 0 -0.016613975069821086 -0.00049945049114570952 0 -0.016530828173457145 -0.00038854829736442476 0 -0.016631736686186494 -0.00043289811300478102 0 -0.016587071191874317 -0.00042554658684641294 0 -0.027527626751976796 -0.00014079617497076308 0 -0.024288393147412841 0.00037235604153137861 0 -0.026835456751863628 0.00055242207981428149 0 -0.02705469979577273 0.00014661372072288982 0 -0.02737237825843427 9.0605066832268436e-06 0 -0.027147876060387668 1.4506884883947662e-05 0 -0.027265316365432203 0.00018786840317769603 0 -0.027312957053634439 -2.6662644394190619e-05 0 -0.024288393147412841 0.00037235604153137861 0 -0.027208234682795488 -0.00012906137351123843 0 -0.027312957053634439 -2.6662644394190619e-05 0 -0.027214393810891586 -7.0660887640737e-05 0 -0.027261761674419377 -0.00012181090684866414 0 -0.027143956847780235 -0.00014610973280611048 0 -0.027147876060387668 1.4506884883947662e-05 0 -0.027214393810891586 -7.0660887640737e-05 0 -0.027147876060387668 1.4506884883947662e-05 0 -0.027312957053634439 -2.6662644394190619e-05 0 -0.027214393810891586 -7.0660887640737e-05 0 -0.016408147421792998 -0.00044343485071593073 0 -0.02111470341208882 -0.00025289578566832076 0 -0.016631736686186494 -0.00043289811300478102 0 -0.016587071191874317 -0.00042554658684641294 0 -0.01669786845225012 -0.00051466758886917468 0 -0.024288393147412841 0.00037235604153137861 0 -0.02111470341208882 -0.00025289578566832076 0 -0.016613975069821086 -0.00049945049114570952 0 -0.016529087530857651 -0.00045942927572423118 0 -0.016548504237182585 -0.00058799331049411206 0 -0.02705469979577273 0.00014661372072288982 0 -0.02737237825843427 9.0605066832268436e-06 0 -0.027328332053120769 -0.00014954235866252181 0 -0.027208234682795488 -0.00012906137351123843 0 -0.027267113776810677 -6.3181614129493289e-05 0 -0.02111470341208882 -0.00025289578566832076 0 -0.026162516289994862 -4.0428405312436181e-05 0 -0.02737237825843427 9.0605066832268436e-06 0 -0.027328332053120769 -0.00014954235866252181 0 -0.027433847303188413 -0.00033584702841392926 0 -0.027328332053120769 -0.00014954235866252181 0 -0.027433847303188413 -0.00033584702841392926 0 -0.027311314932097253 -0.00026183514409845835 0 -0.027143956847780235 -0.00014610973280611048 0 -0.027214393810891586 -7.0660887640737e-05 0 -0.027261761674419377 -0.00012181090684866414 0 -0.027143956847780235 -0.00014610973280611048 0 -0.027261761674419377 -0.00012181090684866414 0 -0.027249424609352112 -0.00020992529595772723 0 -0.027328332053120769 -0.00014954235866252181 0 -0.027261761674419377 -0.00012181090684866414 0 -0.027249424609352112 -0.00020992529595772723 0 -0.027312957053634439 -2.6662644394190619e-05 0 -0.027328332053120769 -0.00014954235866252181 0 -0.027261761674419377 -0.00012181090684866414 0 -0.027328332053120769 -0.00014954235866252181 0 -0.027249424609352112 -0.00020992529595772723 0 -0.027311314932097253 -0.00026183514409845835 0 -0.027249424609352112 -0.00020992529595772723 0 -0.02724319216557489 -0.00030329010784143056 0 -0.027311314932097253 -0.00026183514409845835 0 -0.027249424609352112 -0.00020992529595772723 0 -0.027179979162118915 -0.00025449789928321968 0 -0.02724319216557489 -0.00030329010784143056 0 -0.027143956847780235 -0.00014610973280611048 0 -0.027249424609352112 -0.00020992529595772723 0 -0.027179979162118915 -0.00025449789928321968 0 -0.027173670691944835 -0.00033445563041954366 0 -0.027179979162118915 -0.00025449789928321968 0 -0.02724319216557489 -0.00030329010784143056 0 -0.027173670691944835 -0.00033445563041954366 0 -0.02724319216557489 -0.00030329010784143056 0 -0.027233304321136308 -0.00038665209288751693 0 -0.02724319216557489 -0.00030329010784143056 0 -0.027318038011544084 -0.00035145398125826382 0 -0.027311314932097253 -0.00026183514409845835 0 -0.027348750248556437 -0.00044757796916087417 0 -0.027318038011544084 -0.00035145398125826382 0 -0.027233304321136308 -0.00038665209288751693 0 -0.02724319216557489 -0.00030329010784143056 0 -0.027318038011544084 -0.00035145398125826382 0 -0.027233304321136308 -0.00038665209288751693 0 -0.027318038011544084 -0.00035145398125826382 0 -0.027433847303188413 -0.00033584702841392926 0 -0.027311314932097253 -0.00026183514409845835 0 -0.027348750248556437 -0.00044757796916087417 0 -0.027318038011544084 -0.00035145398125826382 0 -0.027433847303188413 -0.00033584702841392926 0 -0.024520046097457459 0.00026790729420896872 0 -0.024543401704243871 0.00021571133651836119 0 -0.024463493685444815 0.00020221090975474677 0 -0.022703017751902796 3.3437564844216164e-05 0 -0.020153290664261546 -0.00024202229633342386 0 -0.016993461696780596 -0.0010060253303797466 0 -0.01671590231999626 -0.00077365417608900441 0 -0.016909377967135732 -0.00090369498338338397 0 -0.017001900226054391 -0.00094479763716198966 0 -0.016909377967135732 -0.00090369498338338397 0 -0.01684635875772126 -0.00077665790944207822 0 -0.017001900226054391 -0.00094479763716198966 0 -0.01684635875772126 -0.00077665790944207822 0 -0.016869148171187592 -0.00066952121598650111 0 -0.01671590231999626 -0.00077365417608900441 0 -0.016909377967135732 -0.00090369498338338397 0 -0.01684635875772126 -0.00077665790944207822 0 -0.01671590231999626 -0.00077365417608900441 0 -0.01684635875772126 -0.00077665790944207822 0 -0.016713354089187119 -0.00061582332481412171 0 -0.01684635875772126 -0.00077665790944207822 0 -0.016713354089187119 -0.00061582332481412171 0 -0.016869148171187592 -0.00066952121598650111 0 -0.016548504237182585 -0.00058799331049411206 0 -0.01671590231999626 -0.00077365417608900441 0 -0.016713354089187119 -0.00061582332481412171 0 -0.024498953070223033 0.00012746405184347649 0 -0.024543401704243871 0.00021571133651836119 0 -0.024463493685444815 0.00020221090975474677 0 -0.02111470341208882 -0.00025289578566832076 0 -0.020153290664261546 -0.00024202229633342386 0 -0.016281455927015746 -0.00024942734431698344 0 -0.016144607047480868 -0.00036452382700941641 0 -0.016337472102814565 -0.00048596153638077094 0 -0.016281455927015746 -0.00024942734431698344 0 -0.016094876153160111 -0.00026275716658766003 0 -0.016144607047480868 -0.00036452382700941641 0 -0.016281455927015746 -0.00024942734431698344 0 -0.016337472102814565 -0.00048596153638077094 0 -0.016474443933232438 -0.00037366087658829847 0 -0.016281455927015746 -0.00024942734431698344 0 -0.016474443933232438 -0.00037366087658829847 0 -0.016481882536982944 -0.00017345673252083585 0 -0.016281455927015746 -0.00024942734431698344 0 -0.016094876153160111 -0.00026275716658766003 0 -0.016121820044294157 -0.00013006975992640749 0 -0.015913637182005003 -0.00025033258243348249 0 -0.016094876153160111 -0.00026275716658766003 0 -0.016121820044294157 -0.00013006975992640749 0 -0.015913637182005003 -0.00025033258243348249 0 -0.016014939457560679 -0.00031779803806248556 0 -0.016094876153160111 -0.00026275716658766003 0 -0.016014939457560679 -0.00031779803806248556 0 -0.016094876153160111 -0.00026275716658766003 0 -0.016144607047480868 -0.00036452382700941641 0 -0.016014939457560679 -0.00031779803806248556 0 -0.016144607047480868 -0.00036452382700941641 0 -0.016126323073737032 -0.00053910544649357183 0 -0.016257397441705224 -0.0006968016019316942 0 -0.016144607047480868 -0.00036452382700941641 0 -0.016126323073737032 -0.00053910544649357183 0 -0.016061150726929551 -0.00070141523141347881 0 -0.015913637182005003 -0.00025033258243348249 0 -0.016014939457560679 -0.00031779803806248556 0 -0.018747059092203793 -0.0005676017398533131 0 -0.015872989105357903 -0.00034421423323472068 0 -0.018150019615010629 -0.00048236751281034495 0 -0.015660793212209697 -0.00045011485807295437 0 -0.018150019615010629 -0.00048236751281034495 0 -0.016184301832521609 -0.0005130056199859188 0 -0.016058226485149998 -0.00069610836114019443 0 -0.016014939457560679 -0.00031779803806248556 0 -0.016126323073737032 -0.00053910544649357183 0 -0.016153127961778792 -0.00065622284575876525 0 -0.016058226485149998 -0.00069610836114019443 0 -0.016126323073737032 -0.00053910544649357183 0 -0.016257397441705224 -0.0006968016019316942 0 -0.016153127961778792 -0.00065622284575876525 0 -0.016126323073737032 -0.00053910544649357183 0 -0.01621715804684546 -0.00071519479726189859 0 -0.016337472102814565 -0.00048596153638077094 0 -0.016683243610100353 -0.00058944217781923636 0 -0.01621715804684546 -0.00071519479726189859 0 -0.016144607047480868 -0.00036452382700941641 0 -0.016337472102814565 -0.00048596153638077094 0 -0.018747059092203793 -0.0005676017398533131 0 -0.020522810124301658 -0.00021411455344558263 0 -0.016337472102814565 -0.00048596153638077094 0 -0.016683243610100353 -0.00058944217781923636 0 -0.016474443933232438 -0.00037366087658829847 0 -0.016661907374436052 -0.00058509297031185945 0 -0.016723977120511817 -0.00026899990914977393 0 -0.016474443933232438 -0.00037366087658829847 0 -0.023858699178741671 -0.00047892561626700856 0 -0.024160589186645709 -0.00086600389692876689 0 -0.023673379180527164 -0.00051603182941541311 0 -0.024160589186645709 -0.00086600389692876689 0 -0.023673379180527164 -0.00051603182941541311 0 -0.023315174536626865 -0.0011083573067147152 0 -0.027059255054442843 -0.0012945063328833721 0 -0.025660478448613758 -0.0012098050106782695 0 -0.027059255054442843 -0.0012945063328833721 0 -0.020522810124301658 -0.00021411455344558263 0 -0.020522810124301658 -0.00021411455344558263 0 -0.021903592275981841 -0.000403170679969806 0 -0.020522810124301658 -0.00021411455344558263 0 -0.016262879735242406 0.00022404764575274845 0 -0.016661907374436052 -0.00058509297031185945 0 -0.016792696333212571 -0.00054855508622999281 0 -0.016723977120511817 -0.00026899990914977393 0 -0.029515017432912322 -0.00030854691830388626 0 -0.029597402349349964 -0.00042311170561604096 0 -0.029195106350523033 -0.00071096839131269977 0 -0.021903592275981841 -0.000403170679969806 0 -0.023092414967573163 -0.00028314729866620866 0 -0.017233409510958718 9.4592316470807383e-05 0 -0.016980942350293404 -0.00013467891215872374 0 -0.016955703187202499 1.3198676841723442e-05 0 -0.029515017432912322 -0.00030854691830388626 0 -0.029644149375616206 -0.00032526287663150826 0 -0.029625675906683892 -0.00033005489643636479 0 -0.029515017432912322 -0.00030854691830388626 0 -0.029625675906683892 -0.00033005489643636479 0 -0.029597402349349964 -0.00042311170561604096 0 -0.025660478448613758 -0.0012098050106782695 0 -0.021903592275981841 -0.000403170679969806 0 -0.021903592275981841 -0.000403170679969806 0 -0.015721319328474967 -0.00052023846223049272 0 -0.016792696333212571 -0.00054855508622999281 0 -0.016723977120511817 -0.00026899990914977393 0 -0.016980942350293404 -0.00013467891215872374 0 -0.016723977120511817 -0.00026899990914977393 0 -0.016852179281730991 -6.5950576442723582e-05 0 -0.016980942350293404 -0.00013467891215872374 0 -0.016723977120511817 -0.00026899990914977393 0 -0.016481882536982944 -0.00017345673252083585 0 -0.016623114087624093 -2.406111752157006e-05 0 -0.016723977120511817 -0.00026899990914977393 0 -0.016474443933232438 -0.00037366087658829847 0 -0.016481882536982944 -0.00017345673252083585 0 -0.016481882536982944 -0.00017345673252083585 0 -0.016623114087624093 -2.406111752157006e-05 0 -0.016261992414070853 2.581918857389423e-05 0 -0.016623114087624093 -2.406111752157006e-05 0 -0.01639051143800983 0.00019607780628383935 0 -0.016261992414070853 2.581918857389423e-05 0 -0.016852179281730991 -6.5950576442723582e-05 0 -0.016980021813197368 -6.1016829518895346e-05 0 -0.016980942350293404 -0.00013467891215872374 0 -0.016723977120511817 -0.00026899990914977393 0 -0.016623114087624093 -2.406111752157006e-05 0 -0.016852179281730991 -6.5950576442723582e-05 0 -0.016623114087624093 -2.406111752157006e-05 0 -0.016852179281730991 -6.5950576442723582e-05 0 -0.016755703871569702 0.0001055337959911645 0 -0.016852179281730991 -6.5950576442723582e-05 0 -0.016755703871569702 0.0001055337959911645 0 -0.016980021813197368 -6.1016829518895346e-05 0 -0.016755703871569702 0.0001055337959911645 0 -0.016603925669199358 0.00040670866154364201 0 -0.017010672849555767 0.00025840195319869528 0 -0.016184380348313567 0.00051563456744947245 0 -0.016725093150213807 0.00019897776230544138 0 -0.016755703871569702 0.0001055337959911645 0 -0.017010672849555767 0.00025840195319869528 0 -0.016980021813197368 -6.1016829518895346e-05 0 -0.016755703871569702 0.0001055337959911645 0 -0.01639051143800983 0.00019607780628383935 0 -0.016603925669199358 0.00040670866154364201 0 -0.016623114087624093 -2.406111752157006e-05 0 -0.016755703871569702 0.0001055337959911645 0 -0.01639051143800983 0.00019607780628383935 0 -0.01639051143800983 0.00019607780628383935 0 -0.016261992414070853 2.581918857389423e-05 0 -0.016005425460827699 0.00027565860629271771 0 -0.01639051143800983 0.00019607780628383935 0 -0.016005425460827699 0.00027565860629271771 0 -0.016066544664189948 0.00048513849404049355 0 -0.016261992414070853 2.581918857389423e-05 0 -0.016035560546981346 7.4727100768044684e-05 0 -0.016005425460827699 0.00027565860629271771 0 -0.016281455927015746 -0.00024942734431698344 0 -0.016481882536982944 -0.00017345673252083585 0 -0.016261992414070853 2.581918857389423e-05 0 -0.016281455927015746 -0.00024942734431698344 0 -0.016261992414070853 2.581918857389423e-05 0 -0.016121820044294157 -0.00013006975992640749 0 -0.016261992414070853 2.581918857389423e-05 0 -0.016121820044294157 -0.00013006975992640749 0 -0.016035560546981346 7.4727100768044684e-05 0 -0.015913637182005003 -0.00025033258243348249 0 -0.016121820044294157 -0.00013006975992640749 0 -0.016035560546981346 7.4727100768044684e-05 0 -0.01581620637715949 0.00018887505901211369 0 -0.015913637182005003 -0.00025033258243348249 0 -0.016035560546981346 7.4727100768044684e-05 0 -0.01581620637715949 0.00018887505901211369 0 -0.016035560546981346 7.4727100768044684e-05 0 -0.016005425460827699 0.00027565860629271771 0 -0.015785455791790672 0.00047263808206118272 0 -0.016066544664189948 0.00048513849404049355 0 -0.015904343751343586 0.00053596266050926346 0 -0.015785455791790672 0.00047263808206118272 0 -0.016005425460827699 0.00027565860629271771 0 -0.016066544664189948 0.00048513849404049355 0 -0.016066544664189948 0.00048513849404049355 0 -0.015904343751343586 0.00053596266050926346 0 -0.015964617535090493 0.00050092588789069819 0 -0.015904343751343586 0.00053596266050926346 0 -0.015895944012956919 0.00058071455643118235 0 -0.01580077621469245 0.00065350354166888286 0 -0.015746676277176484 0.00059185012441821401 0 -0.015904343751343586 0.00053596266050926346 0 -0.01580077621469245 0.00065350354166888286 0 -0.015904343751343586 0.00053596266050926346 0 -0.015895944012956919 0.00058071455643118235 0 -0.015964617535090493 0.00050092588789069819 0 -0.0050568515573863474 -0.00015297965059179712 0 -0.0065279512143543638 -0.00080936949305088473 0 -0.0048684082846388683 -0.0012503445952562974 0 -0.010668080975111884 0.00012679637269970951 0 -0.010786803683720696 -1.823214033995579e-05 0 -0.0033366679071042387 -0.00057104964961550799 0 -0.0039956004154593347 -0.000657972585656568 0 -0.0037741341455598963 0.00035937488492285893 0 -0.0033366679071042387 -0.00057104964961550799 0 -0.0034558716966943382 -0.001054479214200808 0 -0.0029079303457904665 -0.0011029420422411149 0 -0.0033366679071042387 -0.00057104964961550799 0 -0.0025928933527216164 -0.00041768023808317473 0 -0.0029079303457904665 -0.0011029420422411149 0 -0.0033366679071042387 -0.00057104964961550799 0 -0.0034558716966943382 -0.001054479214200808 0 -0.0039956004154593347 -0.000657972585656568 0 -0.0034558716966943382 -0.001054479214200808 0 -0.0039956004154593347 -0.000657972585656568 0 -0.0038699995566220239 -0.0012754152104536673 0 -0.0050568515573863474 -0.00015297965059179712 0 -0.0039956004154593347 -0.000657972585656568 0 -0.0048684082846388683 -0.0012503445952562974 0 -0.0039956004154593347 -0.000657972585656568 0 -0.0038699995566220239 -0.0012754152104536673 0 -0.0048684082846388683 -0.0012503445952562974 0 -0.010668080975111884 0.00012679637269970951 0 -0.0092594948934744143 0.00066912153870367776 0 -0.0050568515573863474 -0.00015297965059179712 0 -0.0039956004154593347 -0.000657972585656568 0 -0.0037741341455598963 0.00035937488492285893 0 -0.015895944012956919 0.00058071455643118235 0 -0.015898013829953629 0.00049762566116008276 0 -0.015964617535090493 0.00050092588789069819 0 -0.0037741341455598963 0.00035937488492285893 0 -0.0027432646265063256 0.00089845463982778583 0 -0.0025928933527216164 -0.00041768023808317473 0 -0.0033366679071042387 -0.00057104964961550799 0 -0.0037741341455598963 0.00035937488492285893 0 -0.0025928933527216164 -0.00041768023808317473 0 -0.0092594948934744143 0.00066912153870367776 0 -0.012097290086093131 -3.6153973320856208e-05 0 -0.015898013829953629 0.00049762566116008276 0 -0.015879902351400917 0.00053264453113695764 0 -0.015803671828273032 0.00050079148333292706 0 -0.015898013829953629 0.00049762566116008276 0 -0.015879902351400917 0.00053264453113695764 0 -0.015964617535090493 0.00050092588789069819 0 -0.01639051143800983 0.00019607780628383935 0 -0.016066544664189948 0.00048513849404049355 0 -0.016603925669199358 0.00040670866154364201 0 -0.015879902351400917 0.00053264453113695764 0 -0.015964617535090493 0.00050092588789069819 0 -0.015920698890670146 0.00057664119096913528 0 -0.01611537588244626 0.00048506526401127895 0 -0.016184380348313567 0.00051563456744947245 0 -0.016066544664189948 0.00048513849404049355 0 -0.015964617535090493 0.00050092588789069819 0 -0.015920698890670146 0.00057664119096913528 0 -0.015879902351400917 0.00053264453113695764 0 -0.015920698890670146 0.00057664119096913528 0 -0.015827694188904253 0.00060495896151790539 0 -0.016306335779072766 -8.4049039279568497e-05 0 -0.016140325704849211 0.00011644631302975017 0 -0.016168410966960405 -0.00018382546776065265 0 -0.012097290086093131 -3.6153973320856208e-05 0 -0.016725093150213807 0.00019897776230544138 0 -0.015879902351400917 0.00053264453113695764 0 -0.015803671828273032 0.00050079148333292706 0 -0.015827694188904253 0.00060495896151790539 0 -0.016306335779072766 -8.4049039279568497e-05 0 -0.016488002312195202 -5.0789665051062179e-05 0 -0.016508178691610479 -0.00014452242124601632 0 -0.016306335779072766 -8.4049039279568497e-05 0 -0.016292324204936669 3.4175878518559343e-05 0 -0.016488002312195202 -5.0789665051062179e-05 0 -0.016292324204936669 3.4175878518559343e-05 0 -0.016455974290840145 0.00010531327344212398 0 -0.016488002312195202 -5.0789665051062179e-05 0 -0.016292324204936669 3.4175878518559343e-05 0 -0.016246768722001696 0.00018451668130544117 0 -0.016455974290840145 0.00010531327344212398 0 -0.016306335779072766 -8.4049039279568497e-05 0 -0.016292324204936669 3.4175878518559343e-05 0 -0.016140325704849211 0.00011644631302975017 0 -0.0170729816991817 -0.00058779099747031504 0 -0.012097290086093131 -3.6153973320856208e-05 0 -0.016292324204936669 3.4175878518559343e-05 0 -0.016061640770712496 0.00010028315989801982 0 -0.016246768722001696 0.00018451668130544117 0 -0.016061640770712496 0.00010028315989801982 0 -0.016246768722001696 0.00018451668130544117 0 -0.016017344775043209 0.00039200646723814729 0 -0.012097290086093131 -3.6153973320856208e-05 0 -0.0091709979490935956 0.00026461339083556126 0 -0.016390250367556512 0.00029761912670059083 0 -0.016246768722001696 0.00018451668130544117 0 -0.016455974290840145 0.00010531327344212398 0 -0.016390250367556512 0.00029761912670059083 0 -0.016246768722001696 0.00018451668130544117 0 -0.016017344775043209 0.00039200646723814729 0 -0.016353642281038076 0.0005073759757142414 0 -0.016017344775043209 0.00039200646723814729 0 -0.016145611641670644 0.00058002784483136502 0 -0.016390250367556512 0.00029761912670059083 0 -0.016353642281038076 0.0005073759757142414 0 -0.016017344775043209 0.00039200646723814729 0 -0.01760513006912455 5.5913625831953587e-07 0 -0.017694987736355298 0.00012271530939406567 0 -0.019068532486911306 1.4204476961837548e-07 0 -0.016390250367556512 0.00029761912670059083 0 -0.016353642281038076 0.0005073759757142414 0 -0.016602691308858917 0.00047803564629153605 0 -0.016390250367556512 0.00029761912670059083 0 -0.016602691308858917 0.00047803564629153605 0 -0.016695689987975482 0.0002104944572975096 0 -0.016390250367556512 0.00029761912670059083 0 -0.016695689987975482 0.0002104944572975096 0 -0.016455974290840145 0.00010531327344212398 0 -0.01735428960900031 0.00053606714078326589 0 -0.017786165054491918 0.00022548771295272162 0 -0.019068532486911306 1.4204476961837548e-07 0 -0.01923435762489652 5.5946384409916988e-06 0 -0.020529457359531909 -5.2465599364019561e-07 0 -0.017694987736355298 0.00012271530939406567 0 -0.019068532486911306 1.4204476961837548e-07 0 -0.01923435762489652 5.5946384409916988e-06 0 -0.017786165054491918 0.00022548771295272162 0 -0.020229368875348555 -0.00016329483250708413 0 -0.016695689987975482 0.0002104944572975096 0 -0.016613815029492607 -3.600300727458769e-06 0 -0.016763408045818769 -3.2288144359275456e-05 0 -0.01923435762489652 5.5946384409916988e-06 0 -0.020529457359531909 -5.2465599364019561e-07 0 -0.020708885447251722 -0.00010560059404178568 0 -0.016695689987975482 0.0002104944572975096 0 -0.016455974290840145 0.00010531327344212398 0 -0.016613815029492607 -3.600300727458769e-06 0 -0.016455974290840145 0.00010531327344212398 0 -0.016488002312195202 -5.0789665051062179e-05 0 -0.016613815029492607 -3.600300727458769e-06 0 -0.016488002312195202 -5.0789665051062179e-05 0 -0.016613815029492607 -3.600300727458769e-06 0 -0.016623518992498795 -0.00012653522606631104 0 -0.016488002312195202 -5.0789665051062179e-05 0 -0.016623518992498795 -0.00012653522606631104 0 -0.016508178691610479 -0.00014452242124601632 0 -0.016613815029492607 -3.600300727458769e-06 0 -0.016763408045818769 -3.2288144359275456e-05 0 -0.016623518992498795 -0.00012653522606631104 0 -0.020531731364460931 -7.8858992062897947e-10 0 -0.021047142752837956 -1.4568660592011156e-07 0 -0.022091596127386988 -7.5724860420295847e-10 0 -0.020530992868604922 1.3026537044904843e-07 0 -0.020229368875348555 -0.00016329483250708413 0 -0.020229368875348555 -0.00016329483250708413 0 -0.022091745827152939 -3.0606087135053332e-07 0 -0.020229368875348555 -0.00016329483250708413 0 -0.019631736706804077 -2.8395457368314939e-05 0 -0.026768702333290238 -2.3561739338637266e-07 0 -0.022096204463496204 -1.7815796821198384e-06 0 -0.02500991117402291 -0.0001992482280965723 0 -0.022096204463496204 -1.7815796821198384e-06 0 -0.023730207654235627 5.3647505028422771e-05 0 -0.02500991117402291 -0.0001992482280965723 0 -0.022061231469525096 -0.00071311978629015995 0 -0.022096204463496204 -1.7815796821198384e-06 0 -0.023730207654235627 5.3647505028422771e-05 0 -0.016763408045818769 -3.2288144359275456e-05 0 -0.016663468606350988 -0.00020294198110837737 0 -0.016623518992498795 -0.00012653522606631104 0 -0.016673252943706116 -0.00021004099981419749 0 -0.016860855234789383 -0.00010226398600141212 0 -0.016812458950197041 -7.2525451104983179e-06 0 -0.019631736706804077 -2.8395457368314939e-05 0 -0.023829856472839663 -0.00085748866568716837 0 -0.016663468606350988 -0.00020294198110837737 0 -0.016673252943706116 -0.00021004099981419749 0 -0.016812458950197041 -7.2525451104983179e-06 0 -0.016663468606350988 -0.00020294198110837737 0 -0.016673252943706116 -0.00021004099981419749 0 -0.016623518992498795 -0.00012653522606631104 0 -0.016673252943706116 -0.00021004099981419749 0 -0.016623518992498795 -0.00012653522606631104 0 -0.016508178691610479 -0.00014452242124601632 0 -0.016651534785177214 -0.00021384195658690725 0 -0.016605381966813375 -0.00020431190186136528 0 -0.016673252943706116 -0.00021004099981419749 0 -0.016852068847483807 -0.00020798937009735901 0 -0.016860855234789383 -0.00010226398600141212 0 -0.016673252943706116 -0.00021004099981419749 0 -0.016508178691610479 -0.00014452242124601632 0 -0.016369695794180586 -0.00023555443021227402 0 -0.016306335779072766 -8.4049039279568497e-05 0 -0.016508178691610479 -0.00014452242124601632 0 -0.016369695794180586 -0.00023555443021227402 0 -0.016605381966813375 -0.00020431190186136528 0 -0.016725093150213807 0.00019897776230544138 0 -0.016852068847483807 -0.00020798937009735901 0 -0.016986825268828939 -0.00022232934983732356 0 -0.016980021813197368 -6.1016829518895346e-05 0 -0.016306335779072766 -8.4049039279568497e-05 0 -0.016369695794180586 -0.00023555443021227402 0 -0.016168410966960405 -0.00018382546776065265 0 -0.016725093150213807 0.00019897776230544138 0 -0.016955302380581683 -9.6328641499047056e-05 0 -0.016980021813197368 -6.1016829518895346e-05 0 -0.016980942350293404 -0.00013467891215872374 0 -0.016927745697665784 -7.525700421512631e-05 0 -0.016980021813197368 -6.1016829518895346e-05 0 -0.016860855234789383 -0.00010226398600141212 0 -0.016927745697665784 -7.525700421512631e-05 0 -0.016852068847483807 -0.00020798937009735901 0 -0.016980021813197368 -6.1016829518895346e-05 0 -0.016860855234789383 -0.00010226398600141212 0 -0.023092414967573163 -0.00028314729866620866 0 -0.023829856472839663 -0.00085748866568716837 0 -0.016927745697665784 -7.525700421512631e-05 0 -0.016955703187202499 1.3198676841723442e-05 0 -0.016812458950197041 -7.2525451104983179e-06 0 -0.016860855234789383 -0.00010226398600141212 0 -0.016927745697665784 -7.525700421512631e-05 0 -0.016812458950197041 -7.2525451104983179e-06 0 -0.016980942350293404 -0.00013467891215872374 0 -0.016927745697665784 -7.525700421512631e-05 0 -0.016955703187202499 1.3198676841723442e-05 0 -0.029094091254812705 -0.00024268298304252139 0 -0.029352705987520003 -0.00024564096155116713 0 -0.029195106350523033 -0.00071096839131269977 0 -0.029352705987520003 -0.00024564096155116713 0 -0.029515017432912322 -0.00030854691830388626 0 -0.029195106350523033 -0.00071096839131269977 0 -0.029094091254812705 -0.00024268298304252139 0 -0.029195106350523033 -0.00071096839131269977 0 -0.028405149170493939 -0.00033605261976798508 0 -0.029195106350523033 -0.00071096839131269977 0 -0.028405149170493939 -0.00033605261976798508 0 -0.02802837503661108 -0.0010931118892979293 0 -0.028405149170493939 -0.00033605261976798508 0 -0.027039310218077633 -0.00017988307167186098 0 -0.027231485733644756 -0.00078860843459891024 0 -0.0284873065300815 0.0001438652721170794 0 -0.023829856472839663 -0.00085748866568716837 0 -0.026768702333290238 -2.3561739338637266e-07 0 -0.027039310218077633 -0.00017988307167186098 0 -0.02500991117402291 -0.0001992482280965723 0 -0.023730207654235627 5.3647505028422771e-05 0 -0.02500991117402291 -0.0001992482280965723 0 -0.02468722444631246 -0.00029680708105010029 0 -0.027039310218077633 -0.00017988307167186098 0 -0.02500991117402291 -0.0001992482280965723 0 -0.027231485733644756 -0.00078860843459891024 0 -0.025939469207357974 -0.0001406265502132723 0 -0.023829856472839663 -0.00085748866568716837 0 -0.0092075106132477984 0.00011026141726807658 0 -0.0086906623380879431 0.00021886408914267559 0 -0.0092351472410186104 -0.00011961055837439348 0 -0.0092075106132477984 0.00011026141726807658 0 -0.0092351472410186104 -0.00011961055837439348 0 -0.010177848187774863 -4.4982042205311847e-05 0 -0.0092075106132477984 0.00011026141726807658 0 -0.010290218695180832 1.0021773790531885e-06 0 -0.010177848187774863 -4.4982042205311847e-05 0 -0.010290218695180832 1.0021773790531885e-06 0 -0.0084464444420089945 0.00020441463149197927 0 -0.0082606993757638712 2.2434888669564685e-07 0 -0.0092075106132477984 0.00011026141726807658 0 -0.010290218695180832 1.0021773790531885e-06 0 -0.0084464444420089945 0.00020441463149197927 0 -0.0092075106132477984 0.00011026141726807658 0 -0.0084464444420089945 0.00020441463149197927 0 -0.0086906623380879431 0.00021886408914267559 0 -0.0065376877982429027 0.00010475358720275204 0 -0.0055149096616676609 0.0002468184088730655 0 -0.0047447443410371538 0.00026854160004590117 0 -0.0047288308943754659 0.00039894923939301215 0 -0.0037967739806910269 0.00020868783728419292 0 -0.0047288308943754659 0.00039894923939301215 0 -0.0037967739806910269 0.00020868783728419292 0 -0.003220375446922409 0.00018238199927145867 0 -0.0084464444420089945 0.00020441463149197927 0 -0.0086906623380879431 0.00021886408914267559 0 -0.0077675081583442954 0.00021056188586787114 0 -0.0023377496293800408 -0.00050361344009260611 0 -0.0020005281225935157 -0.00043625896909389391 0 -0.0020986879600214097 -0.0001873622146162029 0 -0.0047447443410371538 0.00026854160004590117 0 -0.0047288308943754659 0.00039894923939301215 0 -0.0067527552423724364 0.0010236335735125425 0 -0.0023377496293800408 -0.00050361344009260611 0 -0.0023948421514186492 -0.00085003123159366136 0 -0.0020489740082021207 -0.00066898934272906078 0 -0.0035369629926618657 1.7131413918012894e-05 0 -0.0045722486061474873 0.00014669637669255254 0 -0.0086906623380879431 0.00021886408914267559 0 -0.0087313233779032912 -0.00057831211123091694 0 -0.0092351472410186104 -0.00011961055837439348 0 -0.0065376877982429027 0.00010475358720275204 0 -0.0091042382624164607 0.00073243515477776583 0 -0.0047288308943754659 0.00039894923939301215 0 -0.00708890438688611 0.0011733294635139424 0 -0.0067527552423724364 0.0010236335735125425 0 -0.0091042382624164607 0.00073243515477776583 0 -0.010980039298754126 0.00034944555151080966 0 -0.00708890438688611 0.0011733294635139424 0 -0.0067527552423724364 0.0010236335735125425 0 -0.0077479891234278654 0.0011060703770513079 0 -0.0023948421514186492 -0.00085003123159366136 0 -0.0023303240634832125 -0.0010714045575615473 0 -0.0021946153638285975 -0.00090641591285654127 0 -0.0023948421514186492 -0.00085003123159366136 0 -0.0025857410496118042 -0.0012964155665676986 0 -0.0023303240634832125 -0.0010714045575615473 0 -0.0067527552423724364 0.0010236335735125425 0 -0.0077479891234278654 0.0011060703770513079 0 -0.0084498630825441592 0.00099309118891625654 0 -0.0045722486061474873 0.00014669637669255254 0 -0.0054863314937180123 -5.7177902107326473e-05 0 -0.0077479891234278654 0.0011060703770513079 0 -0.0084498630825441592 0.00099309118891625654 0 -0.0096062680638499265 0.00073323182142563507 0 -0.0025857410496118042 -0.0012964155665676986 0 -0.0023204487187242491 -0.0012563138455380224 0 -0.0023303240634832125 -0.0010714045575615473 0 -0.010422878512291664 0.002284347538693241 0 -0.011310293522243524 0.0012168969194298288 0 -0.012273989464791942 0.0013767941087231572 0 -0.0091042382624164607 0.00073243515477776583 0 -0.0093273627431744738 0.00092933368188733768 0 -0.00708890438688611 0.0011733294635139424 0 -0.0077479891234278654 0.0011060703770513079 0 -0.0096062680638499265 0.00073323182142563507 0 -0.010422878512291664 0.002284347538693241 0 -0.011310293522243524 0.0012168969194298288 0 -0.0096062680638499265 0.00073323182142563507 0 -0.011310293522243524 0.0012168969194298288 0 -0.012273989464791942 0.0013767941087231572 0 -0.012855819379329969 0.00047689319214930367 0 -0.009765903022941903 -0.00077091961728265339 0 -0.0092351472410186104 -0.00011961055837439348 0 -0.010177848187774863 -4.4982042205311847e-05 0 -0.0087313233779032912 -0.00057831211123091694 0 -0.009765903022941903 -0.00077091961728265339 0 -0.0092351472410186104 -0.00011961055837439348 0 -0.009765903022941903 -0.00077091961728265339 0 -0.010177848187774863 -4.4982042205311847e-05 0 -0.012316783071102923 -2.5624736316681843e-06 0 -0.010290218695180832 1.0021773790531885e-06 0 -0.010177848187774863 -4.4982042205311847e-05 0 -0.012316783071102923 -2.5624736316681843e-06 0 -0.012273989464791942 0.0013767941087231572 0 -0.012322183417685085 2.0458211231331769e-06 0 -0.012855819379329969 0.00047689319214930367 0 -0.010980039298754126 0.00034944555151080966 0 -0.012319058997060804 1.7362397525643495e-07 0 -0.012855819379329969 0.00047689319214930367 0 -0.013010035111469257 -0.00055448913894925512 0 -0.014230942712510804 5.8899011825378752e-07 0 -0.012322183417685085 2.0458211231331769e-06 0 -0.012855819379329969 0.00047689319214930367 0 -0.014230942712510804 5.8899011825378752e-07 0 -0.012855819379329969 0.00047689319214930367 0 -0.011710822692155499 0.00023937386917230333 0 -0.013010035111469257 -0.00055448913894925512 0 -0.011310293522243524 0.0012168969194298288 0 -0.012855819379329969 0.00047689319214930367 0 -0.011710822692155499 0.00023937386917230333 0 -0.013010035111469257 -0.00055448913894925512 0 -0.014230942712510804 5.8899011825378752e-07 0 -0.01442316362302491 -0.00027822709389906228 0 -0.014230942712510804 5.8899011825378752e-07 0 -0.016139531551051342 -3.2683790488624631e-06 0 -0.01442316362302491 -0.00027822709389906228 0 -0.016139531551051342 -3.2683790488624631e-06 0 -0.01442316362302491 -0.00027822709389906228 0 -0.014083502068907877 -0.00097086483017471195 0 -0.016143387581855444 -2.3205554100778029e-07 0 -0.01503000427818686 -0.00091222971835680131 0 -0.013590334218077031 -0.003617436738150309 0 -0.010995952492719003 -0.0038506260963254483 0 -0.011062105279608976 -0.0018748448099746354 0 -0.01503000427818686 -0.00091222971835680131 0 -0.014432226817887502 -0.0015071152148602054 0 -0.013010035111469257 -0.00055448913894925512 0 -0.013590334218077031 -0.003617436738150309 0 -0.011062105279608976 -0.0018748448099746354 0 -0.01301934609876901 -0.0010475476361461425 0 -0.01503000427818686 -0.00091222971835680131 0 -0.013010035111469257 -0.00055448913894925512 0 -0.01442316362302491 -0.00027822709389906228 0 -0.014083502068907877 -0.00097086483017471195 0 -0.016353642281038076 0.0005073759757142414 0 -0.01651511622954497 0.00075678079334839964 0 -0.016256112903979717 0.00073486289362189098 0 -0.016353642281038076 0.0005073759757142414 0 -0.016602691308858917 0.00047803564629153605 0 -0.01651511622954497 0.00075678079334839964 0 -0.016145269427760168 -8.7360080683530022e-07 0 -0.01730381328612085 -0.00016911497481231368 0 -0.017144316049469411 4.1444722397114179e-05 0 -0.017694987736355298 0.00012271530939406567 0 -0.01730381328612085 -0.00016911497481231368 0 -0.017144316049469411 4.1444722397114179e-05 0 -0.01760513006912455 5.5913625831953587e-07 0 -0.016145269427760168 -8.7360080683530022e-07 0 -0.017144316049469411 4.1444722397114179e-05 0 -0.01735428960900031 0.00053606714078326589 0 -0.01503000427818686 -0.00091222971835680131 0 -0.01760513006912455 5.5913625831953587e-07 0 -0.017694987736355298 0.00012271530939406567 0 -0.017144316049469411 4.1444722397114179e-05 0 -0.0025928933527216164 -0.00041768023808317473 0 -0.0025331540255941051 -0.0017172432989846788 0 -0.0029079303457904665 -0.0011029420422411149 0 -0.0091709979490935956 0.00026461339083556126 0 -0.0078670575797385386 -0.0013244624363080789 0 -0.016017344775043209 0.00039200646723814729 0 -0.015958214276605088 0.0006990101277245097 0 -0.016145611641670644 0.00058002784483136502 0 -0.016353642281038076 0.0005073759757142414 0 -0.016145611641670644 0.00058002784483136502 0 -0.016256112903979717 0.00073486289362189098 0 -0.015958214276605088 0.0006990101277245097 0 -0.016145611641670644 0.00058002784483136502 0 -0.016256112903979717 0.00073486289362189098 0 -0.0078670575797385386 -0.0013244624363080789 0 -0.014432226817887502 -0.0015071152148602054 0 -0.010995952492719003 -0.0038506260963254483 0 -0.0098839118516389126 -0.0027148875950596843 0 -0.011062105279608976 -0.0018748448099746354 0 -0.0087384310937157431 -0.004002235789669387 0 -0.010995952492719003 -0.0038506260963254483 0 -0.0098839118516389126 -0.0027148875950596843 0 -0.0098839118516389126 -0.0027148875950596843 0 -0.011062105279608976 -0.0018748448099746354 0 -0.0088349684605319341 -0.0011921058416613018 0 -0.0026371623192379761 -0.0019296310743576706 0 -0.0027280072621389275 -0.0018474181220401338 0 -0.0026809548165519872 -0.0019374888268745246 0 -0.0078670575797385386 -0.0013244624363080789 0 -0.0055126461272910652 -0.0018763904369774034 0 -0.0087384310937157431 -0.004002235789669387 0 -0.0098839118516389126 -0.0027148875950596843 0 -0.0088349684605319341 -0.0011921058416613018 0 -0.013010035111469257 -0.00055448913894925512 0 -0.011062105279608976 -0.0018748448099746354 0 -0.010217533553596888 -0.00050276441585713112 0 -0.011710822692155499 0.00023937386917230333 0 -0.013010035111469257 -0.00055448913894925512 0 -0.010217533553596888 -0.00050276441585713112 0 -0.011062105279608976 -0.0018748448099746354 0 -0.0088349684605319341 -0.0011921058416613018 0 -0.010217533553596888 -0.00050276441585713112 0 -0.011710822692155499 0.00023937386917230333 0 -0.010217533553596888 -0.00050276441585713112 0 -0.0096062680638499265 0.00073323182142563507 0 -0.011310293522243524 0.0012168969194298288 0 -0.011710822692155499 0.00023937386917230333 0 -0.0096062680638499265 0.00073323182142563507 0 -0.0084498630825441592 0.00099309118891625654 0 -0.010217533553596888 -0.00050276441585713112 0 -0.0096062680638499265 0.00073323182142563507 0 -0.0025857410496118042 -0.0012964155665676986 0 -0.0027280072621389275 -0.0018474181220401338 0 -0.0023416297003742057 -0.0014921502236725391 0 -0.0084498630825441592 0.00099309118891625654 0 -0.0088349684605319341 -0.0011921058416613018 0 -0.010217533553596888 -0.00050276441585713112 0 -0.0054863314937180123 -5.7177902107326473e-05 0 -0.0055126461272910652 -0.0018763904369774034 0 -0.0025857410496118042 -0.0012964155665676986 0 -0.0023416297003742057 -0.0014921502236725391 0 -0.0023204487187242491 -0.0012563138455380224 0 -0.0023416297003742057 -0.0014921502236725391 0 -0.0020428453959139676 -0.0014460792379188624 0 -0.0020841977042987151 -0.0012400236662549905 0 -0.0023416297003742057 -0.0014921502236725391 0 -0.0020841977042987151 -0.0012400236662549905 0 -0.0023204487187242491 -0.0012563138455380224 0 -0.0023416297003742057 -0.0014921502236725391 0 -0.0022319934375167006 -0.0016205547610113336 0 -0.0024628277449376887 -0.001767648582518792 0 -0.0023416297003742057 -0.0014921502236725391 0 -0.0020428453959139676 -0.0014460792379188624 0 -0.0022319934375167006 -0.0016205547610113336 0 -0.0020428453959139676 -0.0014460792379188624 0 -0.0016941208153991953 -0.0015070390074291326 0 -0.0017693577139826389 -0.0011924611889317588 0 -0.0020428453959139676 -0.0014460792379188624 0 -0.0022319934375167006 -0.0016205547610113336 0 -0.0020771856265692484 -0.0016463779088990791 0 -0.0020428453959139676 -0.0014460792379188624 0 -0.0020771856265692484 -0.0016463779088990791 0 -0.0016941208153991953 -0.0015070390074291326 0 -0.0020771856265692484 -0.0016463779088990791 0 -0.0022014134660228698 -0.0019156867004932938 0 -0.0016941208153991953 -0.0015070390074291326 0 -0.0028583895191137544 -0.0016751984495018584 0 -0.0016305443212060945 -0.00082074812269969594 0 -0.0017227953574052721 -0.00025756708409419216 0 -0.0018795381578665918 -0.00031002794797024212 0 -0.0018591205313400424 -0.00045884967650535911 0 -0.0020771856265692484 -0.0016463779088990791 0 -0.0022799843823688936 -0.0017790611870805769 0 -0.0022014134660228698 -0.0019156867004932938 0 -0.0022319934375167006 -0.0016205547610113336 0 -0.0020771856265692484 -0.0016463779088990791 0 -0.0022799843823688936 -0.0017790611870805769 0 -0.0022799843823688936 -0.0017790611870805769 0 -0.0022014134660228698 -0.0019156867004932938 0 -0.0025172501686134903 -0.0019011014391104623 0 -0.0027280072621389275 -0.0018474181220401338 0 -0.0023416297003742057 -0.0014921502236725391 0 -0.0024628277449376887 -0.001767648582518792 0 -0.0022319934375167006 -0.0016205547610113336 0 -0.0022799843823688936 -0.0017790611870805769 0 -0.0024628277449376887 -0.001767648582518792 0 -0.0022799843823688936 -0.0017790611870805769 0 -0.0024628277449376887 -0.001767648582518792 0 -0.0025172501686134903 -0.0019011014391104623 0 -0.0027280072621389275 -0.0018474181220401338 0 -0.0024628277449376887 -0.001767648582518792 0 -0.0026809548165519872 -0.0019374888268745246 0 -0.0024628277449376887 -0.001767648582518792 0 -0.0025172501686134903 -0.0019011014391104623 0 -0.0026809548165519872 -0.0019374888268745246 0 -0.0026371623192379761 -0.0019296310743576706 0 -0.0026809548165519872 -0.0019374888268745246 0 -0.0029802494808867401 -0.0019418433263944893 0 -0.0028583895191137544 -0.0016751984495018584 0 -0.0030754040880160297 -0.002322185397414358 0 -0.0022014134660228698 -0.0019156867004932938 0 -0.0025172501686134903 -0.0019011014391104623 0 -0.0029802494808867401 -0.0019418433263944893 0 -0.0025172501686134903 -0.0019011014391104623 0 -0.0026809548165519872 -0.0019374888268745246 0 -0.0029802494808867401 -0.0019418433263944893 0 -0.0034540672901976943 -0.0020476800688789365 0 -0.0037333577290245244 -0.0024705642667612569 0 -0.0029802494808867401 -0.0019418433263944893 0 -0.00392872862828305 -0.0033653395439568385 0 -0.0037333577290245244 -0.0024705642667612569 0 -0.0029802494808867401 -0.0019418433263944893 0 -0.00392872862828305 -0.0033653395439568385 0 -0.0044739169170914389 -0.0026970311153366859 0 -0.0053282888226280096 -0.0030268416015048565 0 -0.00392872862828305 -0.0033653395439568385 0 -0.0044739169170914389 -0.0026970311153366859 0 -0.0037333577290245244 -0.0024705642667612569 0 -0.0044739169170914389 -0.0026970311153366859 0 -0.004246706734539976 -0.0022922031446493004 0 -0.0048844058642927273 -0.0021731956761764401 0 -0.004246706734539976 -0.0022922031446493004 0 -0.0041829746660103301 -0.0017887868825027995 0 -0.0048844058642927273 -0.0021731956761764401 0 -0.0044739169170914389 -0.0026970311153366859 0 -0.004246706734539976 -0.0022922031446493004 0 -0.0037333577290245244 -0.0024705642667612569 0 -0.004246706734539976 -0.0022922031446493004 0 -0.0037333577290245244 -0.0024705642667612569 0 -0.0038213863827981811 -0.0020873704196270283 0 -0.0034540672901976943 -0.0020476800688789365 0 -0.0037333577290245244 -0.0024705642667612569 0 -0.0038213863827981811 -0.0020873704196270283 0 -0.0038213863827981811 -0.0020873704196270283 0 -0.0041829746660103301 -0.0017887868825027995 0 -0.0032877746272250586 -0.001698263953718554 0 -0.0041829746660103301 -0.0017887868825027995 0 -0.0038699995566220239 -0.0012754152104536673 0 -0.0032877746272250586 -0.001698263953718554 0 -0.004246706734539976 -0.0022922031446493004 0 -0.0038213863827981811 -0.0020873704196270283 0 -0.0041829746660103301 -0.0017887868825027995 0 -0.0041829746660103301 -0.0017887868825027995 0 -0.0038699995566220239 -0.0012754152104536673 0 -0.0048684082846388683 -0.0012503445952562974 0 -0.0025331540255941051 -0.0017172432989846788 0 -0.0029079303457904665 -0.0011029420422411149 0 -0.0032877746272250586 -0.001698263953718554 0 -0.0034558716966943382 -0.001054479214200808 0 -0.0038699995566220239 -0.0012754152104536673 0 -0.0032877746272250586 -0.001698263953718554 0 -0.0078670575797385386 -0.0013244624363080789 0 -0.0013615947728062346 -0.0019306463606238624 0 -0.0034558716966943382 -0.001054479214200808 0 -0.0029079303457904665 -0.0011029420422411149 0 -0.0032877746272250586 -0.001698263953718554 0 -0.0026371623192379761 -0.0019296310743576706 0 -0.0029802494808867401 -0.0019418433263944893 0 -0.0032877746272250586 -0.001698263953718554 0 -0.0034540672901976943 -0.0020476800688789365 0 -0.0029802494808867401 -0.0019418433263944893 0 -0.0032877746272250586 -0.001698263953718554 0 -0.0034540672901976943 -0.0020476800688789365 0 -0.0038213863827981811 -0.0020873704196270283 0 -0.0032877746272250586 -0.001698263953718554 0 -0.0065279512143543638 -0.00080936949305088473 0 -0.0059565800272044448 -0.00201003919577752 0 -0.0070854175222636864 -0.0018912260167745531 0 -0.0065279512143543638 -0.00080936949305088473 0 -0.0059565800272044448 -0.00201003919577752 0 -0.0048684082846388683 -0.0012503445952562974 0 -0.0059565800272044448 -0.00201003919577752 0 -0.0048684082846388683 -0.0012503445952562974 0 -0.0048844058642927273 -0.0021731956761764401 0 -0.0041829746660103301 -0.0017887868825027995 0 -0.0048684082846388683 -0.0012503445952562974 0 -0.0048844058642927273 -0.0021731956761764401 0 -0.0059565800272044448 -0.00201003919577752 0 -0.0048844058642927273 -0.0021731956761764401 0 -0.0053282888226280096 -0.0030268416015048565 0 -0.0044739169170914389 -0.0026970311153366859 0 -0.0048844058642927273 -0.0021731956761764401 0 -0.0053282888226280096 -0.0030268416015048565 0 -0.0038032022830912218 -0.0015707181537830037 0 -0.0035551915846520257 -0.0015778691286479122 0 -0.0059565800272044448 -0.00201003919577752 0 -0.0053282888226280096 -0.0030268416015048565 0 -0.0067271892652828414 -0.0027189817844012025 0 -0.0059565800272044448 -0.00201003919577752 0 -0.0067271892652828414 -0.0027189817844012025 0 -0.0070854175222636864 -0.0018912260167745531 0 -0.0019371096684806354 -0.00017657950191723345 0 -0.0022278317844205788 -5.9836480115819037e-05 0 -0.0020571144148227361 -0.00034768600034963383 0 -0.0022278317844205788 -5.9836480115819037e-05 0 -0.0020571144148227361 -0.00034768600034963383 0 -0.0023614189587519074 -0.00025862429331764924 0 -0.0019371096684806354 -0.00017657950191723345 0 -0.0020571144148227361 -0.00034768600034963383 0 -0.0018795381578665918 -0.00031002794797024212 0 -0.0020571144148227361 -0.00034768600034963383 0 -0.0018795381578665918 -0.00031002794797024212 0 -0.0018591205313400424 -0.00045884967650535911 0 -0.0017227953574052721 -0.00025756708409419216 0 -0.0019371096684806354 -0.00017657950191723345 0 -0.0018795381578665918 -0.00031002794797024212 0 -0.0028583895191137544 -0.0016751984495018584 0 -0.0038032022830912218 -0.0015707181537830037 0 -0.0021848309468909862 -0.00045744135339447227 0 -0.0014542323827433645 -0.00085002080862719076 0 -0.0020571144148227361 -0.00034768600034963383 0 -0.0018591205313400424 -0.00045884967650535911 0 -0.0019598332050946884 -0.00059605208014741249 0 -0.0020571144148227361 -0.00034768600034963383 0 -0.0019598332050946884 -0.00059605208014741249 0 -0.0023020326038419225 -0.00051885321043074694 0 -0.0019598332050946884 -0.00059605208014741249 0 -0.0019562074295306269 -0.00058688075334977136 0 -0.0017463290465156919 -0.00044398581969931703 0 -0.0019598332050946884 -0.00059605208014741249 0 -0.0017463290465156919 -0.00044398581969931703 0 -0.0017503947367272699 -0.00052387626050088448 0 -0.0011856863392213264 -0.00062354972899506954 0 -0.0014360511090861247 -0.00070038643637136222 0 -0.001380224775869763 -0.00083136596366631074 0 -0.0016786133710669845 -0.00085885375265037207 0 -0.001475872919630996 -0.00055103390736454703 0 -0.0013427648440789671 -0.0010703218364954473 0 -0.0011856863392213264 -0.00062354972899506954 0 -0.001380224775869763 -0.00083136596366631074 0 -0.0014360511090861247 -0.00070038643637136222 0 -0.0017027155394959883 -0.00081961489866779586 0 -0.0016337090941620444 -0.00061712813972902988 0 -0.0014360511090861247 -0.00070038643637136222 0 -0.0016014602230239364 -0.00095631452125900882 0 -0.0017027155394959883 -0.00081961489866779586 0 -0.0014360511090861247 -0.00070038643637136222 0 -0.001380224775869763 -0.00083136596366631074 0 -0.0016014602230239364 -0.00095631452125900882 0 -0.0018591205313400424 -0.00045884967650535911 0 -0.0019598332050946884 -0.00059605208014741249 0 -0.0019562074295306269 -0.00058688075334977136 0 -0.0013427648440789671 -0.0010703218364954473 0 -0.0016014602230239364 -0.00095631452125900882 0 -0.0017693577139826389 -0.0011924611889317588 0 -0.0016941208153991953 -0.0015070390074291326 0 -0.0013427648440789671 -0.0010703218364954473 0 -0.0017693577139826389 -0.0011924611889317588 0 -0.0016305443212060945 -0.00082074812269969594 0 -0.0016786133710669845 -0.00085885375265037207 0 -0.0013427648440789671 -0.0010703218364954473 0 -0.001380224775869763 -0.00083136596366631074 0 -0.0016014602230239364 -0.00095631452125900882 0 -0.0020428453959139676 -0.0014460792379188624 0 -0.0017693577139826389 -0.0011924611889317588 0 -0.0020841977042987151 -0.0012400236662549905 0 -0.0017693577139826389 -0.0011924611889317588 0 -0.0020841977042987151 -0.0012400236662549905 0 -0.0018959501214191319 -0.0010160242991241657 0 -0.0020841977042987151 -0.0012400236662549905 0 -0.0018959501214191319 -0.0010160242991241657 0 -0.0021470308498645323 -0.0010591580010895323 0 -0.0016014602230239364 -0.00095631452125900882 0 -0.0017693577139826389 -0.0011924611889317588 0 -0.0018959501214191319 -0.0010160242991241657 0 -0.0020841977042987151 -0.0012400236662549905 0 -0.0023204487187242491 -0.0012563138455380224 0 -0.0021470308498645323 -0.0010591580010895323 0 -0.0023204487187242491 -0.0012563138455380224 0 -0.0021470308498645323 -0.0010591580010895323 0 -0.0023303240634832125 -0.0010714045575615473 0 -0.0021946153638285975 -0.00090641591285654127 0 -0.0019675857336023928 -0.00083648135114364848 0 -0.0020489740082021207 -0.00066898934272906078 0 -0.0023948421514186492 -0.00085003123159366136 0 -0.0021946153638285975 -0.00090641591285654127 0 -0.0020489740082021207 -0.00066898934272906078 0 -0.0021470308498645323 -0.0010591580010895323 0 -0.0023303240634832125 -0.0010714045575615473 0 -0.0021946153638285975 -0.00090641591285654127 0 -0.0018959501214191319 -0.0010160242991241657 0 -0.0021470308498645323 -0.0010591580010895323 0 -0.0019675857336023928 -0.00083648135114364848 0 -0.0021470308498645323 -0.0010591580010895323 0 -0.0021946153638285975 -0.00090641591285654127 0 -0.0019675857336023928 -0.00083648135114364848 0 -0.0016014602230239364 -0.00095631452125900882 0 -0.0018959501214191319 -0.0010160242991241657 0 -0.0017027155394959883 -0.00081961489866779586 0 -0.0018959501214191319 -0.0010160242991241657 0 -0.0019675857336023928 -0.00083648135114364848 0 -0.0017027155394959883 -0.00081961489866779586 0 -0.0019675857336023928 -0.00083648135114364848 0 -0.0017027155394959883 -0.00081961489866779586 0 -0.0016337090941620444 -0.00061712813972902988 0 -0.0016337090941620444 -0.00061712813972902988 0 -0.0020489740082021207 -0.00066898934272906078 0 -0.001731298205949808 -0.0004680971234555277 0 -0.0019675857336023928 -0.00083648135114364848 0 -0.0016337090941620444 -0.00061712813972902988 0 -0.0020489740082021207 -0.00066898934272906078 0 -0.0023377496293800408 -0.00050361344009260611 0 -0.0020489740082021207 -0.00066898934272906078 0 -0.0020005281225935157 -0.00043625896909389391 0 -0.0020489740082021207 -0.00066898934272906078 0 -0.0020005281225935157 -0.00043625896909389391 0 -0.001731298205949808 -0.0004680971234555277 0 -0.0020005281225935157 -0.00043625896909389391 0 -0.001731298205949808 -0.0004680971234555277 0 -0.0016693483224414895 -0.00022428560410900431 0 -0.0020005281225935157 -0.00043625896909389391 0 -0.0020986879600214097 -0.0001873622146162029 0 -0.0016693483224414895 -0.00022428560410900431 0 -0.001731298205949808 -0.0004680971234555277 0 -0.0012978695501224596 -0.00033824332406981727 0 -0.0016693483224414895 -0.00022428560410900431 0 -0.0016337090941620444 -0.00061712813972902988 0 -0.001731298205949808 -0.0004680971234555277 0 -0.0012978695501224596 -0.00033824332406981727 0 -0.0012978695501224596 -0.00033824332406981727 0 -0.0012305487473833767 -0.00040480336033263257 0 -0.0011205036483584298 -0.00028942367480417068 0 -0.0012978695501224596 -0.00033824332406981727 0 -0.0012305487473833767 -0.00040480336033263257 0 -0.0013715865411795356 -0.00052457892087094497 0 -0.0012305487473833767 -0.00040480336033263257 0 -0.0012215490625209727 -0.00036986195913005844 0 -0.0011205036483584298 -0.00028942367480417068 0 -0.001263206818561455 -0.0004405414334802863 0 -0.0012305487473833767 -0.00040480336033263257 0 -0.0012215490625209727 -0.00036986195913005844 0 -0.001263206818561455 -0.0004405414334802863 0 -0.0012305487473833767 -0.00040480336033263257 0 -0.001285509187379001 -0.00052008466702281153 0 -0.0011856863392213264 -0.00062354972899506954 0 -0.001263206818561455 -0.0004405414334802863 0 -0.001285509187379001 -0.00052008466702281153 0 -0.0011856863392213264 -0.00062354972899506954 0 -0.0014360511090861247 -0.00070038643637136222 0 -0.001285509187379001 -0.00052008466702281153 0 -0.0012305487473833767 -0.00040480336033263257 0 -0.001285509187379001 -0.00052008466702281153 0 -0.0013715865411795356 -0.00052457892087094497 0 -0.0016337090941620444 -0.00061712813972902988 0 -0.0012978695501224596 -0.00033824332406981727 0 -0.0013715865411795356 -0.00052457892087094497 0 -0.0014360511090861247 -0.00070038643637136222 0 -0.001285509187379001 -0.00052008466702281153 0 -0.0013715865411795356 -0.00052457892087094497 0 -0.0014360511090861247 -0.00070038643637136222 0 -0.0016337090941620444 -0.00061712813972902988 0 -0.0013715865411795356 -0.00052457892087094497 0 -0.00036701426331629144 0.00041481284241609047 0 -0.00017995997532872744 0.0001457611507139033 0 -0.0015801753797209596 -0.00050535319430414086 0 -0.0013965268528545211 -0.00042349489576565805 0 -0.0013639472152621953 -0.00041790121061867586 0 -0.0015801753797209596 -0.00050535319430414086 0 -0.0015632895655198873 -0.0004579497007954626 0 -0.0013965268528545211 -0.00042349489576565805 0 -0.0011856863392213264 -0.00062354972899506954 0 -0.001263206818561455 -0.0004405414334802863 0 -0.0013965268528545211 -0.00042349489576565805 0 -0.0017463290465156919 -0.00044398581969931703 0 -0.0015632895655198873 -0.0004579497007954626 0 -0.0013965268528545211 -0.00042349489576565805 0 -0.001475872919630996 -0.00055103390736454703 0 -0.0014205851529871848 -0.00045951737200614214 0 -0.0013965268528545211 -0.00042349489576565805 0 -0.0012948834149194672 -0.000407783428999685 0 -0.0013639472152621953 -0.00041790121061867586 0 -0.001263206818561455 -0.0004405414334802863 0 -0.0013965268528545211 -0.00042349489576565805 0 -0.0012948834149194672 -0.000407783428999685 0 -0.001263206818561455 -0.0004405414334802863 0 -0.0012948834149194672 -0.000407783428999685 0 -0.0012215490625209727 -0.00036986195913005844 0 0.00087767944139204739 0.0013406276983520483 0 0.0011387979798973295 0.00072820334595801307 0 0.00053656419433944797 0.00073603512793233899 0 0.00053656419433944797 0.00073603512793233899 0 -7.7179531011924821e-05 0.00080913028909345742 0 0.00023759873638665009 0.00013058500726081246 0 0.00053656419433944797 0.00073603512793233899 0 0.00022560600455766137 0.0014548269384932922 0 -7.7179531011924821e-05 0.00080913028909345742 0 0.00087767944139204739 0.0013406276983520483 0 0.00053656419433944797 0.00073603512793233899 0 0.00022560600455766137 0.0014548269384932922 0 -0.00036701426331629144 0.00041481284241609047 0 -0.00060991395394817123 0.00089107963612275118 0 -0.0015801753797209596 -0.00050535319430414086 0 -0.0020194825282575644 -0.00037824429910486492 0 -0.0017353519272548458 -0.00043491909656410104 0 0.00087767944139204739 0.0013406276983520483 0 0.00022560600455766137 0.0014548269384932922 0 0.00059887453408987389 0.0019000303000089658 0 0.00022560600455766137 0.0014548269384932922 0 5.2238422637299375e-05 0.0020108564332446915 0 0.00059887453408987389 0.0019000303000089658 0 0.0001662277231240333 0.0014681198663161466 0 0.00036944909109238515 0.0023078686237160365 0 5.2238422637299375e-05 0.0020108564332446915 0 0.00059887453408987389 0.0019000303000089658 0 0.00032845264714399889 0.0024416967084711486 0 -0.0020194825282575644 -0.00037824429910486492 0 -0.0015871866853950469 0.00027050216884006459 0 -0.002085918873232034 0.0004765935733233437 0 -0.00060991395394817123 0.00089107963612275118 0 -0.0025262256307425771 0.00086873007613769149 0 -0.0020194825282575644 -0.00037824429910486492 0 -0.0017353519272548458 -0.00043491909656410104 0 -0.0015871866853950469 0.00027050216884006459 0 -0.001709300184390046 -0.00050736378318977631 0 -0.0017353519272548458 -0.00043491909656410104 0 -0.0016864539085390796 -0.00056141237817912979 0 -0.001709300184390046 -0.00050736378318977631 0 -0.0017761134350964397 -0.00062169878814585962 0 -0.0016864539085390796 -0.00056141237817912979 0 -0.0017293525509390034 -0.00049938806974552589 0 -0.0016354974114286209 0.00014754430675882092 0 -0.001709300184390046 -0.00050736378318977631 0 -0.0017353519272548458 -0.00043491909656410104 0 -0.0016333851828872032 -0.00047602924630940022 0 -0.0015801753797209596 -0.00050535319430414086 0 -0.0017353519272548458 -0.00043491909656410104 0 -0.0016333851828872032 -0.00047602924630940022 0 -0.0015801753797209596 -0.00050535319430414086 0 -0.0015632895655198873 -0.0004579497007954626 0 -0.0016333851828872032 -0.00047602924630940022 0 -0.0017463290465156919 -0.00044398581969931703 0 -0.0016333851828872032 -0.00047602924630940022 0 -0.0017503947367272699 -0.00052387626050088448 0 -0.0017463290465156919 -0.00044398581969931703 0 -0.0015632895655198873 -0.0004579497007954626 0 -0.0016333851828872032 -0.00047602924630940022 0 -0.001709300184390046 -0.00050736378318977631 0 -0.0017503947367272699 -0.00052387626050088448 0 -0.0017761134350964397 -0.00062169878814585962 0 -0.0019598332050946884 -0.00059605208014741249 0 -0.0017503947367272699 -0.00052387626050088448 0 -0.0017761134350964397 -0.00062169878814585962 0 -0.001709300184390046 -0.00050736378318977631 0 -0.0016333851828872032 -0.00047602924630940022 0 -0.0017503947367272699 -0.00052387626050088448 0 -0.0014542323827433645 -0.00085002080862719076 0 -0.0061897879759232289 -0.00053949863821131996 0 -0.0015871866853950469 0.00027050216884006459 0 -0.0013593889115363028 0.0013450615139979645 0 -0.0020081951680745043 0.0010510141866922149 0 -0.0017761134350964397 -0.00062169878814585962 0 -0.0016864539085390796 -0.00056141237817912979 0 -0.0017253625250799372 -0.00064854242748185276 0 -0.0016354974114286209 0.00014754430675882092 0 -0.0061897879759232289 -0.00053949863821131996 0 -0.0026421603148263995 -0.00036904782702915382 0 -0.0023614189587519074 -0.00025862429331764924 0 -0.0026183379189228025 4.0135210545478175e-05 0 -0.0061897879759232289 -0.00053949863821131996 0 -0.010210786468180575 -0.00062565998530775193 0 -0.0020571144148227361 -0.00034768600034963383 0 -0.0023020326038419225 -0.00051885321043074694 0 -0.0023614189587519074 -0.00025862429331764924 0 -0.0023020326038419225 -0.00051885321043074694 0 -0.0026421603148263995 -0.00036904782702915382 0 -0.0023614189587519074 -0.00025862429331764924 0 -0.0035551915846520257 -0.0015778691286479122 0 -0.010210786468180575 -0.00062565998530775193 0 -0.0022278317844205788 -5.9836480115819037e-05 0 -0.0023614189587519074 -0.00025862429331764924 0 -0.0026183379189228025 4.0135210545478175e-05 0 -0.0067271892652828414 -0.0027189817844012025 0 -0.0081913384996470991 -0.002378419783192926 0 -0.0070854175222636864 -0.0018912260167745531 0 -0.015793216544363456 -0.0010132591696476313 0 -0.016006311031935498 -0.00063988511980753876 0 -0.015754171426087087 -0.0004610810052595169 0 -0.010210786468180575 -0.00062565998530775193 0 -0.017699632041070303 6.9803253708576916e-05 0 -0.016006311031935498 -0.00063988511980753876 0 -0.015754171426087087 -0.0004610810052595169 0 -0.016189055004909858 -0.00044160896287426233 0 -0.016246158544352119 -0.00039424354988913679 0 -0.016265401703436946 -0.0004176526051125701 0 -0.016266406693210823 -0.00042032344236485743 0 -0.010210786468180575 -0.00062565998530775193 0 -0.013851949485788188 -9.1192036629506737e-05 0 -0.014725150045971728 -0.00043336963933968624 0 -0.013851949485788188 -9.1192036629506737e-05 0 -0.016246158544352119 -0.00039424354988913679 0 -0.016265401703436946 -0.0004176526051125701 0 -0.016189055004909858 -0.00044160896287426233 0 -0.016265401703436946 -0.0004176526051125701 0 -0.016278574878347343 -0.00041357546036732272 0 -0.016189055004909858 -0.00044160896287426233 0 -0.016322274772882273 -0.00040174417158181819 0 -0.016265401703436946 -0.0004176526051125701 0 -0.016278574878347343 -0.00041357546036732272 0 -0.016322274772882273 -0.00040174417158181819 0 -0.016265401703436946 -0.0004176526051125701 0 -0.016276046844299424 -0.00041218229573610567 0 -0.0065279512143543638 -0.00080936949305088473 0 -0.0080589770552619844 -0.0015535091256898077 0 -0.0070854175222636864 -0.0018912260167745531 0 -0.010786803683720696 -1.823214033995579e-05 0 -0.013851949485788188 -9.1192036629506737e-05 0 -0.0081913384996470991 -0.002378419783192926 0 -0.0080589770552619844 -0.0015535091256898077 0 -0.0070854175222636864 -0.0018912260167745531 0 -0.016431209722834846 -0.00039219636634042207 0 -0.016339941381505785 -0.00040882052780319634 0 -0.016393668017006261 -0.0004915571920705977 0 -0.016351509625616406 -0.00039403749630964824 0 -0.016339941381505785 -0.00040882052780319634 0 -0.016278574878347343 -0.00041357546036732272 0 -0.016339941381505785 -0.00040882052780319634 0 -0.016278574878347343 -0.00041357546036732272 0 -0.016189055004909858 -0.00044160896287426233 0 -0.016339941381505785 -0.00040882052780319634 0 -0.016189055004909858 -0.00044160896287426233 0 -0.016240979013683501 -0.00065685800269614817 0 -0.016006311031935498 -0.00063988511980753876 0 -0.016189055004909858 -0.00044160896287426233 0 -0.016240979013683501 -0.00065685800269614817 0 -0.0027210267327418369 0.00239327950922918 0 -0.0043488220270787303 0.0035106456763941527 0 -0.0036633047405635537 0.0020985228678527044 0 -0.0099996922432736713 0.0010947759989194685 0 -0.0097526951000552631 0.0016598345275157422 0 -0.005811834221272732 0.0029661024325756736 0 -0.0051436669672329221 0.0015054104786007471 0 -0.0064186829827111713 0.0021038902855547892 0 -0.0097526951000552631 0.0016598345275157422 0 -0.0043042464684129424 0.0017942598079269147 0 -0.016339941381505785 -0.00040882052780319634 0 -0.016240979013683501 -0.00065685800269614817 0 -0.016393668017006261 -0.0004915571920705977 0 -0.0036633047405635537 0.0020985228678527044 0 -0.0025668548254255317 0.0015206185522285876 0 -0.0029683608578050646 0.00082590688006123228 0 -0.0051436669672329221 0.0015054104786007471 0 -0.004484630327783656 3.5711253916327604e-05 0 -0.006020778433781071 0.00053832205611562889 0 -0.0043042464684129424 0.0017942598079269147 0 -0.0025262256307425771 0.00086873007613769149 0 -0.0013593889115363028 0.0013450615139979645 0 -0.0025668548254255317 0.0015206185522285876 0 -0.0020081951680745043 0.0010510141866922149 0 -0.0013593889115363028 0.0013450615139979645 0 -0.0027210267327418369 0.00239327950922918 0 -0.0025668548254255317 0.0015206185522285876 0 -0.015793216544363456 -0.0010132591696476313 0 -0.016006311031935498 -0.00063988511980753876 0 -0.016240979013683501 -0.00065685800269614817 0 -0.0061897879759232289 -0.00053949863821131996 0 -0.0099996922432736713 0.0010947759989194685 0 -0.0027210267327418369 0.00239327950922918 0 -0.0036633047405635537 0.0020985228678527044 0 -0.0025668548254255317 0.0015206185522285876 0 -0.0020194825282575644 -0.00037824429910486492 0 -0.0026320897770309016 0.00074209841315904708 0 -0.0028828864179008063 0.00080847126443814982 0 -0.0020194825282575644 -0.00037824429910486492 0 -0.0026320897770309016 0.00074209841315904708 0 -0.002085918873232034 0.0004765935733233437 0 -0.0020081951680745043 0.0010510141866922149 0 -0.0022718135350814307 0.00077229495439427897 0 -0.002085918873232034 0.0004765935733233437 0 -0.0022718135350814307 0.00077229495439427897 0 -0.0026320897770309016 0.00074209841315904708 0 -0.002085918873232034 0.0004765935733233437 0 -0.0025668548254255317 0.0015206185522285876 0 -0.0020081951680745043 0.0010510141866922149 0 -0.0024758220429237543 0.00098111823082884281 0 -0.0020081951680745043 0.0010510141866922149 0 -0.0022718135350814307 0.00077229495439427897 0 -0.0024758220429237543 0.00098111823082884281 0 -0.0025668548254255317 0.0015206185522285876 0 -0.0024758220429237543 0.00098111823082884281 0 -0.0029683608578050646 0.00082590688006123228 0 -0.0022718135350814307 0.00077229495439427897 0 -0.0024758220429237543 0.00098111823082884281 0 -0.0026320897770309016 0.00074209841315904708 0 -0.0024758220429237543 0.00098111823082884281 0 -0.0026320897770309016 0.00074209841315904708 0 -0.0029683608578050646 0.00082590688006123228 0 -0.0026061958537818208 0.00086977103758123053 0 -0.0025262256307425771 0.00086873007613769149 0 -0.0015871866853950469 0.00027050216884006459 0 -0.0020081951680745043 0.0010510141866922149 0 -0.002085918873232034 0.0004765935733233437 0 5.2238422637299375e-05 0.0020108564332446915 0 0.00032845264714399889 0.0024416967084711486 0 -0.0001275050156491783 0.0025868545718673737 0 0.00036944909109238515 0.0023078686237160365 0 -0.0031227895390371504 0.0018699170110824163 0 -0.0025262256307425771 0.00086873007613769149 0 -0.0031227895390371504 0.0018699170110824163 0 0.00011543210868096409 0.002334149355802821 0 -0.0005424453578400174 0.0030234260004425627 0 -7.5072618443748295e-05 0.0032105583746931217 0 0.00011543210868096409 0.002334149355802821 0 -0.0005424453578400174 0.0030234260004425627 0 -0.00083019170622381422 0.0025489768640158568 0 -0.0010529834539465739 0.00346550697991891 0 -0.00054026397274886944 0.0024716237623959784 0 -0.0005424453578400174 0.0030234260004425627 0 -0.0011022350092358354 0.00353639545569887 0 -0.00083019170622381422 0.0025489768640158568 0 -0.0005424453578400174 0.0030234260004425627 0 -0.0007392181371713198 0.0034758585814362044 0 -0.0011022350092358354 0.00353639545569887 0 -0.0037774206607305736 0.0023191923543474944 0 -0.0031227895390371504 0.0018699170110824163 0 -0.0051436669672329221 0.0015054104786007471 0 -0.006020778433781071 0.00053832205611562889 0 -0.0064186829827111713 0.0021038902855547892 0 -0.0031227895390371504 0.0018699170110824163 0 -0.006575739190377761 0.002037635691387625 0 -0.0075276749159254872 0.0013289649139330935 0 -0.0064370907105059357 0.00097161258426206501 0 -0.0066989143849938764 0.0019347525353255416 0 -0.0005424453578400174 0.0030234260004425627 0 -0.0007392181371713198 0.0034758585814362044 0 -7.5072618443748295e-05 0.0032105583746931217 0 -0.005811834221272732 0.0029661024325756736 0 -0.0064186829827111713 0.0021038902855547892 0 -0.0068185307698401714 0.0036571321356612574 0 -0.006575739190377761 0.002037635691387625 0 -0.0095210589914152509 0.0021345576121147613 0 -0.0066989143849938764 0.0019347525353255416 0 -0.0074465071381797313 0.00226614096038382 0 -0.0069606573231222237 0.0028824154064771099 0 -0.0075276749159254872 0.0013289649139330935 0 -0.0074465071381797313 0.00226614096038382 0 -0.0085925717859474619 0.0016876961857925949 0 -0.0075276749159254872 0.0013289649139330935 0 -0.0066989143849938764 0.0019347525353255416 0 -0.0074465071381797313 0.00226614096038382 0 -0.012105523816451337 0.0027699362724138482 0 -0.0095210589914152509 0.0021345576121147613 0 -0.012105523816451337 0.0027699362724138482 0 -0.012201709017834005 0.0021594836942264318 0 -0.0077996319877093843 0.0034523216013261989 0 -0.0074465071381797313 0.00226614096038382 0 -0.0069606573231222237 0.0028824154064771099 0 -0.0077996319877093843 0.0034523216013261989 0 -0.0074465071381797313 0.00226614096038382 0 -0.0081928016019216961 0.0025679668075495729 0 -0.01258448294801685 0.0019649515573545223 0 -0.012816874495326492 0.0018964774360577415 0 -0.012493392383513189 0.0016791735406531134 0 -0.013004281988820612 0.0011882800618802588 0 -0.01252524352497702 0.00022362927066346691 0 -0.01311679521842273 0.00061311758196901892 0 -0.012926970896854108 0.0015701173987300694 0 -0.0095210589914152509 0.0021345576121147613 0 -0.014857481964042532 0.00023409182383964583 0 -0.0097526951000552631 0.0016598345275157422 0 -0.013004281988820612 0.0011882800618802588 0 -0.013324403425340471 0.0013209628758905319 0 -0.01311679521842273 0.00061311758196901892 0 -0.0097526951000552631 0.0016598345275157422 0 -0.0095210589914152509 0.0021345576121147613 0 -0.015634728342134283 0.0025130440983213878 0 -0.015597328803122432 0.0025246580887953976 0 -0.01563305238933135 0.0025178059944783119 0 -0.015634728342134283 0.0025130440983213878 0 -0.015597328803122432 0.0025246580887953976 0 -0.015613535225531871 0.002520505964287626 0 -0.015652918993990815 0.0025165558099902066 0 -0.015599790206411604 0.0025280948250986975 0 -0.01563305238933135 0.0025178059944783119 0 -0.015597328803122432 0.0025246580887953976 0 -0.015599790206411604 0.0025280948250986975 0 -0.01563305238933135 0.0025178059944783119 0 -0.0074465071381797313 0.00226614096038382 0 -0.0081928016019216961 0.0025679668075495729 0 -0.0085925717859474619 0.0016876961857925949 0 -0.015597328803122432 0.0025246580887953976 0 -0.015599790206411604 0.0025280948250986975 0 -0.015536635738285499 0.0025303896355199111 0 -0.012201709017834005 0.0021594836942264318 0 -0.0070778101244089609 0.003102370567762104 0 -0.015597328803122432 0.0025246580887953976 0 -0.015573617282900461 0.0025240739623501973 0 -0.015613535225531871 0.002520505964287626 0 -0.015597328803122432 0.0025246580887953976 0 -0.015536635738285499 0.0025303896355199111 0 -0.015573617282900461 0.0025240739623501973 0 -0.0070778101244089609 0.003102370567762104 0 -0.0086760363093854789 0.0042918881838114641 0 -0.0024060661666188746 0.0047895638744313747 0 -0.0011065368198237254 0.0052162811504813805 0 -0.0032526553994375808 0.0059780982150269436 0 -0.0024060661666188746 0.0047895638744313747 0 -0.0011065368198237254 0.0052162811504813805 0 -0.0018986255989300305 0.0034817586030526908 0 -0.0024060661666188746 0.0047895638744313747 0 -0.0018986255989300305 0.0034817586030526908 0 -0.0031139188063033169 0.0036171680569661354 0 -0.0007392181371713198 0.0034758585814362044 0 -0.0011022350092358354 0.00353639545569887 0 -0.0013671466688961228 0.0037724430761358796 0 -0.0013671466688961228 0.0037724430761358796 0 -0.001356132865171445 0.0033424981034300377 0 -0.0017646531045912722 0.0030689212159304359 0 -0.0037774206607305736 0.0023191923543474944 0 -0.0070778101244089609 0.003102370567762104 0 -0.0070778101244089609 0.003102370567762104 0 -0.0012922002680439862 0.003828150455639378 0 -0.0011022350092358354 0.00353639545569887 0 -0.0013671466688961228 0.0037724430761358796 0 -0.001356132865171445 0.0033424981034300377 0 -0.0011022350092358354 0.00353639545569887 0 -0.001356132865171445 0.0033424981034300377 0 -0.0012073713943481837 0.0029542538578778295 0 -0.0011022350092358354 0.00353639545569887 0 -0.0012073713943481837 0.0029542538578778295 0 -0.0002452542765076676 0.0024061549951692853 0 -0.0012073713943481837 0.0029542538578778295 0 -0.0015458448066267122 0.0023731622584993637 0 -0.0002452542765076676 0.0024061549951692853 0 -0.001356132865171445 0.0033424981034300377 0 -0.0012073713943481837 0.0029542538578778295 0 -0.0017646531045912722 0.0030689212159304359 0 -0.0012073713943481837 0.0029542538578778295 0 -0.0017646531045912722 0.0030689212159304359 0 -0.0015458448066267122 0.0023731622584993637 0 -0.0017646531045912722 0.0030689212159304359 0 -0.0023665602276277246 0.0020899808728037099 0 -0.0015458448066267122 0.0023731622584993637 0 -0.0012922002680439862 0.003828150455639378 0 -0.0024787638791374197 0.0019293184307885363 0 -0.0018986255989300305 0.0034817586030526908 0 -0.0024085577828736049 0.0025875259236356114 0 -0.0023665602276277246 0.0020899808728037099 0 -0.0018986255989300305 0.0034817586030526908 0 -0.0024085577828736049 0.0025875259236356114 0 -0.0031139188063033169 0.0036171680569661354 0 -0.0023665602276277246 0.0020899808728037099 0 -0.0018978949199886358 0.0014118566522382126 0 -0.0029454148878292649 0.0015976325818263435 0 -0.0023665602276277246 0.0020899808728037099 0 -0.0017311088025240406 0.0018898330716466303 0 -0.0015458448066267122 0.0023731622584993637 0 -0.0017311088025240406 0.0018898330716466303 0 -0.0018978949199886358 0.0014118566522382126 0 -0.0011366005408781359 0.0016937076633836972 0 -0.0023665602276277246 0.0020899808728037099 0 -0.0017311088025240406 0.0018898330716466303 0 -0.0018978949199886358 0.0014118566522382126 0 -0.0018978949199886358 0.0014118566522382126 0 -0.0014138734476258122 0.00073441770373987541 0 -0.0025576572054493382 0.00087972752642339019 0 -0.0011366005408781359 0.0016937076633836972 0 -0.0004737973061569232 0.00091995847939187029 0 -0.0014138734476258122 0.00073441770373987541 0 -0.0018978949199886358 0.0014118566522382126 0 -0.0011366005408781359 0.0016937076633836972 0 -0.0014138734476258122 0.00073441770373987541 0 -0.0011366005408781359 0.0016937076633836972 0 -0.0002452542765076676 0.0024061549951692853 0 -0.0004737973061569232 0.00091995847939187029 0 -0.0011366005408781359 0.0016937076633836972 0 -0.0015458448066267122 0.0023731622584993637 0 -0.0002452542765076676 0.0024061549951692853 0 -0.0017311088025240406 0.0018898330716466303 0 -0.0011366005408781359 0.0016937076633836972 0 -0.0015458448066267122 0.0023731622584993637 0 -0.00054026397274886944 0.0024716237623959784 0 8.2802123272715628e-05 0.0012705760362456374 0 0.00011543210868096409 0.002334149355802821 0 -0.00083019170622381422 0.0025489768640158568 0 -0.00045141910024786041 0.0015817652137920209 0 0.00022560600455766137 0.0014548269384932922 0 0.00011543210868096409 0.002334149355802821 0 -0.00045141910024786041 0.0015817652137920209 0 -0.0002452542765076676 0.0024061549951692853 0 0.00058670878085992991 0.00098336603823848297 0 -0.0004737973061569232 0.00091995847939187029 0 -0.0004737973061569232 0.00091995847939187029 0 0.00019259363946252966 -0.00013833571960907969 0 -0.00090069247903346321 -4.6201311973502472e-05 0 0.00058670878085992991 0.00098336603823848297 0 -0.0004737973061569232 0.00091995847939187029 0 0.00019259363946252966 -0.00013833571960907969 0 8.2802123272715628e-05 0.0012705760362456374 0 0.00053482505298390432 0.00019013072522266908 0 0.00058670878085992991 0.00098336603823848297 0 0.0013226477392280728 -0.00046053732341175252 0 0.00019259363946252966 -0.00013833571960907969 0 0.00022560600455766137 0.0014548269384932922 0 -0.00045141910024786041 0.0015817652137920209 0 -7.7179531011924821e-05 0.00080913028909345742 0 0.0013226477392280728 -0.00046053732341175252 0 0.00019259363946252966 -0.00013833571960907969 0 0.00063917963278181428 -0.0010106134745916397 0 0.00019259363946252966 -0.00013833571960907969 0 -0.00029242178378777959 -0.00094142207785690801 0 0.00063917963278181428 -0.0010106134745916397 0 0.00019259363946252966 -0.00013833571960907969 0 -0.00029242178378777959 -0.00094142207785690801 0 -0.00090069247903346321 -4.6201311973502472e-05 0 -0.00029242178378777959 -0.00094142207785690801 0 -0.0013854532932418529 -0.00089529666498475451 0 -0.00090069247903346321 -4.6201311973502472e-05 0 -0.0013854532932418529 -0.00089529666498475451 0 -0.0020594627380161714 3.3277542632760516e-05 0 -0.00090069247903346321 -4.6201311973502472e-05 0 -0.0013854532932418529 -0.00089529666498475451 0 -0.0020594627380161714 3.3277542632760516e-05 0 -0.0027775539604706669 -0.00071799402659743672 0 -0.0020594627380161714 3.3277542632760516e-05 0 -0.00090069247903346321 -4.6201311973502472e-05 0 -0.0014138734476258122 0.00073441770373987541 0 -0.0020594627380161714 3.3277542632760516e-05 0 -0.0014138734476258122 0.00073441770373987541 0 -0.0025576572054493382 0.00087972752642339019 0 -0.0004737973061569232 0.00091995847939187029 0 -0.00090069247903346321 -4.6201311973502472e-05 0 -0.0014138734476258122 0.00073441770373987541 0 -0.00092277426009015028 -0.0017493586615087771 0 0.00043922087426816366 -0.001786044837474832 0 -0.00065731385834767199 -0.0028435777490481632 0 -0.0016270506052199656 -0.0024798093402347374 0 -0.00092277426009015028 -0.0017493586615087771 0 -0.00065731385834767199 -0.0028435777490481632 0 -0.0016270506052199656 -0.0024798093402347374 0 -0.00092277426009015028 -0.0017493586615087771 0 -0.0023652311591387245 -0.0017594549074421736 0 -0.0013854532932418529 -0.00089529666498475451 0 -0.0027775539604706669 -0.00071799402659743672 0 -0.0023652311591387245 -0.0017594549074421736 0 -0.0013854532932418529 -0.00089529666498475451 0 -0.00092277426009015028 -0.0017493586615087771 0 -0.0023652311591387245 -0.0017594549074421736 0 -0.00029242178378777959 -0.00094142207785690801 0 -0.0013854532932418529 -0.00089529666498475451 0 -0.00092277426009015028 -0.0017493586615087771 0 -0.00029242178378777959 -0.00094142207785690801 0 -0.00092277426009015028 -0.0017493586615087771 0 0.00043922087426816366 -0.001786044837474832 0 -0.00029242178378777959 -0.00094142207785690801 0 0.00043922087426816366 -0.001786044837474832 0 0.00063917963278181428 -0.0010106134745916397 0 0.00051731911378639277 -0.0018129732706280998 0 0.001471107245882196 -0.0018461410894049666 0 0.0013226477392280728 -0.00046053732341175252 0 0.00063917963278181428 -0.0010106134745916397 0 0.0010667126347275828 -0.0017434707322894578 0 0.00043922087426816366 -0.001786044837474832 0 0.00063917963278181428 -0.0010106134745916397 0 0.0010667126347275828 -0.0017434707322894578 0 0.0017743048256342851 -0.0019880938090093029 0 0.0013098413024896208 -0.0032872088781228169 0 0.0022084788206675784 -0.0030190756186043595 0 0.00043922087426816366 -0.001786044837474832 0 0.0017743048256342851 -0.0019880938090093029 0 0.0013098413024896208 -0.0032872088781228169 0 0.00043922087426816366 -0.001786044837474832 0 0.0013098413024896208 -0.0032872088781228169 0 -0.00065731385834767199 -0.0028435777490481632 0 0.0013098413024896208 -0.0032872088781228169 0 0.0021042178706767662 -0.0037110681355317135 0 0.0021443562123151304 -0.003801873438058114 0 0.0013098413024896208 -0.0032872088781228169 0 0.0021042178706767662 -0.0037110681355317135 0 0.0022084788206675784 -0.0030190756186043595 0 0.0013407708790912926 -0.003277584267132541 0 0.00065188786542993299 -0.0039910465743308579 0 -0.00093816314191516397 -0.0043203904300680067 0 -0.0019638929239238472 -0.0035084879433592317 0 -0.0024650964551621406 -0.0048207614552145464 0 0.0013098413024896208 -0.0032872088781228169 0 -0.00093816314191516397 -0.0043203904300680067 0 -0.00065731385834767199 -0.0028435777490481632 0 -0.00093816314191516397 -0.0043203904300680067 0 -0.00065731385834767199 -0.0028435777490481632 0 -0.0019638929239238472 -0.0035084879433592317 0 -0.0016270506052199656 -0.0024798093402347374 0 -0.0019638929239238472 -0.0035084879433592317 0 -0.0029834816414692975 -0.0029378111887080598 0 -0.0016270506052199656 -0.0024798093402347374 0 -0.00065731385834767199 -0.0028435777490481632 0 -0.0019638929239238472 -0.0035084879433592317 0 0.00065188786542993299 -0.0039910465743308579 0 0.00013642860546521951 -0.0043321328714926782 0 0.0021443562123151304 -0.003801873438058114 0 0.0026593822723864156 -0.0039296299420143038 0 0.0024944066806163617 -0.0038924694473274108 0 0.0026593822723864156 -0.0039296299420143038 0 0.0024944066806163617 -0.0038924694473274108 0 0.0027910685185003866 -0.0039098241590876572 0 0.0027910685185003866 -0.0039098241590876572 0 0.0028846842273764109 -0.0039484818162522136 0 0.0029815872760529855 -0.0039510208539062005 0 0.0024944066806163617 -0.0038924694473274108 0 0.0027910685185003866 -0.0039098241590876572 0 0.0028846842273764109 -0.0039484818162522136 0 0.0028846842273764109 -0.0039484818162522136 0 0.0029815872760529855 -0.0039510208539062005 0 0.0032222437740463687 -0.0040726993283440724 0 0.0028846842273764109 -0.0039484818162522136 0 0.0028912682035634016 -0.0039619694796168854 0 0.0031497659946303266 -0.0040055893609050918 0 0.0024944066806163617 -0.0038924694473274108 0 0.0028846842273764109 -0.0039484818162522136 0 0.002683719475962684 -0.0039481260674671453 0 0.0028846842273764109 -0.0039484818162522136 0 0.0028912682035634016 -0.0039619694796168854 0 0.002683719475962684 -0.0039481260674671453 0 0.0028912682035634016 -0.0039619694796168854 0 0.002683719475962684 -0.0039481260674671453 0 0.0026834826012523605 -0.0039616554429355967 0 0.002683719475962684 -0.0039481260674671453 0 0.0026834826012523605 -0.0039616554429355967 0 0.0024996509502189929 -0.0039090486527423038 0 0.0021042178706767662 -0.0037110681355317135 0 0.0021443562123151304 -0.003801873438058114 0 0.0024944066806163617 -0.0038924694473274108 0 0.0024944066806163617 -0.0038924694473274108 0 0.002683719475962684 -0.0039481260674671453 0 0.0024996509502189929 -0.0039090486527423038 0 0.0021042178706767662 -0.0037110681355317135 0 0.0024944066806163617 -0.0038924694473274108 0 0.0024996509502189929 -0.0039090486527423038 0 0.0021042178706767662 -0.0037110681355317135 0 0.0024996509502189929 -0.0039090486527423038 0 0.0025594727766336247 -0.0038160684508033505 0 0.0025594727766336247 -0.0038160684508033505 0 0.0026608231291280907 -0.0039395344356670777 0 0.0027703780800343815 -0.0038238543554877961 0 0.0026834826012523605 -0.0039616554429355967 0 0.0024996509502189929 -0.0039090486527423038 0 0.0026608231291280907 -0.0039395344356670777 0 0.0024996509502189929 -0.0039090486527423038 0 0.0025594727766336247 -0.0038160684508033505 0 0.0026608231291280907 -0.0039395344356670777 0 0.0026834826012523605 -0.0039616554429355967 0 0.0026608231291280907 -0.0039395344356670777 0 0.0027172482132040432 -0.0039376192418051088 0 0.0026608231291280907 -0.0039395344356670777 0 0.0027172482132040432 -0.0039376192418051088 0 0.0026502560907680811 -0.0039430544640567259 0 0.0028912682035634016 -0.0039619694796168854 0 0.0026834826012523605 -0.0039616554429355967 0 0.0027172482132040432 -0.0039376192418051088 0 0.002216807873119067 -0.0013974431806310407 0 0.0023315757066695859 -0.0013096558171593641 0 0.0027172482132040432 -0.0039376192418051088 0 0.0026502560907680811 -0.0039430544640567259 0 0.0026430360467569426 -0.0038403031924493709 0 0.0026502560907680811 -0.0039430544640567259 0 0.0026430360467569426 -0.0038403031924493709 0 0.002467411850392997 -0.0038274895921241491 0 0.0017846563341426967 0.00110122771732753 0 0.0019111552094299047 0.00108049684917521 0 0.0021679441205295531 0.0011969182388538047 0 0.0017846563341426967 0.00110122771732753 0 0.0016186031946920931 0.0011543654491159437 0 0.0014655953787728981 0.0011548043831394635 0 0.0017846563341426967 0.00110122771732753 0 0.0014655953787728981 0.0011548043831394635 0 0.0017111056888895666 0.0011098260064718736 0 0.002216807873119067 -0.0013974431806310407 0 0.0021830071568468149 -0.0013133905678534208 0 0.0026608231291280907 -0.0039395344356670777 0 0.0026502560907680811 -0.0039430544640567259 0 0.0027703780800343815 -0.0038238543554877961 0 0.0014655953787728981 0.0011548043831394635 0 0.0012728412561176031 0.00090486761543850903 0 0.0015144216940660151 0.00098868972452272356 0 0.0014655953787728981 0.0011548043831394635 0 0.0012728412561176031 0.00090486761543850903 0 0.0010104200042674919 0.0010619092142869558 0 0.0012728412561176031 0.00090486761543850903 0 0.0015144216940660151 0.00098868972452272356 0 0.001419217680627561 0.00062218641234241135 0 0.0012728412561176031 0.00090486761543850903 0 0.00099504945799494906 0.00066652550266190001 0 0.0010104200042674919 0.0010619092142869558 0 0.0012728412561176031 0.00090486761543850903 0 0.00099504945799494906 0.00066652550266190001 0 0.001419217680627561 0.00062218641234241135 0 0.0015144216940660151 0.00098868972452272356 0 0.0018568584392777549 0.00084212639988943266 0 0.001419217680627561 0.00062218641234241135 0 0.0016186031946920931 0.0011543654491159437 0 0.0015144216940660151 0.00098868972452272356 0 0.0018568584392777549 0.00084212639988943266 0 0.0016186031946920931 0.0011543654491159437 0 0.0014655953787728981 0.0011548043831394635 0 0.0015144216940660151 0.00098868972452272356 0 0.0025594727766336247 -0.0038160684508033505 0 0.0027703780800343815 -0.0038238543554877961 0 0.0027988204078046065 -0.0033185854464777937 0 0.0021830071568468149 -0.0013133905678534208 0 0.0024328093535877474 -0.0012786160535149284 0 0.0021042178706767662 -0.0037110681355317135 0 0.0025594727766336247 -0.0038160684508033505 0 0.0027988204078046065 -0.0033185854464777937 0 0.0021042178706767662 -0.0037110681355317135 0 0.0022084788206675784 -0.0030190756186043595 0 0.0027988204078046065 -0.0033185854464777937 0 0.0018568584392777549 0.00084212639988943266 0 0.0021060399663634217 0.00029212417110969049 0 0.0016836488652362542 0.00030502745709062043 0 0.0016379420555517577 -0.00077547815110550269 0 0.0012862047591280772 0.0003012777499560245 0 0.001471107245882196 -0.0018461410894049666 0 0.0016379420555517577 -0.00077547815110550269 0 0.0022084788206675784 -0.0030190756186043595 0 0.0027988204078046065 -0.0033185854464777937 0 0.0025561498284075628 -0.0021329762244636286 0 0.0024328093535877474 -0.0012786160535149284 0 0.0016379420555517577 -0.00077547815110550269 0 0.0017743048256342851 -0.0019880938090093029 0 0.0022084788206675784 -0.0030190756186043595 0 0.0025561498284075628 -0.0021329762244636286 0 0.0013226477392280728 -0.00046053732341175252 0 0.0010667126347275828 -0.0017434707322894578 0 0.0018870965158514466 -0.0017369907510669204 0 0.00053482505298390432 0.00019013072522266908 0 0.0016379420555517577 -0.00077547815110550269 0 0.00053656419433944797 0.00073603512793233899 0 0.00023759873638665009 0.00013058500726081246 0 0.00081681475413580493 0.00014096665400006866 0 0.0011387979798973295 0.00072820334595801307 0 0.00053656419433944797 0.00073603512793233899 0 0.00081681475413580493 0.00014096665400006866 0 0.0011387979798973295 0.00072820334595801307 0 0.0013820654250000525 0.00014235371230058598 0 0.00081681475413580493 0.00014096665400006866 0 -0.0012948834149194672 -0.000407783428999685 0 -0.0013639472152621953 -0.00041790121061867586 0 -0.0012551181705192692 -0.00042443363655221154 0 -0.0012948834149194672 -0.000407783428999685 0 -0.0012551181705192692 -0.00042443363655221154 0 -0.0012215490625209727 -0.00036986195913005844 0 -0.00017995997532872744 0.0001457611507139033 0 0.00064302489760962092 7.2104551575799032e-05 0 0.00064302489760962092 7.2104551575799032e-05 0 -0.00050213065230306718 -0.00035176617038882034 0 0.0011316990033179816 0.00049807299972003073 0 0.00064302489760962092 7.2104551575799032e-05 0 0.00099504945799494906 0.00066652550266190001 0 0.0014121462149186135 -0.00042024121192453881 0 0.00031794337431748185 0.00030814805992012459 0 0.00099504945799494906 0.00066652550266190001 0 0.0012298013264445853 0.00027311217035803459 0 0.001419217680627561 0.00062218641234241135 0 0.0018568584392777549 0.00084212639988943266 0 0.001419217680627561 0.00062218641234241135 0 0.0016836488652362542 0.00030502745709062043 0 0.00064302489760962092 7.2104551575799032e-05 0 0.0012862047591280772 0.0003012777499560245 0 0.0012298013264445853 0.00027311217035803459 0 0.001419217680627561 0.00062218641234241135 0 0.0016836488652362542 0.00030502745709062043 0 -0.00087253891407651615 -0.00016346377824250527 0 -0.00093472021142502982 0.00046792724682186479 0 -0.00027266757105319267 0.00067340677909878222 0 -0.00087253891407651615 -0.00016346377824250527 0 0.00031794337431748185 0.00030814805992012459 0 -0.00027266757105319267 0.00067340677909878222 0 -0.00078010795700309314 -0.00024164360539992229 0 -0.00050213065230306718 -0.00035176617038882034 0 0.0014121462149186135 -0.00042024121192453881 0 0.00031794337431748185 0.00030814805992012459 0 0.0003802254707686485 -0.00040225999472100172 0 -0.00087253891407651615 -0.00016346377824250527 0 0.00031794337431748185 0.00030814805992012459 0 0.0003802254707686485 -0.00040225999472100172 0 -0.0012551181705192692 -0.00042443363655221154 0 -0.0011712528112376168 -0.00037960464825903783 0 -0.0012215490625209727 -0.00036986195913005844 0 -0.0011712528112376168 -0.00037960464825903783 0 -0.0012215490625209727 -0.00036986195913005844 0 -0.0011205036483584298 -0.00028942367480417068 0 -0.00087253891407651615 -0.00016346377824250527 0 -0.0011712528112376168 -0.00037960464825903783 0 -0.0011205036483584298 -0.00028942367480417068 0 -0.0012978695501224596 -0.00033824332406981727 0 -0.00087253891407651615 -0.00016346377824250527 0 -0.0011205036483584298 -0.00028942367480417068 0 -0.0012978695501224596 -0.00033824332406981727 0 -0.00087253891407651615 -0.00016346377824250527 0 -0.0013158479509410377 1.2757914765983777e-05 0 -0.0012978695501224596 -0.00033824332406981727 0 -0.0013158479509410377 1.2757914765983777e-05 0 -0.0016693483224414895 -0.00022428560410900431 0 -0.0013158479509410377 1.2757914765983777e-05 0 -0.0016693483224414895 -0.00022428560410900431 0 -0.0018307290684697311 0.00020075097278824278 0 -0.0020986879600214097 -0.0001873622146162029 0 -0.0016693483224414895 -0.00022428560410900431 0 -0.0018307290684697311 0.00020075097278824278 0 -0.0013158479509410377 1.2757914765983777e-05 0 -0.0018307290684697311 0.00020075097278824278 0 -0.0014528076927271746 0.00052428270002577882 0 -0.0018307290684697311 0.00020075097278824278 0 -0.0014528076927271746 0.00052428270002577882 0 -0.0018724393200427126 0.00085865682996543184 0 -0.0013158479509410377 1.2757914765983777e-05 0 -0.0014528076927271746 0.00052428270002577882 0 -0.00093472021142502982 0.00046792724682186479 0 -0.00087253891407651615 -0.00016346377824250527 0 -0.0013158479509410377 1.2757914765983777e-05 0 -0.00093472021142502982 0.00046792724682186479 0 -0.0014528076927271746 0.00052428270002577882 0 -0.00093472021142502982 0.00046792724682186479 0 -0.0012579042485884127 0.0011228527845327857 0 -0.00093472021142502982 0.00046792724682186479 0 -0.0012579042485884127 0.0011228527845327857 0 -0.00065282111337596036 0.0011870545107227533 0 -0.0014528076927271746 0.00052428270002577882 0 -0.0012579042485884127 0.0011228527845327857 0 -0.0018724393200427126 0.00085865682996543184 0 -0.0012579042485884127 0.0011228527845327857 0 -0.0008624355632370522 0.0015566930686474227 0 -0.00094106963496979462 0.0016518870100268245 0 -0.0012579042485884127 0.0011228527845327857 0 -0.00065282111337596036 0.0011870545107227533 0 -0.0008624355632370522 0.0015566930686474227 0 -4.6163759985337315e-05 0.0012181911844937805 0 -0.00065282111337596036 0.0011870545107227533 0 -0.00029485019206154151 0.0017209375595308681 0 -0.00065282111337596036 0.0011870545107227533 0 -0.00029485019206154151 0.0017209375595308681 0 -0.0008624355632370522 0.0015566930686474227 0 -0.00093472021142502982 0.00046792724682186479 0 -0.00065282111337596036 0.0011870545107227533 0 -0.00027266757105319267 0.00067340677909878222 0 -4.6163759985337315e-05 0.0012181911844937805 0 -0.00065282111337596036 0.0011870545107227533 0 -0.00027266757105319267 0.00067340677909878222 0 0.00099504945799494906 0.00066652550266190001 0 0.00031794337431748185 0.00030814805992012459 0 0.00040493242701776456 0.00077753075297362032 0 0.00031794337431748185 0.00030814805992012459 0 -0.00027266757105319267 0.00067340677909878222 0 0.00040493242701776456 0.00077753075297362032 0 -4.6163759985337315e-05 0.0012181911844937805 0 -0.00027266757105319267 0.00067340677909878222 0 0.00040493242701776456 0.00077753075297362032 0 -4.6163759985337315e-05 0.0012181911844937805 0 0.00040493242701776456 0.00077753075297362032 0 0.0010104200042674919 0.0010619092142869558 0 0.00099504945799494906 0.00066652550266190001 0 0.00040493242701776456 0.00077753075297362032 0 0.0010104200042674919 0.0010619092142869558 0 0.0014655953787728981 0.0011548043831394635 0 0.0010104200042674919 0.0010619092142869558 0 0.00160831271661397 0.0011589934254608442 0 -4.6163759985337315e-05 0.0012181911844937805 0 0.0010104200042674919 0.0010619092142869558 0 -0.00029485019206154151 0.0017209375595308681 0 0.0010200825466131775 0.0010380904722844032 0 0.00069188559140500368 0.0013838177594180554 0 0.0014655953787728981 0.0011548043831394635 0 0.00160831271661397 0.0011589934254608442 0 0.0017111056888895666 0.0011098260064718736 0 0.00160831271661397 0.0011589934254608442 0 0.0017111056888895666 0.0011098260064718736 0 0.0018671773923126694 0.0010727188643995186 0 -0.00029485019206154151 0.0017209375595308681 0 -0.00077100659781302366 0.0017002925544625212 0 -0.0008624355632370522 0.0015566930686474227 0 0.00069188559140500368 0.0013838177594180554 0 0.0005598447201878656 0.001382078898148223 0 0.0017111056888895666 0.0011098260064718736 0 0.0019111552094299047 0.00108049684917521 0 0.0018671773923126694 0.0010727188643995186 0 0.0017846563341426967 0.00110122771732753 0 0.0017111056888895666 0.0011098260064718736 0 0.0019111552094299047 0.00108049684917521 0 0.0019111552094299047 0.00108049684917521 0 0.0019368552689137393 0.0010404687330435613 0 0.0018671773923126694 0.0010727188643995186 0 0.0019111552094299047 0.00108049684917521 0 0.0019368552689137393 0.0010404687330435613 0 0.0021364475709689059 0.0011801355911266534 0 0.0019111552094299047 0.00108049684917521 0 0.0021364475709689059 0.0011801355911266534 0 0.0021679441205295531 0.0011969182388538047 0 0.00058033834453833917 0.0012487292918297557 0 0.00082194855474143581 0.0009601057280352992 0 0.0018442739132353639 0.00096417484961070854 0 0.0018753057133887297 0.00099792620648333249 0 0.0017549661667699023 0.00082521386990638541 0 0.0019368552689137393 0.0010404687330435613 0 0.0018442739132353639 0.00096417484961070854 0 0.0018753057133887297 0.00099792620648333249 0 0.0019368552689137393 0.0010404687330435613 0 0.0021364475709689059 0.0011801355911266534 0 0.0018442739132353639 0.00096417484961070854 0 0.0019368552689137393 0.0010404687330435613 0 0.0018753057133887297 0.00099792620648333249 0 0.0018671773923126694 0.0010727188643995186 0 0.00058033834453833917 0.0012487292918297557 0 0.0005598447201878656 0.001382078898148223 0 -0.00071453482545513389 0.0015014380103618515 0 -0.00034847061018356354 0.0015098578729879149 0 -0.0001252817178838175 0.0010058571900153288 0 -0.00071453482545513389 0.0015014380103618515 0 -0.00094106963496979462 0.0016518870100268245 0 -0.00034847061018356354 0.0015098578729879149 0 -0.00071453482545513389 0.0015014380103618515 0 -0.00077100659781302366 0.0017002925544625212 0 -0.00094106963496979462 0.0016518870100268245 0 -0.00077100659781302366 0.0017002925544625212 0 -0.0008624355632370522 0.0015566930686474227 0 -0.00094106963496979462 0.0016518870100268245 0 -0.00094106963496979462 0.0016518870100268245 0 -0.00069703712896494816 0.0016223189622062162 0 -0.0014355954623744538 0.0014110334228416401 0 -0.00069703712896494816 0.0016223189622062162 0 -0.0012163280155002357 0.0015511226319019245 0 -0.0014355954623744538 0.0014110334228416401 0 -0.00069703712896494816 0.0016223189622062162 0 -5.4554188314886444e-05 0.0015547112041890954 0 -0.0012163280155002357 0.0015511226319019245 0 -0.00069703712896494816 0.0016223189622062162 0 -0.00034847061018356354 0.0015098578729879149 0 -5.4554188314886444e-05 0.0015547112041890954 0 -0.00094106963496979462 0.0016518870100268245 0 -0.00069703712896494816 0.0016223189622062162 0 -0.00034847061018356354 0.0015098578729879149 0 -0.00034847061018356354 0.0015098578729879149 0 0.00042052708520062772 0.0011230934406187903 0 -5.4554188314886444e-05 0.0015547112041890954 0 -0.00034847061018356354 0.0015098578729879149 0 0.00042052708520062772 0.0011230934406187903 0 -0.0001252817178838175 0.0010058571900153288 0 -0.00014335982105507876 -1.1009644638220898e-07 0 -0.00043513328828866229 -4.9661849798191625e-05 0 -0.001298546845248854 -2.2871047094926315e-05 0 0.00042052708520062772 0.0011230934406187903 0 0.00099725695828172651 0.00097159584265407543 0 -5.4554188314886444e-05 0.0015547112041890954 0 0.00030398298593911985 0.00052616183133708623 0 -0.0012831596710616688 0.00080033052653459764 0 -0.00043513328828866229 -4.9661849798191625e-05 0 -0.0024907750155898937 -1.5879339030755772e-05 0 -0.001298546845248854 -2.2871047094926315e-05 0 -0.0024907750155898937 -1.5879339030755772e-05 0 -0.0021728219738775976 -1.5753951443179315e-08 0 -0.001298546845248854 -2.2871047094926315e-05 0 -0.00014335982105507876 -1.1009644638220898e-07 0 -0.0021728219738775976 -1.5753951443179315e-08 0 -0.001298546845248854 -2.2871047094926315e-05 0 -0.0024907750155898937 -1.5879339030755772e-05 0 -0.0021728219738775976 -1.5753951443179315e-08 0 -0.003340774672734869 2.8006421864813598e-06 0 -0.0021728219738775976 -1.5753951443179315e-08 0 -0.003340774672734869 2.8006421864813598e-06 0 -0.004202260212688152 3.6715702812976856e-08 0 -0.0012831596710616688 0.00080033052653459764 0 -0.0028217288224688954 0.00081530450844217214 0 -0.0024907750155898937 -1.5879339030755772e-05 0 -0.003340774672734869 2.8006421864813598e-06 0 -0.0044332125692956329 1.6943473287686366e-05 0 -0.003340774672734869 2.8006421864813598e-06 0 -0.0044332125692956329 1.6943473287686366e-05 0 -0.0052476469032914268 3.8923926457180849e-05 0 -0.003340774672734869 2.8006421864813598e-06 0 -0.004202260212688152 3.6715702812976856e-08 0 -0.0052476469032914268 3.8923926457180849e-05 0 -0.004202260212688152 3.6715702812976856e-08 0 -0.0062316077892922445 2.1638045257449775e-07 0 -0.0052476469032914268 3.8923926457180849e-05 0 -0.0062316077892922445 2.1638045257449775e-07 0 -0.0052476469032914268 3.8923926457180849e-05 0 -0.0070407802407947686 0.00011953734982435567 0 -0.0052476469032914268 3.8923926457180849e-05 0 -0.0062424163381020773 8.6462462602824333e-05 0 -0.0070407802407947686 0.00011953734982435567 0 -0.0044332125692956329 1.6943473287686366e-05 0 -0.0052476469032914268 3.8923926457180849e-05 0 -0.0062424163381020773 8.6462462602824333e-05 0 -0.0028217288224688954 0.00081530450844217214 0 -0.0042434681878407536 0.0005763582009993617 0 -0.0012163280155002357 0.0015511226319019245 0 -0.0014355954623744538 0.0014110334228416401 0 -0.002272421781745399 0.0010321533110712116 0 -0.0012579042485884127 0.0011228527845327857 0 -0.00094106963496979462 0.0016518870100268245 0 -0.0014355954623744538 0.0014110334228416401 0 -0.0012579042485884127 0.0011228527845327857 0 -0.0014355954623744538 0.0014110334228416401 0 -0.0018724393200427126 0.00085865682996543184 0 -0.0014355954623744538 0.0014110334228416401 0 -0.0018724393200427126 0.00085865682996543184 0 -0.002272421781745399 0.0010321533110712116 0 -0.002272421781745399 0.0010321533110712116 0 -0.0026376622034441095 0.00023210049737729078 0 -0.003220375446922409 0.00018238199927145867 0 -0.0042434681878407536 0.0005763582009993617 0 -0.0055149096616676609 0.0002468184088730655 0 -0.0018724393200427126 0.00085865682996543184 0 -0.002272421781745399 0.0010321533110712116 0 -0.0026376622034441095 0.00023210049737729078 0 -0.0018307290684697311 0.00020075097278824278 0 -0.0018724393200427126 0.00085865682996543184 0 -0.0026376622034441095 0.00023210049737729078 0 -0.0023377496293800408 -0.00050361344009260611 0 -0.0020986879600214097 -0.0001873622146162029 0 -0.0026376622034441095 0.00023210049737729078 0 -0.0047447443410371538 0.00026854160004590117 0 -0.0026376622034441095 0.00023210049737729078 0 -0.0037967739806910269 0.00020868783728419292 0 -0.0035369629926618657 1.7131413918012894e-05 0 -0.0028145583081500294 0.00032086848347822119 0 -0.0020986879600214097 -0.0001873622146162029 0 -0.0018307290684697311 0.00020075097278824278 0 -0.0026376622034441095 0.00023210049737729078 0 -0.0026376622034441095 0.00023210049737729078 0 -0.0037967739806910269 0.00020868783728419292 0 -0.003220375446922409 0.00018238199927145867 0 -0.0084464444420089945 0.00020441463149197927 0 -0.0077675081583442954 0.00021056188586787114 0 -0.0070407802407947686 0.00011953734982435567 0 -0.0084464444420089945 0.00020441463149197927 0 -0.0082606993757638712 2.2434888669564685e-07 0 -0.0070407802407947686 0.00011953734982435567 0 -0.0062316077892922445 2.1638045257449775e-07 0 -0.0082606993757638712 2.2434888669564685e-07 0 -0.0070407802407947686 0.00011953734982435567 0 -0.0062424163381020773 8.6462462602824333e-05 0 -0.0077675081583442954 0.00021056188586787114 0 -0.0070407802407947686 0.00011953734982435567 0 -0.013330334813282548 0.0010995552668171225 0 -0.012053439986506178 0.0015332486133026936 0 -0.012414074592534383 0.00075614333787287109 0 -0.013330334813282548 0.0010995552668171225 0 -0.012961279275449282 0.0020334772254590717 0 -0.012053439986506178 0.0015332486133026936 0 -0.011745009790707511 0.00091525557810114228 0 -0.013596936395785219 0.00065804288563683564 0 -0.013964727525442313 0.0021854853491702114 0 -0.011745009790707511 0.00091525557810114228 0 -0.013596936395785219 0.00065804288563683564 0 -0.011826522094656696 -0.00050585572667425542 0 -0.0125086247463033 0.0009370966069233924 0 -0.013782891110826903 0.002117001848351955 0 -0.013330334813282548 0.0010995552668171225 0 -0.013964727525442313 0.0021854853491702114 0 -0.012961279275449282 0.0020334772254590717 0 -0.012961279275449282 0.0020334772254590717 0 -0.012053439986506178 0.0015332486133026936 0 -0.012316129170082908 0.0022809969528876975 0 -0.011477677019059674 0.0019539443280921455 0 -0.012053439986506178 0.0015332486133026936 0 -0.012316129170082908 0.0022809969528876975 0 -0.011910004258646313 0.0015042812709074851 0 -0.010639690476839842 0.0012015488096330019 0 -0.012053439986506178 0.0015332486133026936 0 -0.011557613617504604 0.00039869893938030175 0 -0.01004363470795747 0.0012662014130364943 0 -0.011477677019059674 0.0019539443280921455 0 -0.012053439986506178 0.0015332486133026936 0 -0.011115391451072532 0.0010553059876243652 0 -0.012053439986506178 0.0015332486133026936 0 -0.012414074592534383 0.00075614333787287109 0 -0.011557613617504604 0.00039869893938030175 0 -0.012414074592534383 0.00075614333787287109 0 -0.011557613617504604 0.00039869893938030175 0 -0.012519949312213362 -0.00021266711917057769 0 -0.011557613617504604 0.00039869893938030175 0 -0.01042972252797305 -0.0002477308820690654 0 -0.01004363470795747 0.0012662014130364943 0 -0.011557613617504604 0.00039869893938030175 0 -0.01042972252797305 -0.0002477308820690654 0 -0.011340848546154123 -0.00057708103021985484 0 -0.01042972252797305 -0.0002477308820690654 0 -0.011340848546154123 -0.00057708103021985484 0 -0.010425520507231062 -0.0011826261752476799 0 -0.011340848546154123 -0.00057708103021985484 0 -0.012519949312213362 -0.00021266711917057769 0 -0.011534254407646079 -0.0016448111044267061 0 -0.0088273301020748846 -0.001511216862066017 0 -0.0081730848935231224 -0.0021337999287095273 0 -0.0073689243052600202 -0.002248611697072864 0 -0.011557613617504604 0.00039869893938030175 0 -0.011340848546154123 -0.00057708103021985484 0 -0.012519949312213362 -0.00021266711917057769 0 -0.010676951397887173 -0.0008872322615623569 0 -0.0094456354696030986 -0.0019861569034716241 0 -0.0089201385932046965 -0.0018735152263445885 0 -0.0088273301020748846 -0.001511216862066017 0 -0.0081730848935231224 -0.0021337999287095273 0 -0.0091233239756452825 -0.0019662973648154869 0 -0.0091882367628532968 -0.0017703010983530958 0 -0.0095817345388753816 -0.0016476189566291511 0 -0.0089201385932046965 -0.0018735152263445885 0 -0.0091233239756452825 -0.0019662973648154869 0 -0.0091882367628532968 -0.0017703010983530958 0 -0.0089201385932046965 -0.0018735152263445885 0 -0.0091882367628532968 -0.0017703010983530958 0 -0.0093374118672430988 -0.0016047148405656114 0 -0.0093374118672430988 -0.0016047148405656114 0 -0.0098467289092637814 -0.0012803719683437784 0 -0.0095817345388753816 -0.0016476189566291511 0 -0.0091882367628532968 -0.0017703010983530958 0 -0.0093374118672430988 -0.0016047148405656114 0 -0.0095817345388753816 -0.0016476189566291511 0 -0.0099465948077552008 -0.0012805561699896829 0 -0.011637121003380243 -0.0011444655453541552 0 -0.0089201385932046965 -0.0018735152263445885 0 -0.0093374118672430988 -0.0016047148405656114 0 -0.0088273301020748846 -0.001511216862066017 0 -0.0093374118672430988 -0.0016047148405656114 0 -0.0088273301020748846 -0.001511216862066017 0 -0.0098467289092637814 -0.0012803719683437784 0 -0.013330334813282548 0.0010995552668171225 0 -0.012414074592534383 0.00075614333787287109 0 -0.012519949312213362 -0.00021266711917057769 0 -0.011745009790707511 0.00091525557810114228 0 -0.0088273301020748846 -0.001511216862066017 0 -0.0098467289092637814 -0.0012803719683437784 0 -0.011745009790707511 0.00091525557810114228 0 -0.0098467289092637814 -0.0012803719683437784 0 -0.011826522094656696 -0.00050585572667425542 0 -0.0125086247463033 0.0009370966069233924 0 -0.010676951397887173 -0.0008872322615623569 0 -0.013740482869420697 0.00036620054199090974 0 -0.011637121003380243 -0.0011444655453541552 0 -0.013596936395785219 0.00065804288563683564 0 -0.011826522094656696 -0.00050585572667425542 0 -0.012101688238777299 -0.0025990041429614823 0 -0.013596936395785219 0.00065804288563683564 0 -0.013091776749595458 -0.00095499668873138069 0 -0.014167277364452748 -0.0004205936216554884 0 -0.0098467289092637814 -0.0012803719683437784 0 -0.011826522094656696 -0.00050585572667425542 0 -0.012101688238777299 -0.0025990041429614823 0 -0.011637121003380243 -0.0011444655453541552 0 -0.013137306063601747 -0.00093535230290963073 0 -0.011510641534040494 5.6682338317865541e-05 0 -0.011576001058204969 -0.00025126511632611283 0 -0.011909151955995775 -0.00017058019047642381 0 -0.014945837307200916 -0.00086348784189230546 0 -0.014167277364452748 -0.0004205936216554884 0 -0.014185636182770876 -0.0015913167657782749 0 -0.013091776749595458 -0.00095499668873138069 0 -0.014167277364452748 -0.0004205936216554884 0 -0.014185636182770876 -0.0015913167657782749 0 -0.014945837307200916 -0.00086348784189230546 0 -0.015266781290849348 -0.0022276751893956113 0 -0.014185636182770876 -0.0015913167657782749 0 -0.014945837307200916 -0.00086348784189230546 0 -0.01601776919859332 -0.00043893247942734668 0 -0.015266781290849348 -0.0022276751893956113 0 -0.015722349025990491 -3.0205636296529704e-05 0 -0.013942680295086961 -0.00034019793276696483 0 -0.014945837307200916 -0.00086348784189230546 0 -0.015090220691511589 0.00036527756132520605 0 -0.01601776919859332 -0.00043893247942734668 0 -0.014945837307200916 -0.00086348784189230546 0 -0.015090220691511589 0.00036527756132520605 0 -0.014167277364452748 -0.0004205936216554884 0 -0.013596936395785219 0.00065804288563683564 0 -0.015090220691511589 0.00036527756132520605 0 -0.014167277364452748 -0.0004205936216554884 0 -0.015600408286460895 0.00071035704329411894 0 -0.015501700798847743 0.0002072908340688463 0 -0.015160205145545842 0.00023248951680924815 0 -0.016099487311064805 0.00051130030597554548 0 -0.015600408286460895 0.00071035704329411894 0 -0.015501700798847743 0.0002072908340688463 0 -0.015129028151597451 0.00063079094750889025 0 -0.015600408286460895 0.00071035704329411894 0 -0.015160205145545842 0.00023248951680924815 0 -0.015129028151597451 0.00063079094750889025 0 -0.015160205145545842 0.00023248951680924815 0 -0.014858786239703804 7.0048204083197205e-05 0 -0.015090220691511589 0.00036527756132520605 0 -0.01601776919859332 -0.00043893247942734668 0 -0.016647352065659263 0.001326001278296535 0 -0.015722349025990491 -3.0205636296529704e-05 0 -0.01604492262584702 0.0013685606133973206 0 -0.015129028151597451 0.00063079094750889025 0 -0.015600408286460895 0.00071035704329411894 0 -0.015488897675171902 0.0013871620102215391 0 -0.016215750266273511 0.0013447764147888792 0 -0.015600408286460895 0.00071035704329411894 0 -0.015488897675171902 0.0013871620102215391 0 -0.016215750266273511 0.0013447764147888792 0 -0.015488897675171902 0.0013871620102215391 0 -0.016034500122413673 0.0023116553782688543 0 -0.01604492262584702 0.0013685606133973206 0 -0.016547757339455505 0.0024789860471183143 0 -0.013596936395785219 0.00065804288563683564 0 -0.015090220691511589 0.00036527756132520605 0 -0.015156666570783274 0.0015638734025221865 0 -0.015090220691511589 0.00036527756132520605 0 -0.016647352065659263 0.001326001278296535 0 -0.015156666570783274 0.0015638734025221865 0 -0.016647352065659263 0.001326001278296535 0 -0.015156666570783274 0.0015638734025221865 0 -0.015705150958140346 0.0026836128313267598 0 -0.013964727525442313 0.0021854853491702114 0 -0.015156666570783274 0.0015638734025221865 0 -0.015705150958140346 0.0026836128313267598 0 -0.013596936395785219 0.00065804288563683564 0 -0.013964727525442313 0.0021854853491702114 0 -0.015156666570783274 0.0015638734025221865 0 -0.013964727525442313 0.0021854853491702114 0 -0.015705150958140346 0.0026836128313267598 0 -0.014465487176645767 0.0029789958416341937 0 -0.015705150958140346 0.0026836128313267598 0 -0.016519917671793817 0.0035637363257917908 0 -0.015398880182865345 0.0036493281308543155 0 -0.015705150958140346 0.0026836128313267598 0 -0.015398880182865345 0.0036493281308543155 0 -0.014465487176645767 0.0029789958416341937 0 -0.01700728684002363 0.0033864127226128173 0 -0.017054374170105375 0.002695106716140038 0 -0.016519917671793817 0.0035637363257917908 0 -0.015705150958140346 0.0026836128313267598 0 -0.017054374170105375 0.002695106716140038 0 -0.016519917671793817 0.0035637363257917908 0 -0.016647352065659263 0.001326001278296535 0 -0.015705150958140346 0.0026836128313267598 0 -0.017054374170105375 0.002695106716140038 0 -0.01700728684002363 0.0033864127226128173 0 -0.016519917671793817 0.0035637363257917908 0 -0.016917144644112321 0.0042720292732385187 0 -0.016519917671793817 0.0035637363257917908 0 -0.016917144644112321 0.0042720292732385187 0 -0.016313770153855579 0.0042515932381406354 0 -0.01700728684002363 0.0033864127226128173 0 -0.017126442384764799 0.0042044955843877525 0 -0.016917144644112321 0.0042720292732385187 0 -0.016519917671793817 0.0035637363257917908 0 -0.015398880182865345 0.0036493281308543155 0 -0.016313770153855579 0.0042515932381406354 0 -0.015398880182865345 0.0036493281308543155 0 -0.016313770153855579 0.0042515932381406354 0 -0.015236937182447511 0.0044889691997779474 0 -0.015236937182447511 0.0044889691997779474 0 -0.013847435444204826 0.0047944978828346422 0 -0.01419154928729177 0.0037761025725923116 0 -0.013847435444204826 0.0047944978828346422 0 -0.01419154928729177 0.0037761025725923116 0 -0.01299975735732095 0.0041528604091319249 0 -0.01419154928729177 0.0037761025725923116 0 -0.013130216827530461 0.0028946216041213567 0 -0.01299975735732095 0.0041528604091319249 0 -0.015398880182865345 0.0036493281308543155 0 -0.015236937182447511 0.0044889691997779474 0 -0.01419154928729177 0.0037761025725923116 0 -0.015398880182865345 0.0036493281308543155 0 -0.01419154928729177 0.0037761025725923116 0 -0.014465487176645767 0.0029789958416341937 0 -0.01419154928729177 0.0037761025725923116 0 -0.014465487176645767 0.0029789958416341937 0 -0.013130216827530461 0.0028946216041213567 0 -0.013964727525442313 0.0021854853491702114 0 -0.012961279275449282 0.0020334772254590717 0 -0.013130216827530461 0.0028946216041213567 0 -0.013964727525442313 0.0021854853491702114 0 -0.014465487176645767 0.0029789958416341937 0 -0.013130216827530461 0.0028946216041213567 0 -0.011477677019059674 0.0019539443280921455 0 -0.012316129170082908 0.0022809969528876975 0 -0.011684774080640755 0.0028289602741300062 0 -0.013130216827530461 0.0028946216041213567 0 -0.012316129170082908 0.0022809969528876975 0 -0.011684774080640755 0.0028289602741300062 0 -0.012961279275449282 0.0020334772254590717 0 -0.013130216827530461 0.0028946216041213567 0 -0.012316129170082908 0.0022809969528876975 0 -0.013130216827530461 0.0028946216041213567 0 -0.011684774080640755 0.0028289602741300062 0 -0.012182849705316835 0.0035897696763039335 0 -0.011684774080640755 0.0028289602741300062 0 -0.012182849705316835 0.0035897696763039335 0 -0.010984514344625001 0.003795762129986413 0 -0.012182849705316835 0.0035897696763039335 0 -0.011870196302926852 0.0044832997075775977 0 -0.010984514344625001 0.003795762129986413 0 -0.012182849705316835 0.0035897696763039335 0 -0.01299975735732095 0.0041528604091319249 0 -0.011870196302926852 0.0044832997075775977 0 -0.013130216827530461 0.0028946216041213567 0 -0.012182849705316835 0.0035897696763039335 0 -0.01299975735732095 0.0041528604091319249 0 -0.01299975735732095 0.0041528604091319249 0 -0.012664937977913807 0.0050762163445677256 0 -0.011870196302926852 0.0044832997075775977 0 -0.013847435444204826 0.0047944978828346422 0 -0.01299975735732095 0.0041528604091319249 0 -0.012664937977913807 0.0050762163445677256 0 -0.011487336426541902 0.0055695407303849986 0 -0.011870196302926852 0.0044832997075775977 0 -0.010833553506820491 0.0048240499823935237 0 -0.011487336426541902 0.0055695407303849986 0 -0.012664937977913807 0.0050762163445677256 0 -0.011870196302926852 0.0044832997075775977 0 -0.010833553506820491 0.0048240499823935237 0 -0.010984514344625001 0.003795762129986413 0 -0.0096528912931376394 0.0046785523463318711 0 -0.011870196302926852 0.0044832997075775977 0 -0.010833553506820491 0.0048240499823935237 0 -0.010984514344625001 0.003795762129986413 0 -0.0096561316861943254 0.0046157526573048988 0 -0.009622954275959798 0.0030343749678405762 0 -0.010984514344625001 0.003795762129986413 0 -0.0096528912931376394 0.0046785523463318711 0 -0.0099155939720567653 0.0030914646555609106 0 -0.0096528912931376394 0.0046785523463318711 0 -0.008884743626394959 0.0040169635380630274 0 -0.0093494291881802347 0.0028692541341402262 0 -0.010225615366491071 0.0055726969019572747 0 -0.010833553506820491 0.0048240499823935237 0 -0.0096528912931376394 0.0046785523463318711 0 -0.010225615366491071 0.0055726969019572747 0 -0.0096528912931376394 0.0046785523463318711 0 -0.008448501781661278 0.0051703364626895128 0 -0.0096528912931376394 0.0046785523463318711 0 -0.008448501781661278 0.0051703364626895128 0 -0.0083892803079627255 0.0048005108884678635 0 -0.0096528912931376394 0.0046785523463318711 0 -0.0083892803079627255 0.0048005108884678635 0 -0.008884743626394959 0.0040169635380630274 0 -0.022842033296490916 0.0021547247658859911 0 -0.022454277970297486 0.0023497114366745394 0 -0.023014479700967691 0.0024412867485060046 0 -0.022454277970297486 0.0023497114366745394 0 -0.022747156791089795 0.0028477413048669988 0 -0.023014479700967691 0.0024412867485060046 0 -0.008448501781661278 0.0051703364626895128 0 -0.0083892803079627255 0.0048005108884678635 0 -0.0077668838033465868 0.0043793171697291107 0 -0.015966917324715283 0.0037113881218324672 0 -0.011538464482667057 0.0045149349539362407 0 -0.008448501781661278 0.0051703364626895128 0 -0.0077668838033465868 0.0043793171697291107 0 -0.0073029574154453878 0.0042221700048690417 0 -0.0083892803079627255 0.0048005108884678635 0 -0.008139256883864068 0.0037275332325485085 0 -0.0071887919197180473 0.0030327748475648328 0 -0.0082801865493609163 0.0047608543412689438 0 -0.0073192013441847805 0.0034208144684417896 0 -0.0083892803079627255 0.0048005108884678635 0 -0.0077668838033465868 0.0043793171697291107 0 -0.0073845840689420834 0.0037846905028753415 0 -0.0077668838033465868 0.0043793171697291107 0 -0.0071645782155372595 0.0043069644994648756 0 -0.0073845840689420834 0.0037846905028753415 0 -0.0077791191591385731 0.0035966218556484283 0 -0.011538464482667057 0.0045149349539362407 0 -0.0083892803079627255 0.0048005108884678635 0 -0.008139256883864068 0.0037275332325485085 0 -0.008884743626394959 0.0040169635380630274 0 -0.008139256883864068 0.0037275332325485085 0 -0.008884743626394959 0.0040169635380630274 0 -0.0093494291881802347 0.0028692541341402262 0 -0.0080826027050489822 0.0036670406427520646 0 -0.0079752308338097381 0.0023459915314416055 0 -0.008139256883864068 0.0037275332325485085 0 -0.0083591253871223674 0.0021357552996956498 0 -0.0093494291881802347 0.0028692541341402262 0 -0.008139256883864068 0.0037275332325485085 0 -0.0071887919197180473 0.0030327748475648328 0 -0.0075629567885107211 0.002418750792530924 0 -0.0071645782155372595 0.0043069644994648756 0 -0.0073845840689420834 0.0037846905028753415 0 -0.0063851546493937121 0.003722200307820073 0 -0.0071887919197180473 0.0030327748475648328 0 -0.0062799039374474112 0.0017978459977032516 0 -0.0070583113665582242 0.0018673841464659604 0 -0.0073192013441847805 0.0034208144684417896 0 -0.0063510370144517604 0.0019816367951561885 0 -0.0071887919197180473 0.0030327748475648328 0 -0.0075629567885107211 0.002418750792530924 0 -0.0070583113665582242 0.0018673841464659604 0 -0.0083591253871223674 0.0021357552996956498 0 -0.0093494291881802347 0.0028692541341402262 0 -0.0092341742797867887 0.0011672824938165308 0 -0.009622954275959798 0.0030343749678405762 0 -0.0097233667950429453 0.0014610791902435621 0 -0.010748776308222841 0.0024315842971130231 0 -0.0099155939720567653 0.0030914646555609106 0 -0.010040691024728208 0.0018527278898144664 0 -0.011477677019059674 0.0019539443280921455 0 -0.011684774080640755 0.0028289602741300062 0 -0.010748776308222841 0.0024315842971130231 0 -0.011684774080640755 0.0028289602741300062 0 -0.010748776308222841 0.0024315842971130231 0 -0.010792419788375555 0.0030607632583811929 0 -0.010984514344625001 0.003795762129986413 0 -0.010792419788375555 0.0030607632583811929 0 -0.0099155939720567653 0.0030914646555609106 0 -0.011684774080640755 0.0028289602741300062 0 -0.010984514344625001 0.003795762129986413 0 -0.010792419788375555 0.0030607632583811929 0 -0.010748776308222841 0.0024315842971130231 0 -0.010792419788375555 0.0030607632583811929 0 -0.0099155939720567653 0.0030914646555609106 0 -0.015573617282900461 0.0025240739623501973 0 -0.015613535225531871 0.002520505964287626 0 -0.015602325330961791 0.0025306514372977684 0 -0.0086760363093854789 0.0042918881838114641 0 -0.015983642151320535 0.0036526948404222177 0 -0.0032526553994375808 0.0059780982150269436 0 -0.0055361979039898384 0.0067373258898038016 0 -0.00449675328095269 0.0049050573294995969 0 -0.015649265521495308 0.0025006427403009876 0 -0.015613535225531871 0.002520505964287626 0 -0.015602325330961791 0.0025306514372977684 0 -0.023551417729165327 0.0022163457372711606 0 -0.023676089017327168 0.0026770942296527379 0 -0.023441388611116467 0.0026001797952544502 0 -0.023551417729165327 0.0022163457372711606 0 -0.024030919388754141 0.0019968277908010081 0 -0.023676089017327168 0.0026770942296527379 0 -0.020107211902279445 0.0019447200904313098 0 -0.015983642151320535 0.0036526948404222177 0 -0.015983642151320535 0.0036526948404222177 0 -0.010418340501833141 0.0031744657619797679 0 -0.015983642151320535 0.0036526948404222177 0 -0.023305613651364382 0.0041555160045495306 0 -0.023526691845186763 0.0026581306886774101 0 -0.023287710404234788 0.002812487970271932 0 -0.023255283293821382 0.003107738208431634 0 -0.023287710404234788 0.002812487970271932 0 -0.023148389620986132 0.0027132299933354267 0 -0.023035727196222187 0.0029814666657049459 0 -0.023287710404234788 0.002812487970271932 0 -0.023148389620986132 0.0027132299933354267 0 -0.023441388611116467 0.0026001797952544502 0 -0.023526691845186763 0.0026581306886774101 0 -0.023287710404234788 0.002812487970271932 0 -0.023441388611116467 0.0026001797952544502 0 -0.023551417729165327 0.0022163457372711606 0 -0.023441388611116467 0.0026001797952544502 0 -0.023285722925493697 0.0023978990856475275 0 -0.023148389620986132 0.0027132299933354267 0 -0.023441388611116467 0.0026001797952544502 0 -0.023285722925493697 0.0023978990856475275 0 -0.023207486398076162 0.0019691496081085391 0 -0.023285722925493697 0.0023978990856475275 0 -0.023014479700967691 0.0024412867485060046 0 -0.023148389620986132 0.0027132299933354267 0 -0.023285722925493697 0.0023978990856475275 0 -0.023014479700967691 0.0024412867485060046 0 -0.022747156791089795 0.0028477413048669988 0 -0.023148389620986132 0.0027132299933354267 0 -0.023014479700967691 0.0024412867485060046 0 -0.022747156791089795 0.0028477413048669988 0 -0.023148389620986132 0.0027132299933354267 0 -0.023035727196222187 0.0029814666657049459 0 -0.011538464482667057 0.0045149349539362407 0 -0.006181883469599068 0.0030936303130246617 0 -0.00722627894489086 0.0048577163497120213 0 -0.0059620189691392328 0.0042052666846684331 0 -0.0063851546493937121 0.003722200307820073 0 -0.011538464482667057 0.0045149349539362407 0 -0.015371211253176521 0.0040908316095552124 0 -0.0059620189691392328 0.0042052666846684331 0 -0.0063851546493937121 0.003722200307820073 0 -0.0057572468963534825 0.0033758651729694578 0 -0.0073845840689420834 0.0037846905028753415 0 -0.0063851546493937121 0.003722200307820073 0 -0.0062643897795358365 0.0031099791756886569 0 -0.0062643897795358365 0.0031099791756886569 0 -0.0052952652034552695 0.0024495700911974015 0 -0.0064537216669681837 0.0022096883535725324 0 -0.0073845840689420834 0.0037846905028753415 0 -0.0062643897795358365 0.0031099791756886569 0 -0.0064537216669681837 0.0022096883535725324 0 -0.0062643897795358365 0.0031099791756886569 0 -0.0057572468963534825 0.0033758651729694578 0 -0.0052952652034552695 0.0024495700911974015 0 -0.0063851546493937121 0.003722200307820073 0 -0.0062643897795358365 0.0031099791756886569 0 -0.0057572468963534825 0.0033758651729694578 0 -0.010418340501833141 0.0031744657619797679 0 -0.004268584879372885 0.0032077942193832689 0 -0.0047670915623336451 0.0038577528989395737 0 -0.0043665000014255096 0.0029031041257263131 0 -0.0052952652034552695 0.0024495700911974015 0 -0.0057572468963534825 0.0033758651729694578 0 -0.0050058739277734961 0.0036720832592860172 0 -0.0052952652034552695 0.0024495700911974015 0 -0.023287710404234788 0.002812487970271932 0 -0.023035727196222187 0.0029814666657049459 0 -0.023255283293821382 0.003107738208431634 0 -0.015371211253176521 0.0040908316095552124 0 -0.010418340501833141 0.0031744657619797679 0 -0.0059620189691392328 0.0042052666846684331 0 -0.0057572468963534825 0.0033758651729694578 0 -0.0050058739277734961 0.0036720832592860172 0 -0.006471318559324311 0.0041955587863312408 0 -0.0044929920324816965 0.0032727918741611716 0 -0.00449675328095269 0.0049050573294995969 0 -0.0055361979039898384 0.0067373258898038016 0 -0.006471318559324311 0.0041955587863312408 0 -0.00449675328095269 0.0049050573294995969 0 -0.0043665000014255096 0.0029031041257263131 0 -0.0034764414317047594 0.0031695994106538754 0 -0.0039656925101616246 0.0021440649502028259 0 -0.010418340501833141 0.0031744657619797679 0 -0.0031690572372637766 0.0030310846390772931 0 -0.0047670915623336451 0.0038577528989395737 0 -0.0043665000014255096 0.0029031041257263131 0 -0.0034764414317047594 0.0031695994106538754 0 -0.0024085577828736049 0.0025875259236356114 0 -0.0034764414317047594 0.0031695994106538754 0 -0.0030606728026579605 0.002329188154550685 0 -0.0028587648279283996 0.0027464655694606098 0 -0.0031690572372637766 0.0030310846390772931 0 -0.0024085577828736049 0.0025875259236356114 0 -0.0044929920324816965 0.0032727918741611716 0 -0.0031139188063033169 0.0036171680569661354 0 -0.0024060661666188746 0.0047895638744313747 0 -0.0031139188063033169 0.0036171680569661354 0 -0.00449675328095269 0.0049050573294995969 0 -0.0024060661666188746 0.0047895638744313747 0 -0.0032526553994375808 0.0059780982150269436 0 -0.00449675328095269 0.0049050573294995969 0 -0.0044929920324816965 0.0032727918741611716 0 -0.0031139188063033169 0.0036171680569661354 0 -0.00449675328095269 0.0049050573294995969 0 -0.0025576572054493382 0.00087972752642339019 0 -0.0037102396452850512 0.0011605381789227358 0 -0.0033165294830080163 0.00033331206083834364 0 -0.0025576572054493382 0.00087972752642339019 0 -0.0029454148878292649 0.0015976325818263435 0 -0.0037102396452850512 0.0011605381789227358 0 -0.0018978949199886358 0.0014118566522382126 0 -0.0025576572054493382 0.00087972752642339019 0 -0.0029454148878292649 0.0015976325818263435 0 -0.0023665602276277246 0.0020899808728037099 0 -0.0029454148878292649 0.0015976325818263435 0 -0.0030606728026579605 0.002329188154550685 0 -0.0029454148878292649 0.0015976325818263435 0 -0.0030606728026579605 0.002329188154550685 0 -0.0039656925101616246 0.0021440649502028259 0 -0.0024085577828736049 0.0025875259236356114 0 -0.0023665602276277246 0.0020899808728037099 0 -0.0030606728026579605 0.002329188154550685 0 -0.0034764414317047594 0.0031695994106538754 0 -0.0030606728026579605 0.002329188154550685 0 -0.0039656925101616246 0.0021440649502028259 0 -0.0029454148878292649 0.0015976325818263435 0 -0.0039656925101616246 0.0021440649502028259 0 -0.0037102396452850512 0.0011605381789227358 0 -0.0039656925101616246 0.0021440649502028259 0 -0.0037102396452850512 0.0011605381789227358 0 -0.0048924978168181027 0.0014987628799926062 0 -0.0037102396452850512 0.0011605381789227358 0 -0.0048924978168181027 0.0014987628799926062 0 -0.0043004067048409925 0.00064365029577862138 0 -0.0037102396452850512 0.0011605381789227358 0 -0.0043004067048409925 0.00064365029577862138 0 -0.0033165294830080163 0.00033331206083834364 0 -0.0048924978168181027 0.0014987628799926062 0 -0.0054768051726500674 0.00054009777388107382 0 -0.0043004067048409925 0.00064365029577862138 0 -0.0043665000014255096 0.0029031041257263131 0 -0.0039656925101616246 0.0021440649502028259 0 -0.0052952652034552695 0.0024495700911974015 0 -0.0039656925101616246 0.0021440649502028259 0 -0.0048924978168181027 0.0014987628799926062 0 -0.0052952652034552695 0.0024495700911974015 0 -0.0048924978168181027 0.0014987628799926062 0 -0.0052952652034552695 0.0024495700911974015 0 -0.0064537216669681837 0.0022096883535725324 0 -0.0048924978168181027 0.0014987628799926062 0 -0.0064537216669681837 0.0022096883535725324 0 -0.0054768051726500674 0.00054009777388107382 0 -0.0063510370144517604 0.0019816367951561885 0 -0.0055524238070545143 0.00059985149559999636 0 -0.0062799039374474112 0.0017978459977032516 0 -0.0054768051726500674 0.00054009777388107382 0 -0.0065417807452992534 0.0011231783253535515 0 -0.0054768051726500674 0.00054009777388107382 0 -0.0065417807452992534 0.0011231783253535515 0 -0.0062662987307589863 0.00041521631121236435 0 -0.0054768051726500674 0.00054009777388107382 0 -0.0059492824893386045 -0.00030537687298130297 0 -0.0050048268238165649 -0.00081321621828143488 0 -0.0054768051726500674 0.00054009777388107382 0 -0.0059492824893386045 -0.00030537687298130297 0 -0.0062662987307589863 0.00041521631121236435 0 -0.0059492824893386045 -0.00030537687298130297 0 -0.0050048268238165649 -0.00081321621828143488 0 -0.0058286707886348087 -0.0012170079455663307 0 -0.0050048268238165649 -0.00081321621828143488 0 -0.004111975463017949 -0.00027299688279247444 0 -0.0037787636630262334 -0.0016272812747519408 0 -0.0054768051726500674 0.00054009777388107382 0 -0.0043004067048409925 0.00064365029577862138 0 -0.004111975463017949 -0.00027299688279247444 0 -0.0054768051726500674 0.00054009777388107382 0 -0.0050048268238165649 -0.00081321621828143488 0 -0.004111975463017949 -0.00027299688279247444 0 -0.0043004067048409925 0.00064365029577862138 0 -0.004111975463017949 -0.00027299688279247444 0 -0.0033165294830080163 0.00033331206083834364 0 -0.004111975463017949 -0.00027299688279247444 0 -0.0027775539604706669 -0.00071799402659743672 0 -0.0037787636630262334 -0.0016272812747519408 0 -0.004111975463017949 -0.00027299688279247444 0 -0.0027775539604706669 -0.00071799402659743672 0 -0.0033165294830080163 0.00033331206083834364 0 -0.0020594627380161714 3.3277542632760516e-05 0 -0.0027775539604706669 -0.00071799402659743672 0 -0.0033165294830080163 0.00033331206083834364 0 -0.0020594627380161714 3.3277542632760516e-05 0 -0.0025576572054493382 0.00087972752642339019 0 -0.0033165294830080163 0.00033331206083834364 0 -0.010420451258834455 0.001253879972606238 0 -0.011115391451072532 0.0010553059876243652 0 -0.010029180438711129 0.00064643254319385118 0 -0.0097233667950429453 0.0014610791902435621 0 -0.0089404444239026808 0.00036581135984551088 0 -0.010420451258834455 0.001253879972606238 0 -0.010040691024728208 0.0018527278898144664 0 -0.010029180438711129 0.00064643254319385118 0 -0.010639690476839842 0.0012015488096330019 0 -0.0089404444239026808 0.00036581135984551088 0 -0.010420451258834455 0.001253879972606238 0 -0.011115391451072532 0.0010553059876243652 0 -0.010716162008813011 0.0017919455823477049 0 -0.011477677019059674 0.0019539443280921455 0 -0.011115391451072532 0.0010553059876243652 0 -0.010716162008813011 0.0017919455823477049 0 -0.011477677019059674 0.0019539443280921455 0 -0.010748776308222841 0.0024315842971130231 0 -0.010716162008813011 0.0017919455823477049 0 -0.010748776308222841 0.0024315842971130231 0 -0.010716162008813011 0.0017919455823477049 0 -0.010040691024728208 0.0018527278898144664 0 -0.010420451258834455 0.001253879972606238 0 -0.010716162008813011 0.0017919455823477049 0 -0.010040691024728208 0.0018527278898144664 0 -0.0083591253871223674 0.0021357552996956498 0 -0.0092341742797867887 0.0011672824938165308 0 -0.0085015244097249674 0.00074122139385006923 0 -0.0079752308338097381 0.0023459915314416055 0 -0.0079550738861393321 0.0010020536113282675 0 -0.0075629567885107211 0.002418750792530924 0 -0.0073494196993940004 0.001357496655205878 0 -0.0070583113665582242 0.0018673841464659604 0 -0.0073494196993940004 0.001357496655205878 0 -0.0070583113665582242 0.0018673841464659604 0 -0.0065417807452992534 0.0011231783253535515 0 -0.0062799039374474112 0.0017978459977032516 0 -0.0070583113665582242 0.0018673841464659604 0 -0.0065417807452992534 0.0011231783253535515 0 -0.0073494196993940004 0.001357496655205878 0 -0.0065417807452992534 0.0011231783253535515 0 -0.0068436781152467199 0.0007393768124222378 0 -0.0065417807452992534 0.0011231783253535515 0 -0.0068436781152467199 0.0007393768124222378 0 -0.0062662987307589863 0.00041521631121236435 0 -0.0079550738861393321 0.0010020536113282675 0 -0.0077388976052916126 2.7941224780755419e-05 0 -0.0085015244097249674 0.00074122139385006923 0 -0.0085991880177649638 -0.00056546622425001128 0 -0.0091730778075505646 -0.00036728745347885277 0 -0.0073494196993940004 0.001357496655205878 0 -0.0068436781152467199 0.0007393768124222378 0 -0.007326875058128869 0.00016397122418373633 0 -0.0092341742797867887 0.0011672824938165308 0 -0.0085015244097249674 0.00074122139385006923 0 -0.0091730778075505646 -0.00036728745347885277 0 -0.0077388976052916126 2.7941224780755419e-05 0 -0.0089404444239026808 0.00036581135984551088 0 -0.0075096159583963396 0.00046182063483377994 0 -0.0081476489869057242 -0.00065064476041874644 0 -0.0081765426638450225 0.00069485492633042736 0 -0.0072280235993721284 0.00016993600071142959 0 -0.0066804244581752025 -3.9366391474747383e-05 0 -0.0066480456496396147 -0.00066825217928175907 0 -0.0068436781152467199 0.0007393768124222378 0 -0.007326875058128869 0.00016397122418373633 0 -0.0066804244581752025 -3.9366391474747383e-05 0 -0.0077388976052916126 2.7941224780755419e-05 0 -0.006761070089612119 -9.159822157764199e-05 0 -0.0068436781152467199 0.0007393768124222378 0 -0.0062662987307589863 0.00041521631121236435 0 -0.0066804244581752025 -3.9366391474747383e-05 0 -0.0059492824893386045 -0.00030537687298130297 0 -0.0062662987307589863 0.00041521631121236435 0 -0.0066804244581752025 -3.9366391474747383e-05 0 -0.0059492824893386045 -0.00030537687298130297 0 -0.0066480456496396147 -0.00066825217928175907 0 -0.0058286707886348087 -0.0012170079455663307 0 -0.0059492824893386045 -0.00030537687298130297 0 -0.0066804244581752025 -3.9366391474747383e-05 0 -0.0066480456496396147 -0.00066825217928175907 0 -0.0075096159583963396 0.00046182063483377994 0 -0.0075907675075339107 -0.00093695340583431258 0 -0.0081476489869057242 -0.00065064476041874644 0 -0.0072280235993721284 0.00016993600071142959 0 -0.0066480456496396147 -0.00066825217928175907 0 -0.007285064201181299 -0.00097478880904318919 0 -0.0077388976052916126 2.7941224780755419e-05 0 -0.0073978288909056439 -0.00092021899610368336 0 -0.0081476489869057242 -0.00065064476041874644 0 -0.0087313893432569185 -0.00011930343285897503 0 -0.009247312075644637 -0.00074648582517982862 0 -0.0081476489869057242 -0.00065064476041874644 0 -0.009247312075644637 -0.00074648582517982862 0 -0.008244850551959948 -0.0015731442586790717 0 -0.0087313893432569185 -0.00011930343285897503 0 -0.0092697085056407842 0.00018102790868601906 0 -0.009247312075644637 -0.00074648582517982862 0 -0.0080615397469434684 -0.00041812209403959089 0 -0.0089404444239026808 0.00036581135984551088 0 -0.0081476489869057242 -0.00065064476041874644 0 -0.0087313893432569185 -0.00011930343285897503 0 -0.0082479119217828828 0.00075495865197517666 0 -0.0087313893432569185 -0.00011930343285897503 0 -0.0082479119217828828 0.00075495865197517666 0 -0.0092697085056407842 0.00018102790868601906 0 -0.01042972252797305 -0.0002477308820690654 0 -0.01004363470795747 0.0012662014130364943 0 -0.0092697085056407842 0.00018102790868601906 0 -0.01004363470795747 0.0012662014130364943 0 -0.0082479119217828828 0.00075495865197517666 0 -0.0092697085056407842 0.00018102790868601906 0 -0.01042972252797305 -0.0002477308820690654 0 -0.009247312075644637 -0.00074648582517982862 0 -0.010425520507231062 -0.0011826261752476799 0 -0.01042972252797305 -0.0002477308820690654 0 -0.0092697085056407842 0.00018102790868601906 0 -0.009247312075644637 -0.00074648582517982862 0 -0.009247312075644637 -0.00074648582517982862 0 -0.0094875776819113543 -0.0017404626598497266 0 -0.010425520507231062 -0.0011826261752476799 0 -0.0094875776819113543 -0.0017404626598497266 0 -0.010425520507231062 -0.0011826261752476799 0 -0.010342855647285768 -0.0021181901818014912 0 -0.0094875776819113543 -0.0017404626598497266 0 -0.0089646984880459891 -0.0029256221302403642 0 -0.010342855647285768 -0.0021181901818014912 0 -0.0089646984880459891 -0.0029256221302403642 0 -0.010567684673112395 -0.0030612118289490512 0 -0.010342855647285768 -0.0021181901818014912 0 -0.0089646984880459891 -0.0029256221302403642 0 -0.008244850551959948 -0.0015731442586790717 0 -0.0074490647252562917 -0.0022962422384555864 0 -0.0094875776819113543 -0.0017404626598497266 0 -0.0089646984880459891 -0.0029256221302403642 0 -0.008244850551959948 -0.0015731442586790717 0 -0.009247312075644637 -0.00074648582517982862 0 -0.0094875776819113543 -0.0017404626598497266 0 -0.008244850551959948 -0.0015731442586790717 0 -0.0075907675075339107 -0.00093695340583431258 0 -0.0081476489869057242 -0.00065064476041874644 0 -0.008244850551959948 -0.0015731442586790717 0 -0.0066480456496396147 -0.00066825217928175907 0 -0.007285064201181299 -0.00097478880904318919 0 -0.0066129297688163361 -0.0016524839798744569 0 -0.0073978288909056439 -0.00092021899610368336 0 -0.0074714989459494681 -0.0022426206344944195 0 -0.0075907675075339107 -0.00093695340583431258 0 -0.008244850551959948 -0.0015731442586790717 0 -0.0074490647252562917 -0.0022962422384555864 0 -0.007285064201181299 -0.00097478880904318919 0 -0.0066129297688163361 -0.0016524839798744569 0 -0.0074490647252562917 -0.0022962422384555864 0 -0.0066480456496396147 -0.00066825217928175907 0 -0.0066129297688163361 -0.0016524839798744569 0 -0.0058286707886348087 -0.0012170079455663307 0 -0.0066129297688163361 -0.0016524839798744569 0 -0.0057606084261303857 -0.0019350327264870666 0 -0.0058286707886348087 -0.0012170079455663307 0 -0.0066129297688163361 -0.0016524839798744569 0 -0.0057606084261303857 -0.0019350327264870666 0 -0.005738024862878559 -0.0028166802388672751 0 -0.0066129297688163361 -0.0016524839798744569 0 -0.005738024862878559 -0.0028166802388672751 0 -0.0074490647252562917 -0.0022962422384555864 0 -0.005738024862878559 -0.0028166802388672751 0 -0.0074490647252562917 -0.0022962422384555864 0 -0.0069562411118211402 -0.0036621556833515536 0 -0.005738024862878559 -0.0028166802388672751 0 -0.0069562411118211402 -0.0036621556833515536 0 -0.0051355042732565631 -0.0042770310989790079 0 -0.0051019555810696161 -0.0043145797591708787 0 -0.0057900692237527881 -0.0049155131033477642 0 -0.0069562411118211402 -0.0036621556833515536 0 -0.0051355042732565631 -0.0042770310989790079 0 -0.0070980322612073481 -0.0054040377689596152 0 -0.0069562411118211402 -0.0036621556833515536 0 -0.0083003956065836066 -0.0045276373685222771 0 -0.0070980322612073481 -0.0054040377689596152 0 -0.0083003956065836066 -0.0045276373685222771 0 -0.0096468951825091267 -0.0045496539720401245 0 -0.008737110121664381 -0.0061795958715596738 0 -0.0089646984880459891 -0.0029256221302403642 0 -0.0096468951825091267 -0.0045496539720401245 0 -0.010567684673112395 -0.0030612118289490512 0 -0.0089646984880459891 -0.0029256221302403642 0 -0.0083003956065836066 -0.0045276373685222771 0 -0.0096468951825091267 -0.0045496539720401245 0 -0.0089646984880459891 -0.0029256221302403642 0 -0.0069562411118211402 -0.0036621556833515536 0 -0.0083003956065836066 -0.0045276373685222771 0 -0.0089646984880459891 -0.0029256221302403642 0 -0.0074490647252562917 -0.0022962422384555864 0 -0.0069562411118211402 -0.0036621556833515536 0 -0.0016270506052199656 -0.0024798093402347374 0 -0.0023652311591387245 -0.0017594549074421736 0 -0.0029834816414692975 -0.0029378111887080598 0 -0.0023652311591387245 -0.0017594549074421736 0 -0.0037787636630262334 -0.0016272812747519408 0 -0.0029834816414692975 -0.0029378111887080598 0 -0.0027775539604706669 -0.00071799402659743672 0 -0.0023652311591387245 -0.0017594549074421736 0 -0.0037787636630262334 -0.0016272812747519408 0 -0.0037787636630262334 -0.0016272812747519408 0 -0.0040696205614278108 -0.0027804355571386594 0 -0.0029834816414692975 -0.0029378111887080598 0 -0.0037787636630262334 -0.0016272812747519408 0 -0.0040696205614278108 -0.0027804355571386594 0 -0.0049630624236244314 -0.0019744365515869358 0 -0.0040696205614278108 -0.0027804355571386594 0 -0.0049630624236244314 -0.0019744365515869358 0 -0.0047315980377850304 -0.0034271647717855269 0 -0.0050048268238165649 -0.00081321621828143488 0 -0.0037787636630262334 -0.0016272812747519408 0 -0.0049630624236244314 -0.0019744365515869358 0 -0.0050048268238165649 -0.00081321621828143488 0 -0.0058286707886348087 -0.0012170079455663307 0 -0.0049630624236244314 -0.0019744365515869358 0 -0.0057606084261303857 -0.0019350327264870666 0 -0.0058286707886348087 -0.0012170079455663307 0 -0.0049630624236244314 -0.0019744365515869358 0 -0.005738024862878559 -0.0028166802388672751 0 -0.0049630624236244314 -0.0019744365515869358 0 -0.0047315980377850304 -0.0034271647717855269 0 -0.0057606084261303857 -0.0019350327264870666 0 -0.005738024862878559 -0.0028166802388672751 0 -0.0049630624236244314 -0.0019744365515869358 0 -0.005738024862878559 -0.0028166802388672751 0 -0.0051355042732565631 -0.0042770310989790079 0 -0.0047315980377850304 -0.0034271647717855269 0 -0.0051355042732565631 -0.0042770310989790079 0 -0.0047315980377850304 -0.0034271647717855269 0 -0.0045633997063978526 -0.0042495962632503031 0 -0.0047315980377850304 -0.0034271647717855269 0 -0.0038643945100083998 -0.0037266906028954692 0 -0.0045633997063978526 -0.0042495962632503031 0 -0.0040696205614278108 -0.0027804355571386594 0 -0.0047315980377850304 -0.0034271647717855269 0 -0.0038643945100083998 -0.0037266906028954692 0 -0.0019638929239238472 -0.0035084879433592317 0 -0.0024650964551621406 -0.0048207614552145464 0 -0.0030492595790754667 -0.0039531483457066795 0 -0.0040696205614278108 -0.0027804355571386594 0 -0.0038643945100083998 -0.0037266906028954692 0 -0.0029834816414692975 -0.0029378111887080598 0 -0.0038643945100083998 -0.0037266906028954692 0 -0.0030492595790754667 -0.0039531483457066795 0 -0.0038006005510626078 -0.0044820051131692134 0 -0.0038643945100083998 -0.0037266906028954692 0 -0.0030492595790754667 -0.0039531483457066795 0 -0.0029834816414692975 -0.0029378111887080598 0 -0.0019638929239238472 -0.0035084879433592317 0 -0.0030492595790754667 -0.0039531483457066795 0 -0.0029834816414692975 -0.0029378111887080598 0 0.0026593822723864156 -0.0039296299420143038 0 0.0027910685185003866 -0.0039098241590876572 0 0.0028535196290995586 -0.0039027779561274911 0 -0.0024650964551621406 -0.0048207614552145464 0 -0.0038006005510626078 -0.0044820051131692134 0 -0.0035213745136418091 -0.0048922978792162661 0 0.00013642860546521951 -0.0043321328714926782 0 -0.0003983917177561431 -0.0043905693268404006 0 -0.0024650964551621406 -0.0048207614552145464 0 -0.0030492595790754667 -0.0039531483457066795 0 -0.0038006005510626078 -0.0044820051131692134 0 -0.0038006005510626078 -0.0044820051131692134 0 -0.004136628542006064 -0.0046344371139116526 0 -0.0035213745136418091 -0.0048922978792162661 0 -0.0038006005510626078 -0.0044820051131692134 0 -0.0043951100767143448 -0.0043785416735430596 0 -0.004136628542006064 -0.0046344371139116526 0 -0.0038006005510626078 -0.0044820051131692134 0 -0.0045633997063978526 -0.0042495962632503031 0 -0.0043951100767143448 -0.0043785416735430596 0 -0.0038643945100083998 -0.0037266906028954692 0 -0.0038006005510626078 -0.0044820051131692134 0 -0.0045633997063978526 -0.0042495962632503031 0 -0.0045633997063978526 -0.0042495962632503031 0 -0.0043951100767143448 -0.0043785416735430596 0 -0.004621348450839371 -0.0041855997903079015 0 -0.0051355042732565631 -0.0042770310989790079 0 -0.0045633997063978526 -0.0042495962632503031 0 -0.004621348450839371 -0.0041855997903079015 0 -0.0043951100767143448 -0.0043785416735430596 0 -0.0044577321476710393 -0.0042998602148133147 0 -0.004621348450839371 -0.0041855997903079015 0 -0.0043951100767143448 -0.0043785416735430596 0 -0.0044577321476710393 -0.0042998602148133147 0 -0.004136628542006064 -0.0046344371139116526 0 -0.0044577321476710393 -0.0042998602148133147 0 -0.0043087223950703116 -0.0046573347372708103 0 -0.004136628542006064 -0.0046344371139116526 0 0.001686800403695819 -0.0033593932392579078 0 0.0021650460787068179 -0.0039852390850887119 0 0.0013986188731689897 -0.0042209649809053203 0 -0.0013657701320870879 -0.003993249670697134 0 -0.00013226401969770258 -0.0044681251544236014 0 0.0021650460787068179 -0.0039852390850887119 0 0.0028633291730266741 -0.0039575218881487311 0 0.0025424827348857646 -0.0042049675234318391 0 0.0021650460787068179 -0.0039852390850887119 0 0.0023227130687585129 -0.0036749629613456397 0 0.0028633291730266741 -0.0039575218881487311 0 0.001686800403695819 -0.0033593932392579078 0 0.0021650460787068179 -0.0039852390850887119 0 0.0023227130687585129 -0.0036749629613456397 0 -0.004080355389658342 -0.0048541837498797162 0 -0.004136628542006064 -0.0046344371139116526 0 -0.0035213745136418091 -0.0048922978792162661 0 -0.0043087223950703116 -0.0046573347372708103 0 -0.004080355389658342 -0.0048541837498797162 0 -0.004136628542006064 -0.0046344371139116526 0 -0.00013226401969770258 -0.0044681251544236014 0 -0.0003983917177561431 -0.0043905693268404006 0 0.0027860171231430583 -0.003950665237345362 0 0.0028535196290995586 -0.0039027779561274911 0 0.0028633291730266741 -0.0039575218881487311 0 -0.00013226401969770258 -0.0044681251544236014 0 0.0034981689959366845 -0.0041903917585502919 0 0.0028633291730266741 -0.0039575218881487311 0 0.0029815872760529855 -0.0039510208539062005 0 0.0031033997313806953 -0.004176528339322692 0 0.0028535196290995586 -0.0039027779561274911 0 0.0028633291730266741 -0.0039575218881487311 0 0.0029815872760529855 -0.0039510208539062005 0 0.0027910685185003866 -0.0039098241590876572 0 0.0028535196290995586 -0.0039027779561274911 0 0.0029815872760529855 -0.0039510208539062005 0 -0.00384701016356919 -0.0037359892477887798 0 -0.0041474892121923955 -0.0038679073083293216 0 -0.0034292748143193315 -0.0033489361066475088 0 -0.00384701016356919 -0.0037359892477887798 0 -0.0036676381913342865 -0.0035478641078961672 0 -0.003616499063079925 -0.0036180125475274959 0 -0.00384701016356919 -0.0037359892477887798 0 -0.0036676381913342865 -0.0035478641078961672 0 -0.0034292748143193315 -0.0033489361066475088 0 -0.0036676381913342865 -0.0035478641078961672 0 -0.0039828058767348087 -0.0035072311049897395 0 -0.0034292748143193315 -0.0033489361066475088 0 -0.0057567181807379672 -0.0035281524996929924 0 -0.0048991657990437682 -0.0033920419222403051 0 -0.0054498071790052725 -0.0036104754253730455 0 -0.0060097211483661024 -0.0040643268413786413 0 -0.004381442893368709 -0.0032256109763367262 0 -0.0039828058767348087 -0.0035072311049897395 0 -0.003616499063079925 -0.0036180125475274959 0 -0.0048991657990437682 -0.0033920419222403051 0 -0.0036676381913342865 -0.0035478641078961672 0 -0.0039828058767348087 -0.0035072311049897395 0 -0.003616499063079925 -0.0036180125475274959 0 -0.0056264587980827127 -0.0037458975792498284 0 -0.0057567181807379672 -0.0035281524996929924 0 -0.0054498071790052725 -0.0036104754253730455 0 -0.0077893169537071299 -0.0042471812314419152 0 -0.0060097211483661024 -0.0040643268413786413 0 -0.00384701016356919 -0.0037359892477887798 0 -0.003616499063079925 -0.0036180125475274959 0 -0.0043174210075140936 -0.0042998820197520339 0 -0.0060097211483661024 -0.0040643268413786413 0 -0.0057900692237527881 -0.0049155131033477642 0 -0.0083003956065836066 -0.0045276373685222771 0 -0.008737110121664381 -0.0061795958715596738 0 -0.0070980322612073481 -0.0054040377689596152 0 -0.0043174210075140936 -0.0042998820197520339 0 -0.004621348450839371 -0.0041855997903079015 0 -0.0041474892121923955 -0.0038679073083293216 0 -0.0051355042732565631 -0.0042770310989790079 0 -0.0043174210075140936 -0.0042998820197520339 0 -0.004621348450839371 -0.0041855997903079015 0 -0.0044577321476710393 -0.0042998602148133147 0 -0.004621348450839371 -0.0041855997903079015 0 -0.0044016135353008761 -0.003891603700008362 0 -0.00384701016356919 -0.0037359892477887798 0 -0.0043174210075140936 -0.0042998820197520339 0 -0.0041474892121923955 -0.0038679073083293216 0 -0.004621348450839371 -0.0041855997903079015 0 -0.0041474892121923955 -0.0038679073083293216 0 -0.0044016135353008761 -0.003891603700008362 0 -0.0041474892121923955 -0.0038679073083293216 0 -0.0044016135353008761 -0.003891603700008362 0 -0.0034292748143193315 -0.0033489361066475088 0 -0.0023929636923960339 -0.0034979010632142878 0 -0.0033047082378360069 -0.0033477830202571371 0 -0.0013657701320870879 -0.003993249670697134 0 -0.0023929636923960339 -0.0034979010632142878 0 -0.0044577321476710393 -0.0042998602148133147 0 -0.0043087223950703116 -0.0046573347372708103 0 -0.0044016135353008761 -0.003891603700008362 0 0.001686800403695819 -0.0033593932392579078 0 -0.00051604686588910243 -0.0029973335769977968 0 0.0013986188731689897 -0.0042209649809053203 0 -0.00051604686588910243 -0.0029973335769977968 0 0.00042430960962551239 -0.004868101247098645 0 0.0013986188731689897 -0.0042209649809053203 0 -0.00051604686588910243 -0.0029973335769977968 0 -0.0014609728418298851 -0.0043138711284884754 0 -0.0034292748143193315 -0.0033489361066475088 0 -0.00051604686588910243 -0.0029973335769977968 0 -0.0014609728418298851 -0.0043138711284884754 0 0.00042430960962551239 -0.004868101247098645 0 -0.0014609728418298851 -0.0043138711284884754 0 -0.0034292748143193315 -0.0033489361066475088 0 -0.0031429388892239779 -0.0042095577215524142 0 -0.0034292748143193315 -0.0033489361066475088 0 -0.0031429388892239779 -0.0042095577215524142 0 -0.0041692656985785111 -0.0037812412508680276 0 -0.0039828058767348087 -0.0035072311049897395 0 -0.0034292748143193315 -0.0033489361066475088 0 -0.0041692656985785111 -0.0037812412508680276 0 -0.0031429388892239779 -0.0042095577215524142 0 -0.0041692656985785111 -0.0037812412508680276 0 -0.0038834985031408241 -0.0047050578249610061 0 -0.0046993536114648612 -0.0043683641362619397 0 -0.0041692656985785111 -0.0037812412508680276 0 -0.0038834985031408241 -0.0047050578249610061 0 -0.0046993536114648612 -0.0043683641362619397 0 -0.0055819352779740991 -0.0046196264706368905 0 -0.0053668649106396 -0.0038500457884134546 0 -0.0046993536114648612 -0.0043683641362619397 0 -0.0053668649106396 -0.0038500457884134546 0 -0.004870334113677658 -0.0031553226025711084 0 -0.0047334470576466054 -0.0042696683121753783 0 -0.0050071458227838282 -0.0033511817788986907 0 -0.0053668649106396 -0.0038500457884134546 0 -0.004870334113677658 -0.0031553226025711084 0 -0.0056887755714611467 -0.0030506380516286528 0 -0.0051281096529750513 -0.0035312467745235829 0 -0.0041692656985785111 -0.0037812412508680276 0 -0.0048991657990437682 -0.0033920419222403051 0 -0.0046993536114648612 -0.0043683641362619397 0 -0.0051281096529750513 -0.0035312467745235829 0 -0.0041692656985785111 -0.0037812412508680276 0 -0.0039828058767348087 -0.0035072311049897395 0 -0.0041692656985785111 -0.0037812412508680276 0 -0.0048991657990437682 -0.0033920419222403051 0 -0.0065348995278550143 -0.0044164484408893727 0 -0.0060648192474573271 -0.0038493338103148828 0 -0.0070480447324410582 -0.0038506981500269406 0 -0.0072109171744522277 -0.0045060864254436771 0 -0.0070480447324410582 -0.0038506981500269406 0 -0.0076692203388797116 -0.0042142278671209637 0 -0.0072109171744522277 -0.0045060864254436771 0 -0.0072914032749379727 -0.004812300404186674 0 -0.0068894422316438681 -0.0049537998930495623 0 -0.0072109171744522277 -0.0045060864254436771 0 -0.0065348995278550143 -0.0044164484408893727 0 -0.0068894422316438681 -0.0049537998930495623 0 -0.0072109171744522277 -0.0045060864254436771 0 -0.0065348995278550143 -0.0044164484408893727 0 -0.0070480447324410582 -0.0038506981500269406 0 -0.0055819352779740991 -0.0046196264706368905 0 -0.0065348995278550143 -0.0044164484408893727 0 -0.0063488869946570319 -0.005058778517103177 0 -0.0055819352779740991 -0.0046196264706368905 0 -0.0065348995278550143 -0.0044164484408893727 0 -0.0060648192474573271 -0.0038493338103148828 0 -0.0055819352779740991 -0.0046196264706368905 0 -0.0053668649106396 -0.0038500457884134546 0 -0.0060648192474573271 -0.0038493338103148828 0 -0.0064411849233282515 -0.0032489639656850949 0 -0.0060648192474573271 -0.0038493338103148828 0 -0.0070480447324410582 -0.0038506981500269406 0 -0.0053668649106396 -0.0038500457884134546 0 -0.0056887755714611467 -0.0030506380516286528 0 -0.0060648192474573271 -0.0038493338103148828 0 -0.0056887755714611467 -0.0030506380516286528 0 -0.0064411849233282515 -0.0032489639656850949 0 -0.0060648192474573271 -0.0038493338103148828 0 -0.0064411849233282515 -0.0032489639656850949 0 -0.0070480447324410582 -0.0038506981500269406 0 -0.0075786179140115957 -0.0029035330700559257 0 -0.0070480447324410582 -0.0038506981500269406 0 -0.0075786179140115957 -0.0029035330700559257 0 -0.0077914016343030943 -0.0037079980518989887 0 -0.0075786179140115957 -0.0029035330700559257 0 -0.0063014120512959633 -0.0023147411807749392 0 -0.0073974938527386208 -0.0017309563396419203 0 -0.0064411849233282515 -0.0032489639656850949 0 -0.0075786179140115957 -0.0029035330700559257 0 -0.0063014120512959633 -0.0023147411807749392 0 -0.0056887755714611467 -0.0030506380516286528 0 -0.0063014120512959633 -0.0023147411807749392 0 -0.0051155826458804312 -0.0016718601531689266 0 -0.0056887755714611467 -0.0030506380516286528 0 -0.0064411849233282515 -0.0032489639656850949 0 -0.0063014120512959633 -0.0023147411807749392 0 -0.0061044807981854177 -0.0010555186438887848 0 -0.0051155826458804312 -0.0016718601531689266 0 -0.0054167546930000482 -0.0003899617556385742 0 -0.0063014120512959633 -0.0023147411807749392 0 -0.0061044807981854177 -0.0010555186438887848 0 -0.0073974938527386208 -0.0017309563396419203 0 -0.0063014120512959633 -0.0023147411807749392 0 -0.0061044807981854177 -0.0010555186438887848 0 -0.0051155826458804312 -0.0016718601531689266 0 -0.0061044807981854177 -0.0010555186438887848 0 -0.0073974938527386208 -0.0017309563396419203 0 -0.0071471547737852114 -0.00059360931062498313 0 -0.0048991657990437682 -0.0033920419222403051 0 -0.0054498071790052725 -0.0036104754253730455 0 -0.0053203117373841645 -0.0035023561863308252 0 -0.0051281096529750513 -0.0035312467745235829 0 -0.0048991657990437682 -0.0033920419222403051 0 -0.0053203117373841645 -0.0035023561863308252 0 -0.0050071458227838282 -0.0033511817788986907 0 -0.0053344331074720464 -0.0025653692056599436 0 -0.004870334113677658 -0.0031553226025711084 0 -0.0056887755714611467 -0.0030506380516286528 0 -0.0051155826458804312 -0.0016718601531689266 0 -0.0051281096529750513 -0.0035312467745235829 0 -0.0055273577676948609 -0.0035428129894711589 0 -0.0053203117373841645 -0.0035023561863308252 0 -0.0055273577676948609 -0.0035428129894711589 0 -0.0057735033763600587 -0.0036287083838209893 0 -0.0053203117373841645 -0.0035023561863308252 0 -0.0053344331074720464 -0.0025653692056599436 0 -0.0063209729482546313 -0.0021780318624661857 0 -0.0055273577676948609 -0.0035428129894711589 0 -0.0057735033763600587 -0.0036287083838209893 0 -0.0059852767120920618 -0.0036512331014848316 0 -0.0054498071790052725 -0.0036104754253730455 0 -0.0053203117373841645 -0.0035023561863308252 0 -0.0057522913964597796 -0.0036896607403266658 0 -0.0056264587980827127 -0.0037458975792498284 0 -0.0054498071790052725 -0.0036104754253730455 0 -0.0057522913964597796 -0.0036896607403266658 0 -0.0057735033763600587 -0.0036287083838209893 0 -0.0053203117373841645 -0.0035023561863308252 0 -0.0057522913964597796 -0.0036896607403266658 0 -0.0056264587980827127 -0.0037458975792498284 0 -0.0057522913964597796 -0.0036896607403266658 0 -0.0060957395802184854 -0.0036741599456767233 0 -0.0057522913964597796 -0.0036896607403266658 0 -0.0060957395802184854 -0.0036741599456767233 0 -0.0060913284522422272 -0.0037027800366559163 0 -0.0060957395802184854 -0.0036741599456767233 0 -0.0061367372584130719 -0.0032502437410263413 0 -0.0067347218620087777 -0.0034714764009779742 0 -0.0077893169537071299 -0.0042471812314419152 0 -0.008352325134702434 -0.003153059642729595 0 -0.0056264587980827127 -0.0037458975792498284 0 -0.0060957395802184854 -0.0036741599456767233 0 -0.0061367372584130719 -0.0032502437410263413 0 -0.0072129770948623937 -0.0032273257428652806 0 -0.0067347218620087777 -0.0034714764009779742 0 -0.0070610125619121585 -0.0035351003964618206 0 -0.0072129770948623937 -0.0032273257428652806 0 -0.0067347218620087777 -0.0034714764009779742 0 -0.0069574200476996504 -0.0031200452059366476 0 -0.0061367372584130719 -0.0032502437410263413 0 -0.0067347218620087777 -0.0034714764009779742 0 -0.0069574200476996504 -0.0031200452059366476 0 -0.0060957395802184854 -0.0036741599456767233 0 -0.0067347218620087777 -0.0034714764009779742 0 -0.0064355946399608857 -0.0037730447173126764 0 -0.0067347218620087777 -0.0034714764009779742 0 -0.0067870202371699603 -0.0036382333308466845 0 -0.0064355946399608857 -0.0037730447173126764 0 -0.0070610125619121585 -0.0035351003964618206 0 -0.0068167938770474692 -0.0037619183409336294 0 -0.0069820156049964126 -0.0040232192081462578 0 -0.0067870202371699603 -0.0036382333308466845 0 -0.0068167938770474692 -0.0037619183409336294 0 -0.0064355946399608857 -0.0037730447173126764 0 -0.0067347218620087777 -0.0034714764009779742 0 -0.0067870202371699603 -0.0036382333308466845 0 -0.0070610125619121585 -0.0035351003964618206 0 -0.0067870202371699603 -0.0036382333308466845 0 -0.0070610125619121585 -0.0035351003964618206 0 -0.0068167938770474692 -0.0037619183409336294 0 -0.0068158589189272548 -0.0030162862979102967 0 -0.0076717591052937852 -0.0025326660588637184 0 -0.0061263954107730161 -0.003683937558055155 0 -0.0060913284522422272 -0.0037027800366559163 0 -0.0059852767120920618 -0.0036512331014848316 0 -0.0068167938770474692 -0.0037619183409336294 0 -0.0064355946399608857 -0.0037730447173126764 0 -0.0069820156049964126 -0.0040232192081462578 0 -0.0064355946399608857 -0.0037730447173126764 0 -0.0061263954107730161 -0.003683937558055155 0 -0.0059766461343094034 -0.0037563748089175135 0 -0.0064355946399608857 -0.0037730447173126764 0 -0.0061263954107730161 -0.003683937558055155 0 -0.0060913284522422272 -0.0037027800366559163 0 -0.0061263954107730161 -0.003683937558055155 0 -0.0060245252441651987 -0.0036697339624020822 0 -0.0059766461343094034 -0.0037563748089175135 0 -0.0061263954107730161 -0.003683937558055155 0 -0.0060245252441651987 -0.0036697339624020822 0 -0.0059852767120920618 -0.0036512331014848316 0 -0.0069001106464055247 -0.0022826415254204326 0 -0.0076717591052937852 -0.0025326660588637184 0 -0.0060957395802184854 -0.0036741599456767233 0 -0.0064355946399608857 -0.0037730447173126764 0 -0.0060913284522422272 -0.0037027800366559163 0 -0.0057735033763600587 -0.0036287083838209893 0 -0.0057522913964597796 -0.0036896607403266658 0 -0.0060913284522422272 -0.0037027800366559163 0 -0.0057735033763600587 -0.0036287083838209893 0 -0.0060913284522422272 -0.0037027800366559163 0 -0.0059852767120920618 -0.0036512331014848316 0 -0.0069001106464055247 -0.0022826415254204326 0 -0.0063209729482546313 -0.0021780318624661857 0 -0.0061044807981854177 -0.0010555186438887848 0 -0.0054797222594117389 -0.00014153437356282997 0 -0.0054167546930000482 -0.0003899617556385742 0 -0.0061044807981854177 -0.0010555186438887848 0 -0.0055573526891211384 7.8429509845700439e-05 0 -0.0071471547737852114 -0.00059360931062498313 0 -0.0076717591052937852 -0.0025326660588637184 0 -0.0093870526724408997 -0.00090254945356091538 0 -0.010914994507059598 -0.0014021015488346633 0 -0.01154552573748277 -0.001679443118490754 0 -0.011379922157225469 -0.0012492550239050478 0 -0.0061044807981854177 -0.0010555186438887848 0 -0.0054797222594117389 -0.00014153437356282997 0 -0.0055573526891211384 7.8429509845700439e-05 0 -0.01154552573748277 -0.001679443118490754 0 -0.011696689535170907 -0.0013049853472297916 0 -0.012016935496424181 -0.0015396126880434249 0 -0.01154552573748277 -0.001679443118490754 0 -0.011696689535170907 -0.0013049853472297916 0 -0.011379922157225469 -0.0012492550239050478 0 -0.011696689535170907 -0.0013049853472297916 0 -0.011747016446847169 -0.0010887923997736782 0 -0.011570547229594295 -0.0011096565658631743 0 -0.011696689535170907 -0.0013049853472297916 0 -0.011570547229594295 -0.0011096565658631743 0 -0.011379922157225469 -0.0012492550239050478 0 -0.011570547229594295 -0.0011096565658631743 0 -0.011379922157225469 -0.0012492550239050478 0 -0.011423125311827771 -0.0009831671669478625 0 -0.011379922157225469 -0.0012492550239050478 0 -0.011423125311827771 -0.0009831671669478625 0 -0.01126458558702163 -0.0010146201525529086 0 -0.011423125311827771 -0.0009831671669478625 0 -0.011607909868696999 -0.00093038936801980181 0 -0.011477367281604938 -0.00079949375529852259 0 -0.011570547229594295 -0.0011096565658631743 0 -0.011423125311827771 -0.0009831671669478625 0 -0.011607909868696999 -0.00093038936801980181 0 -0.011747016446847169 -0.0010887923997736782 0 -0.011607909868696999 -0.00093038936801980181 0 -0.011861291215633432 -0.00087667891583089082 0 -0.011747016446847169 -0.0010887923997736782 0 -0.011570547229594295 -0.0011096565658631743 0 -0.011607909868696999 -0.00093038936801980181 0 -0.010914994507059598 -0.0014021015488346633 0 -0.011144620813389726 -0.0011754250478895431 0 -0.011132949675329051 -0.0008799669231021823 0 -0.0076717591052937852 -0.0025326660588637184 0 -0.010171391135909993 -0.001678846546321275 0 -0.0086905373946295893 -0.0030719150900978026 0 -0.0088181017903002819 -0.0027224491740536075 0 -0.0088499259187611954 -0.0027628968851449646 0 -0.010914994507059598 -0.0014021015488346633 0 -0.011379922157225469 -0.0012492550239050478 0 -0.011144620813389726 -0.0011754250478895431 0 -0.0076717591052937852 -0.0025326660588637184 0 -0.0083047499490322418 -0.0030706586015127138 0 -0.0070610125619121585 -0.0035351003964618206 0 -0.0069820156049964126 -0.0040232192081462578 0 -0.0077480665150731418 -0.0031065321253949674 0 -0.011379922157225469 -0.0012492550239050478 0 -0.011144620813389726 -0.0011754250478895431 0 -0.01126458558702163 -0.0010146201525529086 0 -0.011144620813389726 -0.0011754250478895431 0 -0.01126458558702163 -0.0010146201525529086 0 -0.011132949675329051 -0.0008799669231021823 0 -0.011423125311827771 -0.0009831671669478625 0 -0.01126458558702163 -0.0010146201525529086 0 -0.011328854089895479 -0.00086556520136361382 0 -0.01126458558702163 -0.0010146201525529086 0 -0.011132949675329051 -0.0008799669231021823 0 -0.011328854089895479 -0.00086556520136361382 0 -0.0072129770948623937 -0.0032273257428652806 0 -0.0070610125619121585 -0.0035351003964618206 0 -0.0077480665150731418 -0.0031065321253949674 0 -0.0083047499490322418 -0.0030706586015127138 0 -0.0088092030481120576 -0.0021114979023199539 0 -0.0077480665150731418 -0.0031065321253949674 0 -0.0079504941460563205 -0.0025471528804786175 0 -0.0088921205819532823 -0.0022098185337157111 0 -0.010171391135909993 -0.001678846546321275 0 -0.010105537248001024 -0.001372094797158478 0 -0.0072129770948623937 -0.0032273257428652806 0 -0.0077480665150731418 -0.0031065321253949674 0 -0.0075424500652069779 -0.0029088504651092798 0 -0.0088181017903002819 -0.0027224491740536075 0 -0.0088499259187611954 -0.0027628968851449646 0 -0.0090109910635649219 -0.002332915504746146 0 -0.011132949675329051 -0.0008799669231021823 0 -0.011359760050372652 -0.00068222382165933674 0 -0.011335185743559279 -0.00040632590594217872 0 -0.011132949675329051 -0.0008799669231021823 0 -0.011328854089895479 -0.00086556520136361382 0 -0.011359760050372652 -0.00068222382165933674 0 -0.0077480665150731418 -0.0031065321253949674 0 -0.0079504941460563205 -0.0025471528804786175 0 -0.0075424500652069779 -0.0029088504651092798 0 -0.011607909868696999 -0.00093038936801980181 0 -0.011663434527872685 -0.00072188465627414441 0 -0.011477367281604938 -0.00079949375529852259 0 -0.011607909868696999 -0.00093038936801980181 0 -0.011663434527872685 -0.00072188465627414441 0 -0.011861291215633432 -0.00087667891583089082 0 -0.011663434527872685 -0.00072188465627414441 0 -0.011477367281604938 -0.00079949375529852259 0 -0.01152230793964797 -0.00063775399731198074 0 -0.011423125311827771 -0.0009831671669478625 0 -0.011328854089895479 -0.00086556520136361382 0 -0.011477367281604938 -0.00079949375529852259 0 -0.011328854089895479 -0.00086556520136361382 0 -0.011477367281604938 -0.00079949375529852259 0 -0.011359760050372652 -0.00068222382165933674 0 -0.011359760050372652 -0.00068222382165933674 0 -0.011467853059498653 -0.00052069115643838839 0 -0.011335185743559279 -0.00040632590594217872 0 -0.011477367281604938 -0.00079949375529852259 0 -0.011359760050372652 -0.00068222382165933674 0 -0.01152230793964797 -0.00063775399731198074 0 -0.011359760050372652 -0.00068222382165933674 0 -0.01152230793964797 -0.00063775399731198074 0 -0.011467853059498653 -0.00052069115643838839 0 -0.01152230793964797 -0.00063775399731198074 0 -0.011639991561802933 -0.00046799803392300315 0 -0.011467853059498653 -0.00052069115643838839 0 -0.011663434527872685 -0.00072188465627414441 0 -0.01152230793964797 -0.00063775399731198074 0 -0.011639991561802933 -0.00046799803392300315 0 -0.011663434527872685 -0.00072188465627414441 0 -0.011639991561802933 -0.00046799803392300315 0 -0.011926539165001287 -0.00057191564277063174 0 -0.0091233239756452825 -0.0019662973648154869 0 -0.0095817345388753816 -0.0016476189566291511 0 -0.0090109910635649219 -0.002332915504746146 0 -0.011637121003380243 -0.0011444655453541552 0 -0.010105537248001024 -0.001372094797158478 0 -0.011510641534040494 5.6682338317865541e-05 0 -0.011576001058204969 -0.00025126511632611283 0 -0.011335185743559279 -0.00040632590594217872 0 -0.011639991561802933 -0.00046799803392300315 0 -0.011504480409743624 -0.00041139633959906557 0 -0.011576001058204969 -0.00025126511632611283 0 -0.011504480409743624 -0.00041139633959906557 0 -0.011576001058204969 -0.00025126511632611283 0 -0.011335185743559279 -0.00040632590594217872 0 -0.011639991561802933 -0.00046799803392300315 0 -0.011504480409743624 -0.00041139633959906557 0 -0.011467853059498653 -0.00052069115643838839 0 -0.011504480409743624 -0.00041139633959906557 0 -0.011467853059498653 -0.00052069115643838839 0 -0.011335185743559279 -0.00040632590594217872 0 -0.011639991561802933 -0.00046799803392300315 0 -0.011576001058204969 -0.00025126511632611283 0 -0.011909151955995775 -0.00017058019047642381 0 -0.0088181017903002819 -0.0027224491740536075 0 -0.0090109910635649219 -0.002332915504746146 0 -0.0088921205819532823 -0.0022098185337157111 0 -0.0079504941460563205 -0.0025471528804786175 0 -0.0088921205819532823 -0.0022098185337157111 0 -0.0081730848935231224 -0.0021337999287095273 0 -0.0091233239756452825 -0.0019662973648154869 0 -0.0090109910635649219 -0.002332915504746146 0 -0.0088921205819532823 -0.0022098185337157111 0 -0.0089201385932046965 -0.0018735152263445885 0 -0.0091233239756452825 -0.0019662973648154869 0 -0.0088921205819532823 -0.0022098185337157111 0 -0.0089201385932046965 -0.0018735152263445885 0 -0.0088921205819532823 -0.0022098185337157111 0 -0.0081730848935231224 -0.0021337999287095273 0 -0.0079504941460563205 -0.0025471528804786175 0 -0.0073689243052600202 -0.002248611697072864 0 -0.0075424500652069779 -0.0029088504651092798 0 -0.0079504941460563205 -0.0025471528804786175 0 -0.0081730848935231224 -0.0021337999287095273 0 -0.0073689243052600202 -0.002248611697072864 0 -0.011534254407646079 -0.0016448111044267061 0 -0.010425520507231062 -0.0011826261752476799 0 -0.010342855647285768 -0.0021181901818014912 0 -0.011340848546154123 -0.00057708103021985484 0 -0.011534254407646079 -0.0016448111044267061 0 -0.010425520507231062 -0.0011826261752476799 0 -0.010567684673112395 -0.0030612118289490512 0 -0.011534254407646079 -0.0016448111044267061 0 -0.010342855647285768 -0.0021181901818014912 0 -0.008352325134702434 -0.003153059642729595 0 -0.0094456354696030986 -0.0019861569034716241 0 -0.0061367372584130719 -0.0032502437410263413 0 -0.0073689243052600202 -0.002248611697072864 0 -0.0069574200476996504 -0.0031200452059366476 0 -0.0073689243052600202 -0.002248611697072864 0 -0.0069574200476996504 -0.0031200452059366476 0 -0.0075424500652069779 -0.0029088504651092798 0 -0.0072129770948623937 -0.0032273257428652806 0 -0.0069574200476996504 -0.0031200452059366476 0 -0.0075424500652069779 -0.0029088504651092798 0 -0.015096573547548847 -6.8520756076642024e-05 0 -0.015163318384105898 -0.00017782427082428144 0 -0.015501700798847743 0.0002072908340688463 0 -0.014047650663590641 0.00061242448611515364 0 -0.013291150804153584 -0.00032521815978425744 0 -0.01411333894434897 -0.00080570875011271535 0 -0.014047650663590641 0.00061242448611515364 0 -0.015163318384105898 -0.00017782427082428144 0 -0.01411333894434897 -0.00080570875011271535 0 -0.014488322655804787 0.0002779291273415647 0 -0.015112036557173861 -0.00011558539725460966 0 -0.01591457433965637 7.151390834169726e-05 0 -0.015163318384105898 -0.00017782427082428144 0 -0.015501700798847743 0.0002072908340688463 0 -0.015096573547548847 -6.8520756076642024e-05 0 -0.015160205145545842 0.00023248951680924815 0 -0.014858786239703804 7.0048204083197205e-05 0 -0.015096573547548847 -6.8520756076642024e-05 0 -0.015501700798847743 0.0002072908340688463 0 -0.015160205145545842 0.00023248951680924815 0 -0.014488322655804787 0.0002779291273415647 0 -0.013942680295086961 -0.00034019793276696483 0 -0.013942680295086961 -0.00034019793276696483 0 -0.013137306063601747 -0.00093535230290963073 0 -0.011639991561802933 -0.00046799803392300315 0 -0.011909151955995775 -0.00017058019047642381 0 -0.011926539165001287 -0.00057191564277063174 0 -0.012311782346180241 -0.00040464933997926526 0 -0.011909151955995775 -0.00017058019047642381 0 -0.011926539165001287 -0.00057191564277063174 0 -0.012311782346180241 -0.00040464933997926526 0 -0.011926539165001287 -0.00057191564277063174 0 -0.012138200833704964 -0.00079664195376879349 0 -0.011926539165001287 -0.00057191564277063174 0 -0.011861291215633432 -0.00087667891583089082 0 -0.012138200833704964 -0.00079664195376879349 0 -0.011663434527872685 -0.00072188465627414441 0 -0.011926539165001287 -0.00057191564277063174 0 -0.011861291215633432 -0.00087667891583089082 0 -0.014047650663590641 0.00061242448611515364 0 -0.012985048153077489 0.001260250180710121 0 -0.012425005659308029 -4.251154523423267e-06 0 -0.013942680295086961 -0.00034019793276696483 0 -0.012280552856514986 -0.00036968674237568153 0 -0.014047650663590641 0.00061242448611515364 0 -0.012425005659308029 -4.251154523423267e-06 0 -0.013291150804153584 -0.00032521815978425744 0 -0.013291150804153584 -0.00032521815978425744 0 -0.012562546167240738 -0.0011668209129028588 0 -0.01411333894434897 -0.00080570875011271535 0 -0.012425005659308029 -4.251154523423267e-06 0 -0.013291150804153584 -0.00032521815978425744 0 -0.012562546167240738 -0.0011668209129028588 0 -0.012562546167240738 -0.0011668209129028588 0 -0.014029475654059383 -0.0018662217775071632 0 -0.01411333894434897 -0.00080570875011271535 0 -0.012425005659308029 -4.251154523423267e-06 0 -0.012562546167240738 -0.0011668209129028588 0 -0.011994051222957989 -0.0011747719977199219 0 -0.012280552856514986 -0.00036968674237568153 0 -0.012015449528737723 -0.001098251702205805 0 -0.011861291215633432 -0.00087667891583089082 0 -0.012138200833704964 -0.00079664195376879349 0 -0.011994051222957989 -0.0011747719977199219 0 -0.011747016446847169 -0.0010887923997736782 0 -0.011861291215633432 -0.00087667891583089082 0 -0.011994051222957989 -0.0011747719977199219 0 -0.011696689535170907 -0.0013049853472297916 0 -0.011747016446847169 -0.0010887923997736782 0 -0.011994051222957989 -0.0011747719977199219 0 -0.011696689535170907 -0.0013049853472297916 0 -0.011994051222957989 -0.0011747719977199219 0 -0.012016935496424181 -0.0015396126880434249 0 -0.012562546167240738 -0.0011668209129028588 0 -0.011994051222957989 -0.0011747719977199219 0 -0.012016935496424181 -0.0015396126880434249 0 -0.012562546167240738 -0.0011668209129028588 0 -0.012016935496424181 -0.0015396126880434249 0 -0.01228248001625077 -0.0016347645770203683 0 -0.012562546167240738 -0.0011668209129028588 0 -0.01228248001625077 -0.0016347645770203683 0 -0.012411773569289039 -0.0015860542722389921 0 -0.012585912569899793 -0.0011868368733007073 0 -0.013171931263231582 -0.0016544606776217421 0 -0.01228248001625077 -0.0016347645770203683 0 -0.012411773569289039 -0.0015860542722389921 0 -0.012241130530063588 -0.0018528028872369278 0 -0.014029475654059383 -0.0018662217775071632 0 -0.014622235394926955 -0.0013539740900280644 0 -0.01411333894434897 -0.00080570875011271535 0 -0.014029475654059383 -0.0018662217775071632 0 -0.014844803001341458 -0.0017406885262957284 0 -0.014960585457118949 -0.0022140464197387792 0 -0.014029475654059383 -0.0018662217775071632 0 -0.014622235394926955 -0.0013539740900280644 0 -0.014844803001341458 -0.0017406885262957284 0 -0.014622235394926955 -0.0013539740900280644 0 -0.01411333894434897 -0.00080570875011271535 0 -0.015132242206867591 -0.00090737324030551187 0 -0.015163318384105898 -0.00017782427082428144 0 -0.01411333894434897 -0.00080570875011271535 0 -0.015132242206867591 -0.00090737324030551187 0 -0.016034961810417064 -0.00084829489808103487 0 -0.015163318384105898 -0.00017782427082428144 0 -0.015132242206867591 -0.00090737324030551187 0 -0.016034961810417064 -0.00084829489808103487 0 -0.015132242206867591 -0.00090737324030551187 0 -0.015353320755708808 -0.0013753589182338953 0 -0.014622235394926955 -0.0013539740900280644 0 -0.015132242206867591 -0.00090737324030551187 0 -0.015353320755708808 -0.0013753589182338953 0 -0.014622235394926955 -0.0013539740900280644 0 -0.015353320755708808 -0.0013753589182338953 0 -0.014844803001341458 -0.0017406885262957284 0 -0.015711489392938548 -0.0015997171546780868 0 -0.015353320755708808 -0.0013753589182338953 0 -0.015292091605037507 -0.0018474809026444085 0 -0.015353320755708808 -0.0013753589182338953 0 -0.014844803001341458 -0.0017406885262957284 0 -0.015292091605037507 -0.0018474809026444085 0 -0.015648162035502532 -0.0020655903276345215 0 -0.015292091605037507 -0.0018474809026444085 0 -0.015400030914653575 -0.0022143302313614695 0 -0.013872286841586982 -0.0021203586336701699 0 -0.01236849033525984 -0.0017465348839108225 0 -0.012921592854292856 -0.0020236742908845305 0 -0.012641976491194586 -0.0017897063785252125 0 -0.012542602308949557 -0.0017595281069997624 0 -0.015292091605037507 -0.0018474809026444085 0 -0.015400030914653575 -0.0022143302313614695 0 -0.014960585457118949 -0.0022140464197387792 0 -0.013872286841586982 -0.0021203586336701699 0 -0.013862449904743583 -0.0020742739562058369 0 -0.015691046172449746 -0.0027876722126360066 0 -0.015400030914653575 -0.0022143302313614695 0 -0.014960585457118949 -0.0022140464197387792 0 -0.014844803001341458 -0.0017406885262957284 0 -0.015292091605037507 -0.0018474809026444085 0 -0.014960585457118949 -0.0022140464197387792 0 -0.013171931263231582 -0.0016544606776217421 0 -0.013862449904743583 -0.0020742739562058369 0 -0.012411773569289039 -0.0015860542722389921 0 -0.012542602308949557 -0.0017595281069997624 0 -0.012340080811363889 -0.0018850229045848264 0 -0.012411773569289039 -0.0015860542722389921 0 -0.012641976491194586 -0.0017897063785252125 0 -0.012542602308949557 -0.0017595281069997624 0 -0.012411773569289039 -0.0015860542722389921 0 -0.012340080811363889 -0.0018850229045848264 0 -0.012241130530063588 -0.0018528028872369278 0 -0.012340080811363889 -0.0018850229045848264 0 -0.012107587472944333 -0.002221166328526974 0 -0.012241130530063588 -0.0018528028872369278 0 -0.012542602308949557 -0.0017595281069997624 0 -0.012340080811363889 -0.0018850229045848264 0 -0.012479239053910064 -0.0021200033182201829 0 -0.012542602308949557 -0.0017595281069997624 0 -0.012479239053910064 -0.0021200033182201829 0 -0.012852380536214297 -0.0023141304689902032 0 -0.012107587472944333 -0.002221166328526974 0 -0.01206822999190405 -0.0030854616184596744 0 -0.0098463612495826008 -0.0030412409716266899 0 -0.012340080811363889 -0.0018850229045848264 0 -0.012479239053910064 -0.0021200033182201829 0 -0.012107587472944333 -0.002221166328526974 0 -0.01206822999190405 -0.0030854616184596744 0 -0.012544235955918458 -0.0025175760911139407 0 -0.013043350582053637 -0.0029254860773532529 0 -0.011997266686461599 -0.0032157965984168551 0 -0.0088816375884258891 -0.0033454187294829673 0 -0.012479239053910064 -0.0021200033182201829 0 -0.012107587472944333 -0.002221166328526974 0 -0.012544235955918458 -0.0025175760911139407 0 -0.012479239053910064 -0.0021200033182201829 0 -0.012544235955918458 -0.0025175760911139407 0 -0.012852380536214297 -0.0023141304689902032 0 -0.012107587472944333 -0.002221166328526974 0 -0.01206822999190405 -0.0030854616184596744 0 -0.012544235955918458 -0.0025175760911139407 0 -0.012544235955918458 -0.0025175760911139407 0 -0.012852380536214297 -0.0023141304689902032 0 -0.013043350582053637 -0.0029254860773532529 0 -0.013543789261476029 -0.0023842601093125087 0 -0.012542602308949557 -0.0017595281069997624 0 -0.012852380536214297 -0.0023141304689902032 0 -0.013543789261476029 -0.0023842601093125087 0 -0.012852380536214297 -0.0023141304689902032 0 -0.013043350582053637 -0.0029254860773532529 0 -0.013872286841586982 -0.0021203586336701699 0 -0.0088816375884258891 -0.0033454187294829673 0 -0.0073974938527386208 -0.0017309563396419203 0 -0.0071471547737852114 -0.00059360931062498313 0 -0.0090888540871542581 -0.0011559222880603039 0 -0.0093870526724408997 -0.00090254945356091538 0 -0.010644981079462391 -0.0015853812316516467 0 -0.01154552573748277 -0.001679443118490754 0 -0.012016935496424181 -0.0015396126880434249 0 -0.012107899399807203 -0.0018753185567369967 0 -0.012016935496424181 -0.0015396126880434249 0 -0.01228248001625077 -0.0016347645770203683 0 -0.012107899399807203 -0.0018753185567369967 0 -0.012107587472944333 -0.002221166328526974 0 -0.012107899399807203 -0.0018753185567369967 0 -0.012241130530063588 -0.0018528028872369278 0 -0.01228248001625077 -0.0016347645770203683 0 -0.012107899399807203 -0.0018753185567369967 0 -0.012241130530063588 -0.0018528028872369278 0 -0.012107587472944333 -0.002221166328526974 0 -0.0090888540871542581 -0.0011559222880603039 0 -0.0098463612495826008 -0.0030412409716266899 0 -0.011997266686461599 -0.0032157965984168551 0 -0.0098504357678881865 -0.0030314624024569223 0 -0.012042261372749783 -0.0021841151319520638 0 -0.010644981079462391 -0.0015853812316516467 0 -0.0073974938527386208 -0.0017309563396419203 0 -0.0090888540871542581 -0.0011559222880603039 0 -0.0085629085811617101 -0.0024446253735438015 0 -0.0090888540871542581 -0.0011559222880603039 0 -0.0098463612495826008 -0.0030412409716266899 0 -0.0085629085811617101 -0.0024446253735438015 0 -0.0098463612495826008 -0.0030412409716266899 0 -0.0085629085811617101 -0.0024446253735438015 0 -0.0090025923791444678 -0.0035784761220562207 0 -0.0075786179140115957 -0.0029035330700559257 0 -0.0085629085811617101 -0.0024446253735438015 0 -0.0090025923791444678 -0.0035784761220562207 0 -0.0075786179140115957 -0.0029035330700559257 0 -0.0073974938527386208 -0.0017309563396419203 0 -0.0085629085811617101 -0.0024446253735438015 0 -0.0070480447324410582 -0.0038506981500269406 0 -0.0077914016343030943 -0.0037079980518989887 0 -0.0076692203388797116 -0.0042142278671209637 0 -0.0076046877653211135 -0.0030204228709210285 0 -0.0080164730045303254 -0.0041011783306546508 0 -0.0075786179140115957 -0.0029035330700559257 0 -0.0083590990818307731 -0.0042932442533521872 0 -0.0090025923791444678 -0.0035784761220562207 0 -0.0083590990818307731 -0.0042932442533521872 0 -0.0090025923791444678 -0.0035784761220562207 0 -0.0091050635860106689 -0.0043856092396649853 0 -0.01090524767540414 -0.0032637928288161313 0 -0.0098463612495826008 -0.0030412409716266899 0 -0.010323916244633344 -0.0037065438477659465 0 -0.0090025923791444678 -0.0035784761220562207 0 -0.0091050635860106689 -0.0043856092396649853 0 -0.0096360084821611961 -0.0041038255311070032 0 -0.0091050635860106689 -0.0043856092396649853 0 -0.0096360084821611961 -0.0041038255311070032 0 -0.0095647486119228818 -0.0047013747740132705 0 -0.0096360084821611961 -0.0041038255311070032 0 -0.010134264797101 -0.004380602233418387 0 -0.0095647486119228818 -0.0047013747740132705 0 -0.0098463612495826008 -0.0030412409716266899 0 -0.0090025923791444678 -0.0035784761220562207 0 -0.0096360084821611961 -0.0041038255311070032 0 -0.0098463612495826008 -0.0030412409716266899 0 -0.0096360084821611961 -0.0041038255311070032 0 -0.010323916244633344 -0.0037065438477659465 0 -0.0096360084821611961 -0.0041038255311070032 0 -0.010323916244633344 -0.0037065438477659465 0 -0.010134264797101 -0.004380602233418387 0 -0.010134264797101 -0.004380602233418387 0 -0.010018359314424088 -0.0052230790472322791 0 -0.0095647486119228818 -0.0047013747740132705 0 0.0038811226762572649 -0.0044660490876827132 0 -0.0025878164865727172 -0.0032988936295509541 0 0.0035434721285002571 -0.0046166228190955647 0 0.0010731637525100788 -0.0047489027450482125 0 0.0018916223154552827 -0.003197141818151636 0 -0.0084183998545146899 -0.0050571570052590584 0 -0.0083046235820291893 -0.0051460506912364042 0 -0.0089636404234768527 -0.0051791071812807036 0 -0.0025878164865727172 -0.0032988936295509541 0 -0.010393312466420781 -0.0048566486194012532 0 -0.0084183998545146899 -0.0050571570052590584 0 -0.0089564249992913712 -0.0052479574703365364 0 -0.0089636404234768527 -0.0051791071812807036 0 0.0038811226762572649 -0.0044660490876827132 0 -0.0052411786713009124 -0.0058178443891116994 0 0.0038811226762572649 -0.0044660490876827132 0 0.0066491677133333447 -0.0037372832088543918 0 -0.010018359314424088 -0.0052230790472322791 0 -0.0095647486119228818 -0.0047013747740132705 0 -0.0089636404234768527 -0.0051791071812807036 0 -0.0091050635860106689 -0.0043856092396649853 0 -0.0095647486119228818 -0.0047013747740132705 0 -0.0089636404234768527 -0.0051791071812807036 0 -0.0080164730045303254 -0.0041011783306546508 0 -0.0052411786713009124 -0.0058178443891116994 0 -0.0083590990818307731 -0.0042932442533521872 0 -0.0091050635860106689 -0.0043856092396649853 0 -0.0089636404234768527 -0.0051791071812807036 0 -0.0083590990818307731 -0.0042932442533521872 0 -0.0089564249992913712 -0.0052479574703365364 0 -0.0089636404234768527 -0.0051791071812807036 0 -0.0077914016343030943 -0.0037079980518989887 0 -0.0081997591876857828 -0.004567549625173771 0 -0.0076692203388797116 -0.0042142278671209637 0 -0.0077184155667892823 -0.0046023236806420368 0 -0.0075376763620789919 -0.0048531555356082206 0 -0.0078590537292980139 -0.0048558112542805227 0 -0.0052411786713009124 -0.0058178443891116994 0 0.0066491677133333447 -0.0037372832088543918 0 -0.0080808468922908515 -0.0046793894908608285 0 -0.0052411786713009124 -0.0058178443891116994 0 -0.0072109171744522277 -0.0045060864254436771 0 -0.0077184155667892823 -0.0046023236806420368 0 -0.0072914032749379727 -0.004812300404186674 0 -0.0072109171744522277 -0.0045060864254436771 0 -0.0081997591876857828 -0.004567549625173771 0 -0.0076692203388797116 -0.0042142278671209637 0 -0.0077184155667892823 -0.0046023236806420368 0 -0.0072914032749379727 -0.004812300404186674 0 -0.0075376763620789919 -0.0048531555356082206 0 -0.0034159913543059099 -0.0030266914342556434 0 -0.0038078080165829327 -0.0033860011347039798 0 -0.0037684511402556312 -0.0027181462712737815 0 -0.0038078080165829327 -0.0033860011347039798 0 -0.0041358521112658635 -0.003063771046367114 0 -0.0037684511402556312 -0.0027181462712737815 0 -0.0088816375884258891 -0.0033454187294829673 0 -0.0079517903026238741 -0.003436740658420459 0 -0.01090524767540414 -0.0032637928288161313 0 -0.0119892116784728 -0.0033823908636890815 0 -0.011083584634826065 -0.0042158621878537802 0 -0.01090524767540414 -0.0032637928288161313 0 -0.010323916244633344 -0.0037065438477659465 0 -0.011083584634826065 -0.0042158621878537802 0 -0.010323916244633344 -0.0037065438477659465 0 -0.010134264797101 -0.004380602233418387 0 -0.011083584634826065 -0.0042158621878537802 0 0.015884315730839798 -0.0032877971043564496 0 0.016002704677351189 -0.0031923109412031097 0 0.015959073624350884 -0.0032510746505926874 0 -0.0044586118338276496 -0.0027743834191651423 0 -0.0041358521112658635 -0.003063771046367114 0 -0.0037684511402556312 -0.0027181462712737815 0 0.0038811226762572649 -0.0044660490876827132 0 0.01150363306835386 -0.0027305141843883933 0 -0.0025878164865727172 -0.0032988936295509541 0 0.00087401010196151772 -0.0027399169015819131 0 0.0028452244529531836 -0.0031329008284844955 0 0.0049128310921588347 -0.0028600454205827308 0 0.0049004513529469712 -0.0027616759013260697 0 0.0026933497823280949 -0.0030101409983817489 0 0.0028452244529531836 -0.0031329008284844955 0 0.0049004513529469712 -0.0027616759013260697 0 -0.010134264797101 -0.004380602233418387 0 -0.010018359314424088 -0.0052230790472322791 0 -0.011083584634826065 -0.0042158621878537802 0 -0.0025878164865727172 -0.0032988936295509541 0 -0.0079517903026238741 -0.003436740658420459 0 0.016002704677351189 -0.0031923109412031097 0 0.016013869310003741 -0.0032325510648784223 0 0.016061588427825443 -0.0031968053452261524 0 0.016002704677351189 -0.0031923109412031097 0 0.016013869310003741 -0.0032325510648784223 0 0.015959073624350884 -0.0032510746505926874 0 0.016013869310003741 -0.0032325510648784223 0 0.015959073624350884 -0.0032510746505926874 0 0.016032865483713542 -0.003260633622597518 0 0.016043180087941058 -0.0033200955312555781 0 0.016032865483713542 -0.003260633622597518 0 0.016114323757411751 -0.0034846194916493128 0 0.016013869310003741 -0.0032325510648784223 0 0.016043180087941058 -0.0033200955312555781 0 0.016061588427825443 -0.0031968053452261524 0 0.016013869310003741 -0.0032325510648784223 0 0.016043180087941058 -0.0033200955312555781 0 0.016032865483713542 -0.003260633622597518 0 0.016061588427825443 -0.0031968053452261524 0 0.016173210024992436 -0.0032338712231822714 0 0.016101522496947258 -0.0031935365368319247 0 0.016043180087941058 -0.0033200955312555781 0 0.016061588427825443 -0.0031968053452261524 0 0.016173210024992436 -0.0032338712231822714 0 -0.0072757250723570459 -0.0051811157503882516 0 -0.0078590537292980139 -0.0048558112542805227 0 -0.006973808594927116 -0.0057588856886960178 0 0.0066491677133333447 -0.0037372832088543918 0 0.0021784928239318479 -0.0063147708494287295 0 0.015182910706896695 -0.0055892069858729503 0 0.015028899487692118 -0.0049363908706671336 0 0.014726977319199318 -0.0048777239615106762 0 0.015182910706896695 -0.0055892069858729503 0 0.014726977319199318 -0.0048777239615106762 0 0.014224954105235875 -0.0048224436228194402 0 -0.0072757250723570459 -0.0051811157503882516 0 -0.0072914032749379727 -0.004812300404186674 0 -0.0070983368605532079 -0.0050899494960294413 0 -0.0072757250723570459 -0.0051811157503882516 0 -0.0072914032749379727 -0.004812300404186674 0 -0.0075376763620789919 -0.0048531555356082206 0 -0.0072757250723570459 -0.0051811157503882516 0 -0.0075376763620789919 -0.0048531555356082206 0 -0.0078590537292980139 -0.0048558112542805227 0 0.015182910706896695 -0.0055892069858729503 0 0.015762064688011574 -0.004643970835736146 0 0.015326154958015351 -0.0047932894954413052 0 0.0066491677133333447 -0.0037372832088543918 0 0.016836633859548956 -0.0036006549587436292 0 0.015182910706896695 -0.0055892069858729503 0 0.015326154958015351 -0.0047932894954413052 0 0.015028899487692118 -0.0049363908706671336 0 0.015853302961235452 -0.0032618901440304628 0 0.015959073624350884 -0.0032510746505926874 0 0.016032865483713542 -0.003260633622597518 0 0.015884315730839798 -0.0032877971043564496 0 0.015853302961235452 -0.0032618901440304628 0 0.015959073624350884 -0.0032510746505926874 0 0.015762064688011574 -0.004643970835736146 0 0.015284375513809624 -0.0043927813521508425 0 0.015654808789702625 -0.0040740516468870339 0 0.015762064688011574 -0.004643970835736146 0 0.015284375513809624 -0.0043927813521508425 0 0.015326154958015351 -0.0047932894954413052 0 0.015326154958015351 -0.0047932894954413052 0 0.015028899487692118 -0.0049363908706671336 0 0.014938083942098069 -0.0046101509998789127 0 0.015284375513809624 -0.0043927813521508425 0 0.015326154958015351 -0.0047932894954413052 0 0.014938083942098069 -0.0046101509998789127 0 0.015028899487692118 -0.0049363908706671336 0 0.014938083942098069 -0.0046101509998789127 0 0.014726977319199318 -0.0048777239615106762 0 0.015284375513809624 -0.0043927813521508425 0 0.014938083942098069 -0.0046101509998789127 0 0.014884969009539829 -0.0042077975359374204 0 0.014533814738553266 -0.0045438945039890143 0 0.014884969009539829 -0.0042077975359374204 0 0.014461437988668254 -0.0041431793169642685 0 0.014938083942098069 -0.0046101509998789127 0 0.014533814738553266 -0.0045438945039890143 0 0.014884969009539829 -0.0042077975359374204 0 0.014938083942098069 -0.0046101509998789127 0 0.014533814738553266 -0.0045438945039890143 0 0.014726977319199318 -0.0048777239615106762 0 0.014533814738553266 -0.0045438945039890143 0 0.014726977319199318 -0.0048777239615106762 0 0.014224954105235875 -0.0048224436228194402 0 0.014867904420183355 -0.003555319181877104 0 0.014884969009539829 -0.0042077975359374204 0 0.014461437988668254 -0.0041431793169642685 0 0.015284375513809624 -0.0043927813521508425 0 0.014884969009539829 -0.0042077975359374204 0 0.015455412316535319 -0.0038075004971544406 0 0.014867904420183355 -0.003555319181877104 0 0.014884969009539829 -0.0042077975359374204 0 0.015455412316535319 -0.0038075004971544406 0 0.014867904420183355 -0.003555319181877104 0 0.015455412316535319 -0.0038075004971544406 0 0.015409916618756479 -0.0034482269624437037 0 0.015455412316535319 -0.0038075004971544406 0 0.015771826585305439 -0.0035065820783650391 0 0.016114323757411751 -0.0034846194916493128 0 0.015762064688011574 -0.004643970835736146 0 0.015654808789702625 -0.0040740516468870339 0 0.016114323757411751 -0.0034846194916493128 0 0.015455412316535319 -0.0038075004971544406 0 0.015654808789702625 -0.0040740516468870339 0 0.016114323757411751 -0.0034846194916493128 0 0.015284375513809624 -0.0043927813521508425 0 0.015455412316535319 -0.0038075004971544406 0 0.015654808789702625 -0.0040740516468870339 0 0.015971308233642567 -0.0034415748702948251 0 0.016084292085452843 -0.0033355038077347247 0 0.015691853642499299 -0.0032534405127207667 0 0.015771826585305439 -0.0035065820783650391 0 0.015971308233642567 -0.0034415748702948251 0 0.015691853642499299 -0.0032534405127207667 0 0.015771826585305439 -0.0035065820783650391 0 0.015409916618756479 -0.0034482269624437037 0 0.015691853642499299 -0.0032534405127207667 0 0.015409916618756479 -0.0034482269624437037 0 0.015222462475332319 -0.003248593910645462 0 0.015691853642499299 -0.0032534405127207667 0 0.015455412316535319 -0.0038075004971544406 0 0.015771826585305439 -0.0035065820783650391 0 0.015409916618756479 -0.0034482269624437037 0 0.014867904420183355 -0.003555319181877104 0 0.015409916618756479 -0.0034482269624437037 0 0.015222462475332319 -0.003248593910645462 0 0.014867904420183355 -0.003555319181877104 0 0.015222462475332319 -0.003248593910645462 0 0.014926512911619524 -0.0032516083519360814 0 0.016173210024992436 -0.0032338712231822714 0 0.016260857874001708 -0.0032288710851890493 0 0.016101522496947258 -0.0031935365368319247 0 0.016043180087941058 -0.0033200955312555781 0 0.016173210024992436 -0.0032338712231822714 0 0.016302912890447652 -0.0032151954727848309 0 0.016043180087941058 -0.0033200955312555781 0 0.016114323757411751 -0.0034846194916493128 0 0.016149719253799169 -0.003504479606357172 0 0.016065965507806968 -0.0033340539273230482 0 0.016243610589238074 -0.0033558128333818155 0 0.016836633859548956 -0.0036006549587436292 0 0.015853314491082984 -0.0037571539505651618 0 0.016114323757411751 -0.0034846194916493128 0 0.016149719253799169 -0.003504479606357172 0 0.015971308233642567 -0.0034415748702948251 0 0.015771826585305439 -0.0035065820783650391 0 0.016114323757411751 -0.0034846194916493128 0 0.015971308233642567 -0.0034415748702948251 0 0.016149719253799169 -0.003504479606357172 0 0.015971308233642567 -0.0034415748702948251 0 0.016084292085452843 -0.0033355038077347247 0 0.016173210024992436 -0.0032338712231822714 0 0.016302912890447652 -0.0032151954727848309 0 0.016260857874001708 -0.0032288710851890493 0 0.016302912890447652 -0.0032151954727848309 0 0.016260857874001708 -0.0032288710851890493 0 0.016406356148128392 -0.0033014956085018489 0 0.016260857874001708 -0.0032288710851890493 0 0.016406356148128392 -0.0033014956085018489 0 0.016309902940293535 -0.0032804838167035783 0 0.016406356148128392 -0.0033014956085018489 0 0.016488468035632534 -0.0033899404503951701 0 0.016309902940293535 -0.0032804838167035783 0 0.016302912890447652 -0.0032151954727848309 0 0.016406356148128392 -0.0033014956085018489 0 0.016700615922091121 -0.0034845117286502027 0 0.016406356148128392 -0.0033014956085018489 0 0.016488468035632534 -0.0033899404503951701 0 0.016700615922091121 -0.0034845117286502027 0 0.016488468035632534 -0.0033899404503951701 0 0.016577760699815463 -0.0035499275735338329 0 0.016700615922091121 -0.0034845117286502027 0 0.016488468035632534 -0.0033899404503951701 0 0.016577760699815463 -0.0035499275735338329 0 0.0164356232664974 -0.0034241886324337936 0 0.016577760699815463 -0.0035499275735338329 0 0.016700615922091121 -0.0034845117286502027 0 0.016669442536978378 -0.0037644321347047849 0 0.016700615922091121 -0.0034845117286502027 0 0.016669442536978378 -0.0037644321347047849 0 0.016758409394849905 -0.0038844649226265765 0 0.01695605542610195 -0.0035733557653827258 0 0.017207992104341402 -0.0032967553787952614 0 0.017287187046066337 -0.0036342575024348161 0 0.01695605542610195 -0.0035733557653827258 0 0.017287187046066337 -0.0036342575024348161 0 0.017266996586588198 -0.0039606269127557695 0 0.016658035001490826 -0.0032727107920056259 0 0.01695605542610195 -0.0035733557653827258 0 0.016953979124395328 -0.0038284857644496095 0 0.016658035001490826 -0.0032727107920056259 0 0.016786574555798333 -0.0033589734511615117 0 0.016490280150614652 -0.0032653174380571966 0 0.016658035001490826 -0.0032727107920056259 0 0.01695605542610195 -0.0035733557653827258 0 0.016786574555798333 -0.0033589734511615117 0 0.01695605542610195 -0.0035733557653827258 0 0.016786574555798333 -0.0033589734511615117 0 0.017207992104341402 -0.0032967553787952614 0 0.016786574555798333 -0.0033589734511615117 0 0.016490280150614652 -0.0032653174380571966 0 0.017207992104341402 -0.0032967553787952614 0 0.016243610589238074 -0.0033558128333818155 0 0.016680400274611644 -0.0034088116784237086 0 0.016490280150614652 -0.0032653174380571966 0 0.015909106548857212 -0.0030834244850357945 0 0.015930967586854704 -0.0028256184461770617 0 0.016490280150614652 -0.0032653174380571966 0 0.016084292085452843 -0.0033355038077347247 0 0.015909106548857212 -0.0030834244850357945 0 0.016149719253799169 -0.003504479606357172 0 0.016490280150614652 -0.0032653174380571966 0 0.016084292085452843 -0.0033355038077347247 0 0.016149719253799169 -0.003504479606357172 0 0.016658035001490826 -0.0032727107920056259 0 0.016490280150614652 -0.0032653174380571966 0 0.016511557094087904 -0.0031961696640598423 0 0.016561852524482314 -0.003224306407622105 0 0.016084292085452843 -0.0033355038077347247 0 0.015691853642499299 -0.0032534405127207667 0 0.015909106548857212 -0.0030834244850357945 0 0.015222462475332319 -0.003248593910645462 0 0.015691853642499299 -0.0032534405127207667 0 0.015327729957513095 -0.0029801207714664868 0 0.015598212658571569 -0.0029666028452051906 0 0.015327729957513095 -0.0029801207714664868 0 0.015429024629846006 -0.0028439064969989661 0 0.015691853642499299 -0.0032534405127207667 0 0.015598212658571569 -0.0029666028452051906 0 0.015327729957513095 -0.0029801207714664868 0 0.015691853642499299 -0.0032534405127207667 0 0.015598212658571569 -0.0029666028452051906 0 0.015909106548857212 -0.0030834244850357945 0 0.015598212658571569 -0.0029666028452051906 0 0.015909106548857212 -0.0030834244850357945 0 0.015590577725266671 -0.0026942768338724873 0 0.015222462475332319 -0.003248593910645462 0 0.014926512911619524 -0.0032516083519360814 0 0.015091690747338094 -0.0030674522178379513 0 0.014926512911619524 -0.0032516083519360814 0 0.015091690747338094 -0.0030674522178379513 0 0.014872755810191072 -0.0030308646633367873 0 0.015222462475332319 -0.003248593910645462 0 0.015091690747338094 -0.0030674522178379513 0 0.015327729957513095 -0.0029801207714664868 0 0.015091690747338094 -0.0030674522178379513 0 0.01506990327034614 -0.0028830430759658127 0 0.014872755810191072 -0.0030308646633367873 0 0.015091690747338094 -0.0030674522178379513 0 0.015327729957513095 -0.0029801207714664868 0 0.01506990327034614 -0.0028830430759658127 0 0.016433548878346096 -0.0033323519058498139 0 0.016461409263411921 -0.0033329588490260726 0 0.016454406460619016 -0.0033297854884762994 0 0.015554680302308103 -0.0028539037859200622 0 0.016071131235441301 -0.0030382002254851523 0 0.015228270373684837 -0.0027460486228746482 0 0.014995682689370862 -0.0025609358821667384 0 0.015590577725266671 -0.0026942768338724873 0 0.01506990327034614 -0.0028830430759658127 0 0.015008985325263766 -0.0027200528006654165 0 0.015228270373684837 -0.0027460486228746482 0 0.01506990327034614 -0.0028830430759658127 0 0.015008985325263766 -0.0027200528006654165 0 0.014908807137504367 -0.0028097547608859894 0 0.015327729957513095 -0.0029801207714664868 0 0.015228270373684837 -0.0027460486228746482 0 0.015429024629846006 -0.0028439064969989661 0 0.015327729957513095 -0.0029801207714664868 0 0.01506990327034614 -0.0028830430759658127 0 0.015228270373684837 -0.0027460486228746482 0 0.015008985325263766 -0.0027200528006654165 0 0.015228270373684837 -0.0027460486228746482 0 0.014995682689370862 -0.0025609358821667384 0 0.015909106548857212 -0.0030834244850357945 0 0.015930967586854704 -0.0028256184461770617 0 0.015590577725266671 -0.0026942768338724873 0 0.016561852524482314 -0.003224306407622105 0 0.017105854096520403 -0.0035115991212092417 0 0.016561852524482314 -0.003224306407622105 0 0.016071131235441301 -0.0030382002254851523 0 0.016471981398553912 -0.0033327738244308242 0 0.016461409263411921 -0.0033329588490260726 0 0.016454406460619016 -0.0033297854884762994 0 0.015598212658571569 -0.0029666028452051906 0 0.015429024629846006 -0.0028439064969989661 0 0.015590577725266671 -0.0026942768338724873 0 0.015228270373684837 -0.0027460486228746482 0 0.015429024629846006 -0.0028439064969989661 0 0.015590577725266671 -0.0026942768338724873 0 0.017207992104341402 -0.0032967553787952614 0 0.017722353972702949 -0.0036843197676283993 0 0.017287187046066337 -0.0036342575024348161 0 0.017722353972702949 -0.0036843197676283993 0 0.017287187046066337 -0.0036342575024348161 0 0.017266996586588198 -0.0039606269127557695 0 0.017334608630051637 -0.0038767017518645738 0 0.017515316510762848 -0.0040303187382784581 0 0.017426426082788157 -0.0041542821086261008 0 0.017558792683968569 -0.0041432872744589008 0 0.017266996586588198 -0.0039606269127557695 0 0.017722353972702949 -0.0036843197676283993 0 0.018178384747023095 -0.0039891474477992952 0 0.017266996586588198 -0.0039606269127557695 0 0.017325213332973089 -0.0041742309067738723 0 0.017215944302574622 -0.0042371048199840887 0 0.017266996586588198 -0.0039606269127557695 0 0.017426426082788157 -0.0041542821086261008 0 0.017325213332973089 -0.0041742309067738723 0 0.017266996586588198 -0.0039606269127557695 0 0.016433548878346096 -0.0033323519058498139 0 0.016454406460619016 -0.0033297854884762994 0 0.016436230851060201 -0.0033241751984029511 0 0.017105854096520403 -0.0035115991212092417 0 0.017334608630051637 -0.0038767017518645738 0 0.017426426082788157 -0.0041542821086261008 0 0.017558792683968569 -0.0041432872744589008 0 0.017514644519702898 -0.0042038689248660565 0 0.017558792683968569 -0.0041432872744589008 0 0.017514644519702898 -0.0042038689248660565 0 0.017551409122085113 -0.00423747893759695 0 0.017514644519702898 -0.0042038689248660565 0 0.017524362599209201 -0.0042817230295657338 0 0.017551409122085113 -0.00423747893759695 0 0.017426426082788157 -0.0041542821086261008 0 0.017514644519702898 -0.0042038689248660565 0 0.017427226980545791 -0.0042583716227181986 0 0.017524362599209201 -0.0042817230295657338 0 0.017427226980545791 -0.0042583716227181986 0 0.01741404570114111 -0.004370607541513331 0 0.017514644519702898 -0.0042038689248660565 0 0.017524362599209201 -0.0042817230295657338 0 0.017427226980545791 -0.0042583716227181986 0 0.017325213332973089 -0.0041742309067738723 0 0.017315787190247126 -0.0043213170458151918 0 0.017215944302574622 -0.0042371048199840887 0 0.017426426082788157 -0.0041542821086261008 0 0.017325213332973089 -0.0041742309067738723 0 0.017427226980545791 -0.0042583716227181986 0 0.017325213332973089 -0.0041742309067738723 0 0.017427226980545791 -0.0042583716227181986 0 0.017315787190247126 -0.0043213170458151918 0 0.017427226980545791 -0.0042583716227181986 0 0.017315787190247126 -0.0043213170458151918 0 0.01741404570114111 -0.004370607541513331 0 0.017315787190247126 -0.0043213170458151918 0 0.017215944302574622 -0.0042371048199840887 0 0.017210569092842659 -0.0043703917088005906 0 0.017215944302574622 -0.0042371048199840887 0 0.017130015378249049 -0.0043408156638506919 0 0.017102489102919668 -0.0041234934545241785 0 0.017215944302574622 -0.0042371048199840887 0 0.017130015378249049 -0.0043408156638506919 0 0.017210569092842659 -0.0043703917088005906 0 0.017044284033711603 -0.0045669179295874662 0 0.016879432830310535 -0.0044511286627612343 0 0.017118291678545155 -0.0048385843843670052 0 0.016957771693524436 -0.0042439301692838455 0 0.016879432830310535 -0.0044511286627612343 0 0.01670059478432831 -0.0040455060555148852 0 0.017044284033711603 -0.0045669179295874662 0 0.016957771693524436 -0.0042439301692838455 0 0.016879432830310535 -0.0044511286627612343 0 0.016957771693524436 -0.0042439301692838455 0 0.017130015378249049 -0.0043408156638506919 0 0.017102489102919668 -0.0041234934545241785 0 0.017044284033711603 -0.0045669179295874662 0 0.016957771693524436 -0.0042439301692838455 0 0.017130015378249049 -0.0043408156638506919 0 0.016658035001490826 -0.0032727107920056259 0 0.016957771693524436 -0.0042439301692838455 0 0.016953979124395328 -0.0038284857644496095 0 0.016957771693524436 -0.0042439301692838455 0 0.016953979124395328 -0.0038284857644496095 0 0.017102489102919668 -0.0041234934545241785 0 0.016700615922091121 -0.0034845117286502027 0 0.016957771693524436 -0.0042439301692838455 0 0.016758409394849905 -0.0038844649226265765 0 0.016680400274611644 -0.0034088116784237086 0 0.016898247613787859 -0.0041776203494031565 0 0.016957771693524436 -0.0042439301692838455 0 0.016758409394849905 -0.0038844649226265765 0 0.01670059478432831 -0.0040455060555148852 0 0.016669442536978378 -0.0037644321347047849 0 0.016758409394849905 -0.0038844649226265765 0 0.01670059478432831 -0.0040455060555148852 0 0.016953979124395328 -0.0038284857644496095 0 0.017266996586588198 -0.0039606269127557695 0 0.017102489102919668 -0.0041234934545241785 0 0.01695605542610195 -0.0035733557653827258 0 0.016953979124395328 -0.0038284857644496095 0 0.017266996586588198 -0.0039606269127557695 0 0.017215944302574622 -0.0042371048199840887 0 0.017266996586588198 -0.0039606269127557695 0 0.017102489102919668 -0.0041234934545241785 0 0.017447054436254352 -0.0040376461283791014 0 0.017453857920584646 -0.0041430336151774471 0 0.017085030032807924 -0.0039969526935667299 0 0.017447054436254352 -0.0040376461283791014 0 0.017538256136382626 -0.0041271201480978818 0 0.017453857920584646 -0.0041430336151774471 0 0.014290965677329378 -0.0024871053503606679 0 0.014269944151444652 -0.0026200775771129765 0 0.014458054085075306 -0.0026090768629739055 0 0.014290965677329378 -0.0024871053503606679 0 0.014269944151444652 -0.0026200775771129765 0 0.01403028451501093 -0.0024788355670783226 0 0.015863354391626502 -0.0032474062049166331 0 0.015426851106576919 -0.0033304755698721606 0 0.014269944151444652 -0.0026200775771129765 0 0.01403028451501093 -0.0024788355670783226 0 0.0142054087702305 -0.0027908496433872486 0 0.017447054436254352 -0.0040376461283791014 0 0.017624391851356169 -0.0040900867808025205 0 0.017538256136382626 -0.0041271201480978818 0 0.017624391851356169 -0.0040900867808025205 0 0.017538256136382626 -0.0041271201480978818 0 0.017596827358419605 -0.0041377638920155006 0 0.019070701242666764 -0.0069747591855595413 0 0.019427988931321652 -0.0066955844893587394 0 0.019176561946672162 -0.006754137842438503 0 0.017558239822801854 -0.0041886116147278954 0 0.017661120631747858 -0.0041485043396399454 0 0.017491187722747555 -0.0042746643106401109 0 0.017796541060741983 -0.0054255093978726231 0 0.018570639064032272 -0.0054777884883079079 0 0.017538256136382626 -0.0041271201480978818 0 0.017596827358419605 -0.0041377638920155006 0 0.017558239822801854 -0.0041886116147278954 0 0.017538256136382626 -0.0041271201480978818 0 0.017504848095765042 -0.0041786518011456397 0 0.017558239822801854 -0.0041886116147278954 0 0.017624391851356169 -0.0040900867808025205 0 0.017596827358419605 -0.0041377638920155006 0 0.017661120631747858 -0.0041485043396399454 0 0.017596827358419605 -0.0041377638920155006 0 0.017558239822801854 -0.0041886116147278954 0 0.017661120631747858 -0.0041485043396399454 0 0.017558239822801854 -0.0041886116147278954 0 0.017501085818382212 -0.0042224148006349141 0 0.017491187722747555 -0.0042746643106401109 0 0.017504848095765042 -0.0041786518011456397 0 0.017558239822801854 -0.0041886116147278954 0 0.017501085818382212 -0.0042224148006349141 0 0.017488733590231023 -0.0042490940343754236 0 0.017501085818382212 -0.0042224148006349141 0 0.017491187722747555 -0.0042746643106401109 0 0.017488733590231023 -0.0042490940343754236 0 0.017475067464666746 -0.0042155502945492428 0 0.017494427758147395 -0.0042755974248117187 0 0.017475067464666746 -0.0042155502945492428 0 0.017431663634380808 -0.0041804922674353413 0 0.017494427758147395 -0.0042755974248117187 0 0.017488733590231023 -0.0042490940343754236 0 0.017501085818382212 -0.0042224148006349141 0 0.017475067464666746 -0.0042155502945492428 0 0.017504848095765042 -0.0041786518011456397 0 0.017501085818382212 -0.0042224148006349141 0 0.017475067464666746 -0.0042155502945492428 0 0.017504848095765042 -0.0041786518011456397 0 0.017475067464666746 -0.0042155502945492428 0 0.017453857920584646 -0.0041430336151774471 0 0.017538256136382626 -0.0041271201480978818 0 0.017504848095765042 -0.0041786518011456397 0 0.017453857920584646 -0.0041430336151774471 0 0.017475067464666746 -0.0042155502945492428 0 0.017453857920584646 -0.0041430336151774471 0 0.017431663634380808 -0.0041804922674353413 0 0.017431663634380808 -0.0041804922674353413 0 0.017380987439422211 -0.0041814992288651291 0 0.017354548985779289 -0.0041351186219282686 0 0.017453857920584646 -0.0041430336151774471 0 0.017431663634380808 -0.0041804922674353413 0 0.017354548985779289 -0.0041351186219282686 0 0.017431663634380808 -0.0041804922674353413 0 0.017380987439422211 -0.0041814992288651291 0 0.017494427758147395 -0.0042755974248117187 0 0.017567970720611011 -0.0042656337543553451 0 0.017547078403565449 -0.0042716806718566397 0 0.017494427758147395 -0.0042755974248117187 0 0.017417970543320845 -0.0042384914366773432 0 0.01748079544947807 -0.004262185461573734 0 0.017259096888303956 -0.0041700211724892558 0 0.017380987439422211 -0.0041814992288651291 0 0.017494427758147395 -0.0042755974248117187 0 0.017567970720611011 -0.0042656337543553451 0 0.017552056326231327 -0.0042738153959536972 0 0.017547078403565449 -0.0042716806718566397 0 0.017259096888303956 -0.0041700211724892558 0 0.017354548985779289 -0.0041351186219282686 0 0.017280957381460696 -0.0040479324425054157 0 0.017259096888303956 -0.0041700211724892558 0 0.017380987439422211 -0.0041814992288651291 0 0.017354548985779289 -0.0041351186219282686 0 0.017558792683968569 -0.0041432872744589008 0 0.017567970720611011 -0.0042656337543553451 0 0.017551409122085113 -0.00423747893759695 0 0.017567970720611011 -0.0042656337543553451 0 0.017551409122085113 -0.00423747893759695 0 0.017552056326231327 -0.0042738153959536972 0 0.017524362599209201 -0.0042817230295657338 0 0.017551409122085113 -0.00423747893759695 0 0.017552056326231327 -0.0042738153959536972 0 0.017058890763895336 -0.004027906851073495 0 0.017259096888303956 -0.0041700211724892558 0 0.017280957381460696 -0.0040479324425054157 0 0.016433548878346096 -0.0033323519058498139 0 0.016436230851060201 -0.0033241751984029511 0 0.016400477579948076 -0.0033278494876649483 0 0.017334608630051637 -0.0038767017518645738 0 0.017417970543320845 -0.0042384914366773432 0 0.014995682689370862 -0.0025609358821667384 0 0.014600144977705527 -0.0024706625426058498 0 0.014813811119700634 -0.0026549453252869559 0 0.017334608630051637 -0.0038767017518645738 0 0.016243899185855708 -0.0034481120906232625 0 0.015554680302308103 -0.0028539037859200622 0 0.016243899185855708 -0.0034481120906232625 0 0.014290965677329378 -0.0024871053503606679 0 0.014600144977705527 -0.0024706625426058498 0 0.014458054085075306 -0.0026090768629739055 0 0.015863354391626502 -0.0032474062049166331 0 0.016243899185855708 -0.0034481120906232625 0 0.017453857920584646 -0.0041430336151774471 0 0.017354548985779289 -0.0041351186219282686 0 0.017280957381460696 -0.0040479324425054157 0 0.017818274059831492 -0.0043255261522634775 0 0.016243899185855708 -0.0034481120906232625 0 0.014600144977705527 -0.0024706625426058498 0 0.014458054085075306 -0.0026090768629739055 0 0.014626505965684261 -0.0026316630307305902 0 0.014600144977705527 -0.0024706625426058498 0 0.014626505965684261 -0.0026316630307305902 0 0.014813811119700634 -0.0026549453252869559 0 0.014458054085075306 -0.0026090768629739055 0 0.014531947833470896 -0.0027212094713652312 0 0.014626505965684261 -0.0026316630307305902 0 0.014458054085075306 -0.0026090768629739055 0 0.014531947833470896 -0.0027212094713652312 0 0.014400443088683596 -0.0027442254899678067 0 0.014531947833470896 -0.0027212094713652312 0 0.014626505965684261 -0.0026316630307305902 0 0.014662030828681331 -0.0027698590187504447 0 0.014531947833470896 -0.0027212094713652312 0 0.014662030828681331 -0.0027698590187504447 0 0.014521936342097226 -0.0028571041155275095 0 0.014662030828681331 -0.0027698590187504447 0 0.014521936342097226 -0.0028571041155275095 0 0.014648264048355047 -0.0028979032560174705 0 0.014531947833470896 -0.0027212094713652312 0 0.014521936342097226 -0.0028571041155275095 0 0.014400443088683596 -0.0027442254899678067 0 0.014521936342097226 -0.0028571041155275095 0 0.014388992795248018 -0.0028505272600503526 0 0.014400443088683596 -0.0027442254899678067 0 0.015008985325263766 -0.0027200528006654165 0 0.014995682689370862 -0.0025609358821667384 0 0.014813811119700634 -0.0026549453252869559 0 0.014626505965684261 -0.0026316630307305902 0 0.014662030828681331 -0.0027698590187504447 0 0.014813811119700634 -0.0026549453252869559 0 0.014662030828681331 -0.0027698590187504447 0 0.014813811119700634 -0.0026549453252869559 0 0.014766076795866266 -0.0028679822951060926 0 0.014662030828681331 -0.0027698590187504447 0 0.014766076795866266 -0.0028679822951060926 0 0.014648264048355047 -0.0028979032560174705 0 0.015008985325263766 -0.0027200528006654165 0 0.014813811119700634 -0.0026549453252869559 0 0.014908807137504367 -0.0028097547608859894 0 0.014813811119700634 -0.0026549453252869559 0 0.014766076795866266 -0.0028679822951060926 0 0.014908807137504367 -0.0028097547608859894 0 0.01506990327034614 -0.0028830430759658127 0 0.014908807137504367 -0.0028097547608859894 0 0.014872755810191072 -0.0030308646633367873 0 0.014766076795866266 -0.0028679822951060926 0 0.014908807137504367 -0.0028097547608859894 0 0.014872755810191072 -0.0030308646633367873 0 0.014766076795866266 -0.0028679822951060926 0 0.014872755810191072 -0.0030308646633367873 0 0.014703419099618689 -0.0030150132277784432 0 0.014766076795866266 -0.0028679822951060926 0 0.014703419099618689 -0.0030150132277784432 0 0.014648264048355047 -0.0028979032560174705 0 0.014872755810191072 -0.0030308646633367873 0 0.014703419099618689 -0.0030150132277784432 0 0.014712056507411194 -0.0032738284175472076 0 0.014926512911619524 -0.0032516083519360814 0 0.014872755810191072 -0.0030308646633367873 0 0.014712056507411194 -0.0032738284175472076 0 0.014587437060122402 -0.0030052878185152197 0 0.014435658014682638 -0.0030094707598821925 0 0.014712056507411194 -0.0032738284175472076 0 0.012792215556560715 -0.002211853302313846 0 0.013766736423910686 -0.0028241721140807906 0 0.012999604653149208 -0.0027397404401597507 0 0.013696942949530944 -0.0026600847589585011 0 0.014239463911199662 -0.0030591088561524298 0 0.014521936342097226 -0.0028571041155275095 0 0.014435658014682638 -0.0030094707598821925 0 0.014388992795248018 -0.0028505272600503526 0 0.014521936342097226 -0.0028571041155275095 0 0.014587437060122402 -0.0030052878185152197 0 0.014435658014682638 -0.0030094707598821925 0 0.014521936342097226 -0.0028571041155275095 0 0.014648264048355047 -0.0028979032560174705 0 0.014587437060122402 -0.0030052878185152197 0 0.014703419099618689 -0.0030150132277784432 0 0.014648264048355047 -0.0028979032560174705 0 0.014587437060122402 -0.0030052878185152197 0 0.014703419099618689 -0.0030150132277784432 0 0.014587437060122402 -0.0030052878185152197 0 0.014712056507411194 -0.0032738284175472076 0 0.012792215556560715 -0.002211853302313846 0 0.012495268438857244 -0.0024393113492699879 0 0.012999604653149208 -0.0027397404401597507 0 0.012330989990373031 -0.0026174447784452137 0 0.011755414055959654 -0.0019360778638949621 0 0.011628185798783799 -0.002473952654468902 0 0.012792215556560715 -0.002211853302313846 0 0.012495268438857244 -0.0024393113492699879 0 0.011980518073269946 -0.0016534474962383646 0 0.012347454274691203 -0.0024656087002014574 0 0.012675327518230662 -0.0020290101929651351 0 0.014435658014682638 -0.0030094707598821925 0 0.014388992795248018 -0.0028505272600503526 0 0.0142054087702305 -0.0027908496433872486 0 0.013696942949530944 -0.0026600847589585011 0 0.012675327518230662 -0.0020290101929651351 0 0.012330989990373031 -0.0026174447784452137 0 0.011628185798783799 -0.002473952654468902 0 0.011720632860397684 -0.003075789181982314 0 0.014388992795248018 -0.0028505272600503526 0 0.014400443088683596 -0.0027442254899678067 0 0.0142054087702305 -0.0027908496433872486 0 0.014269944151444652 -0.0026200775771129765 0 0.014400443088683596 -0.0027442254899678067 0 0.0142054087702305 -0.0027908496433872486 0 0.014269944151444652 -0.0026200775771129765 0 0.014458054085075306 -0.0026090768629739055 0 0.014400443088683596 -0.0027442254899678067 0 0.011755414055959654 -0.0019360778638949621 0 0.011064008960134052 -0.0015108207839390254 0 0.0107528794923629 -0.0022758120904714085 0 0.013752111428509127 -0.0031424638188374027 0 0.012834685691991856 -0.0017795289531286498 0 0.013718693850004349 -0.0024024030018084449 0 0.015426851106576919 -0.0033304755698721606 0 0.012675327518230662 -0.0020290101929651351 0 0.012675327518230662 -0.0020290101929651351 0 0.012159787491974036 -0.0017808876440185862 0 0.011628185798783799 -0.002473952654468902 0 0.011720632860397684 -0.003075789181982314 0 0.0107528794923629 -0.0022758120904714085 0 0.0060176414843338463 -0.0061567818083706049 0 0.0052361984239860495 -0.0061380756250864728 0 0.00052768574273297675 -0.0094404965690564994 0 0.00052376466286707397 -0.0094916738931585341 0 0.00052769329866996601 -0.0096037730723671066 0 0.011755414055959654 -0.0019360778638949621 0 0.011628185798783799 -0.002473952654468902 0 0.0107528794923629 -0.0022758120904714085 0 0.00052768574273297675 -0.0094404965690564994 0 0.00051033249570622515 -0.0094376694752390036 0 0.00052376466286707397 -0.0094916738931585341 0 0.011720632860397684 -0.003075789181982314 0 0.012523550648290695 -0.003263705321589973 0 0.012984082119741527 -0.0040190257488881545 0 0.0060176414843338463 -0.0061567818083706049 0 0.0077191905573778296 -0.0069928591672418963 0 0.012330989990373031 -0.0026174447784452137 0 0.011720632860397684 -0.003075789181982314 0 0.012523550648290695 -0.003263705321589973 0 -0.0015761915036236614 -0.0083187047091364836 0 -0.0035285587892752808 -0.0078568593719903716 0 0.00052768574273297675 -0.0094404965690564994 0 0.00056445754259552069 -0.0094044956554989144 0 0.00060807350821524277 -0.009373608419635639 0 -0.0041116221409363005 -0.0071109971417751714 0 -0.0047072154967581015 -0.0062138843305299465 0 -0.0055651610418959606 -0.0064263972602423801 0 0.00054577053568628862 -0.0094165959905563295 0 0.00051033249570622515 -0.0094376694752390036 0 0.00057120247003121321 -0.0094003231788980946 0 0.00052768574273297675 -0.0094404965690564994 0 0.00054577053568628862 -0.0094165959905563295 0 0.00056445754259552069 -0.0094044956554989144 0 0.00054577053568628862 -0.0094165959905563295 0 0.00056445754259552069 -0.0094044956554989144 0 0.00057120247003121321 -0.0094003231788980946 0 0.00056445754259552069 -0.0094044956554989144 0 0.00060807350821524277 -0.009373608419635639 0 0.00057120247003121321 -0.0094003231788980946 0 0.00052768574273297675 -0.0094404965690564994 0 0.00054577053568628862 -0.0094165959905563295 0 0.00051033249570622515 -0.0094376694752390036 0 0.014867904420183355 -0.003555319181877104 0 0.014926512911619524 -0.0032516083519360814 0 0.014712056507411194 -0.0032738284175472076 0 0.014867904420183355 -0.003555319181877104 0 0.013766736423910686 -0.0028241721140807906 0 0.013715879494536936 -0.0035687521290990896 0 0.014832829184355186 -0.0035128510068035516 0 0.014239463911199662 -0.0030591088561524298 0 0.012347454274691203 -0.0024656087002014574 0 0.013020667422569059 -0.0033600192258440081 0 0.012495268438857244 -0.0024393113492699879 0 0.012999604653149208 -0.0027397404401597507 0 0.01305559344465475 -0.0033866572570935036 0 0.012330989990373031 -0.0026174447784452137 0 0.012523550648290695 -0.003263705321589973 0 0.01305559344465475 -0.0033866572570935036 0 0.013766736423910686 -0.0028241721140807906 0 0.01305559344465475 -0.0033866572570935036 0 0.013715879494536936 -0.0035687521290990896 0 0.013766736423910686 -0.0028241721140807906 0 0.012999604653149208 -0.0027397404401597507 0 0.01305559344465475 -0.0033866572570935036 0 0.012984082119741527 -0.0040190257488881545 0 0.013715879494536936 -0.0035687521290990896 0 0.013968344317717665 -0.0040498386108995593 0 0.012523550648290695 -0.003263705321589973 0 0.01305559344465475 -0.0033866572570935036 0 0.012984082119741527 -0.0040190257488881545 0 0.01305559344465475 -0.0033866572570935036 0 0.012984082119741527 -0.0040190257488881545 0 0.013715879494536936 -0.0035687521290990896 0 0.012984082119741527 -0.0040190257488881545 0 0.013968344317717665 -0.0040498386108995593 0 0.014026779386667628 -0.0043405094186599914 0 0.014867904420183355 -0.003555319181877104 0 0.013715879494536936 -0.0035687521290990896 0 0.013968344317717665 -0.0040498386108995593 0 0.014867904420183355 -0.003555319181877104 0 0.013968344317717665 -0.0040498386108995593 0 0.014461437988668254 -0.0041431793169642685 0 0.013968344317717665 -0.0040498386108995593 0 0.014461437988668254 -0.0041431793169642685 0 0.014026779386667628 -0.0043405094186599914 0 0.012984082119741527 -0.0040190257488881545 0 0.014128477593002476 -0.0047612384888336612 0 0.014026779386667628 -0.0043405094186599914 0 -0.0068766234307787548 -0.0058607342927363719 0 -0.0064944918035822093 -0.0058054154454136248 0 -0.0060195092658375509 -0.0059758287397222816 0 -0.006859149406708496 -0.0057129215568500159 0 -0.006973808594927116 -0.0057588856886960178 0 -0.0069386094018210869 -0.0055045716042677224 0 -0.006859149406708496 -0.0057129215568500159 0 -0.0068000598301989432 -0.0056312876319495782 0 -0.0069386094018210869 -0.0055045716042677224 0 -0.006859149406708496 -0.0057129215568500159 0 -0.0068766234307787548 -0.0058607342927363719 0 -0.0067256420943879337 -0.0057215893352400146 0 0.0021784928239318479 -0.0063147708494287295 0 0.0018855837959031614 -0.0068937771424245429 0 -0.006859149406708496 -0.0057129215568500159 0 -0.006973808594927116 -0.0057588856886960178 0 -0.0068766234307787548 -0.0058607342927363719 0 0.014533814738553266 -0.0045438945039890143 0 0.014461437988668254 -0.0041431793169642685 0 0.014026779386667628 -0.0043405094186599914 0 0.014224954105235875 -0.0048224436228194402 0 0.014128477593002476 -0.0047612384888336612 0 0.014026779386667628 -0.0043405094186599914 0 0.014533814738553266 -0.0045438945039890143 0 0.014224954105235875 -0.0048224436228194402 0 0.014026779386667628 -0.0043405094186599914 0 -0.0068766234307787548 -0.0058607342927363719 0 -0.0064944918035822093 -0.0058054154454136248 0 -0.0067256420943879337 -0.0057215893352400146 0 -0.0067256420943879337 -0.0057215893352400146 0 -0.0068000598301989432 -0.0056312876319495782 0 -0.0066938766970736354 -0.0054725368628607812 0 -0.0064944918035822093 -0.0058054154454136248 0 -0.0067256420943879337 -0.0057215893352400146 0 -0.0066938766970736354 -0.0054725368628607812 0 -0.006859149406708496 -0.0057129215568500159 0 -0.0067256420943879337 -0.0057215893352400146 0 -0.0068000598301989432 -0.0056312876319495782 0 -0.0064944918035822093 -0.0058054154454136248 0 -0.0063079125313321299 -0.0055012251821905233 0 -0.0066938766970736354 -0.0054725368628607812 0 0.00060807350821524277 -0.009373608419635639 0 0.0007151066541560688 -0.0093480242786536452 0 0.00057120247003121321 -0.0094003231788980946 0 0.0077191905573778296 -0.0069928591672418963 0 0.0018855837959031614 -0.0068937771424245429 0 0.0018855837959031614 -0.0068937771424245429 0 -0.0035285587892752808 -0.0078568593719903716 0 -0.0068766234307787548 -0.0058607342927363719 0 -0.0060195092658375509 -0.0059758287397222816 0 -0.0055651610418959606 -0.0064263972602423801 0 -0.0064944918035822093 -0.0058054154454136248 0 -0.0060195092658375509 -0.0059758287397222816 0 -0.0059939491627312401 -0.0056992654346216618 0 -0.0064944918035822093 -0.0058054154454136248 0 -0.0059939491627312401 -0.0056992654346216618 0 -0.0063079125313321299 -0.0055012251821905233 0 -0.0060195092658375509 -0.0059758287397222816 0 -0.0055651610418959606 -0.0064263972602423801 0 -0.0055360766679016585 -0.0058175271669666951 0 -0.0060195092658375509 -0.0059758287397222816 0 -0.0059939491627312401 -0.0056992654346216618 0 -0.0055360766679016585 -0.0058175271669666951 0 -0.0059939491627312401 -0.0056992654346216618 0 -0.0058037057681751695 -0.0053396639857236769 0 -0.0055360766679016585 -0.0058175271669666951 0 -0.0055819352779740991 -0.0046196264706368905 0 -0.0058037057681751695 -0.0053396639857236769 0 -0.0063488869946570319 -0.005058778517103177 0 -0.0059939491627312401 -0.0056992654346216618 0 -0.0058037057681751695 -0.0053396639857236769 0 -0.0063079125313321299 -0.0055012251821905233 0 -0.0058037057681751695 -0.0053396639857236769 0 -0.0063488869946570319 -0.005058778517103177 0 -0.0063079125313321299 -0.0055012251821905233 0 -0.0063488869946570319 -0.005058778517103177 0 -0.0063079125313321299 -0.0055012251821905233 0 -0.0066938766970736354 -0.0054725368628607812 0 -0.0068000598301989432 -0.0056312876319495782 0 -0.0066938766970736354 -0.0054725368628607812 0 -0.0069386094018210869 -0.0055045716042677224 0 -0.0065348995278550143 -0.0044164484408893727 0 -0.0063488869946570319 -0.005058778517103177 0 -0.0068894422316438681 -0.0049537998930495623 0 -0.0063488869946570319 -0.005058778517103177 0 -0.0066938766970736354 -0.0054725368628607812 0 -0.0068894422316438681 -0.0049537998930495623 0 -0.0068894422316438681 -0.0049537998930495623 0 -0.0070983368605532079 -0.0050899494960294413 0 -0.0069836064833902756 -0.0052740500820554906 0 -0.0072914032749379727 -0.004812300404186674 0 -0.0068894422316438681 -0.0049537998930495623 0 -0.0070983368605532079 -0.0050899494960294413 0 -0.0072757250723570459 -0.0051811157503882516 0 -0.0070983368605532079 -0.0050899494960294413 0 -0.0069836064833902756 -0.0052740500820554906 0 -0.0072757250723570459 -0.0051811157503882516 0 -0.006973808594927116 -0.0057588856886960178 0 -0.0069386094018210869 -0.0055045716042677224 0 -0.0072757250723570459 -0.0051811157503882516 0 -0.0069836064833902756 -0.0052740500820554906 0 -0.0069386094018210869 -0.0055045716042677224 0 -0.0066938766970736354 -0.0054725368628607812 0 -0.0068894422316438681 -0.0049537998930495623 0 -0.0069836064833902756 -0.0052740500820554906 0 -0.0066938766970736354 -0.0054725368628607812 0 -0.0069836064833902756 -0.0052740500820554906 0 -0.0069386094018210869 -0.0055045716042677224 0 -0.0038869256512592031 -0.0057567195284032391 0 -0.0047072154967581015 -0.0062138843305299465 0 -0.005018050642594073 -0.0053252577900723208 0 -0.0041116221409363005 -0.0071109971417751714 0 -0.0038869256512592031 -0.0057567195284032391 0 -0.0047072154967581015 -0.0062138843305299465 0 -0.0047072154967581015 -0.0062138843305299465 0 -0.0055651610418959606 -0.0064263972602423801 0 -0.0055360766679016585 -0.0058175271669666951 0 -0.0047072154967581015 -0.0062138843305299465 0 -0.0055360766679016585 -0.0058175271669666951 0 -0.005018050642594073 -0.0053252577900723208 0 -0.0046993536114648612 -0.0043683641362619397 0 -0.0055819352779740991 -0.0046196264706368905 0 -0.005018050642594073 -0.0053252577900723208 0 -0.0058037057681751695 -0.0053396639857236769 0 -0.0055360766679016585 -0.0058175271669666951 0 -0.005018050642594073 -0.0053252577900723208 0 -0.0055819352779740991 -0.0046196264706368905 0 -0.0058037057681751695 -0.0053396639857236769 0 -0.005018050642594073 -0.0053252577900723208 0 -0.0046993536114648612 -0.0043683641362619397 0 -0.005018050642594073 -0.0053252577900723208 0 -0.0038834985031408241 -0.0047050578249610061 0 -0.0038869256512592031 -0.0057567195284032391 0 -0.005018050642594073 -0.0053252577900723208 0 -0.0038834985031408241 -0.0047050578249610061 0 -0.0038869256512592031 -0.0057567195284032391 0 -0.0038834985031408241 -0.0047050578249610061 0 -0.0026813166997764985 -0.0052012851327166145 0 -0.0031429388892239779 -0.0042095577215524142 0 -0.0038834985031408241 -0.0047050578249610061 0 -0.0026813166997764985 -0.0052012851327166145 0 -0.0041116221409363005 -0.0071109971417751714 0 -0.0038869256512592031 -0.0057567195284032391 0 -0.002755537245841167 -0.0064223068578728995 0 -0.0038869256512592031 -0.0057567195284032391 0 -0.002755537245841167 -0.0064223068578728995 0 -0.0026813166997764985 -0.0052012851327166145 0 -0.002755537245841167 -0.0064223068578728995 0 -0.0026813166997764985 -0.0052012851327166145 0 -0.00096033075497603136 -0.0061120467384733045 0 -0.0014609728418298851 -0.0043138711284884754 0 -0.0031429388892239779 -0.0042095577215524142 0 -0.0026813166997764985 -0.0052012851327166145 0 -0.0014609728418298851 -0.0043138711284884754 0 -0.0026813166997764985 -0.0052012851327166145 0 -0.00096033075497603136 -0.0061120467384733045 0 -0.0014609728418298851 -0.0043138711284884754 0 0.00042430960962551239 -0.004868101247098645 0 -0.00096033075497603136 -0.0061120467384733045 0 0.00042430960962551239 -0.004868101247098645 0 -0.00096033075497603136 -0.0061120467384733045 0 0.0015385470199768207 -0.0061471035849020835 0 0.00042430960962551239 -0.004868101247098645 0 0.0015385470199768207 -0.0061471035849020835 0 0.0017371406802309207 -0.005147333324221526 0 -0.00096033075497603136 -0.0061120467384733045 0 8.535272481268225e-05 -0.0072973139102570778 0 0.0015385470199768207 -0.0061471035849020835 0 -0.00096033075497603136 -0.0061120467384733045 0 8.535272481268225e-05 -0.0072973139102570778 0 -0.0022768108575928619 -0.0079934148821586715 0 8.535272481268225e-05 -0.0072973139102570778 0 0.0015385470199768207 -0.0061471035849020835 0 0.0029257059350534659 -0.0081211783066223019 0 0.00066848611313267969 -0.0093040615486120522 0 0.0029257059350534659 -0.0081211783066223019 0 0.0023715464442972001 -0.0099758202128189324 0 8.535272481268225e-05 -0.0072973139102570778 0 0.00066848611313267969 -0.0093040615486120522 0 0.0029257059350534659 -0.0081211783066223019 0 0.00061971901470427514 -0.0092877032223503617 0 -0.00086903788709618885 -0.008724907042123229 0 8.535272481268225e-05 -0.0072973139102570778 0 0.00066848611313267969 -0.0093040615486120522 0 -0.0022768108575928619 -0.0079934148821586715 0 0.00066848611313267969 -0.0093040615486120522 0 0.00054528874311457172 -0.009467634776736799 0 0.00063009008239316481 -0.0095963136141802383 0 0.00054528874311457172 -0.009467634776736799 0 0.00054355751952881359 -0.009547105114844405 0 0.00058685170684050073 -0.0096295746803318292 0 0.00051033249570622515 -0.0094376694752390036 0 0.00054528874311457172 -0.009467634776736799 0 0.00052376466286707397 -0.0094916738931585341 0 0.00054528874311457172 -0.009467634776736799 0 0.00052376466286707397 -0.0094916738931585341 0 0.00054355751952881359 -0.009547105114844405 0 -0.0041116221409363005 -0.0071109971417751714 0 -0.002755537245841167 -0.0064223068578728995 0 -0.0022768108575928619 -0.0079934148821586715 0 -0.0015761915036236614 -0.0083187047091364836 0 -0.00086903788709618885 -0.008724907042123229 0 -0.002755537245841167 -0.0064223068578728995 0 -0.00096033075497603136 -0.0061120467384733045 0 -0.0022768108575928619 -0.0079934148821586715 0 0.0034207359994983585 -0.004324586304260465 0 0.0029450939987183747 -0.0046193352783830306 0 0.0032482835171226778 -0.0046973160861799521 0 0.0034207359994983585 -0.004324586304260465 0 0.0031033997313806953 -0.004176528339322692 0 0.0029450939987183747 -0.0046193352783830306 0 0.0034207359994983585 -0.004324586304260465 0 0.0031033997313806953 -0.004176528339322692 0 0.0032222437740463687 -0.0040726993283440724 0 0.0029815872760529855 -0.0039510208539062005 0 0.0031033997313806953 -0.004176528339322692 0 0.0032222437740463687 -0.0040726993283440724 0 0.0028633291730266741 -0.0039575218881487311 0 0.0031033997313806953 -0.004176528339322692 0 0.0027579154483271112 -0.0043510104918360552 0 0.0028633291730266741 -0.0039575218881487311 0 0.0027579154483271112 -0.0043510104918360552 0 0.0025424827348857646 -0.0042049675234318391 0 0.0027579154483271112 -0.0043510104918360552 0 0.0029450939987183747 -0.0046193352783830306 0 0.0025873471762876484 -0.0047157834867822181 0 0.0031033997313806953 -0.004176528339322692 0 0.0027579154483271112 -0.0043510104918360552 0 0.0029450939987183747 -0.0046193352783830306 0 0.0029450939987183747 -0.0046193352783830306 0 0.0025873471762876484 -0.0047157834867822181 0 0.0025690586780553362 -0.0050299355844676307 0 0.0022685845082688872 -0.0051176976959868082 0 0.0025873471762876484 -0.0047157834867822181 0 0.0023075521237098506 -0.0045638131518014853 0 0.0022685845082688872 -0.0051176976959868082 0 0.0023075521237098506 -0.0045638131518014853 0 0.0017371406802309207 -0.005147333324221526 0 0.0022685845082688872 -0.0051176976959868082 0 0.0025873471762876484 -0.0047157834867822181 0 0.0025690586780553362 -0.0050299355844676307 0 0.0021650460787068179 -0.0039852390850887119 0 0.0023075521237098506 -0.0045638131518014853 0 0.0013986188731689897 -0.0042209649809053203 0 0.0027579154483271112 -0.0043510104918360552 0 0.0025424827348857646 -0.0042049675234318391 0 0.0023075521237098506 -0.0045638131518014853 0 0.0027579154483271112 -0.0043510104918360552 0 0.0025873471762876484 -0.0047157834867822181 0 0.0023075521237098506 -0.0045638131518014853 0 0.0021650460787068179 -0.0039852390850887119 0 0.0025424827348857646 -0.0042049675234318391 0 0.0023075521237098506 -0.0045638131518014853 0 0.00042430960962551239 -0.004868101247098645 0 0.0013986188731689897 -0.0042209649809053203 0 0.0017371406802309207 -0.005147333324221526 0 0.0023075521237098506 -0.0045638131518014853 0 0.0013986188731689897 -0.0042209649809053203 0 0.0017371406802309207 -0.005147333324221526 0 0.0015385470199768207 -0.0061471035849020835 0 0.0017371406802309207 -0.005147333324221526 0 0.0019863519608120882 -0.0055520845577144507 0 0.0022685845082688872 -0.0051176976959868082 0 0.0017371406802309207 -0.005147333324221526 0 0.0019863519608120882 -0.0055520845577144507 0 0.0015385470199768207 -0.0061471035849020835 0 0.0029257059350534659 -0.0081211783066223019 0 0.0059783094330035386 -0.0081564315926836595 0 0.0018929350867922788 -0.0061358401325200384 0 0.0034768812068346005 -0.0069097489188241932 0 0.0015385470199768207 -0.0061471035849020835 0 0.0019863519608120882 -0.0055520845577144507 0 0.0021900934286483969 -0.0055329573692728977 0 0.0029257059350534659 -0.0081211783066223019 0 0.0059755940067358782 -0.008193438321220917 0 0.0059783094330035386 -0.0081564315926836595 0 0.0029257059350534659 -0.0081211783066223019 0 0.0059755940067358782 -0.008193438321220917 0 0.0023715464442972001 -0.0099758202128189324 0 0.0060883603875932476 -0.0081586836951870346 0 0.0067137229564392178 -0.0076175643123826686 0 0.0034768812068346005 -0.0069097489188241932 0 0.0050155669842534044 -0.0046931094130808976 0 0.0021900934286483969 -0.0055329573692728977 0 0.0025263303641605748 -0.0053163610505062376 0 0.0029338478469221282 -0.0056895383441098847 0 0.0059755940067358782 -0.008193438321220917 0 0.0059783094330035386 -0.0081564315926836595 0 0.0024276362211201026 -0.0067193640526963362 0 0.0059755940067358782 -0.008193438321220917 0 0.0024276362211201026 -0.0067193640526963362 0 0.0059285598042004527 -0.0042563286178803313 0 0.0021900934286483969 -0.0055329573692728977 0 0.0025263303641605748 -0.0053163610505062376 0 0.0022674769533170564 -0.0053550503946604754 0 0.0019863519608120882 -0.0055520845577144507 0 0.0021900934286483969 -0.0055329573692728977 0 0.0022674769533170564 -0.0053550503946604754 0 0.0022685845082688872 -0.0051176976959868082 0 0.0019863519608120882 -0.0055520845577144507 0 0.0022674769533170564 -0.0053550503946604754 0 0.0025263303641605748 -0.0053163610505062376 0 0.0022674769533170564 -0.0053550503946604754 0 0.0025690586780553362 -0.0050299355844676307 0 0.0022685845082688872 -0.0051176976959868082 0 0.0022674769533170564 -0.0053550503946604754 0 0.0025690586780553362 -0.0050299355844676307 0 0.0028041269389523834 -0.0050510668257112918 0 0.0029338478469221282 -0.0056895383441098847 0 0.0032482835171226778 -0.0046973160861799521 0 0.0029450939987183747 -0.0046193352783830306 0 0.0025690586780553362 -0.0050299355844676307 0 0.0028041269389523834 -0.0050510668257112918 0 0.0029450939987183747 -0.0046193352783830306 0 0.0028041269389523834 -0.0050510668257112918 0 0.0032482835171226778 -0.0046973160861799521 0 0.0025263303641605748 -0.0053163610505062376 0 0.0025690586780553362 -0.0050299355844676307 0 0.0028041269389523834 -0.0050510668257112918 0 0.0025263303641605748 -0.0053163610505062376 0 0.0028041269389523834 -0.0050510668257112918 0 0.0029338478469221282 -0.0056895383441098847 0 0.0029338478469221282 -0.0056895383441098847 0 0.0032482835171226778 -0.0046973160861799521 0 0.0039738979557296817 -0.0043310295671400304 0 0.0058452177761361647 -0.0035220264458601866 0 0.0049028460301840304 -0.0030394682362232845 0 0.0039738979557296817 -0.0043310295671400304 0 0.0050155669842534044 -0.0046931094130808976 0 0.0037572190174085009 -0.0044083621373214449 0 0.0034207359994983585 -0.004324586304260465 0 0.0032482835171226778 -0.0046973160861799521 0 0.0039738979557296817 -0.0043310295671400304 0 0.0084644501360965161 -0.001366175485690389 0 0.0086589348543958822 -0.0015725573444730098 0 0.0090046502601282916 -0.0013093001189787813 0 0.0084644501360965161 -0.001366175485690389 0 0.0088050373680607884 -0.0011627851993733797 0 0.0090046502601282916 -0.0013093001189787813 0 0.0084644501360965161 -0.001366175485690389 0 0.0085450556068911148 -0.0014368156350085496 0 0.0086589348543958822 -0.0015725573444730098 0 0.0084109943709210506 -0.0015840504176557967 0 0.0084644501360965161 -0.001366175485690389 0 0.0085450556068911148 -0.0014368156350085496 0 0.0084109943709210506 -0.0015840504176557967 0 0.0084644501360965161 -0.001366175485690389 0 0.0079084106266217105 -0.0015325670296426437 0 0.0084644501360965161 -0.001366175485690389 0 0.0079084106266217105 -0.0015325670296426437 0 0.0088050373680607884 -0.0011627851993733797 0 0.0079084106266217105 -0.0015325670296426437 0 0.0078540285762228497 -0.0024621715029091618 0 0.0048517954331067353 -0.002612448585984267 0 0.0050155669842534044 -0.0046931094130808976 0 0.006441510663049742 -0.0028372994055954059 0 0.0086537949850127548 -0.0025461199429217341 0 0.0078540285762228497 -0.0024621715029091618 0 0.0083815863373407264 -0.002020225735160989 0 0.0084109943709210506 -0.0015840504176557967 0 0.0079084106266217105 -0.0015325670296426437 0 0.0083815863373407264 -0.002020225735160989 0 0.0079084106266217105 -0.0015325670296426437 0 0.0078540285762228497 -0.0024621715029091618 0 0.0083815863373407264 -0.002020225735160989 0 0.0086537949850127548 -0.0025461199429217341 0 0.0086827095635239084 -0.0018732985934164141 0 0.0092833035578077892 -0.0022704435476234909 0 0.0086537949850127548 -0.0025461199429217341 0 0.0083815863373407264 -0.002020225735160989 0 0.0086827095635239084 -0.0018732985934164141 0 0.0084109943709210506 -0.0015840504176557967 0 0.0083815863373407264 -0.002020225735160989 0 0.0086827095635239084 -0.0018732985934164141 0 0.0086827095635239084 -0.0018732985934164141 0 0.0085450556068911148 -0.0014368156350085496 0 0.0088996497742824775 -0.0015152487068230203 0 0.0084109943709210506 -0.0015840504176557967 0 0.0086827095635239084 -0.0018732985934164141 0 0.0085450556068911148 -0.0014368156350085496 0 0.0085450556068911148 -0.0014368156350085496 0 0.0088996497742824775 -0.0015152487068230203 0 0.0087143114435630671 -0.0013830959045303172 0 0.0093061075737684764 -0.0012821171252759488 0 0.0092833035578077892 -0.0022704435476234909 0 0.010044233923122148 -0.00090465350350222987 0 0.0088996497742824775 -0.0015152487068230203 0 0.0093061075737684764 -0.0012821171252759488 0 0.0092833035578077892 -0.0022704435476234909 0 0.0088996497742824775 -0.0015152487068230203 0 0.0093061075737684764 -0.0012821171252759488 0 0.0089032502807161514 -0.0011263380863358655 0 0.0086827095635239084 -0.0018732985934164141 0 0.0088996497742824775 -0.0015152487068230203 0 0.0092833035578077892 -0.0022704435476234909 0 0.0050155669842534044 -0.0046931094130808976 0 0.0078594099115563403 -0.0032486977984736579 0 0.0059285598042004527 -0.0042563286178803313 0 0.011794523324760423 -0.0035662618114617362 0 0.011417586890757402 -0.0017718446464014578 0 0.0059285598042004527 -0.0042563286178803313 0 0.010824849305172735 -0.0057145096913235795 0 0.011794523324760423 -0.0035662618114617362 0 0.0059755940067358782 -0.008193438321220917 0 0.0059285598042004527 -0.0042563286178803313 0 0.010824849305172735 -0.0057145096913235795 0 0.0092833035578077892 -0.0022704435476234909 0 0.010044233923122148 -0.00090465350350222987 0 0.011417586890757402 -0.0017718446464014578 0 0.0078594099115563403 -0.0032486977984736579 0 0.011045501277832659 -0.0018026682448314989 0 0.016530845414989833 -0.0025710455765490096 0 0.016076032169865823 -0.0036693498087188811 0 0.015067101124932925 -0.0028795029281518244 0 0.016530845414989833 -0.0025710455765490096 0 0.016076032169865823 -0.0036693498087188811 0 0.017195389099310333 -0.0036878139117127976 0 0.016076032169865823 -0.0036693498087188811 0 0.0168049972918493 -0.0044379082863629698 0 0.017195389099310333 -0.0036878139117127976 0 0.016076032169865823 -0.0036693498087188811 0 0.0168049972918493 -0.0044379082863629698 0 0.015895186836637078 -0.0046696882815148878 0 0.0168049972918493 -0.0044379082863629698 0 0.015895186836637078 -0.0046696882815148878 0 0.017262882674382928 -0.0054775403482722248 0 0.016663678487876924 -0.0044527484663007483 0 0.018652019768726678 -0.004382271644301548 0 0.0168049972918493 -0.0044379082863629698 0 0.017807780499885129 -0.0052206680409628775 0 0.017977721361040786 -0.0046040726231380341 0 0.0168049972918493 -0.0044379082863629698 0 0.017807780499885129 -0.0052206680409628775 0 0.017262882674382928 -0.0054775403482722248 0 0.0093061075737684764 -0.0012821171252759488 0 0.010044233923122148 -0.00090465350350222987 0 0.0089032502807161514 -0.0011263380863358655 0 0.013394469182340087 -0.0018753388739337436 0 0.013212673269857172 -0.0021775734307681437 0 0.016530845414989833 -0.0025710455765490096 0 0.017195389099310333 -0.0036878139117127976 0 0.018070286858744969 -0.0035129289244163787 0 0.018103242467330621 -0.0041701906227193915 0 0.017195389099310333 -0.0036878139117127976 0 0.018070286858744969 -0.0035129289244163787 0 0.0168049972918493 -0.0044379082863629698 0 0.018103242467330621 -0.0041701906227193915 0 0.017195389099310333 -0.0036878139117127976 0 0.013212673269857172 -0.0021775734307681437 0 0.015365816191532055 -0.0036065139038860892 0 0.018103242467330621 -0.0041701906227193915 0 0.018070286858744969 -0.0035129289244163787 0 0.019110946370107108 -0.0040908975972469529 0 0.0089032502807161514 -0.0011263380863358655 0 0.0086268911844521682 -0.0014784503183797875 0 0.0085886650131170722 -0.0017210276176924735 0 0.0089032502807161514 -0.0011263380863358655 0 0.0087143114435630671 -0.0013830959045303172 0 0.0086268911844521682 -0.0014784503183797875 0 0.0088996497742824775 -0.0015152487068230203 0 0.0089032502807161514 -0.0011263380863358655 0 0.0087143114435630671 -0.0013830959045303172 0 0.0085450556068911148 -0.0014368156350085496 0 0.0087143114435630671 -0.0013830959045303172 0 0.0086268911844521682 -0.0014784503183797875 0 0.018652019768726678 -0.004382271644301548 0 0.015365816191532055 -0.0036065139038860892 0 0.017977721361040786 -0.0046040726231380341 0 0.018425156504894406 -0.0051477314264902858 0 0.018704769326101729 -0.0046709772649923091 0 0.017807780499885129 -0.0052206680409628775 0 0.017977721361040786 -0.0046040726231380341 0 0.018425156504894406 -0.0051477314264902858 0 0.015365816191532055 -0.0036065139038860892 0 0.016034636058412145 -0.0045181202245970819 0 0.018704769326101729 -0.0046709772649923091 0 0.018960501295175188 -0.0052023310487913747 0 0.019572249786706238 -0.0051307522268274463 0 0.015365816191532055 -0.0036065139038860892 0 0.010964472329414303 -0.003080528377246052 0 0.014583923125454628 -0.0037887706813990733 0 0.013539455237733382 -0.0033124219971952615 0 0.013914157507363138 -0.0038358455974774673 0 0.018425156504894406 -0.0051477314264902858 0 0.018704769326101729 -0.0046709772649923091 0 0.018960501295175188 -0.0052023310487913747 0 0.0085886650131170722 -0.0017210276176924735 0 0.0086589348543958822 -0.0015725573444730098 0 0.0090285562683422183 -0.002200797949658878 0 0.0086589348543958822 -0.0015725573444730098 0 0.0090285562683422183 -0.002200797949658878 0 0.0092833288095609499 -0.0017618385152764562 0 0.0086268911844521682 -0.0014784503183797875 0 0.0085886650131170722 -0.0017210276176924735 0 0.0086589348543958822 -0.0015725573444730098 0 0.0085450556068911148 -0.0014368156350085496 0 0.0086268911844521682 -0.0014784503183797875 0 0.0086589348543958822 -0.0015725573444730098 0 0.0080853582486164147 -0.0038841657331235798 0 0.0052361984239860495 -0.0061380756250864728 0 0.0005990756479184741 -0.0097013345293026441 0 0.00064751077465249906 -0.0097758269374540081 0 0.00052769329866996601 -0.0096037730723671066 0 0.0005990756479184741 -0.0097013345293026441 0 0.00064751077465249906 -0.0097758269374540081 0 0.00064882017253661535 -0.0097813510308382597 0 0.011064008960134052 -0.0015108207839390254 0 0.0098542161426639751 -0.0015279018359808329 0 0.0107528794923629 -0.0022758120904714085 0 0.00052376466286707397 -0.0094916738931585341 0 0.00054355751952881359 -0.009547105114844405 0 0.00052769329866996601 -0.0096037730723671066 0 0.00054355751952881359 -0.009547105114844405 0 0.00052769329866996601 -0.0096037730723671066 0 0.00058685170684050073 -0.0096295746803318292 0 0.00054528874311457172 -0.009467634776736799 0 0.00058685170684050073 -0.0096295746803318292 0 0.00063009008239316481 -0.0095963136141802383 0 0.0005990756479184741 -0.0097013345293026441 0 0.00052769329866996601 -0.0096037730723671066 0 0.00058685170684050073 -0.0096295746803318292 0 0.00058685170684050073 -0.0096295746803318292 0 0.00063009008239316481 -0.0095963136141802383 0 0.00064882017253661535 -0.0097813510308382597 0 0.0005990756479184741 -0.0097013345293026441 0 0.00058685170684050073 -0.0096295746803318292 0 0.00064882017253661535 -0.0097813510308382597 0 0.00066848611313267969 -0.0093040615486120522 0 0.00063009008239316481 -0.0095963136141802383 0 0.00097302773321093902 -0.009713070121690974 0 0.00063009008239316481 -0.0095963136141802383 0 0.00097302773321093902 -0.009713070121690974 0 0.00078935423381279468 -0.0099698048551880251 0 0.00063009008239316481 -0.0095963136141802383 0 0.00064882017253661535 -0.0097813510308382597 0 0.00078935423381279468 -0.0099698048551880251 0 0.0067137229564392178 -0.0076175643123826686 0 0.0071532836851082426 -0.0066826728406287998 0 0.0023715464442972001 -0.0099758202128189324 0 0.00097302773321093902 -0.009713070121690974 0 0.00078935423381279468 -0.0099698048551880251 0 0.00066848611313267969 -0.0093040615486120522 0 0.0023715464442972001 -0.0099758202128189324 0 0.00097302773321093902 -0.009713070121690974 0 0.010824849305172735 -0.0057145096913235795 0 0.011794523324760423 -0.0035662618114617362 0 0.0142844144677589 -0.0024594271119013902 0 0.013394469182340087 -0.0018753388739337436 0 0.013574329042638623 -0.0020109070991792878 0 0.016530845414989833 -0.0025710455765490096 0 0.01354159501204571 -0.0020557904712538788 0 0.015067101124932925 -0.0028795029281518244 0 0.010044233923122148 -0.00090465350350222987 0 0.011417586890757402 -0.0017718446464014578 0 0.01354159501204571 -0.0020557904712538788 0 0.011794523324760423 -0.0035662618114617362 0 0.011417586890757402 -0.0017718446464014578 0 0.01354159501204571 -0.0020557904712538788 0 0.011794523324760423 -0.0035662618114617362 0 0.01354159501204571 -0.0020557904712538788 0 0.0142844144677589 -0.0024594271119013902 0 0.01354159501204571 -0.0020557904712538788 0 0.013922187445769334 -0.0023324356323716914 0 0.0142844144677589 -0.0024594271119013902 0 0.01354159501204571 -0.0020557904712538788 0 0.01423401829922741 -0.0026788110887854101 0 0.015067101124932925 -0.0028795029281518244 0 0.01354159501204571 -0.0020557904712538788 0 0.01423401829922741 -0.0026788110887854101 0 0.013922187445769334 -0.0023324356323716914 0 0.013099385369780944 -0.0027003935496615907 0 0.0142844144677589 -0.0024594271119013902 0 0.013603343917792256 -0.0027436335722393814 0 0.0080853582486164147 -0.0038841657331235798 0 0.0071532836851082426 -0.0066826728406287998 0 0.00064751077465249906 -0.0097758269374540081 0 0.00064882017253661535 -0.0097813510308382597 0 0.00078935423381279468 -0.0099698048551880251 0 0.013922187445769334 -0.0023324356323716914 0 0.0142844144677589 -0.0024594271119013902 0 0.01387439437920918 -0.0026042880738917145 0 0.01423401829922741 -0.0026788110887854101 0 0.013922187445769334 -0.0023324356323716914 0 0.01387439437920918 -0.0026042880738917145 0 0.0142844144677589 -0.0024594271119013902 0 0.01387439437920918 -0.0026042880738917145 0 0.013603343917792256 -0.0027436335722393814 0 0.01387439437920918 -0.0026042880738917145 0 0.013603343917792256 -0.0027436335722393814 0 0.013813013024042932 -0.0029731168442452202 0 0.013603343917792256 -0.0027436335722393814 0 0.013572688843890828 -0.0032979406399387748 0 0.013813013024042932 -0.0029731168442452202 0 0.0080853582486164147 -0.0038841657331235798 0 0.013250247612213072 -0.0043204914054409951 0 0.013099385369780944 -0.0027003935496615907 0 0.013603343917792256 -0.0027436335722393814 0 0.013572688843890828 -0.0032979406399387748 0 0.01387439437920918 -0.0026042880738917145 0 0.014168752781625766 -0.0031863702871757003 0 0.013813013024042932 -0.0029731168442452202 0 0.01423401829922741 -0.0026788110887854101 0 0.01387439437920918 -0.0026042880738917145 0 0.014168752781625766 -0.0031863702871757003 0 0.013572688843890828 -0.0032979406399387748 0 0.014168752781625766 -0.0031863702871757003 0 0.013813013024042932 -0.0029731168442452202 0 0.013572688843890828 -0.0032979406399387748 0 0.014168752781625766 -0.0031863702871757003 0 0.014252385730787631 -0.0039621138200527234 0 0.013572688843890828 -0.0032979406399387748 0 0.013220427802382081 -0.0038595377121424666 0 0.012691535646202434 -0.0033674212696823791 0 0.013572688843890828 -0.0032979406399387748 0 0.014252385730787631 -0.0039621138200527234 0 0.013220427802382081 -0.0038595377121424666 0 0.014252385730787631 -0.0039621138200527234 0 0.01495524471080294 -0.0034661486347433001 0 0.015895186836637078 -0.0046696882815148878 0 0.016076032169865823 -0.0036693498087188811 0 0.015067101124932925 -0.0028795029281518244 0 0.01495524471080294 -0.0034661486347433001 0 0.01423401829922741 -0.0026788110887854101 0 0.014168752781625766 -0.0031863702871757003 0 0.01495524471080294 -0.0034661486347433001 0 0.01423401829922741 -0.0026788110887854101 0 0.015067101124932925 -0.0028795029281518244 0 0.01495524471080294 -0.0034661486347433001 0 0.014168752781625766 -0.0031863702871757003 0 0.014252385730787631 -0.0039621138200527234 0 0.01495524471080294 -0.0034661486347433001 0 0.016076032169865823 -0.0036693498087188811 0 0.01495524471080294 -0.0034661486347433001 0 0.015895186836637078 -0.0046696882815148878 0 0.014252385730787631 -0.0039621138200527234 0 0.015895186836637078 -0.0046696882815148878 0 0.014174173066084568 -0.0052423598534464995 0 0.018231303033013898 -0.0069126247179328755 0 0.018575332478586334 -0.006796103679789077 0 0.018659343813328122 -0.0069403129452751885 0 0.014252385730787631 -0.0039621138200527234 0 0.013220427802382081 -0.0038595377121424666 0 0.014174173066084568 -0.0052423598534464995 0 0.016384406755117473 -0.0062014276107554807 0 0.014782478101085978 -0.0046192826427735841 0 0.018231303033013898 -0.0069126247179328755 0 0.018659343813328122 -0.0069403129452751885 0 0.018782546802287515 -0.0071303047896143648 0 0.013220427802382081 -0.0038595377121424666 0 0.014174173066084568 -0.0052423598534464995 0 0.012044854023108755 -0.0037870589730698489 0 0.018575332478586334 -0.006796103679789077 0 0.018659343813328122 -0.0069403129452751885 0 0.018750378200578378 -0.0068338709369581982 0 0.018750378200578378 -0.0068338709369581982 0 0.018867161409478347 -0.0068592322176085109 0 0.018873684198089206 -0.006760896998608522 0 0.018659343813328122 -0.0069403129452751885 0 0.018750378200578378 -0.0068338709369581982 0 0.018805840354429244 -0.0069494552107119611 0 0.018750378200578378 -0.0068338709369581982 0 0.018867161409478347 -0.0068592322176085109 0 0.018805840354429244 -0.0069494552107119611 0 0.018867161409478347 -0.0068592322176085109 0 0.018805840354429244 -0.0069494552107119611 0 0.018886374611198051 -0.0069284599814556933 0 0.018659343813328122 -0.0069403129452751885 0 0.018785971326022603 -0.0070169150654097725 0 0.018782546802287515 -0.0071303047896143648 0 0.018805840354429244 -0.0069494552107119611 0 0.018858942353616511 -0.0070233186086232947 0 0.018886374611198051 -0.0069284599814556933 0 0.018805840354429244 -0.0069494552107119611 0 0.018785971326022603 -0.0070169150654097725 0 0.018858942353616511 -0.0070233186086232947 0 0.018659343813328122 -0.0069403129452751885 0 0.018805840354429244 -0.0069494552107119611 0 0.018785971326022603 -0.0070169150654097725 0 0.018785971326022603 -0.0070169150654097725 0 0.018782546802287515 -0.0071303047896143648 0 0.018858942353616511 -0.0070233186086232947 0 0.013220427802382081 -0.0038595377121424666 0 0.012691535646202434 -0.0033674212696823791 0 0.012124493361695852 -0.003779663567134427 0 0.012378484049248588 -0.0039344825359971941 0 0.014782478101085978 -0.0046192826427735841 0 0.012691535646202434 -0.0033674212696823791 0 0.012124493361695852 -0.003779663567134427 0 0.011728987275504633 -0.0034983879416765804 0 0.014782478101085978 -0.0046192826427735841 0 0.013283085703520136 -0.0031276209381442383 0 0.012779017857630937 -0.0026438250761243944 0 0.012691535646202434 -0.0033674212696823791 0 0.011728987275504633 -0.0034983879416765804 0 0.0080853582486164147 -0.0038841657331235798 0 0.013283085703520136 -0.0031276209381442383 0 0.012779017857630937 -0.0026438250761243944 0 0.013572688843890828 -0.0032979406399387748 0 0.012691535646202434 -0.0033674212696823791 0 0.011064008960134052 -0.0015108207839390254 0 0.0098542161426639751 -0.0015279018359808329 0 0.010414614329802856 -0.001084046250556624 0 0.013752111428509127 -0.0031424638188374027 0 0.013718693850004349 -0.0024024030018084449 0 0.01440206768462121 -0.0031882526765587386 0 0.012159787491974036 -0.0017808876440185862 0 0.013283085703520136 -0.0031276209381442383 0 0.013718693850004349 -0.0024024030018084449 0 0.014599862124338815 -0.0030276289718148778 0 0.01440206768462121 -0.0031882526765587386 0 0.018782546802287515 -0.0071303047896143648 0 0.018932377249876061 -0.0071328538698322294 0 0.018858942353616511 -0.0070233186086232947 0 0.014300266477474005 -0.0042541767897556343 0 0.014444816437505907 -0.0043523527004756049 0 0.014552818526836292 -0.0042658349064498271 0 0.014782478101085978 -0.0046192826427735841 0 0.015688918539706831 -0.0040363562032865279 0 0.013283085703520136 -0.0031276209381442383 0 0.015688918539706831 -0.0040363562032865279 0 0.015426851106576919 -0.0033304755698721606 0 0.015688918539706831 -0.0040363562032865279 0 0.015688918539706831 -0.0040363562032865279 0 0.017796541060741983 -0.0054255093978726231 0 0.016442774395354891 -0.0041445143696329165 0 0.016395283400500921 -0.0041449874194739418 0 0.016427838885204847 -0.0041216224440500807 0 0.015426851106576919 -0.0033304755698721606 0 0.017796541060741983 -0.0054255093978726231 0 0.018932377249876061 -0.0071328538698322294 0 0.019070076506662238 -0.00702715097188955 0 0.018965053711686494 -0.0069484227335189028 0 0.018932377249876061 -0.0071328538698322294 0 0.018858942353616511 -0.0070233186086232947 0 0.018965053711686494 -0.0069484227335189028 0 0.018858942353616511 -0.0070233186086232947 0 0.018965053711686494 -0.0069484227335189028 0 0.018886374611198051 -0.0069284599814556933 0 0.018965053711686494 -0.0069484227335189028 0 0.018914729545062087 -0.0068804342132219812 0 0.018940997564877094 -0.0067855726328373061 0 0.019070076506662238 -0.00702715097188955 0 0.018965053711686494 -0.0069484227335189028 0 0.018940997564877094 -0.0067855726328373061 0 0.017796541060741983 -0.0054255093978726231 0 0.019248878635067027 -0.0072929957978739007 0 0.018965053711686494 -0.0069484227335189028 0 0.018886374611198051 -0.0069284599814556933 0 0.018914729545062087 -0.0068804342132219812 0 0.018867161409478347 -0.0068592322176085109 0 0.018886374611198051 -0.0069284599814556933 0 0.018914729545062087 -0.0068804342132219812 0 0.018867161409478347 -0.0068592322176085109 0 0.018940997564877094 -0.0067855726328373061 0 0.018873684198089206 -0.006760896998608522 0 0.018867161409478347 -0.0068592322176085109 0 0.018914729545062087 -0.0068804342132219812 0 0.018940997564877094 -0.0067855726328373061 0 0.019070701242666764 -0.0069747591855595413 0 0.018940997564877094 -0.0067855726328373061 0 0.019176561946672162 -0.006754137842438503 0 0.018893364156696738 -0.0067369015181006258 0 0.019233579629446756 -0.0063066451144401384 0 0.018940997564877094 -0.0067855726328373061 0 0.019176561946672162 -0.006754137842438503 0 0.019260890002441695 -0.0065692454123524912 0 0.018940997564877094 -0.0067855726328373061 0 0.018873684198089206 -0.006760896998608522 0 0.019171766801589035 -0.0063664226202536306 0 0.018866207742053265 -0.0063168826326588431 0 0.018873684198089206 -0.006760896998608522 0 0.019306534913587955 -0.0062346403586078548 0 0.018940997564877094 -0.0067855726328373061 0 0.019260890002441695 -0.0065692454123524912 0 0.019171766801589035 -0.0063664226202536306 0 0.018866207742053265 -0.0063168826326588431 0 0.019035351711841491 -0.0059799124289536282 0 0.019306534913587955 -0.0062346403586078548 0 0.018866207742053265 -0.0063168826326588431 0 0.019035351711841491 -0.0059799124289536282 0 0.018653368437064003 -0.0060198187035953692 0 0.018866207742053265 -0.0063168826326588431 0 0.018604478900898256 -0.0063599012136485618 0 0.018653368437064003 -0.0060198187035953692 0 0.018866207742053265 -0.0063168826326588431 0 0.018604478900898256 -0.0063599012136485618 0 0.018714044148202231 -0.0066059977256548016 0 0.018604478900898256 -0.0063599012136485618 0 0.018714044148202231 -0.0066059977256548016 0 0.018470128808165662 -0.0065973666050395761 0 0.018866207742053265 -0.0063168826326588431 0 0.018873684198089206 -0.006760896998608522 0 0.018714044148202231 -0.0066059977256548016 0 0.018750378200578378 -0.0068338709369581982 0 0.018873684198089206 -0.006760896998608522 0 0.018714044148202231 -0.0066059977256548016 0 0.018575332478586334 -0.006796103679789077 0 0.018750378200578378 -0.0068338709369581982 0 0.018714044148202231 -0.0066059977256548016 0 0.018575332478586334 -0.006796103679789077 0 0.018714044148202231 -0.0066059977256548016 0 0.018470128808165662 -0.0065973666050395761 0 0.018231303033013898 -0.0069126247179328755 0 0.018575332478586334 -0.006796103679789077 0 0.018470128808165662 -0.0065973666050395761 0 0.018231303033013898 -0.0069126247179328755 0 0.018470128808165662 -0.0065973666050395761 0 0.018154210753786273 -0.0062909235164610496 0 0.018604478900898256 -0.0063599012136485618 0 0.018470128808165662 -0.0065973666050395761 0 0.018154210753786273 -0.0062909235164610496 0 0.016384406755117473 -0.0062014276107554807 0 0.016971594742470033 -0.0061940789093853218 0 0.015895186836637078 -0.0046696882815148878 0 0.014174173066084568 -0.0052423598534464995 0 0.017170809092530142 -0.0062530888760592117 0 0.018231303033013898 -0.0069126247179328755 0 0.018154210753786273 -0.0062909235164610496 0 0.017170809092530142 -0.0062530888760592117 0 0.018154210753786273 -0.0062909235164610496 0 0.018089448784362652 -0.0059460542948471017 0 0.017170809092530142 -0.0062530888760592117 0 0.018154210753786273 -0.0062909235164610496 0 0.018089448784362652 -0.0059460542948471017 0 0.018653368437064003 -0.0060198187035953692 0 0.018604478900898256 -0.0063599012136485618 0 0.018154210753786273 -0.0062909235164610496 0 0.018653368437064003 -0.0060198187035953692 0 0.018089448784362652 -0.0059460542948471017 0 0.018584133940001805 -0.0057492522440548309 0 0.018653368437064003 -0.0060198187035953692 0 0.018089448784362652 -0.0059460542948471017 0 0.018584133940001805 -0.0057492522440548309 0 0.018147422618319514 -0.0057727082221509466 0 0.018147422618319514 -0.0057727082221509466 0 0.01835449662353739 -0.0055597236297477478 0 0.01857674420431326 -0.0055710101783428391 0 0.018584133940001805 -0.0057492522440548309 0 0.018147422618319514 -0.0057727082221509466 0 0.01857674420431326 -0.0055710101783428391 0 0.018584133940001805 -0.0057492522440548309 0 0.018811377131212597 -0.0055317781751952578 0 0.01857674420431326 -0.0055710101783428391 0 0.018584133940001805 -0.0057492522440548309 0 0.018919758465491848 -0.0057264042453396618 0 0.018811377131212597 -0.0055317781751952578 0 0.018919758465491848 -0.0057264042453396618 0 0.019099474741048443 -0.0054876239572623584 0 0.018811377131212597 -0.0055317781751952578 0 0.018919758465491848 -0.0057264042453396618 0 0.019099474741048443 -0.0054876239572623584 0 0.019302010867378424 -0.0057123914646580029 0 0.018919758465491848 -0.0057264042453396618 0 0.019035351711841491 -0.0059799124289536282 0 0.019302010867378424 -0.0057123914646580029 0 0.019035351711841491 -0.0059799124289536282 0 0.019306534913587955 -0.0062346403586078548 0 0.019302010867378424 -0.0057123914646580029 0 0.018919758465491848 -0.0057264042453396618 0 0.019035351711841491 -0.0059799124289536282 0 0.018653368437064003 -0.0060198187035953692 0 0.018584133940001805 -0.0057492522440548309 0 0.018919758465491848 -0.0057264042453396618 0 0.018653368437064003 -0.0060198187035953692 0 0.019808796832697869 -0.005678328043586498 0 0.019234884011750591 -0.0051599285310158305 0 0.017965278718062291 -0.0058846706621453609 0 0.017967695175301023 -0.0058911388092332496 0 0.01799888284285471 -0.0058734309285137587 0 0.017965278718062291 -0.0058846706621453609 0 0.017967695175301023 -0.0058911388092332496 0 0.017982096607445271 -0.0058769367235471503 0 0.018960501295175188 -0.0052023310487913747 0 0.018732718966659834 -0.0054015392439193009 0 0.019336684642472748 -0.0056378307853758918 0 0.018162646713708375 -0.0057918156148049574 0 0.019234884011750591 -0.0051599285310158305 0 0.017967695175301023 -0.0058911388092332496 0 0.017962577119325019 -0.0058739313080527003 0 0.01799888284285471 -0.0058734309285137587 0 0.018732718966659834 -0.0054015392439193009 0 0.018631665386299665 -0.0056578837978079697 0 0.019336684642472748 -0.0056378307853758918 0 0.018425156504894406 -0.0051477314264902858 0 0.018960501295175188 -0.0052023310487913747 0 0.018732718966659834 -0.0054015392439193009 0 0.018631665386299665 -0.0056578837978079697 0 0.01819074218003652 -0.0054791901727440613 0 0.017788537382366104 -0.005773526883162421 0 0.017967695175301023 -0.0058911388092332496 0 0.017962577119325019 -0.0058739313080527003 0 0.017923481168615765 -0.005909677868083601 0 0.017962577119325019 -0.0058739313080527003 0 0.017923481168615765 -0.005909677868083601 0 0.017788537382366104 -0.005773526883162421 0 0.018162646713708375 -0.0057918156148049574 0 0.017861619727438088 -0.0057668391905430485 0 0.018425156504894406 -0.0051477314264902858 0 0.018732718966659834 -0.0054015392439193009 0 0.018498408157982267 -0.0054234006601257129 0 0.018732718966659834 -0.0054015392439193009 0 0.018631665386299665 -0.0056578837978079697 0 0.018498408157982267 -0.0054234006601257129 0 0.018631665386299665 -0.0056578837978079697 0 0.018498408157982267 -0.0054234006601257129 0 0.01819074218003652 -0.0054791901727440613 0 0.018425156504894406 -0.0051477314264902858 0 0.018498408157982267 -0.0054234006601257129 0 0.01819074218003652 -0.0054791901727440613 0 0.017807780499885129 -0.0052206680409628775 0 0.018425156504894406 -0.0051477314264902858 0 0.01819074218003652 -0.0054791901727440613 0 0.017923481168615765 -0.005909677868083601 0 0.017764091116975664 -0.0060178961196908545 0 0.017765499306616937 -0.0060001924437408103 0 0.017923481168615765 -0.005909677868083601 0 0.017764091116975664 -0.0060178961196908545 0 0.017785671199124893 -0.0059483678478019506 0 0.017923481168615765 -0.005909677868083601 0 0.017982096607445271 -0.0058769367235471503 0 0.018034664736025507 -0.005840952278582336 0 0.017961922446565141 -0.0058276198435723856 0 0.017720257296938675 -0.006070536573647119 0 0.017967695175301023 -0.0058911388092332496 0 0.017923481168615765 -0.005909677868083601 0 0.017982096607445271 -0.0058769367235471503 0 0.017764091116975664 -0.0060178961196908545 0 0.017579973797218883 -0.0060748604127664665 0 0.017721900617327018 -0.0060350125629458273 0 0.017579973797218883 -0.0060748604127664665 0 0.017785671199124893 -0.0059483678478019506 0 0.017788537382366104 -0.005773526883162421 0 0.017764091116975664 -0.0060178961196908545 0 0.017579973797218883 -0.0060748604127664665 0 0.017785671199124893 -0.0059483678478019506 0 0.017923481168615765 -0.005909677868083601 0 0.017785671199124893 -0.0059483678478019506 0 0.017788537382366104 -0.005773526883162421 0 0.017579973797218883 -0.0060748604127664665 0 0.017788537382366104 -0.005773526883162421 0 0.017262882674382928 -0.0054775403482722248 0 0.017807780499885129 -0.0052206680409628775 0 0.01819074218003652 -0.0054791901727440613 0 0.017788537382366104 -0.005773526883162421 0 0.017807780499885129 -0.0052206680409628775 0 0.017788537382366104 -0.005773526883162421 0 0.017262882674382928 -0.0054775403482722248 0 0.017579973797218883 -0.0060748604127664665 0 0.017170809092530142 -0.0062530888760592117 0 0.017262882674382928 -0.0054775403482722248 0 0.015895186836637078 -0.0046696882815148878 0 0.017170809092530142 -0.0062530888760592117 0 0.017262882674382928 -0.0054775403482722248 0 0.018089448784362652 -0.0059460542948471017 0 0.017170809092530142 -0.0062530888760592117 0 0.017721900617327018 -0.0060350125629458273 0 0.017579973797218883 -0.0060748604127664665 0 0.017170809092530142 -0.0062530888760592117 0 0.017721900617327018 -0.0060350125629458273 0 0.017721900617327018 -0.0060350125629458273 0 0.018147422618319514 -0.0057727082221509466 0 0.017881794611602581 -0.0059056619119234504 0 0.018089448784362652 -0.0059460542948471017 0 0.017721900617327018 -0.0060350125629458273 0 0.018147422618319514 -0.0057727082221509466 0 0.018147422618319514 -0.0057727082221509466 0 0.018033061859795342 -0.0057272285038587716 0 0.017881794611602581 -0.0059056619119234504 0 0.018147422618319514 -0.0057727082221509466 0 0.018033061859795342 -0.0057272285038587716 0 0.01835449662353739 -0.0055597236297477478 0 0.018033061859795342 -0.0057272285038587716 0 0.017861766877200969 -0.0058693097002478047 0 0.017881794611602581 -0.0059056619119234504 0 0.018033061859795342 -0.0057272285038587716 0 0.017861766877200969 -0.0058693097002478047 0 0.017800164612939155 -0.0056366449551758513 0 0.017861766877200969 -0.0058693097002478047 0 0.01780909391469063 -0.0059831254652979674 0 0.017881794611602581 -0.0059056619119234504 0 0.017721900617327018 -0.0060350125629458273 0 0.01780909391469063 -0.0059831254652979674 0 0.017881794611602581 -0.0059056619119234504 0 0.017764091116975664 -0.0060178961196908545 0 0.017721900617327018 -0.0060350125629458273 0 0.01780909391469063 -0.0059831254652979674 0 0.017764091116975664 -0.0060178961196908545 0 0.01780909391469063 -0.0059831254652979674 0 0.017765499306616937 -0.0060001924437408103 0 0.017982096607445271 -0.0058769367235471503 0 0.018034664736025507 -0.005840952278582336 0 0.017988310769853348 -0.0057888747592971636 0 0.017861766877200969 -0.0058693097002478047 0 0.01780909391469063 -0.0059831254652979674 0 0.017765499306616937 -0.0060001924437408103 0 0.019802030865511477 -0.0055659225523898553 0 0.019527380955646004 -0.0049456217201635302 0 0.017720257296938675 -0.006070536573647119 0 0.019527380955646004 -0.0049456217201635302 0 0.018034664736025507 -0.005840952278582336 0 0.017988310769853348 -0.0057888747592971636 0 0.0180938823040699 -0.0056220636898075107 0 0.017861766877200969 -0.0058693097002478047 0 0.017765499306616937 -0.0060001924437408103 0 0.017800164612939155 -0.0056366449551758513 0 0.021605015122771076 -0.0052395447060580667 0 0.021541583974181697 -0.0051556310359607144 0 0.021564589213475878 -0.0052514012313590475 0 0.021605015122771076 -0.0052395447060580667 0 0.021541583974181697 -0.0051556310359607144 0 0.021585872574452214 -0.0051183391298220146 0 0.017965278718062291 -0.0058846706621453609 0 0.017982096607445271 -0.0058769367235471503 0 0.017988310769853348 -0.0057888747592971636 0 0.019808796832697869 -0.005678328043586498 0 0.019802030865511477 -0.0055659225523898553 0 0.021612776992404985 -0.0053772729165940331 0 0.021605015122771076 -0.0052395447060580667 0 0.021564589213475878 -0.0052514012313590475 0 0.021456826170446697 -0.0049866524526466479 0 0.021460997645326982 -0.0050345373941412851 0 0.021407146792417155 -0.0049532326803688898 0 0.021456826170446697 -0.0049866524526466479 0 0.021372681231606676 -0.0048840022173074343 0 0.021407146792417155 -0.0049532326803688898 0 0.021456826170446697 -0.0049866524526466479 0 0.021460997645326982 -0.0050345373941412851 0 0.021503704614433506 -0.0050776719976959048 0 0.021460997645326982 -0.0050345373941412851 0 0.021503704614433506 -0.0050776719976959048 0 0.021503685728675226 -0.0051004606970855501 0 0.021456826170446697 -0.0049866524526466479 0 0.021503704614433506 -0.0050776719976959048 0 0.021585872574452214 -0.0051183391298220146 0 0.021541583974181697 -0.0051556310359607144 0 0.021503704614433506 -0.0050776719976959048 0 0.021585872574452214 -0.0051183391298220146 0 0.021541583974181697 -0.0051556310359607144 0 0.021503704614433506 -0.0050776719976959048 0 0.021503685728675226 -0.0051004606970855501 0 0.019527380955646004 -0.0049456217201635302 0 0.019305807111860692 -0.0044576738533308874 0 0.021456826170446697 -0.0049866524526466479 0 0.021585872574452214 -0.0051183391298220146 0 0.021462502988801396 -0.0048769245567330394 0 0.020666590079073621 -0.0034352455773186273 0 0.020486189871684796 -0.0037896625804465533 0 0.020703524225816155 -0.0038690333757532961 0 0.019527380955646004 -0.0049456217201635302 0 0.021299452438105552 -0.0042346290803421064 0 0.017800164612939155 -0.0056366449551758513 0 0.018187463001451042 -0.0052369556384985029 0 0.018137682371568296 -0.005512662135885628 0 0.018187463001451042 -0.0052369556384985029 0 0.018137682371568296 -0.005512662135885628 0 0.0184009934938546 -0.0053700243652826897 0 0.018033061859795342 -0.0057272285038587716 0 0.017800164612939155 -0.0056366449551758513 0 0.018137682371568296 -0.005512662135885628 0 0.018033061859795342 -0.0057272285038587716 0 0.018137682371568296 -0.005512662135885628 0 0.01835449662353739 -0.0055597236297477478 0 0.018137682371568296 -0.005512662135885628 0 0.01835449662353739 -0.0055597236297477478 0 0.0184009934938546 -0.0053700243652826897 0 0.01835449662353739 -0.0055597236297477478 0 0.0184009934938546 -0.0053700243652826897 0 0.018667389100281647 -0.0053004046550296615 0 0.018187463001451042 -0.0052369556384985029 0 0.0184009934938546 -0.0053700243652826897 0 0.018598874206383877 -0.0051897951416185802 0 0.0184009934938546 -0.0053700243652826897 0 0.018598874206383877 -0.0051897951416185802 0 0.018667389100281647 -0.0053004046550296615 0 0.018598874206383877 -0.0051897951416185802 0 0.018783907248717011 -0.00496679225262867 0 0.018918725195697976 -0.0051278967810856439 0 0.018783907248717011 -0.00496679225262867 0 0.018918725195697976 -0.0051278967810856439 0 0.019174431375935892 -0.004975392634005673 0 0.02009219715282937 -0.0043949806375107609 0 0.020450064125246987 -0.0045818908193072305 0 0.020504504408077634 -0.0042423779234251665 0 0.02009219715282937 -0.0043949806375107609 0 0.020450064125246987 -0.0045818908193072305 0 0.020263721536374898 -0.0047636009335409388 0 0.020450064125246987 -0.0045818908193072305 0 0.020504504408077634 -0.0042423779234251665 0 0.020855117398189047 -0.0047252048569203023 0 0.020486189871684796 -0.0037896625804465533 0 0.02009219715282937 -0.0043949806375107609 0 0.020504504408077634 -0.0042423779234251665 0 0.019305807111860692 -0.0044576738533308874 0 0.019430969289240714 -0.0047336261743110555 0 0.020486189871684796 -0.0037896625804465533 0 0.020504504408077634 -0.0042423779234251665 0 0.020703524225816155 -0.0038690333757532961 0 0.018187463001451042 -0.0052369556384985029 0 0.018598874206383877 -0.0051897951416185802 0 0.018783907248717011 -0.00496679225262867 0 0.021456826170446697 -0.0049866524526466479 0 0.021462502988801396 -0.0048769245567330394 0 0.021372681231606676 -0.0048840022173074343 0 0.021462502988801396 -0.0048769245567330394 0 0.021332595779364621 -0.004836876586809649 0 0.021372681231606676 -0.0048840022173074343 0 0.021462502988801396 -0.0048769245567330394 0 0.021332595779364621 -0.004836876586809649 0 0.02121316884583728 -0.0047933017559581665 0 0.021332595779364621 -0.004836876586809649 0 0.02121316884583728 -0.0047933017559581665 0 0.021308248061322088 -0.0048260920531078477 0 0.021299452438105552 -0.0042346290803421064 0 0.020823213777851613 -0.0048226623657811338 0 0.020504504408077634 -0.0042423779234251665 0 0.020703524225816155 -0.0038690333757532961 0 0.020855117398189047 -0.0047252048569203023 0 0.021462502988801396 -0.0048769245567330394 0 0.02121316884583728 -0.0047933017559581665 0 0.020855117398189047 -0.0047252048569203023 0 0.021131861364265668 -0.0047699023605835122 0 0.02122279539619655 -0.0048241285059445783 0 0.020855117398189047 -0.0047252048569203023 0 0.021131861364265668 -0.0047699023605835122 0 0.021238249371531633 -0.0047957653222077193 0 0.02122279539619655 -0.0048241285059445783 0 0.021131861364265668 -0.0047699023605835122 0 0.02121316884583728 -0.0047933017559581665 0 0.020855117398189047 -0.0047252048569203023 0 0.02121316884583728 -0.0047933017559581665 0 0.021238249371531633 -0.0047957653222077193 0 0.021308248061322088 -0.0048260920531078477 0 0.021131861364265668 -0.0047699023605835122 0 0.02121316884583728 -0.0047933017559581665 0 0.021238249371531633 -0.0047957653222077193 0 0.021296881855269584 -0.004820989542837704 0 0.021238249371531633 -0.0047957653222077193 0 0.021321565691079652 -0.0048273178532682193 0 0.021296881855269584 -0.004820989542837704 0 0.021238249371531633 -0.0047957653222077193 0 0.021308248061322088 -0.0048260920531078477 0 0.021319766157374312 -0.004838571821856077 0 0.021296881855269584 -0.004820989542837704 0 0.021308248061322088 -0.0048260920531078477 0 0.021238249371531633 -0.0047957653222077193 0 0.021321565691079652 -0.0048273178532682193 0 0.02122279539619655 -0.0048241285059445783 0 0.021858922426246308 -0.0050054140820702444 0 0.022459312579945351 -0.0042749163025220457 0 0.021317819739119122 -0.0048284952921455702 0 0.021319091388410105 -0.0048316374744649757 0 0.02134780243395553 -0.0048695150683851808 0 0.021296881855269584 -0.004820989542837704 0 0.021321565691079652 -0.0048273178532682193 0 0.021319091388410105 -0.0048316374744649757 0 0.021858922426246308 -0.0050054140820702444 0 0.021812557252792804 -0.0049624225615531878 0 0.021319766157374312 -0.004838571821856077 0 0.021319091388410105 -0.0048316374744649757 0 0.02134780243395553 -0.0048695150683851808 0 0.021319766157374312 -0.004838571821856077 0 0.021296881855269584 -0.004820989542837704 0 0.021319091388410105 -0.0048316374744649757 0 0.021317819739119122 -0.0048284952921455702 0 0.02134780243395553 -0.0048695150683851808 0 0.021389664770332221 -0.0049433678298916152 0 0.02134780243395553 -0.0048695150683851808 0 0.021308248061322088 -0.0048260920531078477 0 0.021372681231606676 -0.0048840022173074343 0 0.021319766157374312 -0.004838571821856077 0 0.02134780243395553 -0.0048695150683851808 0 0.021308248061322088 -0.0048260920531078477 0 0.021332595779364621 -0.004836876586809649 0 0.021308248061322088 -0.0048260920531078477 0 0.021372681231606676 -0.0048840022173074343 0 0.02134780243395553 -0.0048695150683851808 0 0.021407146792417155 -0.0049532326803688898 0 0.021389664770332221 -0.0049433678298916152 0 0.02134780243395553 -0.0048695150683851808 0 0.021372681231606676 -0.0048840022173074343 0 0.021407146792417155 -0.0049532326803688898 0 0.018993110986941716 -0.0053360750125804107 0 0.019255925957085713 -0.0052621312059607534 0 0.019099474741048443 -0.0054876239572623584 0 0.018993110986941716 -0.0053360750125804107 0 0.019255925957085713 -0.0052621312059607534 0 0.019184305806954762 -0.0051432335862006693 0 0.019255925957085713 -0.0052621312059607534 0 0.019381217814241531 -0.0050742927118017983 0 0.019528313593145507 -0.0052103666053476159 0 0.019337701998641762 -0.0054297480112720665 0 0.019099474741048443 -0.0054876239572623584 0 0.019302010867378424 -0.0057123914646580029 0 0.019255925957085713 -0.0052621312059607534 0 0.019337701998641762 -0.0054297480112720665 0 0.019099474741048443 -0.0054876239572623584 0 0.018993110986941716 -0.0053360750125804107 0 0.019099474741048443 -0.0054876239572623584 0 0.018811377131212597 -0.0055317781751952578 0 0.018993110986941716 -0.0053360750125804107 0 0.018811377131212597 -0.0055317781751952578 0 0.018743840336122256 -0.0053877889779089727 0 0.018811377131212597 -0.0055317781751952578 0 0.01857674420431326 -0.0055710101783428391 0 0.018743840336122256 -0.0053877889779089727 0 0.01835449662353739 -0.0055597236297477478 0 0.01857674420431326 -0.0055710101783428391 0 0.018743840336122256 -0.0053877889779089727 0 0.018667389100281647 -0.0053004046550296615 0 0.018949019027228068 -0.0052140433019541672 0 0.018743840336122256 -0.0053877889779089727 0 0.01835449662353739 -0.0055597236297477478 0 0.018667389100281647 -0.0053004046550296615 0 0.018743840336122256 -0.0053877889779089727 0 0.018993110986941716 -0.0053360750125804107 0 0.018949019027228068 -0.0052140433019541672 0 0.019184305806954762 -0.0051432335862006693 0 0.018993110986941716 -0.0053360750125804107 0 0.018949019027228068 -0.0052140433019541672 0 0.018743840336122256 -0.0053877889779089727 0 0.018949019027228068 -0.0052140433019541672 0 0.019146764068996465 -0.0050538380900149935 0 0.019184305806954762 -0.0051432335862006693 0 0.018949019027228068 -0.0052140433019541672 0 0.018918725195697976 -0.0051278967810856439 0 0.019146764068996465 -0.0050538380900149935 0 0.018667389100281647 -0.0053004046550296615 0 0.018949019027228068 -0.0052140433019541672 0 0.018918725195697976 -0.0051278967810856439 0 0.018598874206383877 -0.0051897951416185802 0 0.018667389100281647 -0.0053004046550296615 0 0.018918725195697976 -0.0051278967810856439 0 0.018918725195697976 -0.0051278967810856439 0 0.019174431375935892 -0.004975392634005673 0 0.019146764068996465 -0.0050538380900149935 0 0.019174431375935892 -0.004975392634005673 0 0.019146764068996465 -0.0050538380900149935 0 0.019423310965029257 -0.0049758783438169285 0 0.019146764068996465 -0.0050538380900149935 0 0.019331559789774588 -0.0050218506631634543 0 0.019423310965029257 -0.0049758783438169285 0 0.019146764068996465 -0.0050538380900149935 0 0.019331559789774588 -0.0050218506631634543 0 0.019184305806954762 -0.0051432335862006693 0 0.019331559789774588 -0.0050218506631634543 0 0.019184305806954762 -0.0051432335862006693 0 0.019381217814241531 -0.0050742927118017983 0 0.019255925957085713 -0.0052621312059607534 0 0.019184305806954762 -0.0051432335862006693 0 0.019381217814241531 -0.0050742927118017983 0 0.019381217814241531 -0.0050742927118017983 0 0.019549804627173768 -0.0049861221481972079 0 0.019475198108757023 -0.0049901775410500825 0 0.019331559789774588 -0.0050218506631634543 0 0.019381217814241531 -0.0050742927118017983 0 0.019475198108757023 -0.0049901775410500825 0 0.019709138336229261 -0.0049446848321890143 0 0.019591037215972735 -0.0045988765833339957 0 0.019549804627173768 -0.0049861221481972079 0 0.019726125277912201 -0.0049581074750318192 0 0.019601600348274906 -0.0049554167362711775 0 0.019549804627173768 -0.0049861221481972079 0 0.019528313593145507 -0.0052103666053476159 0 0.019726125277912201 -0.0049581074750318192 0 0.019381217814241531 -0.0050742927118017983 0 0.019549804627173768 -0.0049861221481972079 0 0.019528313593145507 -0.0052103666053476159 0 0.019255925957085713 -0.0052621312059607534 0 0.019337701998641762 -0.0054297480112720665 0 0.019528313593145507 -0.0052103666053476159 0 0.019528313593145507 -0.0052103666053476159 0 0.019840441359569961 -0.005504906008923614 0 0.019838771561296986 -0.0052141975623460693 0 0.019528313593145507 -0.0052103666053476159 0 0.019838771561296986 -0.0052141975623460693 0 0.019726125277912201 -0.0049581074750318192 0 0.019528313593145507 -0.0052103666053476159 0 0.019526695646341213 -0.0055455276282539677 0 0.019840441359569961 -0.005504906008923614 0 0.019337701998641762 -0.0054297480112720665 0 0.019528313593145507 -0.0052103666053476159 0 0.019526695646341213 -0.0055455276282539677 0 0.019337701998641762 -0.0054297480112720665 0 0.019526695646341213 -0.0055455276282539677 0 0.019302010867378424 -0.0057123914646580029 0 0.020192430003897519 -0.0055050058783310124 0 0.020333020362138448 -0.0053440453936677429 0 0.020329266843728148 -0.0056898206636186496 0 0.020192430003897519 -0.0055050058783310124 0 0.019814659798754977 -0.0055785814336990289 0 0.020185284828264181 -0.0051583799800652488 0 0.020192430003897519 -0.0055050058783310124 0 0.019814659798754977 -0.0055785814336990289 0 0.02004743682054759 -0.0057934200598700322 0 0.020192430003897519 -0.0055050058783310124 0 0.020329266843728148 -0.0056898206636186496 0 0.02004743682054759 -0.0057934200598700322 0 0.019840441359569961 -0.005504906008923614 0 0.019838771561296986 -0.0052141975623460693 0 0.020185284828264181 -0.0051583799800652488 0 0.019838771561296986 -0.0052141975623460693 0 0.020185284828264181 -0.0051583799800652488 0 0.020057862398623172 -0.0049142341730166808 0 0.019835628379348474 -0.0055391420426746645 0 0.020163697378424709 -0.0051725653156670581 0 0.020463957532856746 -0.0047554816366801138 0 0.020236926788275759 -0.0052475545804305983 0 0.020192430003897519 -0.0055050058783310124 0 0.020185284828264181 -0.0051583799800652488 0 0.020290798267733452 -0.0053259571518174103 0 0.020185284828264181 -0.0051583799800652488 0 0.020423421288500811 -0.0047640385113219145 0 0.020345397935343578 -0.0053549232563967512 0 0.020185284828264181 -0.0051583799800652488 0 0.020290798267733452 -0.0053259571518174103 0 0.020345397935343578 -0.0053549232563967512 0 0.020192430003897519 -0.0055050058783310124 0 0.020290798267733452 -0.0053259571518174103 0 0.020333020362138448 -0.0053440453936677429 0 0.020260363221740657 -0.0052615500743404932 0 0.020236926788275759 -0.0052475545804305983 0 0.020185284828264181 -0.0051583799800652488 0 0.020057862398623172 -0.0049142341730166808 0 0.020423421288500811 -0.0047640385113219145 0 0.019838771561296986 -0.0052141975623460693 0 0.020057862398623172 -0.0049142341730166808 0 0.019726125277912201 -0.0049581074750318192 0 0.020057862398623172 -0.0049142341730166808 0 0.019726125277912201 -0.0049581074750318192 0 0.020162035650085779 -0.0043824920275452716 0 0.019726125277912201 -0.0049581074750318192 0 0.020162035650085779 -0.0043824920275452716 0 0.019565204817262569 -0.0042306405434412893 0 0.020423421288500811 -0.0047640385113219145 0 0.020162035650085779 -0.0043824920275452716 0 0.020718416854945968 -0.0043251744499003602 0 0.020057862398623172 -0.0049142341730166808 0 0.020423421288500811 -0.0047640385113219145 0 0.020162035650085779 -0.0043824920275452716 0 0.020549637904837912 -0.0030950326469497825 0 0.020675973229789382 -0.004123158754898465 0 0.020423421288500811 -0.0047640385113219145 0 0.020718416854945968 -0.0043251744499003602 0 0.020724147931036073 -0.0048159077339825765 0 0.021081043316802918 -0.0024842353866337983 0 0.02139811551154263 -0.0032291396839850351 0 0.022007207047044477 -0.0021811699323518296 0 0.020382709949222678 -0.0018600852326305056 0 0.021081043316802918 -0.0024842353866337983 0 0.02058776656806514 -0.0034065939556665943 0 0.021081043316802918 -0.0024842353866337983 0 0.022007207047044477 -0.0021811699323518296 0 0.021082919797721447 -0.0011737739663904474 0 0.021081043316802918 -0.0024842353866337983 0 0.02139811551154263 -0.0032291396839850351 0 0.02058776656806514 -0.0034065939556665943 0 0.02139811551154263 -0.0032291396839850351 0 0.02058776656806514 -0.0034065939556665943 0 0.021153770570655952 -0.0041341244104327445 0 0.020423421288500811 -0.0047640385113219145 0 0.020724147931036073 -0.0048159077339825765 0 0.020694139440631025 -0.0049577330085480023 0 0.021700309627557757 -0.0016707688235139387 0 0.022470690508940527 -0.00232456590503923 0 0.02235290376166281 -0.0011937332565983042 0 0.02139811551154263 -0.0032291396839850351 0 0.022007207047044477 -0.0021811699323518296 0 0.022141928116451683 -0.0039753218750703968 0 0.02139811551154263 -0.0032291396839850351 0 0.022141928116451683 -0.0039753218750703968 0 0.021153770570655952 -0.0041341244104327445 0 0.021811074403272759 -0.0018881293264051812 0 0.02227262134880359 -0.0034805638612816028 0 0.021700309627557757 -0.0016707688235139387 0 0.022470690508940527 -0.00232456590503923 0 0.021755701923374518 -0.0027388674425597071 0 0.021755701923374518 -0.0027388674425597071 0 0.021855931625157119 -0.0034957056248375615 0 0.022429952578524925 -0.0031306179636315635 0 0.022470690508940527 -0.00232456590503923 0 0.021755701923374518 -0.0027388674425597071 0 0.022429952578524925 -0.0031306179636315635 0 0.022141928116451683 -0.0039753218750703968 0 0.021649471073612359 -0.0045487607905403647 0 0.021153770570655952 -0.0041341244104327445 0 0.022141928116451683 -0.0039753218750703968 0 0.021649471073612359 -0.0045487607905403647 0 0.021966853245729431 -0.0052665500448174137 0 0.02227262134880359 -0.0034805638612816028 0 0.019577058673033058 -0.0041186983379917948 0 0.022141928116451683 -0.0039753218750703968 0 0.021966853245729431 -0.0052665500448174137 0 0.022182881949601555 -0.0057352544070150887 0 0.021966853245729431 -0.0052665500448174137 0 0.021642780118117551 -0.0055008808413859892 0 0.021485254662213325 -0.0049695764436501772 0 0.021649471073612359 -0.0045487607905403647 0 0.021966853245729431 -0.0052665500448174137 0 0.021485254662213325 -0.0049695764436501772 0 0.021966853245729431 -0.0052665500448174137 0 0.021650106232739847 -0.0055131814916310586 0 0.022182881949601555 -0.0057352544070150887 0 0.020427758368378603 -0.0052645464731935071 0 0.019577058673033058 -0.0041186983379917948 0 0.021261357111371958 -0.0049835938531806769 0 0.020427758368378603 -0.0052645464731935071 0 0.021855931625157119 -0.0034957056248375615 0 0.022430398042930028 -0.003650462719125112 0 0.022429952578524925 -0.0031306179636315635 0 0.020423421288500811 -0.0047640385113219145 0 0.020529441659723136 -0.0050392531064192333 0 0.020694139440631025 -0.0049577330085480023 0 0.020529441659723136 -0.0050392531064192333 0 0.020694139440631025 -0.0049577330085480023 0 0.020737676695036525 -0.0051172516167864281 0 0.020675973229789382 -0.004123158754898465 0 0.020889808593526387 -0.0050127719539404623 0 0.02058776656806514 -0.0034065939556665943 0 0.021153770570655952 -0.0041341244104327445 0 0.020912267851492024 -0.0050578481703684904 0 0.020724147931036073 -0.0048159077339825765 0 0.020694139440631025 -0.0049577330085480023 0 0.020912267851492024 -0.0050578481703684904 0 0.021153770570655952 -0.0041341244104327445 0 0.021320438406796444 -0.0046454065085946225 0 0.020912267851492024 -0.0050578481703684904 0 0.021649471073612359 -0.0045487607905403647 0 0.021153770570655952 -0.0041341244104327445 0 0.021320438406796444 -0.0046454065085946225 0 0.021649471073612359 -0.0045487607905403647 0 0.021320438406796444 -0.0046454065085946225 0 0.021485254662213325 -0.0049695764436501772 0 0.020694139440631025 -0.0049577330085480023 0 0.020737676695036525 -0.0051172516167864281 0 0.020912267851492024 -0.0050578481703684904 0 0.021642780118117551 -0.0055008808413859892 0 0.020737676695036525 -0.0051172516167864281 0 0.020912267851492024 -0.0050578481703684904 0 0.020106410115327811 -0.0053739958370575061 0 0.020017198816968604 -0.0053401726481733204 0 0.020020420242810113 -0.0054400991562997174 0 0.020427758368378603 -0.0052645464731935071 0 0.020467727886498865 -0.0052655845401447087 0 0.021320438406796444 -0.0046454065085946225 0 0.020912267851492024 -0.0050578481703684904 0 0.021485254662213325 -0.0049695764436501772 0 0.021642780118117551 -0.0055008808413859892 0 0.020912267851492024 -0.0050578481703684904 0 0.021485254662213325 -0.0049695764436501772 0 0.020017198816968604 -0.0053401726481733204 0 0.019934783459247707 -0.0054054063526064152 0 0.020020420242810113 -0.0054400991562997174 0 0.019932386641908766 -0.0053064082261121744 0 0.020017198816968604 -0.0053401726481733204 0 0.019934783459247707 -0.0054054063526064152 0 0.020236926788275759 -0.0052475545804305983 0 0.020467727886498865 -0.0052655845401447087 0 0.020236926788275759 -0.0052475545804305983 0 0.020162382487911308 -0.0056376900609291661 0 0.020162382487911308 -0.0056376900609291661 0 0.019348919334603084 -0.0053846071266258257 0 0.019934783459247707 -0.0054054063526064152 0 0.020020420242810113 -0.0054400991562997174 0 0.019935713054477017 -0.0055050717846840472 0 0.019265587146075569 -0.0050853403779004954 0 0.019348919334603084 -0.0053846071266258257 0 0.018731913208865535 -0.004678256551092743 0 0.018711325885262881 -0.0046903634401688045 0 0.018723568641190548 -0.0046900432610465928 0 0.020427758368378603 -0.0052645464731935071 0 0.019265587146075569 -0.0050853403779004954 0 0.018711325885262881 -0.0046903634401688045 0 0.018712324325180725 -0.0047039205375306523 0 0.018723568641190548 -0.0046900432610465928 0 0.017358984009019581 -0.0046960894329650203 0 0.017269792181014099 -0.0045907803378704651 0 0.017442550095060249 -0.0045943680468559841 0 0.018711325885262881 -0.0046903634401688045 0 0.018712324325180725 -0.0047039205375306523 0 0.018692099791811009 -0.0047057085826009443 0 0.018140555660905319 -0.0047101151483793921 0 0.018275686690493578 -0.0048291529375259394 0 0.018712324325180725 -0.0047039205375306523 0 0.018691322533501576 -0.0047110317289660586 0 0.018692099791811009 -0.0047057085826009443 0 0.017358984009019581 -0.0046960894329650203 0 0.017553287196821529 -0.0046814090513442649 0 0.017442550095060249 -0.0045943680468559841 0 0.019158880232148748 -0.0054246188869843054 0 0.019155424752518978 -0.0053640120974887909 0 0.019068290777272297 -0.0054352434894963768 0 0.018275686690493578 -0.0048291529375259394 0 0.019348919334603084 -0.0053846071266258257 0 0.019577058673033058 -0.0041186983379917948 0 0.020054593768924895 -0.0030589726406512635 0 0.01721771188332577 -0.0036126999388351897 0 0.016700308547151418 -0.0032534412590572146 0 0.017896532334101288 -0.0028073168860469869 0 0.016101580142739273 -0.0023841251929379451 0 0.016700308547151418 -0.0032534412590572146 0 0.017896532334101288 -0.0028073168860469869 0 0.01721771188332577 -0.0036126999388351897 0 0.016700308547151418 -0.0032534412590572146 0 0.016810349184318573 -0.0041347999604845736 0 0.016101580142739273 -0.0023841251929379451 0 0.016700308547151418 -0.0032534412590572146 0 0.016196394823827186 -0.0041159449890402402 0 0.019577058673033058 -0.0041186983379917948 0 0.017211051931139525 -0.0042491442031719262 0 0.018735975784495273 -0.004679901387700797 0 0.018723568641190548 -0.0046900432610465928 0 0.018723739572361984 -0.0046962747996540169 0 0.018731913208865535 -0.004678256551092743 0 0.018735975784495273 -0.004679901387700797 0 0.018723568641190548 -0.0046900432610465928 0 0.018140555660905319 -0.0047101151483793921 0 0.017211051931139525 -0.0042491442031719262 0 0.017358984009019581 -0.0046960894329650203 0 0.017168447439156988 -0.004709813871024377 0 0.017269792181014099 -0.0045907803378704651 0 0.018712324325180725 -0.0047039205375306523 0 0.018723568641190548 -0.0046900432610465928 0 0.018723739572361984 -0.0046962747996540169 0 0.016700308547151418 -0.0032534412590572146 0 0.016196394823827186 -0.0041159449890402402 0 0.016810349184318573 -0.0041347999604845736 0 0.017211051931139525 -0.0042491442031719262 0 0.016797702443308242 -0.0042391931377672078 0 0.016540798996821798 -0.0042738810035202381 0 0.016810349184318573 -0.0041347999604845736 0 0.01726337072934352 -0.0048759687575603596 0 0.016810349184318573 -0.0041347999604845736 0 0.01726337072934352 -0.0048759687575603596 0 0.017655759274163279 -0.0043979411330074521 0 0.01721771188332577 -0.0036126999388351897 0 0.016810349184318573 -0.0041347999604845736 0 0.017655759274163279 -0.0043979411330074521 0 0.01726337072934352 -0.0048759687575603596 0 0.017156712925384125 -0.0051637873966446273 0 0.017422310182672363 -0.0051938032092213975 0 0.016540798996821798 -0.0042738810035202381 0 0.01726337072934352 -0.0048759687575603596 0 0.017156712925384125 -0.0051637873966446273 0 0.017211051931139525 -0.0042491442031719262 0 0.017086820692641946 -0.0048229927828471611 0 0.017269792181014099 -0.0045907803378704651 0 0.017153233198681197 -0.0044742434718551063 0 0.017330030594320502 -0.0044767552014920173 0 0.017168447439156988 -0.004709813871024377 0 0.017269792181014099 -0.0045907803378704651 0 0.017153233198681197 -0.0044742434718551063 0 0.017130015378249049 -0.0043408156638506919 0 0.017153233198681197 -0.0044742434718551063 0 0.017210569092842659 -0.0043703917088005906 0 0.017153233198681197 -0.0044742434718551063 0 0.017210569092842659 -0.0043703917088005906 0 0.017330030594320502 -0.0044767552014920173 0 0.017044284033711603 -0.0045669179295874662 0 0.017130015378249049 -0.0043408156638506919 0 0.017156712925384125 -0.0051637873966446273 0 0.017156712925384125 -0.0051637873966446273 0 0.017422310182672363 -0.0051938032092213975 0 0.017118291678545155 -0.0048385843843670052 0 0.017044284033711603 -0.0045669179295874662 0 0.017156712925384125 -0.0051637873966446273 0 0.017118291678545155 -0.0048385843843670052 0 0.017145375191961538 -0.0043619865200510933 0 0.017086820692641946 -0.0048229927828471611 0 0.017442550095060249 -0.0045943680468559841 0 0.017538172178896784 -0.0044947904510497429 0 0.017330030594320502 -0.0044767552014920173 0 0.017553287196821529 -0.0046814090513442649 0 0.017442550095060249 -0.0045943680468559841 0 0.017538172178896784 -0.0044947904510497429 0 0.017559090441244884 -0.0042878839044207355 0 0.017546938553293704 -0.0042808911731581408 0 0.017561267576494271 -0.0042863566944605367 0 0.018275686690493578 -0.0048291529375259394 0 0.017505809596898812 -0.0043086347009469598 0 0.017269792181014099 -0.0045907803378704651 0 0.017442550095060249 -0.0045943680468559841 0 0.017330030594320502 -0.0044767552014920173 0 0.017315787190247126 -0.0043213170458151918 0 0.017210569092842659 -0.0043703917088005906 0 0.017330030594320502 -0.0044767552014920173 0 0.017315787190247126 -0.0043213170458151918 0 0.017330030594320502 -0.0044767552014920173 0 0.01741404570114111 -0.004370607541513331 0 0.017538172178896784 -0.0044947904510497429 0 0.017330030594320502 -0.0044767552014920173 0 0.01741404570114111 -0.004370607541513331 0 0.017532641928318129 -0.0043186755992381358 0 0.017505809596898812 -0.0043086347009469598 0 0.017524362599209201 -0.0042817230295657338 0 0.017538172178896784 -0.0044947904510497429 0 0.01741404570114111 -0.004370607541513331 0 0.017524362599209201 -0.0042817230295657338 0 0.017546938553293704 -0.0042808911731581408 0 0.017552056326231327 -0.0042738153959536972 0 0.017546938553293704 -0.0042808911731581408 0 0.017552056326231327 -0.0042738153959536972 0 0.017550931025310423 -0.0042733612151719209 0 0.017552056326231327 -0.0042738153959536972 0 0.017550931025310423 -0.0042733612151719209 0 0.017547078403565449 -0.0042716806718566397 0 0.017546938553293704 -0.0042808911731581408 0 0.017550931025310423 -0.0042733612151719209 0 0.017552747384641579 -0.0042776340389850225 0 0.017552747384641579 -0.0042776340389850225 0 0.017544358804509823 -0.0042680304883479809 0 0.017561267576494271 -0.0042863566944605367 0 0.018569251082426023 -0.0053174781623776127 0 0.019279494853007784 -0.0055282278119947199 0 0.017546938553293704 -0.0042808911731581408 0 0.017552747384641579 -0.0042776340389850225 0 0.017561267576494271 -0.0042863566944605367 0 0.019776683839061688 -0.0064032491585185921 0 0.020060752793753796 -0.0061479092355419332 0 0.019708927341760503 -0.0061923053726878887 0 0.017550931025310423 -0.0042733612151719209 0 0.017552747384641579 -0.0042776340389850225 0 0.017544358804509823 -0.0042680304883479809 0 0.017544358804509823 -0.0042680304883479809 0 0.017547078403565449 -0.0042716806718566397 0 0.017494427758147395 -0.0042755974248117187 0 0.017550931025310423 -0.0042733612151719209 0 0.017544358804509823 -0.0042680304883479809 0 0.017547078403565449 -0.0042716806718566397 0 0.019776683839061688 -0.0064032491585185921 0 0.019427988931321652 -0.0066955844893587394 0 0.019480442867778891 -0.006395460906403575 0 0.017544358804509823 -0.0042680304883479809 0 0.017494427758147395 -0.0042755974248117187 0 0.017491187722747555 -0.0042746643106401109 0 0.018569251082426023 -0.0053174781623776127 0 0.018570639064032272 -0.0054777884883079079 0 0.017488733590231023 -0.0042490940343754236 0 0.017494427758147395 -0.0042755974248117187 0 0.017491187722747555 -0.0042746643106401109 0 0.019427988931321652 -0.0066955844893587394 0 0.019260890002441695 -0.0065692454123524912 0 0.019480442867778891 -0.006395460906403575 0 0.019427988931321652 -0.0066955844893587394 0 0.019176561946672162 -0.006754137842438503 0 0.019260890002441695 -0.0065692454123524912 0 0.019171766801589035 -0.0063664226202536306 0 0.019480442867778891 -0.006395460906403575 0 0.01947844910651737 -0.0059882427870271435 0 0.019260890002441695 -0.0065692454123524912 0 0.019171766801589035 -0.0063664226202536306 0 0.019480442867778891 -0.006395460906403575 0 0.019776683839061688 -0.0064032491585185921 0 0.019480442867778891 -0.006395460906403575 0 0.019708927341760503 -0.0061923053726878887 0 0.019480442867778891 -0.006395460906403575 0 0.01947844910651737 -0.0059882427870271435 0 0.019708927341760503 -0.0061923053726878887 0 0.01947844910651737 -0.0059882427870271435 0 0.019796588639124462 -0.0059262170539925935 0 0.019708927341760503 -0.0061923053726878887 0 0.019306534913587955 -0.0062346403586078548 0 0.019607400797552719 -0.0058256764374052753 0 0.019302010867378424 -0.0057123914646580029 0 0.019233579629446756 -0.0063066451144401384 0 0.019541372125606735 -0.0059083527382965129 0 0.019526695646341213 -0.0055455276282539677 0 0.019607400797552719 -0.0058256764374052753 0 0.019302010867378424 -0.0057123914646580029 0 0.019835628379348474 -0.0055391420426746645 0 0.019541372125606735 -0.0059083527382965129 0 0.019814659798754977 -0.0055785814336990289 0 0.01947844910651737 -0.0059882427870271435 0 0.019796588639124462 -0.0059262170539925935 0 0.019526695646341213 -0.0055455276282539677 0 0.019840441359569961 -0.005504906008923614 0 0.019607400797552719 -0.0058256764374052753 0 0.019814659798754977 -0.0055785814336990289 0 0.019796588639124462 -0.0059262170539925935 0 0.02004743682054759 -0.0057934200598700322 0 0.019796588639124462 -0.0059262170539925935 0 0.02004743682054759 -0.0057934200598700322 0 0.019990746984898465 -0.0060123399157269329 0 0.020329266843728148 -0.0056898206636186496 0 0.020341125770526346 -0.0060411476760820352 0 0.020183160343288379 -0.0059370814800665823 0 0.020329266843728148 -0.0056898206636186496 0 0.02004743682054759 -0.0057934200598700322 0 0.020183160343288379 -0.0059370814800665823 0 0.02004743682054759 -0.0057934200598700322 0 0.020183160343288379 -0.0059370814800665823 0 0.019990746984898465 -0.0060123399157269329 0 0.020183160343288379 -0.0059370814800665823 0 0.020205612311818708 -0.0061532692197791188 0 0.019990746984898465 -0.0060123399157269329 0 0.020341125770526346 -0.0060411476760820352 0 0.020183160343288379 -0.0059370814800665823 0 0.020205612311818708 -0.0061532692197791188 0 0.019348919334603084 -0.0053846071266258257 0 0.019279494853007784 -0.0055282278119947199 0 0.018275686690493578 -0.0048291529375259394 0 0.019279494853007784 -0.0055282278119947199 0 0.019279494853007784 -0.0055282278119947199 0 0.020077338808622707 -0.006313858090592663 0 0.020205612311818708 -0.0061532692197791188 0 0.019708927341760503 -0.0061923053726878887 0 0.019990746984898465 -0.0060123399157269329 0 0.019796588639124462 -0.0059262170539925935 0 0.019708927341760503 -0.0061923053726878887 0 0.019990746984898465 -0.0060123399157269329 0 0.0060100331737423605 0.00019515081685733817 0 0.0075209891452093546 -4.1072167236923165e-05 0 0.0065660972244238058 -0.0001488401229546451 0 0.0079745653945934216 4.5712667631378969e-07 0 0.0059442445585836676 -3.5496048757796575e-07 0 0.0051976299633883756 -0.00037409675339109824 0 0.0065660972244238058 -0.0001488401229546451 0 0.0059442445585836676 -3.5496048757796575e-07 0 0.0051976299633883756 -0.00037409675339109824 0 0.0065660972244238058 -0.0001488401229546451 0 0.0078535946961068998 -7.9084227425650879e-06 0 0.0079745653945934216 4.5712667631378969e-07 0 0.0078535946961068998 -7.9084227425650879e-06 0 0.010000374313290374 -2.8431853849574904e-06 0 0.0065660972244238058 -0.0001488401229546451 0 0.0079745653945934216 4.5712667631378969e-07 0 0.0078535946961068998 -7.9084227425650879e-06 0 0.0078535946961068998 -7.9084227425650879e-06 0 0.0064446844004697945 -0.00010372814042055335 0 0.0072980129878197318 -0.00089957685500906726 0 0.0067736089206149389 0.00059503697774295546 0 0.0078535946961068998 -7.9084227425650879e-06 0 0.0064446844004697945 -0.00010372814042055335 0 0.0064446844004697945 -0.00010372814042055335 0 0.0051241963573220167 -0.00013425169805374496 0 0.0057200345777185073 -0.0010488605951153389 0 0.0051241963573220167 -0.00013425169805374496 0 0.0055895063107132496 0.0005373543205091266 0 0.0046860284110286973 0.00053786253136758595 0 0.0067736089206149389 0.00059503697774295546 0 0.0064446844004697945 -0.00010372814042055335 0 0.0055895063107132496 0.0005373543205091266 0 0.0064446844004697945 -0.00010372814042055335 0 0.0051241963573220167 -0.00013425169805374496 0 0.0055895063107132496 0.0005373543205091266 0 0.0067736089206149389 0.00059503697774295546 0 0.0055895063107132496 0.0005373543205091266 0 0.0057024052486595068 0.0011004077391948927 0 0.0055895063107132496 0.0005373543205091266 0 0.0049081584295889973 0.0010469106733007325 0 0.0057024052486595068 0.0011004077391948927 0 0.0055895063107132496 0.0005373543205091266 0 0.0049081584295889973 0.0010469106733007325 0 0.0046860284110286973 0.00053786253136758595 0 0.0049081584295889973 0.0010469106733007325 0 0.0057024052486595068 0.0011004077391948927 0 0.004696849391120984 0.0014403490066204143 0 0.0049081584295889973 0.0010469106733007325 0 0.004696849391120984 0.0014403490066204143 0 0.0042267705618698132 0.00097675326079114467 0 0.004498616260020326 0.00050014183082489983 0 0.0034432983898693738 0.00084254942002881951 0 0.0032860297807436331 -0.00015656456766161941 0 0.0042457487741893269 6.1629522382219908e-05 0 0.0028972915532716166 0.00031689923432304067 0 0.0060100331737423605 0.00019515081685733817 0 0.004498616260020326 0.00050014183082489983 0 0.0051976299633883756 -0.00037409675339109824 0 0.0032860297807436331 -0.00015656456766161941 0 0.0042457487741893269 6.1629522382219908e-05 0 0.0051976299633883756 -0.00037409675339109824 0 0.0042457487741893269 6.1629522382219908e-05 0 0.0059442445585836676 -3.5496048757796575e-07 0 0.0042457487741893269 6.1629522382219908e-05 0 0.0059442445585836676 -3.5496048757796575e-07 0 0.0039154272809434516 5.8872388622013275e-07 0 0.0039154272809434516 5.8872388622013275e-07 0 0.0028972915532716166 0.00031689923432304067 0 0.0027094211062852476 0.00021020281783577579 0 0.0042457487741893269 6.1629522382219908e-05 0 0.0039154272809434516 5.8872388622013275e-07 0 0.0028972915532716166 0.00031689923432304067 0 0.0028972915532716166 0.00031689923432304067 0 0.0017797015359591701 0.00033728065758752509 0 0.0020242522004574113 0.00051708339787667399 0 0.0028972915532716166 0.00031689923432304067 0 0.0027094211062852476 0.00021020281783577579 0 0.0017797015359591701 0.00033728065758752509 0 0.0039154272809434516 5.8872388622013275e-07 0 0.0027094211062852476 0.00021020281783577579 0 0.0018860604639655521 5.1337528094991287e-07 0 0.0018860604639655521 5.1337528094991287e-07 0 0.0017797015359591701 0.00033728065758752509 0 0.00076213327540140807 6.031528570724235e-05 0 0.0027094211062852476 0.00021020281783577579 0 0.0018860604639655521 5.1337528094991287e-07 0 0.0017797015359591701 0.00033728065758752509 0 0.00099725695828172651 0.00097159584265407543 0 0.0017797015359591701 0.00033728065758752509 0 0.0013974604379887543 0.00059343211852248834 0 0.00030398298593911985 0.00052616183133708623 0 0.0015257485953668228 0.00039479740804201896 0 -0.00043513328828866229 -4.9661849798191625e-05 0 0.0017797015359591701 0.00033728065758752509 0 0.00076213327540140807 6.031528570724235e-05 0 -0.00014335982105507876 -1.1009644638220898e-07 0 0.0018860604639655521 5.1337528094991287e-07 0 0.00076213327540140807 6.031528570724235e-05 0 -0.00014335982105507876 -1.1009644638220898e-07 0 -0.00043513328828866229 -4.9661849798191625e-05 0 0.00076213327540140807 6.031528570724235e-05 0 0.00082194855474143581 0.0009601057280352992 0 0.0012798521297695347 0.00065116518628302372 0 0.00042052708520062772 0.0011230934406187903 0 -0.0001252817178838175 0.0010058571900153288 0 0.0013974604379887543 0.00059343211852248834 0 0.0017549661667699023 0.00082521386990638541 0 0.0013974604379887543 0.00059343211852248834 0 0.0017169379515783773 0.00075227261907796935 0 0.00042052708520062772 0.0011230934406187903 0 0.00099725695828172651 0.00097159584265407543 0 0.0013974604379887543 0.00059343211852248834 0 0.0017797015359591701 0.00033728065758752509 0 0.0013974604379887543 0.00059343211852248834 0 0.0020242522004574113 0.00051708339787667399 0 0.0013974604379887543 0.00059343211852248834 0 0.001752401428611018 0.00068257908696666499 0 0.0017169379515783773 0.00075227261907796935 0 0.0020242522004574113 0.00051708339787667399 0 0.0021185765678075541 0.00024537632284625494 0 0.001752401428611018 0.00068257908696666499 0 0.0013974604379887543 0.00059343211852248834 0 0.0020242522004574113 0.00051708339787667399 0 0.001752401428611018 0.00068257908696666499 0 0.0028972915532716166 0.00031689923432304067 0 0.0020242522004574113 0.00051708339787667399 0 0.0021185765678075541 0.00024537632284625494 0 0.0032860297807436331 -0.00015656456766161941 0 0.0028972915532716166 0.00031689923432304067 0 0.0021185765678075541 0.00024537632284625494 0 0.0034432983898693738 0.00084254942002881951 0 0.0027981791566028275 0.0011140647962999369 0 0.004696849391120984 0.0014403490066204143 0 0.0037895083529804318 0.0012833533963787255 0 0.0042267705618698132 0.00097675326079114467 0 0.004696849391120984 0.0014403490066204143 0 0.0037895083529804318 0.0012833533963787255 0 0.0037921340506870778 0.0016123833875412944 0 0.0034805083750263873 0.0011249273370868413 0 0.0033470325540247681 0.0012853016148355711 0 0.0031354506084509408 0.0012110752460093375 0 0.0037895083529804318 0.0012833533963787255 0 0.0034805083750263873 0.0011249273370868413 0 0.0033470325540247681 0.0012853016148355711 0 0.0037895083529804318 0.0012833533963787255 0 0.0034805083750263873 0.0011249273370868413 0 0.0038048473026458612 0.0010469884418493731 0 0.0037895083529804318 0.0012833533963787255 0 0.0033470325540247681 0.0012853016148355711 0 0.0032822483224708003 0.0014381437684052112 0 0.0032822483224708003 0.0014381437684052112 0 0.0037921340506870778 0.0016123833875412944 0 0.00293460128745521 0.0015795861461919815 0 0.0037895083529804318 0.0012833533963787255 0 0.0032822483224708003 0.0014381437684052112 0 0.0037921340506870778 0.0016123833875412944 0 0.0032822483224708003 0.0014381437684052112 0 0.00293460128745521 0.0015795861461919815 0 0.0028493108184474186 0.0013704225452514285 0 0.0033470325540247681 0.0012853016148355711 0 0.0032822483224708003 0.0014381437684052112 0 0.0031183088889838511 0.0013007551810879474 0 0.001752401428611018 0.00068257908696666499 0 0.0017169379515783773 0.00075227261907796935 0 0.0017839918421065557 0.00086869608396355591 0 0.0027981791566028275 0.0011140647962999369 0 0.0023970965060816003 0.0011801181792477212 0 0.0021364475709689059 0.0011801355911266534 0 0.0018442739132353639 0.00096417484961070854 0 0.0017839918421065557 0.00086869608396355591 0 0.0022128346304283388 0.0011430026791188802 0 0.0023970965060816003 0.0011801181792477212 0 0.0018442739132353639 0.00096417484961070854 0 0.0017549661667699023 0.00082521386990638541 0 0.0017169379515783773 0.00075227261907796935 0 0.0018442739132353639 0.00096417484961070854 0 0.0017169379515783773 0.00075227261907796935 0 0.0017839918421065557 0.00086869608396355591 0 0.0021364475709689059 0.0011801355911266534 0 0.0025111283176464222 0.0014179780906712037 0 0.0021679441205295531 0.0011969182388538047 0 0.0025111283176464222 0.0014179780906712037 0 0.0025365800096683495 0.0013858345729795289 0 0.0021679441205295531 0.0011969182388538047 0 0.00227987152373278 -0.0010072688222318143 0 0.0023315757066695859 -0.0013096558171593641 0 0.0021364475709689059 0.0011801355911266534 0 0.00293460128745521 0.0015795861461919815 0 0.0025111283176464222 0.0014179780906712037 0 0.0025111283176464222 0.0014179780906712037 0 0.0025365800096683495 0.0013858345729795289 0 0.0028493108184474186 0.0013704225452514285 0 0.00293460128745521 0.0015795861461919815 0 0.0025111283176464222 0.0014179780906712037 0 0.0028493108184474186 0.0013704225452514285 0 0.00227987152373278 -0.0010072688222318143 0 0.0033173310407668393 -0.0012175139463375009 0 0.0022899700197334424 -0.0035565569081595118 0 0.0021521169546194906 -0.0032460922603737168 0 0.002353584242648117 -0.0033894099725661048 0 0.0025365800096683495 0.0013858345729795289 0 0.0028493108184474186 0.0013704225452514285 0 0.0029716817714611392 0.0011911328507055862 0 0.0028493108184474186 0.0013704225452514285 0 0.0031183088889838511 0.0013007551810879474 0 0.0029716817714611392 0.0011911328507055862 0 0.0032822483224708003 0.0014381437684052112 0 0.0028493108184474186 0.0013704225452514285 0 0.0031183088889838511 0.0013007551810879474 0 0.0031354506084509408 0.0012110752460093375 0 0.0030418558026506738 0.001190309023731687 0 0.0032613382896307121 0.00095592654297556388 0 0.0034805083750263873 0.0011249273370868413 0 0.0031354506084509408 0.0012110752460093375 0 0.0032613382896307121 0.00095592654297556388 0 0.0033470325540247681 0.0012853016148355711 0 0.0031183088889838511 0.0013007551810879474 0 0.0031354506084509408 0.0012110752460093375 0 0.0031183088889838511 0.0013007551810879474 0 0.0031354506084509408 0.0012110752460093375 0 0.0029716817714611392 0.0011911328507055862 0 0.0032918247106112184 -0.0004224868213549757 0 0.0033173310407668393 -0.0012175139463375009 0 0.0021521169546194906 -0.0032460922603737168 0 0.0024375413837299412 -0.0032093710738493003 0 0.002353584242648117 -0.0033894099725661048 0 0.0050514457875574818 -0.0024440032465115986 0 0.004941647678188125 -0.0026630328048277245 0 0.0046515902554328222 -0.0025065548752256765 0 0.0033173310407668393 -0.0012175139463375009 0 0.0035864930878823482 -0.003065119766491535 0 0.004941647678188125 -0.0026630328048277245 0 0.0048381656259749821 -0.0028930327450124682 0 0.0046515902554328222 -0.0025065548752256765 0 0.0048381656259749821 -0.0028930327450124682 0 0.0050544660904093758 -0.0028514612046558249 0 0.0050790151663617795 -0.0031664672110757307 0 0.004941647678188125 -0.0026630328048277245 0 0.0048381656259749821 -0.0028930327450124682 0 0.0050544660904093758 -0.0028514612046558249 0 0.0050544660904093758 -0.0028514612046558249 0 0.0052498425705533192 -0.0028782366799017683 0 0.0050790151663617795 -0.0031664672110757307 0 0.0050544660904093758 -0.0028514612046558249 0 0.0052498425705533192 -0.0028782366799017683 0 0.0051520022038039747 -0.0026619023950840114 0 0.0050866367214552214 -0.00077836931143174921 0 0.0041889584932584432 -0.00082855050028444771 0 0.003514382875842333 0.00053709001906756062 0 0.0032613382896307121 0.00095592654297556388 0 0.0036735499338161619 0.00081388565367867844 0 0.004941647678188125 -0.0026630328048277245 0 0.0050544660904093758 -0.0028514612046558249 0 0.0051520022038039747 -0.0026619023950840114 0 0.0050514457875574818 -0.0024440032465115986 0 0.004941647678188125 -0.0026630328048277245 0 0.0051520022038039747 -0.0026619023950840114 0 0.0033173310407668393 -0.0012175139463375009 0 0.0041889584932584432 -0.00082855050028444771 0 0.0038048473026458612 0.0010469884418493731 0 0.0036735499338161619 0.00081388565367867844 0 0.0042267705618698132 0.00097675326079114467 0 0.0034805083750263873 0.0011249273370868413 0 0.0038048473026458612 0.0010469884418493731 0 0.0036735499338161619 0.00081388565367867844 0 0.0034805083750263873 0.0011249273370868413 0 0.0032613382896307121 0.00095592654297556388 0 0.0036735499338161619 0.00081388565367867844 0 0.0037895083529804318 0.0012833533963787255 0 0.0038048473026458612 0.0010469884418493731 0 0.0042267705618698132 0.00097675326079114467 0 0.0049081584295889973 0.0010469106733007325 0 0.0042267705618698132 0.00097675326079114467 0 0.0046860284110286973 0.00053786253136758595 0 0.0042267705618698132 0.00097675326079114467 0 0.0046860284110286973 0.00053786253136758595 0 0.0040885538303198563 0.00057964783397831184 0 0.0036113232543300172 0.00063762491637255406 0 0.0040885538303198563 0.00057964783397831184 0 0.0040346119791882309 -2.9309237723944069e-05 0 0.0036735499338161619 0.00081388565367867844 0 0.0042267705618698132 0.00097675326079114467 0 0.0040885538303198563 0.00057964783397831184 0 0.0036113232543300172 0.00063762491637255406 0 0.0036735499338161619 0.00081388565367867844 0 0.0040885538303198563 0.00057964783397831184 0 0.0050866367214552214 -0.00077836931143174921 0 0.0044019585358296368 0.00030945505283490619 0 0.0050866367214552214 -0.00077836931143174921 0 0.0052644700674691859 -0.00044967655314336421 0 0.0051241963573220167 -0.00013425169805374496 0 0.0046860284110286973 0.00053786253136758595 0 0.0040346119791882309 -2.9309237723944069e-05 0 0.0046860284110286973 0.00053786253136758595 0 0.0040885538303198563 0.00057964783397831184 0 0.0040346119791882309 -2.9309237723944069e-05 0 0.0051241963573220167 -0.00013425169805374496 0 0.0040346119791882309 -2.9309237723944069e-05 0 0.0045292797852765779 -0.00093311607922020928 0 0.007347134552650559 -0.0013134420209047078 0 0.0070726006372446217 -0.0017881942965475637 0 0.0076228415698546808 -0.00187394275368543 0 0.0052644700674691859 -0.00044967655314336421 0 0.0097051029468479509 -0.0011801859217014387 0 0.007347134552650559 -0.0013134420209047078 0 0.0068150674770704502 -0.0012350586055572368 0 0.0070726006372446217 -0.0017881942965475637 0 0.0065365405692787469 -0.0017064095705950106 0 0.0068150674770704502 -0.0012350586055572368 0 0.0070726006372446217 -0.0017881942965475637 0 0.0066952335366335259 -0.0023793136766791364 0 0.005894411981961307 -0.002396423645641077 0 0.0049174943703972143 -0.003416321389558503 0 0.0050790151663617795 -0.0031664672110757307 0 0.0047630947740465281 -0.0031811005094549609 0 0.0048381656259749821 -0.0028930327450124682 0 0.0050790151663617795 -0.0031664672110757307 0 0.0047630947740465281 -0.0031811005094549609 0 0.0070840197264593644 -0.00076785990030482838 0 0.007347134552650559 -0.0013134420209047078 0 0.0068150674770704502 -0.0012350586055572368 0 0.0050866367214552214 -0.00077836931143174921 0 0.005894411981961307 -0.002396423645641077 0 0.0045470664328334312 -0.0032299055390556269 0 0.0042891833958309464 -0.0031946544995223956 0 0.0045086818341561188 -0.0029723254976644032 0 0.0045470664328334312 -0.0032299055390556269 0 0.0047630947740465281 -0.0031811005094549609 0 0.0045086818341561188 -0.0029723254976644032 0 0.0049174943703972143 -0.003416321389558503 0 0.0047630947740465281 -0.0031811005094549609 0 0.0046395417157816454 -0.0033634853243536046 0 0.0045470664328334312 -0.0032299055390556269 0 0.0047630947740465281 -0.0031811005094549609 0 0.0046395417157816454 -0.0033634853243536046 0 0.0066952335366335259 -0.0023793136766791364 0 0.0049913270836712143 -0.0034150488006359702 0 0.0049913270836712143 -0.0034150488006359702 0 0.0046760312942776714 -0.0033274117398692554 0 0.0056911787761997823 -0.0033490419958027476 0 0.0045477745600199281 -0.0033382600559141327 0 0.0048644810153122388 -0.0038094695992251771 0 0.0045470664328334312 -0.0032299055390556269 0 0.0046395417157816454 -0.0033634853243536046 0 0.0045477745600199281 -0.0033382600559141327 0 0.0045477745600199281 -0.0033382600559141327 0 0.0040693096239835221 -0.0036726540438942372 0 0.0048644810153122388 -0.0038094695992251771 0 0.0045477745600199281 -0.0033382600559141327 0 0.0041527461332166431 -0.0033811824639476181 0 0.0040693096239835221 -0.0036726540438942372 0 0.0045477745600199281 -0.0033382600559141327 0 0.0041527461332166431 -0.0033811824639476181 0 0.0042891833958309464 -0.0031946544995223956 0 0.0041527461332166431 -0.0033811824639476181 0 0.0038591590319333765 -0.0032959559521215454 0 0.0040693096239835221 -0.0036726540438942372 0 0.0041527461332166431 -0.0033811824639476181 0 0.0039355229914988148 -0.0032476545628673387 0 0.0038591590319333765 -0.0032959559521215454 0 0.0041527461332166431 -0.0033811824639476181 0 0.0039355229914988148 -0.0032476545628673387 0 0.0042891833958309464 -0.0031946544995223956 0 0.0045470664328334312 -0.0032299055390556269 0 0.0045477745600199281 -0.0033382600559141327 0 0.0042891833958309464 -0.0031946544995223956 0 0.0039355229914988148 -0.0032476545628673387 0 0.0042891833958309464 -0.0031946544995223956 0 0.0039584392857544082 -0.0029740322517293884 0 0.0042891833958309464 -0.0031946544995223956 0 0.0039584392857544082 -0.0029740322517293884 0 0.0045086818341561188 -0.0029723254976644032 0 0.0039355229914988148 -0.0032476545628673387 0 0.0039584392857544082 -0.0029740322517293884 0 0.0036090394551376516 -0.0029444241101722717 0 0.0039584392857544082 -0.0029740322517293884 0 0.0033108323863393217 -0.0029149929892442568 0 0.0036090394551376516 -0.0029444241101722717 0 0.0034374720299682527 -0.0028229749757849487 0 0.0033376025401506628 -0.0029074865424960276 0 0.0039584392857544082 -0.0029740322517293884 0 0.0041489771338573565 -0.002568910234878112 0 0.0033108323863393217 -0.0029149929892442568 0 0.0039584392857544082 -0.0029740322517293884 0 0.0041489771338573565 -0.002568910234878112 0 0.0045086818341561188 -0.0029723254976644032 0 0.0041489771338573565 -0.002568910234878112 0 0.0045086818341561188 -0.0029723254976644032 0 0.0046515902554328222 -0.0025065548752256765 0 0.0048381656259749821 -0.0028930327450124682 0 0.0047630947740465281 -0.0031811005094549609 0 0.0045086818341561188 -0.0029723254976644032 0 0.0048381656259749821 -0.0028930327450124682 0 0.0045086818341561188 -0.0029723254976644032 0 0.0046515902554328222 -0.0025065548752256765 0 0.0034374720299682527 -0.0028229749757849487 0 0.0035864930878823482 -0.003065119766491535 0 0.0027246732459336055 -0.0031168716970347097 0 0.0024375413837299412 -0.0032093710738493003 0 0.0025419029268814201 -0.0035425230759861611 0 0.0022899700197334424 -0.0035565569081595118 0 0.0025419029268814201 -0.0035425230759861611 0 0.002353584242648117 -0.0033894099725661048 0 0.0024375413837299412 -0.0032093710738493003 0 0.0025419029268814201 -0.0035425230759861611 0 0.002353584242648117 -0.0033894099725661048 0 0.0022899700197334424 -0.0035565569081595118 0 0.0025419029268814201 -0.0035425230759861611 0 0.002467411850392997 -0.0038274895921241491 0 0.0025419029268814201 -0.0035425230759861611 0 0.0026430360467569426 -0.0038403031924493709 0 0.002467411850392997 -0.0038274895921241491 0 0.0025419029268814201 -0.0035425230759861611 0 0.0026430360467569426 -0.0038403031924493709 0 0.0027711203003392489 -0.0037339729455962505 0 0.0027172482132040432 -0.0039376192418051088 0 0.0027711203003392489 -0.0037339729455962505 0 0.0030131644854019262 -0.0038541538868252165 0 0.0027172482132040432 -0.0039376192418051088 0 0.0026430360467569426 -0.0038403031924493709 0 0.0027711203003392489 -0.0037339729455962505 0 0.0027711203003392489 -0.0037339729455962505 0 0.0030662468648008103 -0.0035757500200351332 0 0.0030131644854019262 -0.0038541538868252165 0 0.0027711203003392489 -0.0037339729455962505 0 0.0027875859706728459 -0.0034688462935278594 0 0.0030662468648008103 -0.0035757500200351332 0 0.0027246732459336055 -0.0031168716970347097 0 0.0025419029268814201 -0.0035425230759861611 0 0.0027875859706728459 -0.0034688462935278594 0 0.0025419029268814201 -0.0035425230759861611 0 0.0027711203003392489 -0.0037339729455962505 0 0.0027875859706728459 -0.0034688462935278594 0 0.0027875859706728459 -0.0034688462935278594 0 0.0030662468648008103 -0.0035757500200351332 0 0.0033108323863393217 -0.0029149929892442568 0 0.0027246732459336055 -0.0031168716970347097 0 0.0027875859706728459 -0.0034688462935278594 0 0.0033108323863393217 -0.0029149929892442568 0 0.0032973690300282217 -0.0034866815321327061 0 0.0030662468648008103 -0.0035757500200351332 0 0.0033108323863393217 -0.0029149929892442568 0 0.0032973690300282217 -0.0034866815321327061 0 0.0033779092737644392 -0.0030879628010370731 0 0.0033108323863393217 -0.0029149929892442568 0 0.0032973690300282217 -0.0034866815321327061 0 0.0035851644891180339 -0.003750693670629004 0 0.0033779092737644392 -0.0030879628010370731 0 0.0032973690300282217 -0.0034866815321327061 0 0.0032750485432484094 -0.0038965398373939429 0 0.0035851644891180339 -0.003750693670629004 0 0.0032973690300282217 -0.0034866815321327061 0 0.0030662468648008103 -0.0035757500200351332 0 0.0032750485432484094 -0.0038965398373939429 0 0.0030662468648008103 -0.0035757500200351332 0 0.0030131644854019262 -0.0038541538868252165 0 0.0032750485432484094 -0.0038965398373939429 0 0.0030131644854019262 -0.0038541538868252165 0 0.0032750485432484094 -0.0038965398373939429 0 0.0031497659946303266 -0.0040055893609050918 0 0.0028912682035634016 -0.0039619694796168854 0 0.0030131644854019262 -0.0038541538868252165 0 0.0031497659946303266 -0.0040055893609050918 0 0.0028912682035634016 -0.0039619694796168854 0 0.0027172482132040432 -0.0039376192418051088 0 0.0030131644854019262 -0.0038541538868252165 0 0.0032222437740463687 -0.0040726993283440724 0 0.0031497659946303266 -0.0040055893609050918 0 0.0034996615004448265 -0.0041360749785880413 0 0.0028846842273764109 -0.0039484818162522136 0 0.0032222437740463687 -0.0040726993283440724 0 0.0031497659946303266 -0.0040055893609050918 0 0.0032750485432484094 -0.0038965398373939429 0 0.0031497659946303266 -0.0040055893609050918 0 0.0034996615004448265 -0.0041360749785880413 0 0.0034207359994983585 -0.004324586304260465 0 0.0032222437740463687 -0.0040726993283440724 0 0.0034996615004448265 -0.0041360749785880413 0 0.0034207359994983585 -0.004324586304260465 0 0.0034996615004448265 -0.0041360749785880413 0 0.0039738979557296817 -0.0043310295671400304 0 0.0034996615004448265 -0.0041360749785880413 0 0.0039738979557296817 -0.0043310295671400304 0 0.0035851644891180339 -0.003750693670629004 0 0.0032750485432484094 -0.0038965398373939429 0 0.0034996615004448265 -0.0041360749785880413 0 0.0035851644891180339 -0.003750693670629004 0 0.0035851644891180339 -0.003750693670629004 0 0.0037392738079414386 -0.0030330216299033338 0 0.0033779092737644392 -0.0030879628010370731 0 0.0035851644891180339 -0.003750693670629004 0 0.004229412114150846 -0.0034186510972563059 0 0.0037392738079414386 -0.0030330216299033338 0 0.0049028460301840304 -0.0030394682362232845 0 0.0039738979557296817 -0.0043310295671400304 0 0.004229412114150846 -0.0034186510972563059 0 0.0039738979557296817 -0.0043310295671400304 0 0.0035851644891180339 -0.003750693670629004 0 0.004229412114150846 -0.0034186510972563059 0 0.006441510663049742 -0.0028372994055954059 0 0.0048844458502221959 -0.0024266047893707313 0 0.0049028460301840304 -0.0030394682362232845 0 0.004229412114150846 -0.0034186510972563059 0 0.0048517954331067353 -0.002612448585984267 0 0.0079084106266217105 -0.0015325670296426437 0 0.0048517954331067353 -0.002612448585984267 0 0.0036414385221031865 -0.0021152429301783816 0 0.004229412114150846 -0.0034186510972563059 0 0.0048517954331067353 -0.002612448585984267 0 0.0037392738079414386 -0.0030330216299033338 0 0.0079906839248868513 -0.0015427049860198894 0 0.0075017895748621553 -0.0012674522927340064 0 0.0088050373680607884 -0.0011627851993733797 0 0.009560012877077537 -0.00097284165702668914 0 0.010633670445263038 -0.00012440559743706552 0 0.0079084106266217105 -0.0015325670296426437 0 0.0088050373680607884 -0.0011627851993733797 0 0.010633670445263038 -0.00012440559743706552 0 0.009560012877077537 -0.00097284165702668914 0 0.0099805349430809875 -0.0012707429459666959 0 0.010633670445263038 -0.00012440559743706552 0 0.009560012877077537 -0.00097284165702668914 0 0.0099805349430809875 -0.0012707429459666959 0 0.0090046502601282916 -0.0013093001189787813 0 0.0088050373680607884 -0.0011627851993733797 0 0.009560012877077537 -0.00097284165702668914 0 0.0090046502601282916 -0.0013093001189787813 0 0.0075017895748621553 -0.0012674522927340064 0 0.0072508120179143295 -0.0025930258016534802 0 0.011677087592908879 -0.00095253921231974151 0 0.010633670445263038 -0.00012440559743706552 0 0.013454019275173392 -0.00045752921106886587 0 0.0036414385221031865 -0.0021152429301783816 0 0.0033993070961381155 -0.0027267784522174818 0 0.0034197534737884705 -0.002701652998291176 0 0.0099805349430809875 -0.0012707429459666959 0 0.011677087592908879 -0.00095253921231974151 0 0.010633670445263038 -0.00012440559743706552 0 0.0036414385221031865 -0.0021152429301783816 0 0.0037392738079414386 -0.0030330216299033338 0 0.0033993070961381155 -0.0027267784522174818 0 0.0048517954331067353 -0.002612448585984267 0 0.0036414385221031865 -0.0021152429301783816 0 0.0037392738079414386 -0.0030330216299033338 0 0.0037392738079414386 -0.0030330216299033338 0 0.0033779092737644392 -0.0030879628010370731 0 0.0033993070961381155 -0.0027267784522174818 0 0.0033779092737644392 -0.0030879628010370731 0 0.0033844386857281128 -0.0028390092554386103 0 0.0033993070961381155 -0.0027267784522174818 0 0.0033779092737644392 -0.0030879628010370731 0 0.0033108323863393217 -0.0029149929892442568 0 0.0033844386857281128 -0.0028390092554386103 0 0.0033108323863393217 -0.0029149929892442568 0 0.0036090394551376516 -0.0029444241101722717 0 0.0033844386857281128 -0.0028390092554386103 0 0.0036090394551376516 -0.0029444241101722717 0 0.0033844386857281128 -0.0028390092554386103 0 0.0033718818374967202 -0.0028847783885922692 0 0.0033844386857281128 -0.0028390092554386103 0 0.0033993070961381155 -0.0027267784522174818 0 0.0033718818374967202 -0.0028847783885922692 0 0.0072508120179143295 -0.0025930258016534802 0 0.0037214027718195245 -0.0027344383387061678 0 0.0033993070961381155 -0.0027267784522174818 0 0.0034197534737884705 -0.002701652998291176 0 0.0033718818374967202 -0.0028847783885922692 0 0.013454019275173392 -0.00045752921106886587 0 0.014157432393183823 -0.0025013680859182056 0 0.012705085926338686 -0.0017547896368159074 0 0.0072508120179143295 -0.0025930258016534802 0 0.010355204846717675 -0.0028515670527496572 0 0.0039146946580091227 -0.0032501598964537275 0 0.0038841291857991101 -0.0032658021599346956 0 0.0038591590319333765 -0.0032959559521215454 0 0.013454019275173392 -0.00045752921106886587 0 0.014157432393183823 -0.0025013680859182056 0 0.016369102920982741 -0.002481909979811371 0 0.0039355229914988148 -0.0032476545628673387 0 0.0038841291857991101 -0.0032658021599346956 0 0.0038591590319333765 -0.0032959559521215454 0 0.0039355229914988148 -0.0032476545628673387 0 0.0036090394551376516 -0.0029444241101722717 0 0.0033718818374967202 -0.0028847783885922692 0 0.0039167080659041507 -0.0033220153128379858 0 0.0037214027718195245 -0.0027344383387061678 0 0.010355204846717675 -0.0028515670527496572 0 0.01157768822373148 -0.0040077908118680309 0 0.016369102920982741 -0.002481909979811371 0 0.017425873606857437 -0.0041461241775712287 0 0.01912739129551267 -0.0042768507467565546 0 0.016369102920982741 -0.002481909979811371 0 0.017425873606857437 -0.0041461241775712287 0 0.016372411407071151 -0.0043618572001229636 0 0.016369102920982741 -0.002481909979811371 0 0.014511815026139664 -0.0038592379748816842 0 0.016372411407071151 -0.0043618572001229636 0 0.014157432393183823 -0.0025013680859182056 0 0.014511815026139664 -0.0038592379748816842 0 0.013182580242686365 -0.0035163788228240642 0 0.014157432393183823 -0.0025013680859182056 0 0.016369102920982741 -0.002481909979811371 0 0.014511815026139664 -0.0038592379748816842 0 0.014157432393183823 -0.0025013680859182056 0 0.013182580242686365 -0.0035163788228240642 0 0.012339768196174808 -0.0026698454745023473 0 0.014511815026139664 -0.0038592379748816842 0 0.013182580242686365 -0.0035163788228240642 0 0.013267824802126685 -0.0047827332803934896 0 0.013182580242686365 -0.0035163788228240642 0 0.01167633514882001 -0.0039531322835820049 0 0.013267824802126685 -0.0047827332803934896 0 0.013182580242686365 -0.0035163788228240642 0 0.01167633514882001 -0.0039531322835820049 0 0.012339768196174808 -0.0026698454745023473 0 0.013539455237733382 -0.0033124219971952615 0 0.013914157507363138 -0.0038358455974774673 0 0.01324616792369032 -0.0038793029472305673 0 0.016034636058412145 -0.0045181202245970819 0 0.011936783579493036 -0.003127050294634844 0 0.0090285562683422183 -0.002200797949658878 0 0.0092833288095609499 -0.0017618385152764562 0 0.010323057194407683 -0.0026236093106470435 0 0.010964472329414303 -0.003080528377246052 0 0.011936783579493036 -0.003127050294634844 0 0.0086589348543958822 -0.0015725573444730098 0 0.0090046502601282916 -0.0013093001189787813 0 0.0092833288095609499 -0.0017618385152764562 0 0.0099805349430809875 -0.0012707429459666959 0 0.0090046502601282916 -0.0013093001189787813 0 0.0092833288095609499 -0.0017618385152764562 0 0.0099805349430809875 -0.0012707429459666959 0 0.0092833288095609499 -0.0017618385152764562 0 0.010323057194407683 -0.0026236093106470435 0 0.011479728225213195 -0.0011847236560259852 0 0.011936783579493036 -0.003127050294634844 0 0.0099805349430809875 -0.0012707429459666959 0 0.011677087592908879 -0.00095253921231974151 0 0.010323057194407683 -0.0026236093106470435 0 0.011677087592908879 -0.00095253921231974151 0 0.012705085926338686 -0.0017547896368159074 0 0.010783599046085232 -0.0030416698863089723 0 0.01379612135574889 -0.0025365232691577219 0 0.011936783579493036 -0.003127050294634844 0 0.014157432393183823 -0.0025013680859182056 0 0.012705085926338686 -0.0017547896368159074 0 0.010783599046085232 -0.0030416698863089723 0 0.011677087592908879 -0.00095253921231974151 0 0.013454019275173392 -0.00045752921106886587 0 0.012705085926338686 -0.0017547896368159074 0 0.021521465780612491 -0.0054713424579185301 0 0.021557991574166546 -0.0054422257318858464 0 0.021552742733634986 -0.0053292079835701549 0 0.021521465780612491 -0.0054713424579185301 0 0.021557991574166546 -0.0054422257318858464 0 0.021521890848028354 -0.0055284450609768571 0 0.021612776992404985 -0.0053772729165940331 0 0.021557991574166546 -0.0054422257318858464 0 0.02158421817418002 -0.0054931093491545832 0 0.021612776992404985 -0.0053772729165940331 0 0.021557991574166546 -0.0054422257318858464 0 0.021552742733634986 -0.0053292079835701549 0 0.021557991574166546 -0.0054422257318858464 0 0.02158421817418002 -0.0054931093491545832 0 0.021521890848028354 -0.0055284450609768571 0 0.019234884011750591 -0.0051599285310158305 0 0.020018838454236375 -0.00522807704929114 0 0.018960501295175188 -0.0052023310487913747 0 0.019572249786706238 -0.0051307522268274463 0 0.019336684642472748 -0.0056378307853758918 0 0.017786112092099887 -0.0049521510046976989 0 0.017823297289330135 -0.0049056025919670641 0 0.01775066378604807 -0.0049084337692393469 0 0.016034636058412145 -0.0045181202245970819 0 0.019234884011750591 -0.0051599285310158305 0 0.016034636058412145 -0.0045181202245970819 0 0.015104140863911843 -0.004685741327952392 0 0.01775066378604807 -0.0049084337692393469 0 0.017734503199783976 -0.004929734040091574 0 0.01769346571288238 -0.0049239753654148092 0 0.017786112092099887 -0.0049521510046976989 0 0.01775066378604807 -0.0049084337692393469 0 0.017734503199783976 -0.004929734040091574 0 0.020018838454236375 -0.00522807704929114 0 0.017950901580358215 -0.0054140638606726636 0 0.015104140863911843 -0.004685741327952392 0 0.017950901580358215 -0.0054140638606726636 0 0.014511815026139664 -0.0038592379748816842 0 0.015294417928043084 -0.0057350611879273088 0 0.016372411407071151 -0.0043618572001229636 0 0.014511815026139664 -0.0038592379748816842 0 0.013267824802126685 -0.0047827332803934896 0 0.015294417928043084 -0.0057350611879273088 0 0.015294417928043084 -0.0057350611879273088 0 0.016372411407071151 -0.0043618572001229636 0 0.017842608425765995 -0.0054593570825098086 0 0.016481490095542749 -0.0054196742958003757 0 0.017842608425765995 -0.0054593570825098086 0 0.018045941082907191 -0.0060906738926983168 0 0.017950901580358215 -0.0054140638606726636 0 0.016913019540464171 -0.0054881779887285499 0 0.017425873606857437 -0.0041461241775712287 0 0.016372411407071151 -0.0043618572001229636 0 0.017842608425765995 -0.0054593570825098086 0 0.021445663604305561 -0.0056390979225988402 0 0.021305388780820354 -0.0057943267211680825 0 0.021399030671909885 -0.0055897720424132836 0 0.017950901580358215 -0.0054140638606726636 0 0.019835615787925677 -0.0059348053561545907 0 0.021305388780820354 -0.0057943267211680825 0 0.021399030671909885 -0.0055897720424132836 0 0.021174364038248128 -0.0056389176138007483 0 0.021521465780612491 -0.0054713424579185301 0 0.021445663604305561 -0.0056390979225988402 0 0.02148082370181692 -0.0055005732837513054 0 0.021445663604305561 -0.0056390979225988402 0 0.021399030671909885 -0.0055897720424132836 0 0.02148082370181692 -0.0055005732837513054 0 0.021521465780612491 -0.0054713424579185301 0 0.021521890848028354 -0.0055284450609768571 0 0.021445663604305561 -0.0056390979225988402 0 0.021521465780612491 -0.0054713424579185301 0 0.02148082370181692 -0.0055005732837513054 0 0.021534203309617968 -0.0053460659507284514 0 0.02148082370181692 -0.0055005732837513054 0 0.021498415939906323 -0.0053603160045803287 0 0.021534203309617968 -0.0053460659507284514 0 0.021399030671909885 -0.0055897720424132836 0 0.021394768596587972 -0.0053810370912441294 0 0.021174364038248128 -0.0056389176138007483 0 0.021399030671909885 -0.0055897720424132836 0 0.02148082370181692 -0.0055005732837513054 0 0.021498415939906323 -0.0053603160045803287 0 0.021399030671909885 -0.0055897720424132836 0 0.021498415939906323 -0.0053603160045803287 0 0.021394768596587972 -0.0053810370912441294 0 0.021394768596587972 -0.0053810370912441294 0 0.02155292603975037 -0.0051788332032640791 0 0.021512934292152949 -0.0051429236975016777 0 0.021498415939906323 -0.0053603160045803287 0 0.021394768596587972 -0.0053810370912441294 0 0.02155292603975037 -0.0051788332032640791 0 0.021498415939906323 -0.0053603160045803287 0 0.021534203309617968 -0.0053460659507284514 0 0.021554985303027272 -0.0052059553645778149 0 0.021498415939906323 -0.0053603160045803287 0 0.02155292603975037 -0.0051788332032640791 0 0.021554985303027272 -0.0052059553645778149 0 0.021534203309617968 -0.0053460659507284514 0 0.021554985303027272 -0.0052059553645778149 0 0.021544914312258918 -0.0052240063753945399 0 0.021544914312258918 -0.0052240063753945399 0 0.021527422649773729 -0.0051534670277996368 0 0.021546563767628125 -0.0051235993414289905 0 0.021554985303027272 -0.0052059553645778149 0 0.021544914312258918 -0.0052240063753945399 0 0.021546563767628125 -0.0051235993414289905 0 0.021521465780612491 -0.0054713424579185301 0 0.021534203309617968 -0.0053460659507284514 0 0.021552742733634986 -0.0053292079835701549 0 0.021534203309617968 -0.0053460659507284514 0 0.021544914312258918 -0.0052240063753945399 0 0.021552742733634986 -0.0053292079835701549 0 0.021612776992404985 -0.0053772729165940331 0 0.021552742733634986 -0.0053292079835701549 0 0.021564589213475878 -0.0052514012313590475 0 0.021544914312258918 -0.0052240063753945399 0 0.021564589213475878 -0.0052514012313590475 0 0.021527422649773729 -0.0051534670277996368 0 0.021544914312258918 -0.0052240063753945399 0 0.021552742733634986 -0.0053292079835701549 0 0.021564589213475878 -0.0052514012313590475 0 0.021541583974181697 -0.0051556310359607144 0 0.021564589213475878 -0.0052514012313590475 0 0.021527422649773729 -0.0051534670277996368 0 0.021541583974181697 -0.0051556310359607144 0 0.021527422649773729 -0.0051534670277996368 0 0.021503685728675226 -0.0051004606970855501 0 0.021527422649773729 -0.0051534670277996368 0 0.021492532281150244 -0.0050724190005439328 0 0.021503685728675226 -0.0051004606970855501 0 0.021460997645326982 -0.0050345373941412851 0 0.021492532281150244 -0.0050724190005439328 0 0.021503685728675226 -0.0051004606970855501 0 0.021527422649773729 -0.0051534670277996368 0 0.021492532281150244 -0.0050724190005439328 0 0.021546563767628125 -0.0051235993414289905 0 0.021492532281150244 -0.0050724190005439328 0 0.021546563767628125 -0.0051235993414289905 0 0.021552573510133358 -0.0050734577579131038 0 0.021546563767628125 -0.0051235993414289905 0 0.021552573510133358 -0.0050734577579131038 0 0.021602651209047457 -0.0050828223755962623 0 0.021552573510133358 -0.0050734577579131038 0 0.021487068856561136 -0.0050665731294401778 0 0.021676150824136386 -0.0050889083435993136 0 0.021492532281150244 -0.0050724190005439328 0 0.021552573510133358 -0.0050734577579131038 0 0.021487068856561136 -0.0050665731294401778 0 0.021460997645326982 -0.0050345373941412851 0 0.021492532281150244 -0.0050724190005439328 0 0.021442452670057548 -0.0050168374236429806 0 0.021492532281150244 -0.0050724190005439328 0 0.021487068856561136 -0.0050665731294401778 0 0.021442452670057548 -0.0050168374236429806 0 0.021487068856561136 -0.0050665731294401778 0 0.021442452670057548 -0.0050168374236429806 0 0.021389664770332221 -0.0049433678298916152 0 0.021460997645326982 -0.0050345373941412851 0 0.021407146792417155 -0.0049532326803688898 0 0.021442452670057548 -0.0050168374236429806 0 0.021407146792417155 -0.0049532326803688898 0 0.021442452670057548 -0.0050168374236429806 0 0.021389664770332221 -0.0049433678298916152 0 0.021858922426246308 -0.0050054140820702444 0 0.021303904371272074 -0.0051276935013751211 0 0.021484498419416621 -0.0050247958282586278 0 0.021303904371272074 -0.0051276935013751211 0 0.021487068856561136 -0.0050665731294401778 0 0.021325590017062 -0.0051956762547440008 0 0.021563467656052392 -0.0052476636090388641 0 0.021487068856561136 -0.0050665731294401778 0 0.021563467656052392 -0.0052476636090388641 0 0.021676150824136386 -0.0050889083435993136 0 0.021325590017062 -0.0051956762547440008 0 0.021563467656052392 -0.0052476636090388641 0 0.021394535116610516 -0.0054250514441669768 0 0.021563467656052392 -0.0052476636090388641 0 0.021394535116610516 -0.0054250514441669768 0 0.021690390650728628 -0.0055154457042912467 0 0.021143078121157597 -0.0053704070933293414 0 0.021325590017062 -0.0051956762547440008 0 0.021394535116610516 -0.0054250514441669768 0 0.021143078121157597 -0.0053704070933293414 0 0.021394535116610516 -0.0054250514441669768 0 0.021323033079809553 -0.0056779553618888767 0 0.021951112460792385 -0.0052480859674351246 0 0.02224172425895787 -0.0054611226439182049 0 0.022048640330421622 -0.0055755455529521991 0 0.021951112460792385 -0.0052480859674351246 0 0.021776480117908486 -0.0053276321661248236 0 0.022048640330421622 -0.0055755455529521991 0 0.021776480117908486 -0.0053276321661248236 0 0.021690390650728628 -0.0055154457042912467 0 0.022048640330421622 -0.0055755455529521991 0 0.021563467656052392 -0.0052476636090388641 0 0.021776480117908486 -0.0053276321661248236 0 0.021690390650728628 -0.0055154457042912467 0 0.021951112460792385 -0.0052480859674351246 0 0.021776480117908486 -0.0053276321661248236 0 0.021676150824136386 -0.0050889083435993136 0 0.021563467656052392 -0.0052476636090388641 0 0.021776480117908486 -0.0053276321661248236 0 0.021676150824136386 -0.0050889083435993136 0 0.021951112460792385 -0.0052480859674351246 0 0.021676150824136386 -0.0050889083435993136 0 0.021894402946403668 -0.0050621553899521032 0 0.021676150824136386 -0.0050889083435993136 0 0.021678495576364972 -0.0050315285760553618 0 0.021894402946403668 -0.0050621553899521032 0 0.021552573510133358 -0.0050734577579131038 0 0.021676150824136386 -0.0050889083435993136 0 0.021602651209047457 -0.0050828223755962623 0 0.021676150824136386 -0.0050889083435993136 0 0.021602651209047457 -0.0050828223755962623 0 0.021678495576364972 -0.0050315285760553618 0 0.02155292603975037 -0.0051788332032640791 0 0.021554985303027272 -0.0052059553645778149 0 0.021602651209047457 -0.0050828223755962623 0 0.021554985303027272 -0.0052059553645778149 0 0.021546563767628125 -0.0051235993414289905 0 0.021602651209047457 -0.0050828223755962623 0 0.02155292603975037 -0.0051788332032640791 0 0.021678495576364972 -0.0050315285760553618 0 0.021512934292152949 -0.0051429236975016777 0 0.02155292603975037 -0.0051788332032640791 0 0.021602651209047457 -0.0050828223755962623 0 0.021678495576364972 -0.0050315285760553618 0 0.021678495576364972 -0.0050315285760553618 0 0.021736906634419226 -0.0049615967880124508 0 0.021512934292152949 -0.0051429236975016777 0 0.02179338492607839 -0.004802190085930658 0 0.021736906634419226 -0.0049615967880124508 0 0.021512934292152949 -0.0051429236975016777 0 0.02179338492607839 -0.004802190085930658 0 0.020866101456971046 -0.0052810300322260447 0 0.021169056424597751 -0.0053838182856129823 0 0.02179338492607839 -0.004802190085930658 0 0.021169056424597751 -0.0053838182856129823 0 0.021512934292152949 -0.0051429236975016777 0 0.02179338492607839 -0.004802190085930658 0 0.022162124128998414 -0.0050154771303435293 0 0.022639802984179246 -0.0050545712533288578 0 0.02179338492607839 -0.004802190085930658 0 0.021736906634419226 -0.0049615967880124508 0 0.022162124128998414 -0.0050154771303435293 0 0.021736906634419226 -0.0049615967880124508 0 0.021894402946403668 -0.0050621553899521032 0 0.022162124128998414 -0.0050154771303435293 0 0.021678495576364972 -0.0050315285760553618 0 0.021736906634419226 -0.0049615967880124508 0 0.021894402946403668 -0.0050621553899521032 0 0.021951112460792385 -0.0052480859674351246 0 0.021894402946403668 -0.0050621553899521032 0 0.022216772092109122 -0.0052023273748121835 0 0.021894402946403668 -0.0050621553899521032 0 0.022162124128998414 -0.0050154771303435293 0 0.022216772092109122 -0.0052023273748121835 0 0.022162124128998414 -0.0050154771303435293 0 0.022720294851903411 -0.0051535373161661372 0 0.022639802984179246 -0.0050545712533288578 0 0.022162124128998414 -0.0050154771303435293 0 0.022720294851903411 -0.0051535373161661372 0 0.022216772092109122 -0.0052023273748121835 0 0.022780692229326972 -0.0051279796923831399 0 0.022794535960957485 -0.0054590788365559287 0 0.022720294851903411 -0.0051535373161661372 0 0.0224622991653892 -0.0054451890682167634 0 0.022216772092109122 -0.0052023273748121835 0 0.022720294851903411 -0.0051535373161661372 0 0.0224622991653892 -0.0054451890682167634 0 0.022698459679181642 -0.0057196918376591225 0 0.021951112460792385 -0.0052480859674351246 0 0.02224172425895787 -0.0054611226439182049 0 0.022216772092109122 -0.0052023273748121835 0 0.0224622991653892 -0.0054451890682167634 0 0.02224172425895787 -0.0054611226439182049 0 0.022216772092109122 -0.0052023273748121835 0 0.023113583604499385 -0.00496062632665124 0 0.022963522849210254 -0.0050663209093070862 0 0.023350042637986589 -0.0049355834395371934 0 0.023113583604499385 -0.00496062632665124 0 0.022963522849210254 -0.0050663209093070862 0 0.022930474353521708 -0.0050478587554020826 0 0.023113583604499385 -0.00496062632665124 0 0.022930474353521708 -0.0050478587554020826 0 0.02297041351113235 -0.0049796816934559816 0 0.023113583604499385 -0.00496062632665124 0 0.02297041351113235 -0.0049796816934559816 0 0.023075891669149137 -0.0048911396272764132 0 0.022720294851903411 -0.0051535373161661372 0 0.022963522849210254 -0.0050663209093070862 0 0.023350042637986589 -0.0049355834395371934 0 0.022720294851903411 -0.0051535373161661372 0 0.022963522849210254 -0.0050663209093070862 0 0.022639802984179246 -0.0050545712533288578 0 0.022963522849210254 -0.0050663209093070862 0 0.022639802984179246 -0.0050545712533288578 0 0.022930474353521708 -0.0050478587554020826 0 0.022639802984179246 -0.0050545712533288578 0 0.022930474353521708 -0.0050478587554020826 0 0.022869802776446391 -0.0049789297682893167 0 0.022930474353521708 -0.0050478587554020826 0 0.022869802776446391 -0.0049789297682893167 0 0.022913830787945642 -0.0050062432613634791 0 0.022639802984179246 -0.0050545712533288578 0 0.022869802776446391 -0.0049789297682893167 0 0.022791464033458733 -0.0047729439378642125 0 0.022869802776446391 -0.0049789297682893167 0 0.022791464033458733 -0.0047729439378642125 0 0.022854726067152512 -0.0049534438483346804 0 0.02179338492607839 -0.004802190085930658 0 0.022639802984179246 -0.0050545712533288578 0 0.022791464033458733 -0.0047729439378642125 0 0.021328162854051723 -0.0048606227938187748 0 0.022628765080443106 -0.0044938400834981631 0 0.02179338492607839 -0.004802190085930658 0 0.020444851772194204 -0.0046654103939405903 0 0.020866101456971046 -0.0052810300322260447 0 0.020444851772194204 -0.0046654103939405903 0 0.020866101456971046 -0.0052810300322260447 0 0.020071451994813121 -0.0053928300429207402 0 0.013334013636351363 -0.0054762621015688245 0 0.013687294009024482 -0.0060961860977166195 0 0.020676767202025062 -0.0055445963751825532 0 0.020866101456971046 -0.0052810300322260447 0 0.020071451994813121 -0.0053928300429207402 0 0.020697281409437468 -0.00576470578830057 0 0.020676767202025062 -0.0055445963751825532 0 0.020071451994813121 -0.0053928300429207402 0 0.0073096575600478325 -0.0053629708672293273 0 0.0058545281975643116 -0.0051260382378731581 0 0.0080118970159737905 -0.0069751919191642572 0 0.0073096575600478325 -0.0053629708672293273 0 0.0059620010708438349 -0.0048748958270220816 0 0.0080323073204867975 -0.0041940305079162547 0 0.0073096575600478325 -0.0053629708672293273 0 0.0059620010708438349 -0.0048748958270220816 0 0.0058545281975643116 -0.0051260382378731581 0 0.020807409868303629 -0.0057314079476613444 0 0.020697281409437468 -0.00576470578830057 0 0.020848130066774252 -0.0057327270764492471 0 0.0059620010708438349 -0.0048748958270220816 0 0.0058545281975643116 -0.0051260382378731581 0 0.0048109982656339466 -0.0043852321341265156 0 0.020807409868303629 -0.0057314079476613444 0 0.020697281409437468 -0.00576470578830057 0 0.020769577739559217 -0.0056647795691625816 0 0.020769577739559217 -0.0056647795691625816 0 0.020870453665408503 -0.0055802085469990586 0 0.020676767202025062 -0.0055445963751825532 0 0.020697281409437468 -0.00576470578830057 0 0.020769577739559217 -0.0056647795691625816 0 0.020676767202025062 -0.0055445963751825532 0 0.020807409868303629 -0.0057314079476613444 0 0.020870453665408503 -0.0055802085469990586 0 0.020850954002880388 -0.005748259145553155 0 0.020807409868303629 -0.0057314079476613444 0 0.020769577739559217 -0.0056647795691625816 0 0.020870453665408503 -0.0055802085469990586 0 0.020870453665408503 -0.0055802085469990586 0 0.020866101456971046 -0.0052810300322260447 0 0.021169056424597751 -0.0053838182856129823 0 0.020870453665408503 -0.0055802085469990586 0 0.020676767202025062 -0.0055445963751825532 0 0.020866101456971046 -0.0052810300322260447 0 0.021394768596587972 -0.0053810370912441294 0 0.021512934292152949 -0.0051429236975016777 0 0.021102484693248377 -0.0055072712523639667 0 0.021169056424597751 -0.0053838182856129823 0 0.021512934292152949 -0.0051429236975016777 0 0.021102484693248377 -0.0055072712523639667 0 0.021394768596587972 -0.0053810370912441294 0 0.021102484693248377 -0.0055072712523639667 0 0.021174364038248128 -0.0056389176138007483 0 0.021102484693248377 -0.0055072712523639667 0 0.021174364038248128 -0.0056389176138007483 0 0.020550488240004473 -0.0059751900379275517 0 0.020807409868303629 -0.0057314079476613444 0 0.020850954002880388 -0.005748259145553155 0 0.020848130066774252 -0.0057327270764492471 0 0.020870453665408503 -0.0055802085469990586 0 0.021169056424597751 -0.0053838182856129823 0 0.020850954002880388 -0.005748259145553155 0 0.021169056424597751 -0.0053838182856129823 0 0.021102484693248377 -0.0055072712523639667 0 0.020850954002880388 -0.005748259145553155 0 0.021102484693248377 -0.0055072712523639667 0 0.020850954002880388 -0.005748259145553155 0 0.020550488240004473 -0.0059751900379275517 0 0.020848130066774252 -0.0057327270764492471 0 0.020550488240004473 -0.0059751900379275517 0 0.019422214854078128 -0.0055152549202221162 0 0.020850954002880388 -0.005748259145553155 0 0.020848130066774252 -0.0057327270764492471 0 0.020550488240004473 -0.0059751900379275517 0 0.019835615787925677 -0.0059348053561545907 0 0.020264139856606807 -0.0059541705677869572 0 0.021305388780820354 -0.0057943267211680825 0 0.021174364038248128 -0.0056389176138007483 0 0.020550488240004473 -0.0059751900379275517 0 0.018045941082907191 -0.0060906738926983168 0 0.020550488240004473 -0.0059751900379275517 0 0.019422214854078128 -0.0055152549202221162 0 0.017842608425765995 -0.0054593570825098086 0 0.018045941082907191 -0.0060906738926983168 0 0.019422214854078128 -0.0055152549202221162 0 0.020848130066774252 -0.0057327270764492471 0 0.019422214854078128 -0.0055152549202221162 0 0.01912739129551267 -0.0042768507467565546 0 0.017842608425765995 -0.0054593570825098086 0 0.019422214854078128 -0.0055152549202221162 0 0.01912739129551267 -0.0042768507467565546 0 0.017425873606857437 -0.0041461241775712287 0 0.017842608425765995 -0.0054593570825098086 0 0.01912739129551267 -0.0042768507467565546 0 0.0048109982656339466 -0.0043852321341265156 0 0.0040693096239835221 -0.0036726540438942372 0 0.0048644810153122388 -0.0038094695992251771 0 0.012792121963318625 -0.0050267129023360037 0 0.01157768822373148 -0.0040077908118680309 0 0.0056911787761997823 -0.0033490419958027476 0 0.0048644810153122388 -0.0038094695992251771 0 0.0055514438677776714 -0.0042751543606937602 0 0.0048109982656339466 -0.0043852321341265156 0 0.0048644810153122388 -0.0038094695992251771 0 0.0055514438677776714 -0.0042751543606937602 0 0.0056911787761997823 -0.0033490419958027476 0 0.0061331134006105074 -0.0042237084370030696 0 0.0055514438677776714 -0.0042751543606937602 0 0.0065772333395422372 -0.0034725765005570596 0 0.0056911787761997823 -0.0033490419958027476 0 0.0061331134006105074 -0.0042237084370030696 0 0.0059620010708438349 -0.0048748958270220816 0 0.0061331134006105074 -0.0042237084370030696 0 0.0055514438677776714 -0.0042751543606937602 0 0.0059705288051887006 -0.0048110550405279628 0 0.0068484943703444705 -0.0033994369126630307 0 0.0059620010708438349 -0.0048748958270220816 0 0.0073564681066419875 -0.002700507581537412 0 0.0080323073204867975 -0.0041940305079162547 0 0.0059620010708438349 -0.0048748958270220816 0 0.0048109982656339466 -0.0043852321341265156 0 0.0055514438677776714 -0.0042751543606937602 0 0.013334013636351363 -0.0054762621015688245 0 0.012792121963318625 -0.0050267129023360037 0 0.010147156812952488 -0.0041192306634022461 0 0.011101380297797883 -0.0028318845818650065 0 0.0092785513777131224 -0.0025341115609344342 0 0.010147156812952488 -0.0041192306634022461 0 0.0080323073204867975 -0.0041940305079162547 0 0.0092785513777131224 -0.0025341115609344342 0 0.0073564681066419875 -0.002700507581537412 0 0.0080323073204867975 -0.0041940305079162547 0 0.0092785513777131224 -0.0025341115609344342 0 0.0085956618328180828 -0.00078245970280924222 0 0.0073564681066419875 -0.002700507581537412 0 0.0092785513777131224 -0.0025341115609344342 0 0.0066952335366335259 -0.0023793136766791364 0 0.0068484943703444705 -0.0033994369126630307 0 0.0085956618328180828 -0.00078245970280924222 0 0.0092785513777131224 -0.0025341115609344342 0 0.010906314767863631 -0.0011942967030182275 0 0.0066952335366335259 -0.0023793136766791364 0 0.0092756376357908659 -0.0014774660247799762 0 0.011101380297797883 -0.0028318845818650065 0 0.0092785513777131224 -0.0025341115609344342 0 0.010906314767863631 -0.0011942967030182275 0 0.011101380297797883 -0.0028318845818650065 0 0.010906314767863631 -0.0011942967030182275 0 0.013161692636146423 -0.0016020935745654091 0 0.0092756376357908659 -0.0014774660247799762 0 0.0097051029468479509 -0.0011801859217014387 0 0.0097051029468479509 -0.0011801859217014387 0 0.014349136399460225 -0.0023027748394609726 0 0.013161692636146423 -0.0016020935745654091 0 0.014156948997625915 -0.0039646714003421443 0 0.012371396097293551 -0.0041703309670198061 0 0.011101380297797883 -0.0028318845818650065 0 0.013161692636146423 -0.0016020935745654091 0 0.012371396097293551 -0.0041703309670198061 0 0.010147156812952488 -0.0041192306634022461 0 0.011101380297797883 -0.0028318845818650065 0 0.012371396097293551 -0.0041703309670198061 0 0.012371396097293551 -0.0041703309670198061 0 0.011219737206728485 -0.0052974496118016624 0 0.012567711305664342 -0.0059130972429923875 0 0.010147156812952488 -0.0041192306634022461 0 0.012371396097293551 -0.0041703309670198061 0 0.011219737206728485 -0.0052974496118016624 0 0.012371396097293551 -0.0041703309670198061 0 0.013588943638694336 -0.0053959157524991032 0 0.012567711305664342 -0.0059130972429923875 0 0.014156948997625915 -0.0039646714003421443 0 0.012371396097293551 -0.0041703309670198061 0 0.013588943638694336 -0.0053959157524991032 0 0.014156948997625915 -0.0039646714003421443 0 0.013588943638694336 -0.0053959157524991032 0 0.014938011471452347 -0.0062514661922762399 0 0.013588943638694336 -0.0053959157524991032 0 0.013797903270654173 -0.0065852374507242096 0 0.014938011471452347 -0.0062514661922762399 0 0.013588943638694336 -0.0053959157524991032 0 0.013797903270654173 -0.0065852374507242096 0 0.012567711305664342 -0.0059130972429923875 0 0.013797903270654173 -0.0065852374507242096 0 0.012567711305664342 -0.0059130972429923875 0 0.012639203590185168 -0.0072117330268739021 0 0.013797903270654173 -0.0065852374507242096 0 0.012639203590185168 -0.0072117330268739021 0 0.013807579091000438 -0.0074734562742502387 0 0.013797903270654173 -0.0065852374507242096 0 0.013807579091000438 -0.0074734562742502387 0 0.014493643050511157 -0.0071375009145034536 0 0.012567711305664342 -0.0059130972429923875 0 0.012639203590185168 -0.0072117330268739021 0 0.010703785146669385 -0.0067496725815998004 0 0.011219737206728485 -0.0052974496118016624 0 0.012567711305664342 -0.0059130972429923875 0 0.010703785146669385 -0.0067496725815998004 0 0.010147156812952488 -0.0041192306634022461 0 0.011219737206728485 -0.0052974496118016624 0 0.0092716880162752278 -0.0054563891142365125 0 0.011219737206728485 -0.0052974496118016624 0 0.010703785146669385 -0.0067496725815998004 0 0.0092716880162752278 -0.0054563891142365125 0 0.0073096575600478325 -0.0053629708672293273 0 0.0092716880162752278 -0.0054563891142365125 0 0.0080118970159737905 -0.0069751919191642572 0 0.0073096575600478325 -0.0053629708672293273 0 0.0080323073204867975 -0.0041940305079162547 0 0.0092716880162752278 -0.0054563891142365125 0 0.010147156812952488 -0.0041192306634022461 0 0.0080323073204867975 -0.0041940305079162547 0 0.0092716880162752278 -0.0054563891142365125 0 0.010703785146669385 -0.0067496725815998004 0 0.0092716880162752278 -0.0054563891142365125 0 0.0080118970159737905 -0.0069751919191642572 0 0.022628765080443106 -0.0044938400834981631 0 0.016819201335819666 -0.0064239754583138783 0 0.013687294009024482 -0.0060961860977166195 0 0.016819201335819666 -0.0064239754583138783 0 0.010703785146669385 -0.0067496725815998004 0 0.0080118970159737905 -0.0069751919191642572 0 0.010027027207495135 -0.008714866283484635 0 0.020444851772194204 -0.0046654103939405903 0 0.020071451994813121 -0.0053928300429207402 0 0.019347827178314753 -0.0047376616744749826 0 0.016819201335819666 -0.0064239754583138783 0 0.011521862028217623 -0.0083456630008070121 0 0.010703785146669385 -0.0067496725815998004 0 0.010027027207495135 -0.008714866283484635 0 0.011689709352898816 -0.0085081141836009459 0 0.016819201335819666 -0.0064239754583138783 0 0.018179060352907554 -0.0070561979966856439 0 0.022831982885160057 -0.004984588889139125 0 0.022823567965916395 -0.0049960297954677393 0 0.022745820791288961 -0.0050286978632864028 0 0.012729610743386008 -0.0082177122574352175 0 0.013098895259853338 -0.0086954608750994325 0 0.013128152688097713 -0.0081956499460843612 0 0.022831982885160057 -0.004984588889139125 0 0.022823567965916395 -0.0049960297954677393 0 0.022854726067152512 -0.0049534438483346804 0 0.022791464033458733 -0.0047729439378642125 0 0.022831982885160057 -0.004984588889139125 0 0.022854726067152512 -0.0049534438483346804 0 0.022823567965916395 -0.0049960297954677393 0 0.022854726067152512 -0.0049534438483346804 0 0.022865968020076798 -0.0049925189819007461 0 0.022869802776446391 -0.0049789297682893167 0 0.022854726067152512 -0.0049534438483346804 0 0.022865968020076798 -0.0049925189819007461 0 0.022869802776446391 -0.0049789297682893167 0 0.022913830787945642 -0.0050062432613634791 0 0.022865968020076798 -0.0049925189819007461 0 0.022913830787945642 -0.0050062432613634791 0 0.022865968020076798 -0.0049925189819007461 0 0.022867072835905177 -0.0049806615677694295 0 0.022823567965916395 -0.0049960297954677393 0 0.022865968020076798 -0.0049925189819007461 0 0.022789316864138494 -0.0049834027564041828 0 0.022823567965916395 -0.0049960297954677393 0 0.022789316864138494 -0.0049834027564041828 0 0.022745820791288961 -0.0050286978632864028 0 0.022865968020076798 -0.0049925189819007461 0 0.022789316864138494 -0.0049834027564041828 0 0.022867072835905177 -0.0049806615677694295 0 0.022789316864138494 -0.0049834027564041828 0 0.022813073191073539 -0.0048989440307828785 0 0.022687687354842046 -0.0049370748196750566 0 0.021959505296168545 -0.0054073846144369643 0 0.020961281001560673 -0.0057531719805929095 0 0.022789316864138494 -0.0049834027564041828 0 0.022813073191073539 -0.0048989440307828785 0 0.022867072835905177 -0.0049806615677694295 0 0.021119301998344091 -0.0058837770184577741 0 0.019078190249988209 -0.0069750801081016993 0 0.020024555619444651 -0.0051315062908389051 0 0.022813073191073539 -0.0048989440307828785 0 0.02297041351113235 -0.0049796816934559816 0 0.022867072835905177 -0.0049806615677694295 0 0.022813073191073539 -0.0048989440307828785 0 0.02297041351113235 -0.0049796816934559816 0 0.023075891669149137 -0.0048911396272764132 0 0.022913830787945642 -0.0050062432613634791 0 0.02297041351113235 -0.0049796816934559816 0 0.022867072835905177 -0.0049806615677694295 0 0.022930474353521708 -0.0050478587554020826 0 0.022913830787945642 -0.0050062432613634791 0 0.02297041351113235 -0.0049796816934559816 0 0.01765681695951294 -0.0067816638584854878 0 0.019078190249988209 -0.0069750801081016993 0 0.018058178961642361 -0.007482439396198904 0 0.01765681695951294 -0.0067816638584854878 0 0.018325074821341172 -0.0062454708333321953 0 0.019078190249988209 -0.0069750801081016993 0 0.01765681695951294 -0.0067816638584854878 0 0.016595130055316626 -0.0069018622775650551 0 0.017329616696068931 -0.0057362865373914796 0 0.018325074821341172 -0.0062454708333321953 0 0.018861458820518779 -0.005445952378802508 0 0.017329616696068931 -0.0057362865373914796 0 0.01765681695951294 -0.0067816638584854878 0 0.018325074821341172 -0.0062454708333321953 0 0.017329616696068931 -0.0057362865373914796 0 0.018325074821341172 -0.0062454708333321953 0 0.019078190249988209 -0.0069750801081016993 0 0.018861458820518779 -0.005445952378802508 0 0.019078190249988209 -0.0069750801081016993 0 0.020024555619444651 -0.0051315062908389051 0 0.018861458820518779 -0.005445952378802508 0 0.020961281001560673 -0.0057531719805929095 0 0.017544915197231632 -0.0066908246278774295 0 0.022708421956758849 -0.0049848084248459729 0 0.022598357601034326 -0.0049841008966554721 0 0.022745820791288961 -0.0050286978632864028 0 0.013713276888916747 -0.0094093699345429802 0 0.013721724159083218 -0.0088022258334631391 0 0.013098895259853338 -0.0086954608750994325 0 0.017544915197231632 -0.0066908246278774295 0 0.018179060352907554 -0.0070561979966856439 0 0.022687687354842046 -0.0049370748196750566 0 0.022708421956758849 -0.0049848084248459729 0 0.022598357601034326 -0.0049841008966554721 0 0.022789316864138494 -0.0049834027564041828 0 0.022687687354842046 -0.0049370748196750566 0 0.022708421956758849 -0.0049848084248459729 0 0.022789316864138494 -0.0049834027564041828 0 0.022708421956758849 -0.0049848084248459729 0 0.022745820791288961 -0.0050286978632864028 0 0.013713276888916747 -0.0094093699345429802 0 0.014167962189357905 -0.0092059732550529554 0 0.013721724159083218 -0.0088022258334631391 0 0.017544915197231632 -0.0066908246278774295 0 0.015402756937304852 -0.0085314583152068524 0 0.01765681695951294 -0.0067816638584854878 0 0.018058178961642361 -0.007482439396198904 0 0.017008645065740815 -0.0079512136921739088 0 0.01765681695951294 -0.0067816638584854878 0 0.017008645065740815 -0.0079512136921739088 0 0.016595130055316626 -0.0069018622775650551 0 0.014167962189357905 -0.0092059732550529554 0 0.013721724159083218 -0.0088022258334631391 0 0.01430891568058738 -0.0086988401158469512 0 0.013721724159083218 -0.0088022258334631391 0 0.013891770454182509 -0.0084445350235426916 0 0.01430891568058738 -0.0086988401158469512 0 0.013891770454182509 -0.0084445350235426916 0 0.013376345429750212 -0.0084059841034102561 0 0.013465411165484765 -0.0081165482887938529 0 0.013721724159083218 -0.0088022258334631391 0 0.013891770454182509 -0.0084445350235426916 0 0.013376345429750212 -0.0084059841034102561 0 0.013891770454182509 -0.0084445350235426916 0 0.014540962908494931 -0.0083313478230972477 0 0.01430891568058738 -0.0086988401158469512 0 0.013891770454182509 -0.0084445350235426916 0 0.014032559002438981 -0.0080713487117299691 0 0.014540962908494931 -0.0083313478230972477 0 0.013721724159083218 -0.0088022258334631391 0 0.013098895259853338 -0.0086954608750994325 0 0.013376345429750212 -0.0084059841034102561 0 0.013098895259853338 -0.0086954608750994325 0 0.013376345429750212 -0.0084059841034102561 0 0.013128152688097713 -0.0081956499460843612 0 0.011521862028217623 -0.0083456630008070121 0 0.01358050225523269 -0.0081643751966723258 0 0.012639203590185168 -0.0072117330268739021 0 0.011689709352898816 -0.0085081141836009459 0 0.013465411165484765 -0.0081165482887938529 0 0.012639203590185168 -0.0072117330268739021 0 0.010703785146669385 -0.0067496725815998004 0 0.011689709352898816 -0.0085081141836009459 0 0.013376345429750212 -0.0084059841034102561 0 0.013128152688097713 -0.0081956499460843612 0 0.013465411165484765 -0.0081165482887938529 0 0.013891770454182509 -0.0084445350235426916 0 0.014032559002438981 -0.0080713487117299691 0 0.013465411165484765 -0.0081165482887938529 0 0.014032559002438981 -0.0080713487117299691 0 0.013465411165484765 -0.0081165482887938529 0 0.013807579091000438 -0.0074734562742502387 0 0.012639203590185168 -0.0072117330268739021 0 0.013465411165484765 -0.0081165482887938529 0 0.013807579091000438 -0.0074734562742502387 0 0.014032559002438981 -0.0080713487117299691 0 0.013807579091000438 -0.0074734562742502387 0 0.014461529282959839 -0.0078026715958934159 0 0.01385046139618237 -0.00077796921821358988 0 0.013772235312488791 -0.00098369239704292305 0 0.013421532401428573 -0.00016515647393955924 0 0.013807579091000438 -0.0074734562742502387 0 0.014461529282959839 -0.0078026715958934159 0 0.014493643050511157 -0.0071375009145034536 0 0.014461529282959839 -0.0078026715958934159 0 0.015284923911895371 -0.0080901484667445442 0 0.014493643050511157 -0.0071375009145034536 0 0.014461529282959839 -0.0078026715958934159 0 0.015284923911895371 -0.0080901484667445442 0 0.014540962908494931 -0.0083313478230972477 0 0.014032559002438981 -0.0080713487117299691 0 0.014461529282959839 -0.0078026715958934159 0 0.014540962908494931 -0.0083313478230972477 0 0.013481328358131305 0.00030110631889422487 0 0.013444649572824378 0.00035639152847820115 0 0.013779637325231084 0.00020616076471377794 0 0.013481328358131305 0.00030110631889422487 0 0.013779637325231084 0.00020616076471377794 0 0.0135237873322985 0.00027612440025141414 0 0.013481328358131305 0.00030110631889422487 0 0.013444649572824378 0.00035639152847820115 0 0.013389055093107907 0.0002254909988445111 0 0.013458785613060121 -5.9148712787988772e-05 0 0.015371798903365191 -0.0018232791958866133 0 0.013779637325231084 0.00020616076471377794 0 0.013889406318533548 -0.00044024211614013259 0 0.01420654137346153 6.3868601152497281e-05 0 0.015284923911895371 -0.0080901484667445442 0 0.015166275661509514 -0.0084656023008763959 0 0.014895359519283023 -0.0083577680870519123 0 0.014429244067286956 -0.004635165625340049 0 0.015635931704246944 -0.0043512786083139757 0 0.01385046139618237 -0.00077796921821358988 0 0.013772235312488791 -0.00098369239704292305 0 0.014349521932229783 -0.00204961369763337 0 0.013444649572824378 0.00035639152847820115 0 0.013779637325231084 0.00020616076471377794 0 0.013889406318533548 -0.00044024211614013259 0 0.013772235312488791 -0.00098369239704292305 0 0.014349521932229783 -0.00204961369763337 0 0.014310415055731144 -0.0021329222047332093 0 0.015166275661509514 -0.0084656023008763959 0 0.014540962908494931 -0.0083313478230972477 0 0.01430891568058738 -0.0086988401158469512 0 0.014167962189357905 -0.0092059732550529554 0 0.015166275661509514 -0.0084656023008763959 0 0.01430891568058738 -0.0086988401158469512 0 0.015284923911895371 -0.0080901484667445442 0 0.015166275661509514 -0.0084656023008763959 0 0.014540962908494931 -0.0083313478230972477 0 0.017008645065740815 -0.0079512136921739088 0 0.015166275661509514 -0.0084656023008763959 0 0.015755190610480023 -0.007642825858689915 0 0.015402756937304852 -0.0085314583152068524 0 0.015297069406013079 -0.0084950415815821835 0 0.017008645065740815 -0.0079512136921739088 0 0.015755190610480023 -0.007642825858689915 0 0.016595130055316626 -0.0069018622775650551 0 0.015755190610480023 -0.007642825858689915 0 0.014895359519283023 -0.0083577680870519123 0 0.015487255944026907 -0.0062302905629014384 0 0.015166275661509514 -0.0084656023008763959 0 0.015755190610480023 -0.007642825858689915 0 0.014895359519283023 -0.0083577680870519123 0 0.016322262588354872 -0.0031097074909262412 0 0.016320024659364739 -0.0031159996760412368 0 0.016353020915080632 -0.0031677441013540906 0 0.018740058143316248 -0.0043851036515232455 0 0.018883462319658144 -0.0041573669566223673 0 0.018703383635796825 -0.0042487607634549077 0 0.015635931704246944 -0.0043512786083139757 0 0.017132816906326492 -0.0055235979188577675 0 0.015371798903365191 -0.0018232791958866133 0 0.015635931704246944 -0.0043512786083139757 0 0.015635931704246944 -0.0043512786083139757 0 0.017393328137815581 -0.0029157823403959081 0 0.018883462319658144 -0.0041573669566223673 0 0.018703383635796825 -0.0042487607634549077 0 0.018776053273141382 -0.0040962497175342939 0 0.015487255944026907 -0.0062302905629014384 0 0.016595130055316626 -0.0069018622775650551 0 0.017329616696068931 -0.0057362865373914796 0 0.015755190610480023 -0.007642825858689915 0 0.015487255944026907 -0.0062302905629014384 0 0.016595130055316626 -0.0069018622775650551 0 0.01731976471194693 2.1423043874192247e-07 0 0.016172004965767605 5.5810515640744122e-05 0 0.017727500969601812 -6.0742483300442407e-05 0 0.01731976471194693 2.1423043874192247e-07 0 0.016172004965767605 5.5810515640744122e-05 0 0.015490944040117324 2.3448197582951925e-07 0 0.017393328137815581 -0.0029157823403959081 0 0.017583405133239027 -0.0018535063713415664 0 0.016172004965767605 5.5810515640744122e-05 0 0.015557174342264181 7.8308195886259158e-06 0 0.016770610392879907 -9.0877531380516429e-05 0 0.017393328137815581 -0.0029157823403959081 0 0.019103100591810643 -0.0045885744615163605 0 0.014915729946814357 8.8960893702096081e-05 0 0.015557174342264181 7.8308195886259158e-06 0 0.015246566436700065 8.6327062882667594e-05 0 0.016172004965767605 5.5810515640744122e-05 0 0.015557174342264181 7.8308195886259158e-06 0 0.015246566436700065 8.6327062882667594e-05 0 0.015371798903365191 -0.0018232791958866133 0 0.017393328137815581 -0.0029157823403959081 0 0.014915729946814357 8.8960893702096081e-05 0 0.015071520303575125 6.5907129044949698e-05 0 0.015246566436700065 8.6327062882667594e-05 0 0.016172004965767605 5.5810515640744122e-05 0 0.015071520303575125 6.5907129044949698e-05 0 0.015246566436700065 8.6327062882667594e-05 0 0.016172004965767605 5.5810515640744122e-05 0 0.015071520303575125 6.5907129044949698e-05 0 0.015490944040117324 2.3448197582951925e-07 0 0.015071520303575125 6.5907129044949698e-05 0 0.015490944040117324 2.3448197582951925e-07 0 0.014146945515833072 0.00011288748964104385 0 0.015490944040117324 2.3448197582951925e-07 0 0.013662485326208996 1.8596663662582226e-07 0 0.014146945515833072 0.00011288748964104385 0 0.014915729946814357 8.8960893702096081e-05 0 0.015071520303575125 6.5907129044949698e-05 0 0.01420654137346153 6.3868601152497281e-05 0 0.015071520303575125 6.5907129044949698e-05 0 0.01420654137346153 6.3868601152497281e-05 0 0.014146945515833072 0.00011288748964104385 0 0.015371798903365191 -0.0018232791958866133 0 0.014626339809958035 0.00024207518319330605 0 0.01420654137346153 6.3868601152497281e-05 0 0.0135237873322985 0.00027612440025141414 0 0.014146945515833072 0.00011288748964104385 0 0.013779637325231084 0.00020616076471377794 0 0.01420654137346153 6.3868601152497281e-05 0 0.0135237873322985 0.00027612440025141414 0 0.0135237873322985 0.00027612440025141414 0 0.014146945515833072 0.00011288748964104385 0 0.013019209541126722 0.00017773757939367783 0 0.013662485326208996 1.8596663662582226e-07 0 0.014146945515833072 0.00011288748964104385 0 0.013019209541126722 0.00017773757939367783 0 0.013662485326208996 1.8596663662582226e-07 0 0.013019209541126722 0.00017773757939367783 0 0.011832874980979227 1.1128060605704362e-06 0 0.011832874980979227 1.1128060605704362e-06 0 0.012034457873267833 5.0211495613446758e-05 0 0.010007632851260462 -2.549904420566883e-06 0 0.013019209541126722 0.00017773757939367783 0 0.011832874980979227 1.1128060605704362e-06 0 0.012034457873267833 5.0211495613446758e-05 0 0.012034457873267833 5.0211495613446758e-05 0 0.012960385608178309 0.00018836086702542145 0 0.012937093534530795 -0.00025250439647903235 0 0.013019209541126722 0.00017773757939367783 0 0.012034457873267833 5.0211495613446758e-05 0 0.012960385608178309 0.00018836086702542145 0 0.0135237873322985 0.00027612440025141414 0 0.013019209541126722 0.00017773757939367783 0 0.012960385608178309 0.00018836086702542145 0 0.0135237873322985 0.00027612440025141414 0 0.012960385608178309 0.00018836086702542145 0 0.013301006204856127 0.00023607957867250782 0 0.013481328358131305 0.00030110631889422487 0 0.0135237873322985 0.00027612440025141414 0 0.013301006204856127 0.00023607957867250782 0 0.013444649572824378 0.00035639152847820115 0 0.013389055093107907 0.0002254909988445111 0 0.013453443605561353 -4.6306951633993253e-05 0 0.013481328358131305 0.00030110631889422487 0 0.013301006204856127 0.00023607957867250782 0 0.013389055093107907 0.0002254909988445111 0 0.013301006204856127 0.00023607957867250782 0 0.013389055093107907 0.0002254909988445111 0 0.013345251512636496 0.00012248437997718143 0 0.013389055093107907 0.0002254909988445111 0 0.013345251512636496 0.00012248437997718143 0 0.013453443605561353 -4.6306951633993253e-05 0 0.013301006204856127 0.00023607957867250782 0 0.013345251512636496 0.00012248437997718143 0 0.013220879385199542 1.4974511367117473e-05 0 0.012960385608178309 0.00018836086702542145 0 0.013301006204856127 0.00023607957867250782 0 0.013220879385199542 1.4974511367117473e-05 0 0.014429244067286956 -0.004635165625340049 0 0.01412242894605616 -0.0031354751580809368 0 0.015284923911895371 -0.0080901484667445442 0 0.014493643050511157 -0.0071375009145034536 0 0.014938011471452347 -0.0062514661922762399 0 0.01385046139618237 -0.00077796921821358988 0 0.013421532401428573 -0.00016515647393955924 0 0.013453443605561353 -4.6306951633993253e-05 0 0.013458785613060121 -5.9148712787988772e-05 0 0.013536467285259502 -0.00012267820807838417 0 0.013797903270654173 -0.0065852374507242096 0 0.014493643050511157 -0.0071375009145034536 0 0.014938011471452347 -0.0062514661922762399 0 0.013652206121727224 -0.0002775381219749401 0 0.013421532401428573 -0.00016515647393955924 0 0.013453443605561353 -4.6306951633993253e-05 0 0.014349136399460225 -0.0023027748394609726 0 0.01412242894605616 -0.0031354751580809368 0 0.013652206121727224 -0.0002775381219749401 0 0.013453443605561353 -4.6306951633993253e-05 0 0.013363585474973062 -0.00028657132722148863 0 0.012960385608178309 0.00018836086702542145 0 0.013220879385199542 1.4974511367117473e-05 0 0.012937093534530795 -0.00025250439647903235 0 0.013345251512636496 0.00012248437997718143 0 0.013453443605561353 -4.6306951633993253e-05 0 0.013220879385199542 1.4974511367117473e-05 0 0.013453443605561353 -4.6306951633993253e-05 0 0.013220879385199542 1.4974511367117473e-05 0 0.013363585474973062 -0.00028657132722148863 0 0.013220879385199542 1.4974511367117473e-05 0 0.012937093534530795 -0.00025250439647903235 0 0.013363585474973062 -0.00028657132722148863 0 0.012937093534530795 -0.00025250439647903235 0 0.01331754905918496 -0.00081809895608949876 0 0.012457719752697357 -0.00088087830093492821 0 0.012937093534530795 -0.00025250439647903235 0 0.013363585474973062 -0.00028657132722148863 0 0.01331754905918496 -0.00081809895608949876 0 0.013652206121727224 -0.0002775381219749401 0 0.013363585474973062 -0.00028657132722148863 0 0.01331754905918496 -0.00081809895608949876 0 0.0051241963573220167 -0.00013425169805374496 0 0.0045292797852765779 -0.00093311607922020928 0 0.0057200345777185073 -0.0010488605951153389 0 0.0097051029468479509 -0.0011801859217014387 0 0.0093932319372116921 -0.00089318920651236381 0 0.013867866523937993 -0.0008797889561711447 0 0.013652206121727224 -0.0002775381219749401 0 0.01331754905918496 -0.00081809895608949876 0 0.0093932319372116921 -0.00089318920651236381 0 0.0098550608662630844 -0.00081065872750302507 0 0.0064446844004697945 -0.00010372814042055335 0 0.0057200345777185073 -0.0010488605951153389 0 0.0072980129878197318 -0.00089957685500906726 0 0.0078535946961068998 -7.9084227425650879e-06 0 0.0072980129878197318 -0.00089957685500906726 0 0.010000374313290374 -2.8431853849574904e-06 0 0.012034457873267833 5.0211495613446758e-05 0 0.012457719752697357 -0.00088087830093492821 0 0.010007632851260462 -2.549904420566883e-06 0 0.0098550608662630844 -0.00081065872750302507 0 0.010003812722688578 -3.6405758347520477e-07 0 0.012034457873267833 5.0211495613446758e-05 0 0.012937093534530795 -0.00025250439647903235 0 0.012457719752697357 -0.00088087830093492821 0 0.024810337096472609 0.00010659913404586897 0 0.024599374890848114 -2.7815880085555994e-05 0 0.024544080821679991 3.5173061652374039e-05 0 0.024357812845949262 1.0645671857576975e-06 0 0.024810337096472609 0.00010659913404586897 0 0.024544080821679991 3.5173061652374039e-05 0 0.024357812845949262 1.0645671857576975e-06 0 0.024810337096472609 0.00010659913404586897 0 0.025906303588655376 -1.0092482419307977e-06 0 0.025909450347795199 -1.1377422969605388e-07 0 0.026178378923388316 -0.00044242631536950384 0 0.024810337096472609 0.00010659913404586897 0 0.025906303588655376 -1.0092482419307977e-06 0 0.024743734807426442 -0.00027698025296283354 0 0.024810337096472609 0.00010659913404586897 0 0.024743734807426442 -0.00027698025296283354 0 0.024599374890848114 -2.7815880085555994e-05 0 0.023524563280096902 -0.0001911468834871509 0 0.02903752492693986 -0.00017003072233336269 0 0.024743734807426442 -0.00027698025296283354 0 0.024599374890848114 -2.7815880085555994e-05 0 0.024504135759238828 -0.00022032025335695687 0 0.024599374890848114 -2.7815880085555994e-05 0 0.02451339362639544 2.7923380793310567e-05 0 0.024504135759238828 -0.00022032025335695687 0 0.026893007331203419 0.0005125791517722625 0 0.026715142510765896 0.00021806361182984441 0 0.02698288965839353 0.00037357821251173218 0 0.026893007331203419 0.0005125791517722625 0 0.026715142510765896 0.00021806361182984441 0 0.026731645026009311 0.00057190107300195744 0 0.023524563280096902 -0.0001911468834871509 0 0.024610217245472417 0.00020960820046947803 0 0.021521445481024772 -0.000353700491217772 0 0.021976342647229374 -0.00050615161399672839 0 0.022022567847827027 -4.2328784339190302e-05 0 0.024599374890848114 -2.7815880085555994e-05 0 0.02451339362639544 2.7923380793310567e-05 0 0.024544080821679991 3.5173061652374039e-05 0 0.023524563280096902 -0.0001911468834871509 0 0.023014439005961906 -0.00035842910259436563 0 0.023524563280096902 -0.0001911468834871509 0 0.021446353780380015 -0.0007992074615487258 0 0.021562235680782169 -0.00074508100846183722 0 0.021601550439795798 -0.00046113556310102132 0 0.021685177043619747 -0.00074936588905235809 0 0.02159174936319521 -0.000811563058607379 0 0.021562235680782169 -0.00074508100846183722 0 0.021685177043619747 -0.00074936588905235809 0 0.021521445481024772 -0.000353700491217772 0 0.021562235680782169 -0.00074508100846183722 0 0.021976342647229374 -0.00050615161399672839 0 0.021562235680782169 -0.00074508100846183722 0 0.022015540114109777 -0.00097063538224709841 0 0.021976342647229374 -0.00050615161399672839 0 0.021562235680782169 -0.00074508100846183722 0 0.021692839203161608 -0.0010638194677605824 0 0.022015540114109777 -0.00097063538224709841 0 0.021562235680782169 -0.00074508100846183722 0 0.021692839203161608 -0.0010638194677605824 0 0.0216114013423192 -0.00068946239531686567 0 0.021562235680782169 -0.00074508100846183722 0 0.0216114013423192 -0.00068946239531686567 0 0.021601550439795798 -0.00046113556310102132 0 0.0216114013423192 -0.00068946239531686567 0 0.021601550439795798 -0.00046113556310102132 0 0.021569443223266139 -0.00028961885380232252 0 0.021601550439795798 -0.00046113556310102132 0 0.021685177043619747 -0.00074936588905235809 0 0.021812235580989239 -3.0598553553391107e-05 0 0.021601550439795798 -0.00046113556310102132 0 0.021812235580989239 -3.0598553553391107e-05 0 0.021569443223266139 -0.00028961885380232252 0 0.023014439005961906 -0.00035842910259436563 0 0.022807886305839131 -1.1946626473165744e-08 0 0.024357812845949262 1.0645671857576975e-06 0 0.024544080821679991 3.5173061652374039e-05 0 0.022810232509207311 -1.1383660517827067e-06 0 0.022804411568737606 -1.3451419609314588e-06 0 0.021812235580989239 -3.0598553553391107e-05 0 0.020979557583860383 2.1003307725712103e-07 0 0.021685177043619747 -0.00074936588905235809 0 0.022804411568737606 -1.3451419609314588e-06 0 0.021812235580989239 -3.0598553553391107e-05 0 0.021812235580989239 -3.0598553553391107e-05 0 0.021252529207565717 -0.00013516934977137203 0 0.020979557583860383 2.1003307725712103e-07 0 0.021812235580989239 -3.0598553553391107e-05 0 0.021252529207565717 -0.00013516934977137203 0 0.021569443223266139 -0.00028961885380232252 0 0.021252529207565717 -0.00013516934977137203 0 0.021569443223266139 -0.00028961885380232252 0 0.021489742169031108 -0.0003908936458023232 0 0.021569443223266139 -0.00028961885380232252 0 0.021489742169031108 -0.0003908936458023232 0 0.021620158860960477 -0.00055703567111978485 0 0.021220128379658521 -0.0004535179023464697 0 0.020961433810216642 -0.0011293292800893908 0 0.021649567112742213 -0.00058993786221268353 0 0.021489742169031108 -0.0003908936458023232 0 0.021220128379658521 -0.0004535179023464697 0 0.021649567112742213 -0.00058993786221268353 0 0.021252529207565717 -0.00013516934977137203 0 0.021489742169031108 -0.0003908936458023232 0 0.021220128379658521 -0.0004535179023464697 0 0.020979557583860383 2.1003307725712103e-07 0 0.020408463636145732 -0.0001426639598662581 0 0.019148771238172043 -9.3437230118418742e-07 0 0.021220128379658521 -0.0004535179023464697 0 0.020408463636145732 -0.0001426639598662581 0 0.020961433810216642 -0.0011293292800893908 0 0.021252529207565717 -0.00013516934977137203 0 0.020979557583860383 2.1003307725712103e-07 0 0.020408463636145732 -0.0001426639598662581 0 0.021252529207565717 -0.00013516934977137203 0 0.021220128379658521 -0.0004535179023464697 0 0.020408463636145732 -0.0001426639598662581 0 0.020408463636145732 -0.0001426639598662581 0 0.019212838647136268 -6.4464029987526376e-05 0 0.018764101733739123 -7.3666678461923506e-05 0 0.020408463636145732 -0.0001426639598662581 0 0.019212838647136268 -6.4464029987526376e-05 0 0.019148771238172043 -9.3437230118418742e-07 0 0.020123508681880106 0.00012281624422006673 0 0.019159615236903231 -0.0016204871517338723 0 0.019148771238172043 -9.3437230118418742e-07 0 0.018522253694172083 -0.00014885823945312183 0 0.017727500969601812 -6.0742483300442407e-05 0 0.019212838647136268 -6.4464029987526376e-05 0 0.019148771238172043 -9.3437230118418742e-07 0 0.018522253694172083 -0.00014885823945312183 0 0.018522253694172083 -0.00014885823945312183 0 0.01807301554370903 -0.00036030000366304527 0 0.017727500969601812 -6.0742483300442407e-05 0 0.019010193760424478 -0.0011211192962487537 0 0.019159615236903231 -0.0016204871517338723 0 0.019212838647136268 -6.4464029987526376e-05 0 0.018522253694172083 -0.00014885823945312183 0 0.018764101733739123 -7.3666678461923506e-05 0 0.018461104950290377 -0.0039146091648244894 0 0.018788200004692841 -0.0038876651005296764 0 0.01911558958220326 -0.0034091493413045161 0 0.019159615236903231 -0.0016204871517338723 0 0.020445185467430186 -0.0021034958746259766 0 0.018788200004692841 -0.0038876651005296764 0 0.018620617178231651 -0.0039775707748287113 0 0.018794593197720543 -0.0039847740158773888 0 0.018461104950290377 -0.0039146091648244894 0 0.018788200004692841 -0.0038876651005296764 0 0.018620617178231651 -0.0039775707748287113 0 0.018703383635796825 -0.0042487607634549077 0 0.018620617178231651 -0.0039775707748287113 0 0.018776053273141382 -0.0040962497175342939 0 0.01879666475556397 -0.0040991861601510282 0 0.018674372486241621 -0.0040235131989846528 0 0.018620617178231651 -0.0039775707748287113 0 0.019159615236903231 -0.0016204871517338723 0 0.017583405133239027 -0.0018535063713415664 0 0.018461104950290377 -0.0039146091648244894 0 0.018674372486241621 -0.0040235131989846528 0 0.018620617178231651 -0.0039775707748287113 0 0.018620617178231651 -0.0039775707748287113 0 0.018776053273141382 -0.0040962497175342939 0 0.018794593197720543 -0.0039847740158773888 0 0.01807301554370903 -0.00036030000366304527 0 0.016770610392879907 -9.0877531380516429e-05 0 0.017727500969601812 -6.0742483300442407e-05 0 0.016172004965767605 5.5810515640744122e-05 0 0.016770610392879907 -9.0877531380516429e-05 0 0.017727500969601812 -6.0742483300442407e-05 0 0.01731976471194693 2.1423043874192247e-07 0 0.019148771238172043 -9.3437230118418742e-07 0 0.017727500969601812 -6.0742483300442407e-05 0 0.017132816906326492 -0.0055235979188577675 0 0.019093221331937093 -0.004159516038404542 0 0.018883462319658144 -0.0041573669566223673 0 0.018859088518120182 -0.0040266938217793438 0 0.0189940486417382 -0.0039406097979283929 0 0.015487255944026907 -0.0062302905629014384 0 0.016639609187453722 -0.0037986464615377886 0 0.017329616696068931 -0.0057362865373914796 0 0.018883462319658144 -0.0041573669566223673 0 0.018776053273141382 -0.0040962497175342939 0 0.018859088518120182 -0.0040266938217793438 0 0.018776053273141382 -0.0040962497175342939 0 0.018794593197720543 -0.0039847740158773888 0 0.018859088518120182 -0.0040266938217793438 0 0.018794593197720543 -0.0039847740158773888 0 0.018859088518120182 -0.0040266938217793438 0 0.018855449594254503 -0.0039301220467050542 0 0.01965147922689222 -0.0041527960334238022 0 0.020325087144872134 -0.0036201612486773433 0 0.01911558958220326 -0.0034091493413045161 0 0.018788200004692841 -0.0038876651005296764 0 0.01965147922689222 -0.0041527960334238022 0 0.01911558958220326 -0.0034091493413045161 0 0.018807266883423011 -0.003928375384733806 0 0.019398526096678137 -0.0040417169021377489 0 0.018788200004692841 -0.0038876651005296764 0 0.018794593197720543 -0.0039847740158773888 0 0.018855449594254503 -0.0039301220467050542 0 0.018859088518120182 -0.0040266938217793438 0 0.018855449594254503 -0.0039301220467050542 0 0.0189940486417382 -0.0039406097979283929 0 0.01965147922689222 -0.0041527960334238022 0 0.020325087144872134 -0.0036201612486773433 0 0.020759787316193025 -0.004328864721283663 0 0.019398526096678137 -0.0040417169021377489 0 0.019093221331937093 -0.004159516038404542 0 0.019093221331937093 -0.004159516038404542 0 0.020210681001702226 -0.0036517837566505456 0 0.020325087144872134 -0.0036201612486773433 0 0.020759787316193025 -0.004328864721283663 0 0.021037759736478701 -0.003849079287467611 0 0.020325087144872134 -0.0036201612486773433 0 0.021282434258744664 -0.0030292755535885662 0 0.021037759736478701 -0.003849079287467611 0 0.020325087144872134 -0.0036201612486773433 0 0.02042012119299183 -0.0026313158686951544 0 0.021282434258744664 -0.0030292755535885662 0 0.021663988629329951 -0.00087260109438444815 0 0.021649567112742213 -0.00058993786221268353 0 0.021620158860960477 -0.00055703567111978485 0 0.020325087144872134 -0.0036201612486773433 0 0.02042012119299183 -0.0026313158686951544 0 0.01911558958220326 -0.0034091493413045161 0 0.021097835053956515 -0.0017569241914623191 0 0.020445185467430186 -0.0021034958746259766 0 0.021489742169031108 -0.0003908936458023232 0 0.021649567112742213 -0.00058993786221268353 0 0.021620158860960477 -0.00055703567111978485 0 0.0216114013423192 -0.00068946239531686567 0 0.021663988629329951 -0.00087260109438444815 0 0.021620158860960477 -0.00055703567111978485 0 0.0216114013423192 -0.00068946239531686567 0 0.021569443223266139 -0.00028961885380232252 0 0.021620158860960477 -0.00055703567111978485 0 0.021692839203161608 -0.0010638194677605824 0 0.021663988629329951 -0.00087260109438444815 0 0.021942414321077162 -0.0017474717793727883 0 0.021692839203161608 -0.0010638194677605824 0 0.0216114013423192 -0.00068946239531686567 0 0.021663988629329951 -0.00087260109438444815 0 0.02042012119299183 -0.0026313158686951544 0 0.021942414321077162 -0.0017474717793727883 0 0.021282434258744664 -0.0030292755535885662 0 0.021097835053956515 -0.0017569241914623191 0 0.021894584599722076 -0.0016627823599383547 0 0.021942414321077162 -0.0017474717793727883 0 0.023277988461599539 -0.0032104670081026551 0 0.022692508632293856 -0.0013002246664808833 0 0.021942414321077162 -0.0017474717793727883 0 0.022159204638176961 -0.0032493176419806477 0 0.023277988461599539 -0.0032104670081026551 0 0.022159204638176961 -0.0032493176419806477 0 0.022879658811803205 -0.0038086137517232971 0 0.023277988461599539 -0.0032104670081026551 0 0.022159204638176961 -0.0032493176419806477 0 0.021282434258744664 -0.0030292755535885662 0 0.021037759736478701 -0.003849079287467611 0 0.021942414321077162 -0.0017474717793727883 0 0.022159204638176961 -0.0032493176419806477 0 0.021282434258744664 -0.0030292755535885662 0 0.022159204638176961 -0.0032493176419806477 0 0.021037759736478701 -0.003849079287467611 0 0.022209258194504537 -0.0043911553193310068 0 0.016639609187453722 -0.0037986464615377886 0 0.018796395592821234 -0.0039435118777198649 0 0.017904728228057575 -0.0047293869757339055 0 0.02079331128375593 -0.0043254424728803214 0 0.021037759736478701 -0.003849079287467611 0 0.022209258194504537 -0.0043911553193310068 0 0.019093221331937093 -0.004159516038404542 0 0.020412228714297095 -0.0041476713792200116 0 0.022209258194504537 -0.0043911553193310068 0 0.022879658811803205 -0.0038086137517232971 0 0.023172227227691286 -0.0043036567535321216 0 0.022159204638176961 -0.0032493176419806477 0 0.022209258194504537 -0.0043911553193310068 0 0.022879658811803205 -0.0038086137517232971 0 0.020412228714297095 -0.0041476713792200116 0 0.022112750340814728 -0.0042320948477667063 0 0.018796395592821234 -0.0039435118777198649 0 0.018861458820518779 -0.005445952378802508 0 0.017904728228057575 -0.0047293869757339055 0 0.018796395592821234 -0.0039435118777198649 0 0.020024555619444651 -0.0051315062908389051 0 0.021027638607088651 -0.0041147156748169806 0 0.018796395592821234 -0.0039435118777198649 0 0.020024555619444651 -0.0051315062908389051 0 0.018861458820518779 -0.005445952378802508 0 0.016639609187453722 -0.0037986464615377886 0 0.017329616696068931 -0.0057362865373914796 0 0.017904728228057575 -0.0047293869757339055 0 0.018861458820518779 -0.005445952378802508 0 0.017329616696068931 -0.0057362865373914796 0 0.017904728228057575 -0.0047293869757339055 0 0.022813073191073539 -0.0048989440307828785 0 0.023124239175341836 -0.0047680514356602376 0 0.023075891669149137 -0.0048911396272764132 0 0.021119301998344091 -0.0058837770184577741 0 0.023124239175341836 -0.0047680514356602376 0 0.021027638607088651 -0.0041147156748169806 0 0.023124239175341836 -0.0047680514356602376 0 0.021027638607088651 -0.0041147156748169806 0 0.023268906207815909 -0.0043810859267531524 0 0.021959505296168545 -0.0054073846144369643 0 0.023047558681505455 -0.004802421401713928 0 0.022112750340814728 -0.0042320948477667063 0 0.023180577197383999 -0.0043530064942596111 0 0.021119301998344091 -0.0058837770184577741 0 0.020024555619444651 -0.0051315062908389051 0 0.021027638607088651 -0.0041147156748169806 0 0.022879658811803205 -0.0038086137517232971 0 0.023172227227691286 -0.0043036567535321216 0 0.023440587669613544 -0.0037348564174575927 0 0.023172227227691286 -0.0043036567535321216 0 0.023379496831394668 -0.0041375064065173111 0 0.023268906207815909 -0.0043810859267531524 0 0.023172227227691286 -0.0043036567535321216 0 0.023379496831394668 -0.0041375064065173111 0 0.023440587669613544 -0.0037348564174575927 0 0.023379496831394668 -0.0041375064065173111 0 0.023424284982402885 -0.0042204215925723924 0 0.023268906207815909 -0.0043810859267531524 0 0.023379496831394668 -0.0041375064065173111 0 0.023440587669613544 -0.0037348564174575927 0 0.023576592423738489 -0.0039575971959783457 0 0.023379496831394668 -0.0041375064065173111 0 0.023576592423738489 -0.0039575971959783457 0 0.023424284982402885 -0.0042204215925723924 0 0.023440587669613544 -0.0037348564174575927 0 0.023277988461599539 -0.0032104670081026551 0 0.023777914149172394 -0.0035642642619564263 0 0.023440587669613544 -0.0037348564174575927 0 0.023777914149172394 -0.0035642642619564263 0 0.023576592423738489 -0.0039575971959783457 0 0.022879658811803205 -0.0038086137517232971 0 0.023440587669613544 -0.0037348564174575927 0 0.023277988461599539 -0.0032104670081026551 0 0.023305104945774213 -0.0031931684388724823 0 0.02360966517155692 -0.0023924200693741099 0 0.023277988461599539 -0.0032104670081026551 0 0.023777914149172394 -0.0035642642619564263 0 0.02359969701134117 -0.0032608740283936195 0 0.023777914149172394 -0.0035642642619564263 0 0.02359969701134117 -0.0032608740283936195 0 0.024545490842245932 -0.0035155506692816029 0 0.02359969701134117 -0.0032608740283936195 0 0.024317378995907645 -0.0028715310737079426 0 0.024545490842245932 -0.0035155506692816029 0 0.02359969701134117 -0.0032608740283936195 0 0.023880828361781702 -0.0020875684872747415 0 0.024317378995907645 -0.0028715310737079426 0 0.02360966517155692 -0.0023924200693741099 0 0.023946127989226611 -0.0013406475375293591 0 0.0236655081160373 -0.0014891836731873488 0 0.022792382204543247 -0.00062955828900266241 0 0.02392919834638893 -0.00066028454626744309 0 0.0236655081160373 -0.0014891836731873488 0 0.022692508632293856 -0.0013002246664808833 0 0.022792382204543247 -0.00062955828900266241 0 0.023277988461599539 -0.0032104670081026551 0 0.0236655081160373 -0.0014891836731873488 0 0.022692508632293856 -0.0013002246664808833 0 0.021942414321077162 -0.0017474717793727883 0 0.022692508632293856 -0.0013002246664808833 0 0.022015540114109777 -0.00097063538224709841 0 0.021692839203161608 -0.0010638194677605824 0 0.021942414321077162 -0.0017474717793727883 0 0.022015540114109777 -0.00097063538224709841 0 0.022015540114109777 -0.00097063538224709841 0 0.022792382204543247 -0.00062955828900266241 0 0.021976342647229374 -0.00050615161399672839 0 0.022692508632293856 -0.0013002246664808833 0 0.022015540114109777 -0.00097063538224709841 0 0.022792382204543247 -0.00062955828900266241 0 0.022792382204543247 -0.00062955828900266241 0 0.022548809638587356 -0.00018407541603836214 0 0.021976342647229374 -0.00050615161399672839 0 0.022792382204543247 -0.00062955828900266241 0 0.022548809638587356 -0.00018407541603836214 0 0.0234694577374439 -0.00012496993397693635 0 0.022548809638587356 -0.00018407541603836214 0 0.021976342647229374 -0.00050615161399672839 0 0.022022567847827027 -4.2328784339190302e-05 0 0.022548809638587356 -0.00018407541603836214 0 0.022022567847827027 -4.2328784339190302e-05 0 0.022722570720680027 0.0003269468910638071 0 0.02698288965839353 0.00037357821251173218 0 0.027024301027042719 0.00051674984669098712 0 0.027181173416518326 0.00054956816647092814 0 0.024610217245472417 0.00020960820046947803 0 0.024951659892969102 0.00043866996538825142 0 0.026893007331203419 0.0005125791517722625 0 0.02698288965839353 0.00037357821251173218 0 0.027024301027042719 0.00051674984669098712 0 0.022548809638587356 -0.00018407541603836214 0 0.022722570720680027 0.0003269468910638071 0 0.0234694577374439 -0.00012496993397693635 0 0.022722570720680027 0.0003269468910638071 0 0.0234694577374439 -0.00012496993397693635 0 0.023507814937596166 0.00072041504536627635 0 0.0234694577374439 -0.00012496993397693635 0 0.023853925968274993 0.00024359586179331376 0 0.023507814937596166 0.00072041504536627635 0 0.024481409533761656 -9.9353449112595958e-05 0 0.023946127989226611 -0.0013406475375293591 0 0.0234694577374439 -0.00012496993397693635 0 0.024544880503954324 -5.0279358566214248e-05 0 0.02392919834638893 -0.00066028454626744309 0 0.0234694577374439 -0.00012496993397693635 0 0.023853925968274993 0.00024359586179331376 0 0.024544880503954324 -5.0279358566214248e-05 0 0.022792382204543247 -0.00062955828900266241 0 0.0234694577374439 -0.00012496993397693635 0 0.02392919834638893 -0.00066028454626744309 0 0.026625963338581516 -0.0012633993394324931 0 0.027194558086571105 -0.0020648531394050042 0 0.025457540474559583 -0.002348872921842595 0 0.026625963338581516 -0.0012633993394324931 0 0.025362695073396314 -0.001139565057516828 0 0.025457540474559583 -0.002348872921842595 0 0.023880828361781702 -0.0020875684872747415 0 0.025362695073396314 -0.001139565057516828 0 0.025457540474559583 -0.002348872921842595 0 0.024544880503954324 -5.0279358566214248e-05 0 0.023880828361781702 -0.0020875684872747415 0 0.025362695073396314 -0.001139565057516828 0 0.024544880503954324 -5.0279358566214248e-05 0 0.025362695073396314 -0.001139565057516828 0 0.025810234967159926 0.00033566988999000495 0 0.026625963338581516 -0.0012633993394324931 0 0.025362695073396314 -0.001139565057516828 0 0.02706803108866758 -0.00017560368824091121 0 0.025362695073396314 -0.001139565057516828 0 0.02706803108866758 -0.00017560368824091121 0 0.025810234967159926 0.00033566988999000495 0 0.026625963338581516 -0.0012633993394324931 0 0.027902062304737747 -0.00086355064003078004 0 0.02706803108866758 -0.00017560368824091121 0 0.027902062304737747 -0.00086355064003078004 0 0.028954232847109095 -0.00083362232852626469 0 0.028744851014441894 -0.00015166965545606418 0 0.030745606053970188 -0.0017195364279354924 0 0.030510340790922789 -0.0027948154621235078 0 0.031593802596545595 -0.0020906928704605755 0 0.027902062304737747 -0.00086355064003078004 0 0.028954232847109095 -0.00083362232852626469 0 0.028498955159842326 -0.0023338595273453546 0 0.030070318110690088 -0.0010027006553011417 0 0.026794555908134073 -0.0036797895063416528 0 0.026794555908134073 -0.0036797895063416528 0 0.028544416195285017 -0.0031177677491323716 0 0.026625963338581516 -0.0012633993394324931 0 0.027902062304737747 -0.00086355064003078004 0 0.027194558086571105 -0.0020648531394050042 0 0.027902062304737747 -0.00086355064003078004 0 0.027194558086571105 -0.0020648531394050042 0 0.028498955159842326 -0.0023338595273453546 0 0.025549205338763776 -0.0032467792903989792 0 0.026794555908134073 -0.0036797895063416528 0 0.027194558086571105 -0.0020648531394050042 0 0.026728868082945337 -0.0031403367027159545 0 0.028498955159842326 -0.0023338595273453546 0 0.024408880566080031 -0.0035863667858350781 0 0.024447856469966542 -0.0035648754596934468 0 0.024422988091884458 -0.0035757086054365524 0 0.026794555908134073 -0.0036797895063416528 0 0.023920353625675371 -0.0053705450988787385 0 0.023594950843600557 -0.0057390986860130413 0 0.024360717839382855 -0.0068002945109581258 0 0.024813039231250125 -0.0056915579859402442 0 0.023594950843600557 -0.0057390986860130413 0 0.023844126004702777 -0.0067293538524994742 0 0.024360717839382855 -0.0068002945109581258 0 0.023844126004702777 -0.0067293538524994742 0 0.024058207393927396 -0.0067130339288709916 0 0.024360717839382855 -0.0068002945109581258 0 0.023844126004702777 -0.0067293538524994742 0 0.023972593035707038 -0.0065770928560674761 0 0.024006452314326944 -0.0065130598355096795 0 0.023844126004702777 -0.0067293538524994742 0 0.024058207393927396 -0.0067130339288709916 0 0.023972593035707038 -0.0065770928560674761 0 0.024408880566080031 -0.0035863667858350781 0 0.024422988091884458 -0.0035757086054365524 0 0.024383025729178207 -0.0035582383376210197 0 0.024422988091884458 -0.0035757086054365524 0 0.024383025729178207 -0.0035582383376210197 0 0.024453237791865437 -0.0036306063515853183 0 0.024408880566080031 -0.0035863667858350781 0 0.024383025729178207 -0.0035582383376210197 0 0.024545490842245932 -0.0035155506692816029 0 0.025549205338763776 -0.0032467792903989792 0 0.024695456604850795 -0.0035506596302388675 0 0.027194558086571105 -0.0020648531394050042 0 0.026728868082945337 -0.0031403367027159545 0 0.025457540474559583 -0.002348872921842595 0 0.026728868082945337 -0.0031403367027159545 0 0.025457540474559583 -0.002348872921842595 0 0.024545490842245932 -0.0035155506692816029 0 0.024317378995907645 -0.0028715310737079426 0 0.025457540474559583 -0.002348872921842595 0 0.024545490842245932 -0.0035155506692816029 0 0.023880828361781702 -0.0020875684872747415 0 0.024317378995907645 -0.0028715310737079426 0 0.025457540474559583 -0.002348872921842595 0 0.023777914149172394 -0.0035642642619564263 0 0.024545490842245932 -0.0035155506692816029 0 0.024179398938866933 -0.0035965305095722452 0 0.023777914149172394 -0.0035642642619564263 0 0.024179398938866933 -0.0035965305095722452 0 0.023948503090501012 -0.0037786900482935388 0 0.024545490842245932 -0.0035155506692816029 0 0.024179398938866933 -0.0035965305095722452 0 0.024274690309284253 -0.0036130660358425922 0 0.024383025729178207 -0.0035582383376210197 0 0.024545490842245932 -0.0035155506692816029 0 0.024274690309284253 -0.0036130660358425922 0 0.024179398938866933 -0.0035965305095722452 0 0.024274690309284253 -0.0036130660358425922 0 0.023948503090501012 -0.0037786900482935388 0 0.024274690309284253 -0.0036130660358425922 0 0.024099890798118931 -0.0039516630451624825 0 0.024327404815965452 -0.0037865521442206874 0 0.024274690309284253 -0.0036130660358425922 0 0.024099890798118931 -0.0039516630451624825 0 0.023948503090501012 -0.0037786900482935388 0 0.024099890798118931 -0.0039516630451624825 0 0.023948503090501012 -0.0037786900482935388 0 0.023777169487719556 -0.0040212707326015649 0 0.023777914149172394 -0.0035642642619564263 0 0.023948503090501012 -0.0037786900482935388 0 0.023576592423738489 -0.0039575971959783457 0 0.023948503090501012 -0.0037786900482935388 0 0.023576592423738489 -0.0039575971959783457 0 0.023777169487719556 -0.0040212707326015649 0 0.023576592423738489 -0.0039575971959783457 0 0.023568406120657023 -0.0041840975398722948 0 0.023424284982402885 -0.0042204215925723924 0 0.023576592423738489 -0.0039575971959783457 0 0.023568406120657023 -0.0041840975398722948 0 0.023777169487719556 -0.0040212707326015649 0 0.023424284982402885 -0.0042204215925723924 0 0.023424172047118632 -0.0044217875203519819 0 0.023268906207815909 -0.0043810859267531524 0 0.023568406120657023 -0.0041840975398722948 0 0.023424284982402885 -0.0042204215925723924 0 0.023424172047118632 -0.0044217875203519819 0 0.023424172047118632 -0.0044217875203519819 0 0.02364111087112096 -0.0042585175914704549 0 0.023568306313950863 -0.0045111684526022919 0 0.023568406120657023 -0.0041840975398722948 0 0.023424172047118632 -0.0044217875203519819 0 0.02364111087112096 -0.0042585175914704549 0 0.023568406120657023 -0.0041840975398722948 0 0.02364111087112096 -0.0042585175914704549 0 0.023777169487719556 -0.0040212707326015649 0 0.02364111087112096 -0.0042585175914704549 0 0.023777169487719556 -0.0040212707326015649 0 0.023860673150392666 -0.0041982781579606139 0 0.024099890798118931 -0.0039516630451624825 0 0.023777169487719556 -0.0040212707326015649 0 0.023860673150392666 -0.0041982781579606139 0 0.024099890798118931 -0.0039516630451624825 0 0.023860673150392666 -0.0041982781579606139 0 0.024175169600999399 -0.0043960638784034268 0 0.023860673150392666 -0.0041982781579606139 0 0.024175169600999399 -0.0043960638784034268 0 0.023568306313950863 -0.0045111684526022919 0 0.02364111087112096 -0.0042585175914704549 0 0.023860673150392666 -0.0041982781579606139 0 0.023568306313950863 -0.0045111684526022919 0 0.023162074606665747 -0.0051975832263841957 0 0.023350042637986589 -0.0049355834395371934 0 0.023042223526388995 -0.0050492674296614007 0 0.022720294851903411 -0.0051535373161661372 0 0.023350042637986589 -0.0049355834395371934 0 0.023042223526388995 -0.0050492674296614007 0 0.024175169600999399 -0.0043960638784034268 0 0.023568306313950863 -0.0045111684526022919 0 0.023350042637986589 -0.0049355834395371934 0 0.023568306313950863 -0.0045111684526022919 0 0.023350042637986589 -0.0049355834395371934 0 0.023311756933646975 -0.0047540978556660828 0 0.023709511319682328 -0.0047316175153283681 0 0.023422601966852499 -0.004938709207300585 0 0.023113583604499385 -0.00496062632665124 0 0.023350042637986589 -0.0049355834395371934 0 0.023311756933646975 -0.0047540978556660828 0 0.023113583604499385 -0.00496062632665124 0 0.023173987298905359 -0.0048191973494273845 0 0.023311756933646975 -0.0047540978556660828 0 0.023124239175341836 -0.0047680514356602376 0 0.023075891669149137 -0.0048911396272764132 0 0.023173987298905359 -0.0048191973494273845 0 0.023113583604499385 -0.00496062632665124 0 0.023075891669149137 -0.0048911396272764132 0 0.023173987298905359 -0.0048191973494273845 0 0.023173987298905359 -0.0048191973494273845 0 0.02328499935340269 -0.0046496590319580712 0 0.023311756933646975 -0.0047540978556660828 0 0.023124239175341836 -0.0047680514356602376 0 0.023173987298905359 -0.0048191973494273845 0 0.02328499935340269 -0.0046496590319580712 0 0.023124239175341836 -0.0047680514356602376 0 0.02328499935340269 -0.0046496590319580712 0 0.023268906207815909 -0.0043810859267531524 0 0.023424172047118632 -0.0044217875203519819 0 0.02328499935340269 -0.0046496590319580712 0 0.023268906207815909 -0.0043810859267531524 0 0.023424172047118632 -0.0044217875203519819 0 0.02328499935340269 -0.0046496590319580712 0 0.023311756933646975 -0.0047540978556660828 0 0.023424172047118632 -0.0044217875203519819 0 0.023568306313950863 -0.0045111684526022919 0 0.023311756933646975 -0.0047540978556660828 0 0.022326527705298468 -0.0057059384675771175 0 0.022448480103794605 -0.0056458225058119435 0 0.022528757171087575 -0.005851479231851666 0 0.02224172425895787 -0.0054611226439182049 0 0.022326527705298468 -0.0057059384675771175 0 0.022448480103794605 -0.0056458225058119435 0 0.0224622991653892 -0.0054451890682167634 0 0.02224172425895787 -0.0054611226439182049 0 0.022448480103794605 -0.0056458225058119435 0 0.0224622991653892 -0.0054451890682167634 0 0.022448480103794605 -0.0056458225058119435 0 0.022698459679181642 -0.0057196918376591225 0 0.022448480103794605 -0.0056458225058119435 0 0.022698459679181642 -0.0057196918376591225 0 0.022528757171087575 -0.005851479231851666 0 0.023162074606665747 -0.0051975832263841957 0 0.023042223526388995 -0.0050492674296614007 0 0.023001315567659424 -0.005385202719037102 0 0.022794535960957485 -0.0054590788365559287 0 0.023605884190203336 -0.005383784180297428 0 0.022698459679181642 -0.0057196918376591225 0 0.022699582024407281 -0.0060111266137717516 0 0.022528757171087575 -0.005851479231851666 0 0.024099890798118931 -0.0039516630451624825 0 0.024175169600999399 -0.0043960638784034268 0 0.02446787798273253 -0.0040279832594163172 0 0.023709511319682328 -0.0047316175153283681 0 0.023605884190203336 -0.005383784180297428 0 0.022326527705298468 -0.0057059384675771175 0 0.022528757171087575 -0.005851479231851666 0 0.022337764896452478 -0.0059212032699133138 0 0.022699582024407281 -0.0060111266137717516 0 0.022528757171087575 -0.005851479231851666 0 0.0226257342426191 -0.0060359254424629891 0 0.022528757171087575 -0.005851479231851666 0 0.0226257342426191 -0.0060359254424629891 0 0.022337764896452478 -0.0059212032699133138 0 0.0226257342426191 -0.0060359254424629891 0 0.022775883473213587 -0.0061353586664799785 0 0.022681552029980574 -0.0060919261849342 0 0.024235831239493154 -0.0060021165464391631 0 0.024179049778165256 -0.0063712963070200719 0 0.023982894548109451 -0.0063046724168399348 0 0.023605884190203336 -0.005383784180297428 0 0.023316865761524377 -0.006371769827512818 0 0.022699582024407281 -0.0060111266137717516 0 0.0226257342426191 -0.0060359254424629891 0 0.022775883473213587 -0.0061353586664799785 0 0.02446787798273253 -0.0040279832594163172 0 0.024327404815965452 -0.0037865521442206874 0 0.024453237791865437 -0.0036306063515853183 0 0.023605884190203336 -0.005383784180297428 0 0.0243796160561667 -0.0048681952072682977 0 0.024099890798118931 -0.0039516630451624825 0 0.02446787798273253 -0.0040279832594163172 0 0.024327404815965452 -0.0037865521442206874 0 0.023920353625675371 -0.0053705450988787385 0 0.0243796160561667 -0.0048681952072682977 0 0.024274690309284253 -0.0036130660358425922 0 0.024327404815965452 -0.0037865521442206874 0 0.024453237791865437 -0.0036306063515853183 0 0.024383025729178207 -0.0035582383376210197 0 0.024274690309284253 -0.0036130660358425922 0 0.024453237791865437 -0.0036306063515853183 0 0.023844126004702777 -0.0067293538524994742 0 0.024179049778165256 -0.0063712963070200719 0 0.024006452314326944 -0.0065130598355096795 0 0.023972593035707038 -0.0065770928560674761 0 0.023982894548109451 -0.0063046724168399348 0 0.023443830027297018 -0.0065284469492770253 0 0.024179049778165256 -0.0063712963070200719 0 0.023982894548109451 -0.0063046724168399348 0 0.024006452314326944 -0.0065130598355096795 0 0.023972593035707038 -0.0065770928560674761 0 0.023982894548109451 -0.0063046724168399348 0 0.024006452314326944 -0.0065130598355096795 0 0.022775883473213587 -0.0061353586664799785 0 0.022927317348274509 -0.0062022534541329643 0 0.023443830027297018 -0.0065284469492770253 0 0.023316865761524377 -0.006371769827512818 0 0.023397494822571595 -0.0064867807312177349 0 0.022927317348274509 -0.0062022534541329643 0 0.023443830027297018 -0.0065284469492770253 0 0.023099718659636222 -0.0064671992974571933 0 0.026469705946524969 -0.0093508306393709443 0 0.026546433462571194 -0.0077334591738529327 0 0.025575150101933685 -0.0082112386227141156 0 0.023538885124844044 -0.0062221703302024938 0 0.025272286954378748 -0.0058803372083497309 0 0.023538885124844044 -0.0062221703302024938 0 0.024548902038654188 -0.0075491989565551164 0 0.022927317348274509 -0.0062022534541329643 0 0.022724340313321788 -0.0061974647031699283 0 0.023099718659636222 -0.0064671992974571933 0 0.023538885124844044 -0.0062221703302024938 0 0.021944409618263796 -0.0050556520461746959 0 0.021880949426705237 -0.0065462958655818698 0 0.022076423201232747 -0.0062363586337074407 0 0.021546634196031613 -0.0060804290559830195 0 0.023538885124844044 -0.0062221703302024938 0 0.02231252418828468 -0.0062443360711940867 0 0.022927317348274509 -0.0062022534541329643 0 0.022724340313321788 -0.0061974647031699283 0 0.022686281820830215 -0.0060669490145469638 0 0.022775883473213587 -0.0061353586664799785 0 0.022927317348274509 -0.0062022534541329643 0 0.022681552029980574 -0.0060919261849342 0 0.022927317348274509 -0.0062022534541329643 0 0.022686281820830215 -0.0060669490145469638 0 0.022681552029980574 -0.0060919261849342 0 0.022076423201232747 -0.0062363586337074407 0 0.022337764896452478 -0.0059212032699133138 0 0.021864562380210294 -0.0058472924607740947 0 0.0226257342426191 -0.0060359254424629891 0 0.022681552029980574 -0.0060919261849342 0 0.022337764896452478 -0.0059212032699133138 0 0.022686281820830215 -0.0060669490145469638 0 0.022681552029980574 -0.0060919261849342 0 0.022337764896452478 -0.0059212032699133138 0 0.02231252418828468 -0.0062443360711940867 0 0.022416339372133443 -0.0059013815837915921 0 0.022076423201232747 -0.0062363586337074407 0 0.021864562380210294 -0.0058472924607740947 0 0.021546634196031613 -0.0060804290559830195 0 0.021864562380210294 -0.0058472924607740947 0 0.021690390650728628 -0.0055154457042912467 0 0.022048640330421622 -0.0055755455529521991 0 0.021864562380210294 -0.0058472924607740947 0 0.021690390650728628 -0.0055154457042912467 0 0.021570377489276021 -0.0057592202359105938 0 0.02224172425895787 -0.0054611226439182049 0 0.022326527705298468 -0.0057059384675771175 0 0.022048640330421622 -0.0055755455529521991 0 0.022337764896452478 -0.0059212032699133138 0 0.021864562380210294 -0.0058472924607740947 0 0.022048640330421622 -0.0055755455529521991 0 0.022326527705298468 -0.0057059384675771175 0 0.022337764896452478 -0.0059212032699133138 0 0.022048640330421622 -0.0055755455529521991 0 0.021858922426246308 -0.0050054140820702444 0 0.02216516772240739 -0.0051078944848139398 0 0.021394535116610516 -0.0054250514441669768 0 0.021323033079809553 -0.0056779553618888767 0 0.021570377489276021 -0.0057592202359105938 0 0.021394535116610516 -0.0054250514441669768 0 0.021690390650728628 -0.0055154457042912467 0 0.021570377489276021 -0.0057592202359105938 0 0.021323033079809553 -0.0056779553618888767 0 0.021570377489276021 -0.0057592202359105938 0 0.021546634196031613 -0.0060804290559830195 0 0.02216516772240739 -0.0051078944848139398 0 0.021944409618263796 -0.0050556520461746959 0 0.021864562380210294 -0.0058472924607740947 0 0.021570377489276021 -0.0057592202359105938 0 0.021546634196031613 -0.0060804290559830195 0 0.022893392846244125 -0.004448673834333448 0 0.022911228823465257 -0.0044261646304699096 0 0.02297462002250179 -0.0043873672895732426 0 0.022893392846244125 -0.004448673834333448 0 0.022785315471648963 -0.0044527885994811783 0 0.022911228823465257 -0.0044261646304699096 0 0.022911228823465257 -0.0044261646304699096 0 0.02275735393017652 -0.0043673657774143896 0 0.022828970365684993 -0.0043265376780135039 0 0.022785315471648963 -0.0044527885994811783 0 0.022911228823465257 -0.0044261646304699096 0 0.02275735393017652 -0.0043673657774143896 0 0.022628897370021297 -0.0043497217612877949 0 0.022785315471648963 -0.0044527885994811783 0 0.02275735393017652 -0.0043673657774143896 0 0.022628897370021297 -0.0043497217612877949 0 0.02275735393017652 -0.0043673657774143896 0 0.022675058592777544 -0.0041417003529173628 0 0.02275735393017652 -0.0043673657774143896 0 0.022828970365684993 -0.0043265376780135039 0 0.022675058592777544 -0.0041417003529173628 0 0.022828970365684993 -0.0043265376780135039 0 0.022848754643267365 -0.0040759556885365351 0 0.022967174026925351 -0.004450797013945536 0 0.022911228823465257 -0.0044261646304699096 0 0.022828970365684993 -0.0043265376780135039 0 0.022967174026925351 -0.004450797013945536 0 0.022828970365684993 -0.0043265376780135039 0 0.022848754643267365 -0.0040759556885365351 0 0.022675058592777544 -0.0041417003529173628 0 0.022848754643267365 -0.0040759556885365351 0 0.022761083717238947 -0.0038593030567700233 0 0.022675058592777544 -0.0041417003529173628 0 0.022848754643267365 -0.0040759556885365351 0 0.022761083717238947 -0.0038593030567700233 0 0.022968649615766046 -0.0038050684950974938 0 0.028486740453418015 -0.0060376503900199203 0 0.027271579312978602 -0.0064360999888390695 0 0.027553325363803543 -0.0076214730182472233 0 0.025235058453431755 -0.0051777905008614806 0 0.025272286954378748 -0.0058803372083497309 0 0.028486740453418015 -0.0060376503900199203 0 0.027271579312978602 -0.0064360999888390695 0 0.027770608330872817 -0.005268642077153495 0 0.027271579312978602 -0.0064360999888390695 0 0.027553325363803543 -0.0076214730182472233 0 0.026546433462571194 -0.0077334591738529327 0 0.026469705946524969 -0.0093508306393709443 0 0.027553325363803543 -0.0076214730182472233 0 0.026546433462571194 -0.0077334591738529327 0 0.027271579312978602 -0.0064360999888390695 0 0.026546433462571194 -0.0077334591738529327 0 0.026180856157648758 -0.006902044930482419 0 0.026546433462571194 -0.0077334591738529327 0 0.025575150101933685 -0.0082112386227141156 0 0.025712092511641135 -0.0074306613648129375 0 0.026546433462571194 -0.0077334591738529327 0 0.025712092511641135 -0.0074306613648129375 0 0.026180856157648758 -0.006902044930482419 0 0.025712092511641135 -0.0074306613648129375 0 0.024360717839382855 -0.0068002945109581258 0 0.026180856157648758 -0.006902044930482419 0 0.024058207393927396 -0.0067130339288709916 0 0.023972593035707038 -0.0065770928560674761 0 0.023443830027297018 -0.0065284469492770253 0 0.023443830027297018 -0.0065284469492770253 0 0.023099718659636222 -0.0064671992974571933 0 0.024360717839382855 -0.0068002945109581258 0 0.024548902038654188 -0.0075491989565551164 0 0.024185792531426369 -0.0067457173617866744 0 0.025575150101933685 -0.0082112386227141156 0 0.025712092511641135 -0.0074306613648129375 0 0.024360717839382855 -0.0068002945109581258 0 0.024058207393927396 -0.0067130339288709916 0 0.023443830027297018 -0.0065284469492770253 0 0.024360717839382855 -0.0068002945109581258 0 0.024360717839382855 -0.0068002945109581258 0 0.026180856157648758 -0.006902044930482419 0 0.026177682985366931 -0.0059719919919464914 0 0.024360717839382855 -0.0068002945109581258 0 0.024813039231250125 -0.0056915579859402442 0 0.026177682985366931 -0.0059719919919464914 0 0.027271579312978602 -0.0064360999888390695 0 0.026180856157648758 -0.006902044930482419 0 0.026177682985366931 -0.0059719919919464914 0 0.027271579312978602 -0.0064360999888390695 0 0.026177682985366931 -0.0059719919919464914 0 0.027770608330872817 -0.005268642077153495 0 0.02621406436707115 -0.0060083976332685829 0 0.029574289859321756 -0.0050363057530872432 0 0.026177682985366931 -0.0059719919919464914 0 0.027739626128119359 -0.0043010676409667428 0 0.030379055361556384 -0.0050014258730738401 0 0.026177682985366931 -0.0059719919919464914 0 0.027739626128119359 -0.0043010676409667428 0 0.025369001658070503 -0.0040142049077841156 0 0.023594950843600557 -0.0057390986860130413 0 0.024813039231250125 -0.0056915579859402442 0 0.025369001658070503 -0.0040142049077841156 0 0.024813039231250125 -0.0056915579859402442 0 0.026177682985366931 -0.0059719919919464914 0 0.025369001658070503 -0.0040142049077841156 0 0.030745606053970188 -0.0017195364279354924 0 0.031593802596545595 -0.0020906928704605755 0 0.031661870945284415 -0.0010994216481395964 0 0.028544416195285017 -0.0031177677491323716 0 0.030758853382076411 -0.0016427190610126931 0 0.031593802596545595 -0.0020906928704605755 0 0.032570605785582497 -0.001301563618030425 0 0.031661870945284415 -0.0010994216481395964 0 0.027739626128119359 -0.0043010676409667428 0 0.025369001658070503 -0.0040142049077841156 0 0.028970969305303421 -0.0019030536789218175 0 0.028970969305303421 -0.0019030536789218175 0 0.031737362577944642 -0.0025230585730482125 0 0.032852590834975277 -0.00065373380017387961 0 0.028970969305303421 -0.0019030536789218175 0 0.031737362577944642 -0.0025230585730482125 0 0.030379055361556384 -0.0050014258730738401 0 0.031737362577944642 -0.0025230585730482125 0 0.030379055361556384 -0.0050014258730738401 0 0.033813608958668577 -0.0033909127255443562 0 0.031737362577944642 -0.0025230585730482125 0 0.033519796481164828 -0.0016486421658917863 0 0.033813608958668577 -0.0033909127255443562 0 0.022761083717238947 -0.0038593030567700233 0 0.022968649615766046 -0.0038050684950974938 0 0.022925519492667586 -0.0035302967626146182 0 0.029574289859321756 -0.0050363057530872432 0 0.028885781880218748 -0.0035379912416248576 0 0.028486740453418015 -0.0060376503900199203 0 0.027770608330872817 -0.005268642077153495 0 0.029413508561744458 -0.0045512098100344628 0 0.025235058453431755 -0.0051777905008614806 0 0.028885781880218748 -0.0035379912416248576 0 0.027739626128119359 -0.0043010676409667428 0 0.028970969305303421 -0.0019030536789218175 0 0.030379055361556384 -0.0050014258730738401 0 0.033009302553807435 -0.00027602092570436898 0 0.032724501884349347 -0.00039015335113684667 0 0.032921406302277689 -0.00020118768985037287 0 0.033009302553807435 -0.00027602092570436898 0 0.032976659455520238 -0.00039914946653612973 0 0.032774612258015305 -0.00062710520321655305 0 0.033009302553807435 -0.00027602092570436898 0 0.032724501884349347 -0.00039015335113684667 0 0.032774612258015305 -0.00062710520321655305 0 0.032724501884349347 -0.00039015335113684667 0 0.032777408566449166 -0.00010545361801486989 0 0.032449073206449575 -0.00026606347065936443 0 0.032724501884349347 -0.00039015335113684667 0 0.032777408566449166 -0.00010545361801486989 0 0.032921406302277689 -0.00020118768985037287 0 0.032777408566449166 -0.00010545361801486989 0 0.032921406302277689 -0.00020118768985037287 0 0.033044150978684628 -2.3856954106462405e-05 0 0.032921406302277689 -0.00020118768985037287 0 0.033105164569012253 -0.00012822916453980444 0 0.033044150978684628 -2.3856954106462405e-05 0 0.033009302553807435 -0.00027602092570436898 0 0.032921406302277689 -0.00020118768985037287 0 0.033105164569012253 -0.00012822916453980444 0 0.033009302553807435 -0.00027602092570436898 0 0.033275040945153531 -0.00012518019818179695 0 0.033217752639077003 -8.6927833647015883e-05 0 0.033275040945153531 -0.00012518019818179695 0 0.033531937748815556 6.1533946589627315e-05 0 0.033705046477848638 -2.3803468451884494e-05 0 0.033275040945153531 -0.00012518019818179695 0 0.033217752639077003 -8.6927833647015883e-05 0 0.033006471133420263 -0.00018043042427266627 0 0.033105164569012253 -0.00012822916453980444 0 0.033275040945153531 -0.00012518019818179695 0 0.033304945175861071 2.316228037049677e-05 0 0.033009302553807435 -0.00027602092570436898 0 0.033105164569012253 -0.00012822916453980444 0 0.033275040945153531 -0.00012518019818179695 0 0.033217752639077003 -8.6927833647015883e-05 0 0.032976659455520238 -0.00039914946653612973 0 0.033816648696317293 -0.00073674503047018748 0 0.033009302553807435 -0.00027602092570436898 0 0.033217752639077003 -8.6927833647015883e-05 0 0.032976659455520238 -0.00039914946653612973 0 0.031737362577944642 -0.0025230585730482125 0 0.032852590834975277 -0.00065373380017387961 0 0.033519796481164828 -0.0016486421658917863 0 0.032976659455520238 -0.00039914946653612973 0 0.032852590834975277 -0.00065373380017387961 0 0.032774612258015305 -0.00062710520321655305 0 0.032976659455520238 -0.00039914946653612973 0 0.032852590834975277 -0.00065373380017387961 0 0.033816648696317293 -0.00073674503047018748 0 0.032852590834975277 -0.00065373380017387961 0 0.033519796481164828 -0.0016486421658917863 0 0.033816648696317293 -0.00073674503047018748 0 0.032570605785582497 -0.001301563618030425 0 0.032852590834975277 -0.00065373380017387961 0 0.032774612258015305 -0.00062710520321655305 0 0.032570605785582497 -0.001301563618030425 0 0.032774612258015305 -0.00062710520321655305 0 0.032420615906139941 -0.00067228114802334721 0 0.030758853382076411 -0.0016427190610126931 0 0.032636124058959104 -0.000712917812102877 0 0.032724501884349347 -0.00039015335113684667 0 0.032774612258015305 -0.00062710520321655305 0 0.032420615906139941 -0.00067228114802334721 0 0.032420615906139941 -0.00067228114802334721 0 0.031661870945284415 -0.0010994216481395964 0 0.031965035383757036 -0.00040245877734212851 0 0.032570605785582497 -0.001301563618030425 0 0.032420615906139941 -0.00067228114802334721 0 0.031661870945284415 -0.0010994216481395964 0 0.031661870945284415 -0.0010994216481395964 0 0.031482266664480452 -0.00060507587454023597 0 0.031965035383757036 -0.00040245877734212851 0 0.031661870945284415 -0.0010994216481395964 0 0.031482266664480452 -0.00060507587454023597 0 0.030944069346210849 -0.00080318948173517567 0 0.031462740185732758 -0.00010942577861712575 0 0.030792268575617517 0.0005171351336679612 0 0.030944069346210849 -0.00080318948173517567 0 0.031482266664480452 -0.00060507587454023597 0 0.031462740185732758 -0.00010942577861712575 0 0.030944069346210849 -0.00080318948173517567 0 0.031482266664480452 -0.00060507587454023597 0 0.031965035383757036 -0.00040245877734212851 0 0.031462740185732758 -0.00010942577861712575 0 0.031965035383757036 -0.00040245877734212851 0 0.031462740185732758 -0.00010942577861712575 0 0.031941481535775099 0.00017826491081797229 0 0.031462740185732758 -0.00010942577861712575 0 0.031511524277699363 0.00028743624615863136 0 0.031941481535775099 0.00017826491081797229 0 0.031462740185732758 -0.00010942577861712575 0 0.031511524277699363 0.00028743624615863136 0 0.030792268575617517 0.0005171351336679612 0 0.032724501884349347 -0.00039015335113684667 0 0.032420615906139941 -0.00067228114802334721 0 0.032449073206449575 -0.00026606347065936443 0 0.032420615906139941 -0.00067228114802334721 0 0.031965035383757036 -0.00040245877734212851 0 0.032449073206449575 -0.00026606347065936443 0 0.031965035383757036 -0.00040245877734212851 0 0.032312043425986092 -6.9466000949228714e-06 0 0.031941481535775099 0.00017826491081797229 0 0.031965035383757036 -0.00040245877734212851 0 0.032449073206449575 -0.00026606347065936443 0 0.032312043425986092 -6.9466000949228714e-06 0 0.032449073206449575 -0.00026606347065936443 0 0.032312043425986092 -6.9466000949228714e-06 0 0.032627421642779313 0.00010169300273485717 0 0.032777408566449166 -0.00010545361801486989 0 0.032449073206449575 -0.00026606347065936443 0 0.032627421642779313 0.00010169300273485717 0 0.032627421642779313 0.00010169300273485717 0 0.032782301177298662 0.00028518714345909286 0 0.032948096282126083 0.00012545094776474655 0 0.032312043425986092 -6.9466000949228714e-06 0 0.0323405620998218 0.00037878549922779617 0 0.031941481535775099 0.00017826491081797229 0 0.032312043425986092 -6.9466000949228714e-06 0 0.032627421642779313 0.00010169300273485717 0 0.0323405620998218 0.00037878549922779617 0 0.0323405620998218 0.00037878549922779617 0 0.032782301177298662 0.00028518714345909286 0 0.032744428962707829 0.00047799224372129879 0 0.032627421642779313 0.00010169300273485717 0 0.0323405620998218 0.00037878549922779617 0 0.032782301177298662 0.00028518714345909286 0 0.031732533047486466 0.00047357510182543437 0 0.031922979573770577 0.00068095281415367934 0 0.030792268575617517 0.0005171351336679612 0 0.031511524277699363 0.00028743624615863136 0 0.031732533047486466 0.00047357510182543437 0 0.030792268575617517 0.0005171351336679612 0 0.0323405620998218 0.00037878549922779617 0 0.031732533047486466 0.00047357510182543437 0 0.031941481535775099 0.00017826491081797229 0 0.031511524277699363 0.00028743624615863136 0 0.031732533047486466 0.00047357510182543437 0 0.031941481535775099 0.00017826491081797229 0 0.0323405620998218 0.00037878549922779617 0 0.031732533047486466 0.00047357510182543437 0 0.031922979573770577 0.00068095281415367934 0 0.031036963291004024 0.0011753002474251377 0 0.031753513587238782 0.0018026392282113723 0 0.031922979573770577 0.00068095281415367934 0 0.032744428962707829 0.00047799224372129879 0 0.032862869313493172 0.00062673678430572 0 0.030326751817616598 0.001843349553030569 0 0.030823348444168827 0.0028450259735882727 0 0.029691793773031116 0.0023979858424568782 0 0.0323405620998218 0.00037878549922779617 0 0.031922979573770577 0.00068095281415367934 0 0.032744428962707829 0.00047799224372129879 0 0.032744428962707829 0.00047799224372129879 0 0.033270133254962482 0.00042242301863425002 0 0.033204885918099766 0.00027181304950636053 0 0.032744428962707829 0.00047799224372129879 0 0.033270133254962482 0.00042242301863425002 0 0.032862869313493172 0.00062673678430572 0 0.032782301177298662 0.00028518714345909286 0 0.032744428962707829 0.00047799224372129879 0 0.033204885918099766 0.00027181304950636053 0 0.033270133254962482 0.00042242301863425002 0 0.033204885918099766 0.00027181304950636053 0 0.033786963357176403 0.00022033992361081435 0 0.033204885918099766 0.00027181304950636053 0 0.033201207225151512 0.00011609852975960053 0 0.032948096282126083 0.00012545094776474655 0 0.032782301177298662 0.00028518714345909286 0 0.033204885918099766 0.00027181304950636053 0 0.032948096282126083 0.00012545094776474655 0 0.033204885918099766 0.00027181304950636053 0 0.033201207225151512 0.00011609852975960053 0 0.033478704194610007 0.00015440565012554195 0 0.033201207225151512 0.00011609852975960053 0 0.033044150978684628 -2.3856954106462405e-05 0 0.032948096282126083 0.00012545094776474655 0 0.033105164569012253 -0.00012822916453980444 0 0.033044150978684628 -2.3856954106462405e-05 0 0.033304945175861071 2.316228037049677e-05 0 0.033201207225151512 0.00011609852975960053 0 0.033044150978684628 -2.3856954106462405e-05 0 0.033304945175861071 2.316228037049677e-05 0 0.032777408566449166 -0.00010545361801486989 0 0.032627421642779313 0.00010169300273485717 0 0.032948096282126083 0.00012545094776474655 0 0.032777408566449166 -0.00010545361801486989 0 0.033044150978684628 -2.3856954106462405e-05 0 0.032948096282126083 0.00012545094776474655 0 0.033531937748815556 6.1533946589627315e-05 0 0.033478704194610007 0.00015440565012554195 0 0.03368818648925026 0.00017119531956021067 0 0.033531937748815556 6.1533946589627315e-05 0 0.033304945175861071 2.316228037049677e-05 0 0.033478704194610007 0.00015440565012554195 0 0.033275040945153531 -0.00012518019818179695 0 0.033531937748815556 6.1533946589627315e-05 0 0.033304945175861071 2.316228037049677e-05 0 0.033201207225151512 0.00011609852975960053 0 0.033304945175861071 2.316228037049677e-05 0 0.033478704194610007 0.00015440565012554195 0 0.033478704194610007 0.00015440565012554195 0 0.033786963357176403 0.00022033992361081435 0 0.03368818648925026 0.00017119531956021067 0 0.033204885918099766 0.00027181304950636053 0 0.033478704194610007 0.00015440565012554195 0 0.033786963357176403 0.00022033992361081435 0 0.033786963357176403 0.00022033992361081435 0 0.033638062347836721 0.00046395158580994021 0 0.034163849019667798 0.00045395926708437126 0 0.033786963357176403 0.00022033992361081435 0 0.034163849019667798 0.00045395926708437126 0 0.03434340795072386 0.00028640394415733252 0 0.033270133254962482 0.00042242301863425002 0 0.033786963357176403 0.00022033992361081435 0 0.033638062347836721 0.00046395158580994021 0 0.033773439714083663 0.00055396580236214148 0 0.034163849019667798 0.00045395926708437126 0 0.034311775580593007 0.00054770247377565083 0 0.033638062347836721 0.00046395158580994021 0 0.033773439714083663 0.00055396580236214148 0 0.034163849019667798 0.00045395926708437126 0 0.034163849019667798 0.00045395926708437126 0 0.03434340795072386 0.00028640394415733252 0 0.034575550055636575 0.00029698794857512803 0 0.034163849019667798 0.00045395926708437126 0 0.034598891196635777 0.00027362758177324256 0 0.034575550055636575 0.00029698794857512803 0 0.034598891196635777 0.00027362758177324256 0 0.034784036996987434 0.00017103516027839512 0 0.034575550055636575 0.00029698794857512803 0 0.034163849019667798 0.00045395926708437126 0 0.034598891196635777 0.00027362758177324256 0 0.034311775580593007 0.00054770247377565083 0 0.034629270395387733 0.00022596580046713711 0 0.034872502612746152 7.2362810674206295e-05 0 0.034788376335662952 0.00019271364518412223 0 0.034311775580593007 0.00054770247377565083 0 0.034629270395387733 0.00022596580046713711 0 0.034788376335662952 0.00019271364518412223 0 0.034598891196635777 0.00027362758177324256 0 0.034311775580593007 0.00054770247377565083 0 0.034629270395387733 0.00022596580046713711 0 0.034629270395387733 0.00022596580046713711 0 0.034999370503852933 1.5794288621583602e-07 0 0.034872502612746152 7.2362810674206295e-05 0 0.034999370503852933 1.5794288621583602e-07 0 0.034999909491009291 3.1102699092491171e-08 0 0.034872502612746152 7.2362810674206295e-05 0 0.034598891196635777 0.00027362758177324256 0 0.034629270395387733 0.00022596580046713711 0 0.034999370503852933 1.5794288621583602e-07 0 0.034598891196635777 0.00027362758177324256 0 0.034999370503852933 1.5794288621583602e-07 0 0.034784036996987434 0.00017103516027839512 0 0.034999909491009291 3.1102699092491171e-08 0 0.034962006742220164 7.1917968962675988e-05 0 0.034999970462301105 4.3090963898141847e-08 0 0.034999909491009291 3.1102699092491171e-08 0 0.034919691602833085 8.4859419709025559e-05 0 0.034962006742220164 7.1917968962675988e-05 0 0.034999909491009291 3.1102699092491171e-08 0 0.034872502612746152 7.2362810674206295e-05 0 0.034919691602833085 8.4859419709025559e-05 0 0.034872502612746152 7.2362810674206295e-05 0 0.034919691602833085 8.4859419709025559e-05 0 0.034788376335662952 0.00019271364518412223 0 0.034911547599366571 0.0001335287247239206 0 0.034935181489820159 0.00011850920423975308 0 0.034882457767788019 0.0001732635246243538 0 0.034919691602833085 8.4859419709025559e-05 0 0.034911547599366571 0.0001335287247239206 0 0.034788376335662952 0.00019271364518412223 0 0.034311775580593007 0.00054770247377565083 0 0.034788376335662952 0.00019271364518412223 0 0.035097836096263872 0.00094127783428081286 0 0.034560261756112216 0.00029206865429770264 0 0.033417492588491943 0.0015402238630705346 0 0.034911547599366571 0.0001335287247239206 0 0.034788376335662952 0.00019271364518412223 0 0.034882457767788019 0.0001732635246243538 0 0.034962006742220164 7.1917968962675988e-05 0 0.034935181489820159 0.00011850920423975308 0 0.034961885378116411 8.1249103537284114e-05 0 0.034911547599366571 0.0001335287247239206 0 0.034962006742220164 7.1917968962675988e-05 0 0.034935181489820159 0.00011850920423975308 0 0.034919691602833085 8.4859419709025559e-05 0 0.034911547599366571 0.0001335287247239206 0 0.034962006742220164 7.1917968962675988e-05 0 0.034935181489820159 0.00011850920423975308 0 0.034882457767788019 0.0001732635246243538 0 0.034936114570573017 0.00011612625269011402 0 0.031340322204331125 0.0038522276334006025 0 0.030823348444168827 0.0028450259735882727 0 0.030023105939232009 0.0032811355190809667 0 0.033417492588491943 0.0015402238630705346 0 0.032375485335471348 0.001744881221682585 0 0.033773439714083663 0.00055396580236214148 0 0.033586601128383839 0.00070688865864219062 0 0.032862869313493172 0.00062673678430572 0 0.033417492588491943 0.0015402238630705346 0 0.031753513587238782 0.0018026392282113723 0 0.033773439714083663 0.00055396580236214148 0 0.034311775580593007 0.00054770247377565083 0 0.033586601128383839 0.00070688865864219062 0 0.034293178574375173 0.00084157363262790555 0 0.033417492588491943 0.0015402238630705346 0 0.033270133254962482 0.00042242301863425002 0 0.033638062347836721 0.00046395158580994021 0 0.032862869313493172 0.00062673678430572 0 0.033638062347836721 0.00046395158580994021 0 0.033773439714083663 0.00055396580236214148 0 0.032862869313493172 0.00062673678430572 0 0.030823348444168827 0.0028450259735882727 0 0.030023105939232009 0.0032811355190809667 0 0.029691793773031116 0.0023979858424568782 0 0.028706901494138164 0.0026544387225035299 0 0.030023105939232009 0.0032811355190809667 0 0.029691793773031116 0.0023979858424568782 0 0.032070607780157898 0.0013963282218194938 0 0.032375485335471348 0.001744881221682585 0 0.034917785494659771 8.6848783347831188e-05 0 0.034944508157165773 9.0522715828205262e-05 0 0.034936114570573017 0.00011612625269011402 0 0.034917785494659771 8.6848783347831188e-05 0 0.034944508157165773 9.0522715828205262e-05 0 0.0349433566749935 7.9294908041620835e-05 0 0.034944508157165773 9.0522715828205262e-05 0 0.03496136541972264 6.8878945285166115e-05 0 0.0349433566749935 7.9294908041620835e-05 0 0.034935181489820159 0.00011850920423975308 0 0.034936114570573017 0.00011612625269011402 0 0.034961885378116411 8.1249103537284114e-05 0 0.034944508157165773 9.0522715828205262e-05 0 0.034936114570573017 0.00011612625269011402 0 0.034961885378116411 8.1249103537284114e-05 0 0.034961885378116411 8.1249103537284114e-05 0 0.03496136541972264 6.8878945285166115e-05 0 0.034981352529103643 3.9588298043600177e-05 0 0.034944508157165773 9.0522715828205262e-05 0 0.034961885378116411 8.1249103537284114e-05 0 0.03496136541972264 6.8878945285166115e-05 0 0.03496136541972264 6.8878945285166115e-05 0 0.034981352529103643 3.9588298043600177e-05 0 0.034974894527581971 4.6238049921067768e-05 0 0.034981352529103643 3.9588298043600177e-05 0 0.034999970462301105 4.3090963898141847e-08 0 0.034999960071513646 7.6793381014202066e-08 0 0.034962006742220164 7.1917968962675988e-05 0 0.034961885378116411 8.1249103537284114e-05 0 0.034999970462301105 4.3090963898141847e-08 0 0.034961885378116411 8.1249103537284114e-05 0 0.034981352529103643 3.9588298043600177e-05 0 0.034999970462301105 4.3090963898141847e-08 0 0.034999975456463925 3.2128656761373073e-08 0 0.034979710724769228 1.9840705231237398e-05 0 0.034974278503476355 2.6869950528660606e-05 0 0.034999982419401242 7.6198845028044907e-09 0 0.034971112875474081 3.9102878139804117e-05 0 0.034999835060734147 -2.0423529464691682e-07 0 0.035191452271162979 0.00012164690272702991 0 0.034999975456463925 3.2128656761373073e-08 0 0.03499999661549015 -1.5538901930151224e-08 0 0.034979710724769228 1.9840705231237398e-05 0 0.034999960071513646 7.6793381014202066e-08 0 0.034974894527581971 4.6238049921067768e-05 0 0.034964222970574964 5.9458029155848504e-05 0 0.034981352529103643 3.9588298043600177e-05 0 0.034999960071513646 7.6793381014202066e-08 0 0.034974894527581971 4.6238049921067768e-05 0 0.03496136541972264 6.8878945285166115e-05 0 0.034974894527581971 4.6238049921067768e-05 0 0.034956363406899428 6.5432564904423294e-05 0 0.034974894527581971 4.6238049921067768e-05 0 0.034956363406899428 6.5432564904423294e-05 0 0.034964222970574964 5.9458029155848504e-05 0 0.034964222970574964 5.9458029155848504e-05 0 0.034944835520568721 6.768557664164745e-05 0 0.034940350293782584 6.5998996074326225e-05 0 0.034956363406899428 6.5432564904423294e-05 0 0.034964222970574964 5.9458029155848504e-05 0 0.034944835520568721 6.768557664164745e-05 0 0.034956363406899428 6.5432564904423294e-05 0 0.034944835520568721 6.768557664164745e-05 0 0.034936629597833641 7.4711496727571764e-05 0 0.034944835520568721 6.768557664164745e-05 0 0.034936629597833641 7.4711496727571764e-05 0 0.034930148241734904 7.5166965388587462e-05 0 0.03496136541972264 6.8878945285166115e-05 0 0.034956363406899428 6.5432564904423294e-05 0 0.0349433566749935 7.9294908041620835e-05 0 0.034956363406899428 6.5432564904423294e-05 0 0.034936629597833641 7.4711496727571764e-05 0 0.0349433566749935 7.9294908041620835e-05 0 0.034936629597833641 7.4711496727571764e-05 0 0.0349433566749935 7.9294908041620835e-05 0 0.034926556218259984 8.2017850690961437e-05 0 0.034917785494659771 8.6848783347831188e-05 0 0.034926556218259984 8.2017850690961437e-05 0 0.034911405790839151 8.5640216339325184e-05 0 0.034917785494659771 8.6848783347831188e-05 0 0.0349433566749935 7.9294908041620835e-05 0 0.034926556218259984 8.2017850690961437e-05 0 0.034917785494659771 8.6848783347831188e-05 0 0.034911405790839151 8.5640216339325184e-05 0 0.034884106104058919 9.1964551165201142e-05 0 0.034930148241734904 7.5166965388587462e-05 0 0.034911405790839151 8.5640216339325184e-05 0 0.034915662909619179 8.6942674056460491e-05 0 0.034936629597833641 7.4711496727571764e-05 0 0.034930148241734904 7.5166965388587462e-05 0 0.034911405790839151 8.5640216339325184e-05 0 0.034936629597833641 7.4711496727571764e-05 0 0.034926556218259984 8.2017850690961437e-05 0 0.034911405790839151 8.5640216339325184e-05 0 0.034911405790839151 8.5640216339325184e-05 0 0.034884106104058919 9.1964551165201142e-05 0 0.034915662909619179 8.6942674056460491e-05 0 0.030014393025645725 0.001126732771131337 0 0.031531504060642479 9.8453275498998208e-05 0 0.027463946674724175 0.0010187152082890116 0 0.027820484567854725 0.0011815804188616069 0 0.027683797977106281 0.0014465410912478886 0 0.027463946674724175 0.0010187152082890116 0 0.027683797977106281 0.0014465410912478886 0 0.027512836053126571 0.0014755695074280318 0 0.027494274340717533 0.0010180971273983498 0 0.027820484567854725 0.0011815804188616069 0 0.028136488392155944 0.00085456952054277545 0 0.030014393025645725 0.001126732771131337 0 0.028084952419270347 0.00068668585953638546 0 0.027463946674724175 0.0010187152082890116 0 0.027336495833495802 0.001739637548093234 0 0.026917671869810814 0.0022408346570023494 0 0.027820484567854725 0.0011815804188616069 0 0.027683797977106281 0.0014465410912478886 0 0.027873938949277748 0.001589580129577593 0 0.027585173353459422 0.0016756891666894135 0 0.027683797977106281 0.0014465410912478886 0 0.027873938949277748 0.001589580129577593 0 0.027585173353459422 0.0016756891666894135 0 0.027682812561125016 0.0018660769481900403 0 0.027873938949277748 0.001589580129577593 0 0.027585173353459422 0.0016756891666894135 0 0.027683797977106281 0.0014465410912478886 0 0.027512836053126571 0.0014755695074280318 0 0.027463946674724175 0.0010187152082890116 0 0.027512836053126571 0.0014755695074280318 0 0.027336495833495802 0.001739637548093234 0 0.027585173353459422 0.0016756891666894135 0 0.027512836053126571 0.0014755695074280318 0 0.027336495833495802 0.001739637548093234 0 0.027585173353459422 0.0016756891666894135 0 0.027336495833495802 0.001739637548093234 0 0.027455494599519566 0.0019074127337900123 0 0.027336495833495802 0.001739637548093234 0 0.027455494599519566 0.0019074127337900123 0 0.027199308388641916 0.0020214778168172161 0 0.027455494599519566 0.0019074127337900123 0 0.027199308388641916 0.0020214778168172161 0 0.027304295790750679 0.0020617759358180152 0 0.027455494599519566 0.0019074127337900123 0 0.027556649289086039 0.0020207430534664689 0 0.027430540500177954 0.0020634712728224295 0 0.027455494599519566 0.0019074127337900123 0 0.027430540500177954 0.0020634712728224295 0 0.027304295790750679 0.0020617759358180152 0 0.027455494599519566 0.0019074127337900123 0 0.027556649289086039 0.0020207430534664689 0 0.027682812561125016 0.0018660769481900403 0 0.027556649289086039 0.0020207430534664689 0 0.027707179943818411 0.0020349810177732594 0 0.027682812561125016 0.0018660769481900403 0 0.027707179943818411 0.0020349810177732594 0 0.027682812561125016 0.0018660769481900403 0 0.027947149412468002 0.0019677026452470854 0 0.027585173353459422 0.0016756891666894135 0 0.027455494599519566 0.0019074127337900123 0 0.027682812561125016 0.0018660769481900403 0 0.030014393025645725 0.001126732771131337 0 0.027183145518580563 0.0017915071439400085 0 0.027504483927113393 0.0020297169971122547 0 0.02826577873726023 0.0010724990809768294 0 0.028180699135393908 0.0015715798690506164 0 0.02826577873726023 0.0010724990809768294 0 0.028594332717361469 0.0013159475031493321 0 0.028537389514488136 0.00095539257265049625 0 0.02826577873726023 0.0010724990809768294 0 0.028180699135393908 0.0015715798690506164 0 0.028594332717361469 0.0013159475031493321 0 0.027336495833495802 0.001739637548093234 0 0.026917671869810814 0.0022408346570023494 0 0.027199308388641916 0.0020214778168172161 0 0.026917671869810814 0.0022408346570023494 0 0.027199308388641916 0.0020214778168172161 0 0.027110342298384171 0.0020791398251450454 0 0.027199308388641916 0.0020214778168172161 0 0.027304295790750679 0.0020617759358180152 0 0.027110342298384171 0.0020791398251450454 0 0.028180699135393908 0.0015715798690506164 0 0.028290769723482712 0.0018719000416209074 0 0.028594332717361469 0.0013159475031493321 0 0.028706901494138164 0.0026544387225035299 0 0.027504483927113393 0.0020297169971122547 0 0.028290769723482712 0.0018719000416209074 0 0.032070607780157898 0.0013963282218194938 0 0.030014393025645725 0.001126732771131337 0 0.027504483927113393 0.0020297169971122547 0 0.028180699135393908 0.0015715798690506164 0 0.028290769723482712 0.0018719000416209074 0 0.028706901494138164 0.0026544387225035299 0 0.029691793773031116 0.0023979858424568782 0 0.029035043237335922 0.0016943330345052638 0 0.028706901494138164 0.0026544387225035299 0 0.028290769723482712 0.0018719000416209074 0 0.029035043237335922 0.0016943330345052638 0 0.029691793773031116 0.0023979858424568782 0 0.029666696842022739 0.0016738109882777372 0 0.029035043237335922 0.0016943330345052638 0 0.030326751817616598 0.001843349553030569 0 0.029691793773031116 0.0023979858424568782 0 0.029666696842022739 0.0016738109882777372 0 0.031036963291004024 0.0011753002474251377 0 0.030106440969982239 0.00051188421155935423 0 0.030326751817616598 0.001843349553030569 0 0.029666696842022739 0.0016738109882777372 0 0.029956930997864874 0.0006147573062144021 0 0.029666696842022739 0.0016738109882777372 0 0.029332333024432139 0.0012230244188927626 0 0.029956930997864874 0.0006147573062144021 0 0.031922979573770577 0.00068095281415367934 0 0.030792268575617517 0.0005171351336679612 0 0.029956930997864874 0.0006147573062144021 0 0.029666696842022739 0.0016738109882777372 0 0.029332333024432139 0.0012230244188927626 0 0.029035043237335922 0.0016943330345052638 0 0.028290769723482712 0.0018719000416209074 0 0.029035043237335922 0.0016943330345052638 0 0.028594332717361469 0.0013159475031493321 0 0.029035043237335922 0.0016943330345052638 0 0.028907947930683558 0.0012020793688881511 0 0.028594332717361469 0.0013159475031493321 0 0.029332333024432139 0.0012230244188927626 0 0.029035043237335922 0.0016943330345052638 0 0.028907947930683558 0.0012020793688881511 0 0.029332333024432139 0.0012230244188927626 0 0.028907947930683558 0.0012020793688881511 0 0.029246874878020485 0.00080380321407522973 0 0.028907947930683558 0.0012020793688881511 0 0.028594332717361469 0.0013159475031493321 0 0.028537389514488136 0.00095539257265049625 0 0.027183145518580563 0.0017915071439400085 0 0.028431975315270808 0.00043048193800500177 0 0.02826577873726023 0.0010724990809768294 0 0.028537389514488136 0.00095539257265049625 0 0.02830301533345906 0.00046534490816687023 0 0.028537389514488136 0.00095539257265049625 0 0.028780458686116034 0.00079189852633587709 0 0.02830301533345906 0.00046534490816687023 0 0.028780458686116034 0.00079189852633587709 0 0.029246874878020485 0.00080380321407522973 0 0.029058777035684193 0.00051448014908110368 0 0.028907947930683558 0.0012020793688881511 0 0.028537389514488136 0.00095539257265049625 0 0.028780458686116034 0.00079189852633587709 0 0.028907947930683558 0.0012020793688881511 0 0.028780458686116034 0.00079189852633587709 0 0.029246874878020485 0.00080380321407522973 0 0.028780458686116034 0.00079189852633587709 0 0.029058777035684193 0.00051448014908110368 0 0.02830301533345906 0.00046534490816687023 0 0.030792268575617517 0.0005171351336679612 0 0.029956930997864874 0.0006147573062144021 0 0.029416598492126522 0.00022709709694496879 0 0.029956930997864874 0.0006147573062144021 0 0.029058777035684193 0.00051448014908110368 0 0.029416598492126522 0.00022709709694496879 0 0.03068762131835422 0.00060475519346526118 0 0.030213457164296707 -0.00029491492325240255 0 0.029332333024432139 0.0012230244188927626 0 0.029956930997864874 0.0006147573062144021 0 0.029246874878020485 0.00080380321407522973 0 0.029956930997864874 0.0006147573062144021 0 0.029246874878020485 0.00080380321407522973 0 0.029058777035684193 0.00051448014908110368 0 0.030070318110690088 -0.0010027006553011417 0 0.030213457164296707 -0.00029491492325240255 0 0.030745606053970188 -0.0017195364279354924 0 0.031661870945284415 -0.0010994216481395964 0 0.030944069346210849 -0.00080318948173517567 0 0.028954232847109095 -0.00083362232852626469 0 0.029416598492126522 0.00022709709694496879 0 0.028744851014441894 -0.00015166965545606418 0 0.029058777035684193 0.00051448014908110368 0 0.029416598492126522 0.00022709709694496879 0 0.028744851014441894 -0.00015166965545606418 0 0.029058777035684193 0.00051448014908110368 0 0.028744851014441894 -0.00015166965545606418 0 0.02830301533345906 0.00046534490816687023 0 0.027902062304737747 -0.00086355064003078004 0 0.02830301533345906 0.00046534490816687023 0 0.02706803108866758 -0.00017560368824091121 0 0.027902062304737747 -0.00086355064003078004 0 0.028744851014441894 -0.00015166965545606418 0 0.02830301533345906 0.00046534490816687023 0 0.02830301533345906 0.00046534490816687023 0 0.02706803108866758 -0.00017560368824091121 0 0.026801468446281403 0.00068303896976084635 0 0.026801468446281403 0.00068303896976084635 0 0.025810234967159926 0.00033566988999000495 0 0.025865848376558264 0.0011065462617699106 0 0.02706803108866758 -0.00017560368824091121 0 0.026801468446281403 0.00068303896976084635 0 0.025810234967159926 0.00033566988999000495 0 0.024544880503954324 -5.0279358566214248e-05 0 0.025810234967159926 0.00033566988999000495 0 0.02498666184202105 0.00090396700448780573 0 0.025810234967159926 0.00033566988999000495 0 0.02498666184202105 0.00090396700448780573 0 0.025865848376558264 0.0011065462617699106 0 0.025865848376558264 0.0011065462617699106 0 0.027067831016493057 0.0017630734990047258 0 0.024643022958694392 0.0015298620072873796 0 0.026916084763317777 0.0019856174298748695 0 0.026542229673682045 0.0013893461714344778 0 0.027496473303279298 0.0022640369319523929 0 0.027067831016493057 0.0017630734990047258 0 0.027725595947653042 0.0025486763071696692 0 0.02498666184202105 0.00090396700448780573 0 0.025865848376558264 0.0011065462617699106 0 0.024643022958694392 0.0015298620072873796 0 0.027677378142130903 0.0022960155772881637 0 0.027496473303279298 0.0022640369319523929 0 0.027725595947653042 0.0025486763071696692 0 0.027677378142130903 0.0022960155772881637 0 0.027680355750113465 0.0023880314136209904 0 0.027725595947653042 0.0025486763071696692 0 0.027677378142130903 0.0022960155772881637 0 0.027680355750113465 0.0023880314136209904 0 0.027790420659872524 0.0023589223594807961 0 0.027677378142130903 0.0022960155772881637 0 0.02758320510870851 0.0022408963188860452 0 0.027627897040928467 0.0021426422299708138 0 0.027677378142130903 0.0022960155772881637 0 0.02758320510870851 0.0022408963188860452 0 0.027496473303279298 0.0022640369319523929 0 0.02758320510870851 0.0022408963188860452 0 0.027496473303279298 0.0022640369319523929 0 0.027497183659976929 0.0021600117884649946 0 0.027556649289086039 0.0020207430534664689 0 0.027497183659976929 0.0021600117884649946 0 0.027627897040928467 0.0021426422299708138 0 0.027556649289086039 0.0020207430534664689 0 0.027497183659976929 0.0021600117884649946 0 0.027430540500177954 0.0020634712728224295 0 0.027556649289086039 0.0020207430534664689 0 0.027707179943818411 0.0020349810177732594 0 0.027627897040928467 0.0021426422299708138 0 0.02758320510870851 0.0022408963188860452 0 0.027497183659976929 0.0021600117884649946 0 0.027627897040928467 0.0021426422299708138 0 0.027677378142130903 0.0022960155772881637 0 0.027627897040928467 0.0021426422299708138 0 0.027741962416475131 0.0021726145651874084 0 0.027707179943818411 0.0020349810177732594 0 0.027627897040928467 0.0021426422299708138 0 0.027741962416475131 0.0021726145651874084 0 0.027496473303279298 0.0022640369319523929 0 0.027284507405853177 0.0020775181664998 0 0.027392012909591396 0.0021199702305760848 0 0.027496473303279298 0.0022640369319523929 0 0.027497183659976929 0.0021600117884649946 0 0.027392012909591396 0.0021199702305760848 0 0.027497183659976929 0.0021600117884649946 0 0.027392012909591396 0.0021199702305760848 0 0.027430540500177954 0.0020634712728224295 0 0.027392012909591396 0.0021199702305760848 0 0.027430540500177954 0.0020634712728224295 0 0.027304295790750679 0.0020617759358180152 0 0.027284507405853177 0.0020775181664998 0 0.027392012909591396 0.0021199702305760848 0 0.027304295790750679 0.0020617759358180152 0 0.027284507405853177 0.0020775181664998 0 0.027110342298384171 0.0020791398251450454 0 0.027067831016493057 0.0017630734990047258 0 0.026917671869810814 0.0022408346570023494 0 0.02830301533345906 0.00046534490816687023 0 0.027067831016493057 0.0017630734990047258 0 0.027496473303279298 0.0022640369319523929 0 0.027284507405853177 0.0020775181664998 0 0.027067831016493057 0.0017630734990047258 0 0.027284507405853177 0.0020775181664998 0 0.027304295790750679 0.0020617759358180152 0 0.027110342298384171 0.0020791398251450454 0 0.026917671869810814 0.0022408346570023494 0 0.027110342298384171 0.0020791398251450454 0 0.027067831016493057 0.0017630734990047258 0 0.02830301533345906 0.00046534490816687023 0 0.026801468446281403 0.00068303896976084635 0 0.027067831016493057 0.0017630734990047258 0 0.026801468446281403 0.00068303896976084635 0 0.025865848376558264 0.0011065462617699106 0 0.027067831016493057 0.0017630734990047258 0 0.027244107163350212 0.0006016089117936226 0 0.027023890494059229 0.00056638128977710804 0 0.027364766620594474 0.00056513710519797789 0 0.027078602426428171 0.00056571489597810501 0 0.027573155210116787 0.00065338247659049622 0 0.02906074239216027 0.0027146420696048325 0 0.028733943841194685 0.0023723171206711594 0 0.028374422797834857 0.0024144287224052386 0 0.02906074239216027 0.0027146420696048325 0 0.028941374472947801 0.0022565159526156662 0 0.029474261049431405 0.0022932812953890308 0 0.028941374472947801 0.0022565159526156662 0 0.029474261049431405 0.0022932812953890308 0 0.028975223998911597 0.0018412559941328194 0 0.02906074239216027 0.0027146420696048325 0 0.028941374472947801 0.0022565159526156662 0 0.028733943841194685 0.0023723171206711594 0 0.028733943841194685 0.0023723171206711594 0 0.028563511638060403 0.0021138170352694489 0 0.028374422797834857 0.0024144287224052386 0 0.028941374472947801 0.0022565159526156662 0 0.028733943841194685 0.0023723171206711594 0 0.028563511638060403 0.0021138170352694489 0 0.027364766620594474 0.00056513710519797789 0 0.027078602426428171 0.00056571489597810501 0 0.026893925245510625 0.00054589902141053662 0 0.028563511638060403 0.0021138170352694489 0 0.028179180888700341 0.0021659512902254805 0 0.028374422797834857 0.0024144287224052386 0 0.027078602426428171 0.00056571489597810501 0 0.026893925245510625 0.00054589902141053662 0 0.027175678478831188 0.00064402577080323591 0 0.026542229673682045 0.0013893461714344778 0 0.025189072973885375 0.00061291616253804284 0 0.028010177722139415 0.001704380227925333 0 0.026542229673682045 0.0013893461714344778 0 0.02906074239216027 0.0027146420696048325 0 0.028374422797834857 0.0024144287224052386 0 0.027725595947653042 0.0025486763071696692 0 0.028179180888700341 0.0021659512902254805 0 0.028374422797834857 0.0024144287224052386 0 0.027978863706913368 0.0023302570350203552 0 0.028374422797834857 0.0024144287224052386 0 0.027978863706913368 0.0023302570350203552 0 0.027725595947653042 0.0025486763071696692 0 0.027741962416475131 0.0021726145651874084 0 0.027888594194253886 0.0022240223889900845 0 0.027947149412468002 0.0019677026452470854 0 0.027677378142130903 0.0022960155772881637 0 0.027741962416475131 0.0021726145651874084 0 0.027888594194253886 0.0022240223889900845 0 0.028179180888700341 0.0021659512902254805 0 0.027888594194253886 0.0022240223889900845 0 0.027947149412468002 0.0019677026452470854 0 0.028179180888700341 0.0021659512902254805 0 0.027888594194253886 0.0022240223889900845 0 0.027978863706913368 0.0023302570350203552 0 0.027978863706913368 0.0023302570350203552 0 0.027790420659872524 0.0023589223594807961 0 0.027725595947653042 0.0025486763071696692 0 0.027677378142130903 0.0022960155772881637 0 0.027888594194253886 0.0022240223889900845 0 0.027790420659872524 0.0023589223594807961 0 0.027888594194253886 0.0022240223889900845 0 0.027978863706913368 0.0023302570350203552 0 0.027790420659872524 0.0023589223594807961 0 0.027680355750113465 0.0023880314136209904 0 0.027790420659872524 0.0023589223594807961 0 0.027725595947653042 0.0025486763071696692 0 0.024643022958694392 0.0015298620072873796 0 0.024269127001932584 0.00063673164004007376 0 0.023507814937596166 0.00072041504536627635 0 0.02498666184202105 0.00090396700448780573 0 0.024643022958694392 0.0015298620072873796 0 0.024269127001932584 0.00063673164004007376 0 0.023853925968274993 0.00024359586179331376 0 0.024544880503954324 -5.0279358566214248e-05 0 0.024269127001932584 0.00063673164004007376 0 0.024544880503954324 -5.0279358566214248e-05 0 0.02498666184202105 0.00090396700448780573 0 0.024269127001932584 0.00063673164004007376 0 0.023853925968274993 0.00024359586179331376 0 0.024269127001932584 0.00063673164004007376 0 0.023507814937596166 0.00072041504536627635 0 0.027078602426428171 0.00056571489597810501 0 0.027175678478831188 0.00064402577080323591 0 0.027209951056185126 0.00062710812508411497 0 0.024951659892969102 0.00043866996538825142 0 0.025189072973885375 0.00061291616253804284 0 0.027364766620594474 0.00056513710519797789 0 0.027573155210116787 0.00065338247659049622 0 0.027969047794605028 0.00063935019751860792 0 0.027573155210116787 0.00065338247659049622 0 0.027969047794605028 0.00063935019751860792 0 0.028016002093935937 0.00074139787358458084 0 0.027181173416518326 0.00054956816647092814 0 0.027175678478831188 0.00064402577080323591 0 0.027209951056185126 0.00062710812508411497 0 0.027209951056185126 0.00062710812508411497 0 0.027122968069029269 0.00058916737468161075 0 0.027082077138969814 0.0006338382452061584 0 0.027023890494059229 0.00056638128977710804 0 0.029608221090719214 0.0010248630988763032 0 0.027181173416518326 0.00054956816647092814 0 0.027209951056185126 0.00062710812508411497 0 0.027122968069029269 0.00058916737468161075 0 0.034637265233364488 -6.3180662931427582e-05 0 0.034643878610873258 -7.7336341583779077e-05 0 0.034694553883676219 -5.4845158185938416e-05 0 0.027024301027042719 0.00051674984669098712 0 0.027181173416518326 0.00054956816647092814 0 0.027122968069029269 0.00058916737468161075 0 0.034644249668889168 -4.2494398048884622e-05 0 0.034637265233364488 -6.3180662931427582e-05 0 0.034694553883676219 -5.4845158185938416e-05 0 0.027024301027042719 0.00051674984669098712 0 0.027028102866147933 0.00062728899019638934 0 0.026934373085752899 0.00055758182024176158 0 0.027024301027042719 0.00051674984669098712 0 0.027122968069029269 0.00058916737468161075 0 0.027028102866147933 0.00062728899019638934 0 0.027122968069029269 0.00058916737468161075 0 0.027082077138969814 0.0006338382452061584 0 0.027028102866147933 0.00062728899019638934 0 0.030844267961699357 0.0012237651815510146 0 0.033015239941521488 0.0011472346488758211 0 0.030844267961699357 0.0012237651815510146 0 0.029608221090719214 0.0010248630988763032 0 0.034563602501027905 -7.5318306248163411e-05 0 0.034594170939724903 -3.0791247841716439e-05 0 0.034637265233364488 -6.3180662931427582e-05 0 0.029608221090719214 0.0010248630988763032 0 0.031105790767108406 0.00074388075124037225 0 0.034594170939724903 -3.0791247841716439e-05 0 0.034644249668889168 -4.2494398048884622e-05 0 0.034637265233364488 -6.3180662931427582e-05 0 0.034643878610873258 -7.7336341583779077e-05 0 0.034648280171598426 -8.0978963045207148e-05 0 0.034694553883676219 -5.4845158185938416e-05 0 0.034630991985793939 -7.464562341283e-05 0 0.034643878610873258 -7.7336341583779077e-05 0 0.034709374173585425 -7.1187968334093893e-05 0 0.034643878610873258 -7.7336341583779077e-05 0 0.034709374173585425 -7.1187968334093893e-05 0 0.034648280171598426 -8.0978963045207148e-05 0 0.034630991985793939 -7.464562341283e-05 0 0.034637265233364488 -6.3180662931427582e-05 0 0.034643878610873258 -7.7336341583779077e-05 0 0.028010177722139415 0.001704380227925333 0 0.030844267961699357 0.0012237651815510146 0 0.030315020302046015 0.0028668357562159482 0 0.029474261049431405 0.0022932812953890308 0 0.029721382355136095 0.0017523315213342414 0 0.030844267961699357 0.0012237651815510146 0 0.032482866502175294 0.00097093337663614707 0 0.02906074239216027 0.0027146420696048325 0 0.030315020302046015 0.0028668357562159482 0 0.029474261049431405 0.0022932812953890308 0 0.029474261049431405 0.0022932812953890308 0 0.029721382355136095 0.0017523315213342414 0 0.028975223998911597 0.0018412559941328194 0 0.034743472877879274 -5.0380195962046891e-05 0 0.034808820297225693 -9.1874312783532929e-06 0 0.034709374173585425 -7.1187968334093893e-05 0 0.034648280171598426 -8.0978963045207148e-05 0 0.034724122362864866 -2.1603141026261286e-05 0 0.034838083234626539 -3.0212338419370555e-05 0 0.034855409255122857 2.9470046714477666e-06 0 0.034892434051286447 1.3528063546948812e-05 0 0.034855409255122857 2.9470046714477666e-06 0 0.034892434051286447 1.3528063546948812e-05 0 0.034882959160754866 1.5962889684043028e-05 0 0.032482866502175294 0.00097093337663614707 0 0.031778086798579887 0.0002189070613634654 0 0.034709374173585425 -7.1187968334093893e-05 0 0.034724122362864866 -2.1603141026261286e-05 0 0.034834495584353836 -6.5477457689535558e-06 0 0.029721382355136095 0.0017523315213342414 0 0.029151293685046653 0.00065727801819095782 0 0.02905994040866278 0.0013734102313745211 0 0.029151293685046653 0.00065727801819095782 0 0.028630447453419812 0.00099287866751811499 0 0.028521096524757331 0.0004668984463278037 0 0.029151293685046653 0.00065727801819095782 0 0.028630447453419812 0.00099287866751811499 0 0.02905994040866278 0.0013734102313745211 0 0.028630447453419812 0.00099287866751811499 0 0.02905994040866278 0.0013734102313745211 0 0.028587327817192774 0.0014749715303213095 0 0.029721382355136095 0.0017523315213342414 0 0.02905994040866278 0.0013734102313745211 0 0.028975223998911597 0.0018412559941328194 0 0.02905994040866278 0.0013734102313745211 0 0.028975223998911597 0.0018412559941328194 0 0.028587327817192774 0.0014749715303213095 0 0.028975223998911597 0.0018412559941328194 0 0.028510811983024707 0.0017945376087874474 0 0.028587327817192774 0.0014749715303213095 0 0.028941374472947801 0.0022565159526156662 0 0.028563511638060403 0.0021138170352694489 0 0.028975223998911597 0.0018412559941328194 0 0.028563511638060403 0.0021138170352694489 0 0.028975223998911597 0.0018412559941328194 0 0.028510811983024707 0.0017945376087874474 0 0.027947149412468002 0.0019677026452470854 0 0.028188191388144896 0.0016421692477326536 0 0.027873938949277748 0.001589580129577593 0 0.027682812561125016 0.0018660769481900403 0 0.027947149412468002 0.0019677026452470854 0 0.027873938949277748 0.001589580129577593 0 0.027947149412468002 0.0019677026452470854 0 0.028250941597231252 0.0019075223634745604 0 0.028188191388144896 0.0016421692477326536 0 0.027707179943818411 0.0020349810177732594 0 0.027741962416475131 0.0021726145651874084 0 0.027947149412468002 0.0019677026452470854 0 0.028179180888700341 0.0021659512902254805 0 0.027947149412468002 0.0019677026452470854 0 0.028250941597231252 0.0019075223634745604 0 0.028563511638060403 0.0021138170352694489 0 0.028179180888700341 0.0021659512902254805 0 0.028250941597231252 0.0019075223634745604 0 0.028563511638060403 0.0021138170352694489 0 0.028250941597231252 0.0019075223634745604 0 0.028510811983024707 0.0017945376087874474 0 0.028250941597231252 0.0019075223634745604 0 0.028510811983024707 0.0017945376087874474 0 0.028188191388144896 0.0016421692477326536 0 0.028510811983024707 0.0017945376087874474 0 0.028587327817192774 0.0014749715303213095 0 0.028188191388144896 0.0016421692477326536 0 0.028587327817192774 0.0014749715303213095 0 0.028188191388144896 0.0016421692477326536 0 0.028186949803990991 0.0012675403013657999 0 0.028188191388144896 0.0016421692477326536 0 0.027873938949277748 0.001589580129577593 0 0.028186949803990991 0.0012675403013657999 0 0.027820484567854725 0.0011815804188616069 0 0.028186949803990991 0.0012675403013657999 0 0.028136488392155944 0.00085456952054277545 0 0.027820484567854725 0.0011815804188616069 0 0.027873938949277748 0.001589580129577593 0 0.028186949803990991 0.0012675403013657999 0 0.028630447453419812 0.00099287866751811499 0 0.028186949803990991 0.0012675403013657999 0 0.028136488392155944 0.00085456952054277545 0 0.028630447453419812 0.00099287866751811499 0 0.028587327817192774 0.0014749715303213095 0 0.028186949803990991 0.0012675403013657999 0 0.028630447453419812 0.00099287866751811499 0 0.028136488392155944 0.00085456952054277545 0 0.028521096524757331 0.0004668984463278037 0 0.027494274340717533 0.0010180971273983498 0 0.028136488392155944 0.00085456952054277545 0 0.028055445278652964 0.00027695271955218358 0 0.028055445278652964 0.00027695271955218358 0 0.028521096524757331 0.0004668984463278037 0 0.028625589783925039 -0.00044158047368759865 0 0.028136488392155944 0.00085456952054277545 0 0.028055445278652964 0.00027695271955218358 0 0.028521096524757331 0.0004668984463278037 0 0.031531504060642479 9.8453275498998208e-05 0 0.032986436652985243 -8.1406240968880117e-05 0 0.031778086798579887 0.0002189070613634654 0 0.032986436652985243 -8.1406240968880117e-05 0 0.029151293685046653 0.00065727801819095782 0 0.028521096524757331 0.0004668984463278037 0 0.028625589783925039 -0.00044158047368759865 0 0.034834495584353836 -6.5477457689535558e-06 0 0.034878046219239379 1.5906900506892517e-05 0 0.034884231153086712 1.4190617410892578e-05 0 0.032986436652985243 -8.1406240968880117e-05 0 0.035353629542065376 -0.00022469984902280982 0 0.034909209725982125 7.4352235688741731e-06 0 0.034884231153086712 1.4190617410892578e-05 0 0.034948259922077701 -5.5212159162835302e-06 0 0.034878046219239379 1.5906900506892517e-05 0 0.034909209725982125 7.4352235688741731e-06 0 0.034884231153086712 1.4190617410892578e-05 0 0.034915662909619179 8.6942674056460491e-05 0 0.034941145902585735 6.8295311734156049e-05 0 0.034940350293782584 6.5998996074326225e-05 0 0.034941145902585735 6.8295311734156049e-05 0 0.034940350293782584 6.5998996074326225e-05 0 0.034974278503476355 2.6869950528660606e-05 0 0.034930148241734904 7.5166965388587462e-05 0 0.034915662909619179 8.6942674056460491e-05 0 0.034940350293782584 6.5998996074326225e-05 0 0.034944835520568721 6.768557664164745e-05 0 0.034930148241734904 7.5166965388587462e-05 0 0.034940350293782584 6.5998996074326225e-05 0 0.0349674823923238 -1.1643943816808933e-05 0 0.034987763583248253 -4.497400680773631e-06 0 0.034999949307256431 1.3864648625506327e-08 0 0.034979710724769228 1.9840705231237398e-05 0 0.034940350293782584 6.5998996074326225e-05 0 0.034974278503476355 2.6869950528660606e-05 0 0.034971112875474081 3.9102878139804117e-05 0 0.034948348975982257 6.3292212807710151e-05 0 0.032986436652985243 -8.1406240968880117e-05 0 0.035191452271162979 0.00012164690272702991 0 0.034959655319008617 -3.1139736331356281e-05 0 0.0349674823923238 -1.1643943816808933e-05 0 0.034987763583248253 -4.497400680773631e-06 0 0.0349674823923238 -1.1643943816808933e-05 0 0.034948259922077701 -5.5212159162835302e-06 0 0.034999949307256431 1.3864648625506327e-08 0 0.034959655319008617 -3.1139736331356281e-05 0 0.0349674823923238 -1.1643943816808933e-05 0 0.034948259922077701 -5.5212159162835302e-06 0 0.034948259922077701 -5.5212159162835302e-06 0 0.034999949307256431 1.3864648625506327e-08 0 0.034999942020762009 -5.0718244756545072e-09 0 0.035000015549826458 -8.9009678576945634e-09 0 0.034987763583248253 -4.497400680773631e-06 0 0.034999949307256431 1.3864648625506327e-08 0 0.034999942020762009 -5.0718244756545072e-09 0 0.034961080553582789 2.0337768760817288e-06 0 0.034999942589865142 5.2406200396850719e-09 0 0.034948259922077701 -5.5212159162835302e-06 0 0.034999942020762009 -5.0718244756545072e-09 0 0.034961080553582789 2.0337768760817288e-06 0 0.034948259922077701 -5.5212159162835302e-06 0 0.034961080553582789 2.0337768760817288e-06 0 0.03492472136319457 4.2915367049864186e-06 0 0.034961080553582789 2.0337768760817288e-06 0 0.03493162982044315 9.832082661076343e-06 0 0.03492472136319457 4.2915367049864186e-06 0 0.03493162982044315 9.832082661076343e-06 0 0.03492472136319457 4.2915367049864186e-06 0 0.034904037145803153 1.5467637008432716e-05 0 0.034878046219239379 1.5906900506892517e-05 0 0.03492472136319457 4.2915367049864186e-06 0 0.034904037145803153 1.5467637008432716e-05 0 0.034909209725982125 7.4352235688741731e-06 0 0.034948259922077701 -5.5212159162835302e-06 0 0.03492472136319457 4.2915367049864186e-06 0 0.034878046219239379 1.5906900506892517e-05 0 0.034909209725982125 7.4352235688741731e-06 0 0.03492472136319457 4.2915367049864186e-06 0 0.034808820297225693 -9.1874312783532929e-06 0 0.034865361910122253 1.3029888592142577e-05 0 0.034724122362864866 -2.1603141026261286e-05 0 0.034834495584353836 -6.5477457689535558e-06 0 0.034878046219239379 1.5906900506892517e-05 0 0.034892434051286447 1.3528063546948812e-05 0 0.034878046219239379 1.5906900506892517e-05 0 0.034904037145803153 1.5467637008432716e-05 0 0.03493162982044315 9.832082661076343e-06 0 0.034904037145803153 1.5467637008432716e-05 0 0.034882959160754866 1.5962889684043028e-05 0 0.034892434051286447 1.3528063546948812e-05 0 0.034904037145803153 1.5467637008432716e-05 0 0.034882959160754866 1.5962889684043028e-05 0 0.034882959160754866 1.5962889684043028e-05 0 0.034893202613424518 1.6049849030499113e-05 0 0.03492340047789233 1.265598342523442e-05 0 0.033466503364981956 6.1864594633634137e-05 0 0.033317122151234377 7.065054390449956e-05 0 0.03210873322126772 3.8266278860742334e-05 0 0.030846138701961779 0.00024183215369972554 0 0.034882959160754866 1.5962889684043028e-05 0 0.034893202613424518 1.6049849030499113e-05 0 0.034825026075425584 6.7335290681439761e-06 0 0.032005380724997465 4.0447508915038015e-05 0 0.03226451413601155 2.6115421149707786e-05 0 0.031666833856340719 0.00011656449823674576 0 0.033466503364981956 6.1864594633634137e-05 0 0.034048010526162763 0.00012207078412453646 0 0.034893202613424518 1.6049849030499113e-05 0 0.03492340047789233 1.265598342523442e-05 0 0.03495367985896488 8.8826479063805755e-06 0 0.032005380724997465 4.0447508915038015e-05 0 0.033087609543613401 3.5565111702373224e-05 0 0.03226451413601155 2.6115421149707786e-05 0 0.03493162982044315 9.832082661076343e-06 0 0.034882959160754866 1.5962889684043028e-05 0 0.03492340047789233 1.265598342523442e-05 0 0.03493162982044315 9.832082661076343e-06 0 0.03492340047789233 1.265598342523442e-05 0 0.034960259089138641 5.679554083944353e-06 0 0.034961080553582789 2.0337768760817288e-06 0 0.03493162982044315 9.832082661076343e-06 0 0.034960259089138641 5.679554083944353e-06 0 0.03492340047789233 1.265598342523442e-05 0 0.034960259089138641 5.679554083944353e-06 0 0.03495367985896488 8.8826479063805755e-06 0 0.034960259089138641 5.679554083944353e-06 0 0.034999942589865142 5.2406200396850719e-09 0 0.034999964346186394 2.3169569170067264e-09 0 0.034960259089138641 5.679554083944353e-06 0 0.034999964346186394 2.3169569170067264e-09 0 0.03495367985896488 8.8826479063805755e-06 0 0.034961080553582789 2.0337768760817288e-06 0 0.034960259089138641 5.679554083944353e-06 0 0.034999942589865142 5.2406200396850719e-09 0 0.034999101577876016 -2.9221985768894034e-10 0 0.032828789304800127 3.5792614296272723e-05 0 0.031021500604728351 1.9077570241432584e-07 0 0.034999101577876016 -2.9221985768894034e-10 0 0.03400084452680556 -6.2350000579077149e-07 0 0.034997059710933691 -9.7968243394556512e-08 0 0.034999101577876016 -2.9221985768894034e-10 0 0.03400084452680556 -6.2350000579077149e-07 0 0.032828789304800127 3.5792614296272723e-05 0 0.03400084452680556 -6.2350000579077149e-07 0 0.034997059710933691 -9.7968243394556512e-08 0 0.033087609543613401 3.5565111702373224e-05 0 0.034999542862008667 3.044549767872447e-07 0 0.034048010526162763 0.00012207078412453646 0 0.03400084452680556 -6.2350000579077149e-07 0 0.033087609543613401 3.5565111702373224e-05 0 0.032828789304800127 3.5792614296272723e-05 0 0.032828789304800127 3.5792614296272723e-05 0 0.031413758150030294 5.2895310009804734e-05 0 0.031021500604728351 1.9077570241432584e-07 0 0.032828789304800127 3.5792614296272723e-05 0 0.03226451413601155 2.6115421149707786e-05 0 0.031413758150030294 5.2895310009804734e-05 0 0.033087609543613401 3.5565111702373224e-05 0 0.032828789304800127 3.5792614296272723e-05 0 0.03226451413601155 2.6115421149707786e-05 0 0.03226451413601155 2.6115421149707786e-05 0 0.031413758150030294 5.2895310009804734e-05 0 0.031136298448401167 8.2193133523842974e-05 0 0.03226451413601155 2.6115421149707786e-05 0 0.031136298448401167 8.2193133523842974e-05 0 0.030344230915180185 0.00015207558736841779 0 0.031413758150030294 5.2895310009804734e-05 0 0.031136298448401167 8.2193133523842974e-05 0 0.030546800479080174 0.00013123950044150668 0 0.031413758150030294 5.2895310009804734e-05 0 0.031021500604728351 1.9077570241432584e-07 0 0.030546800479080174 0.00013123950044150668 0 0.031021500604728351 1.9077570241432584e-07 0 0.029722360953571045 0.00015123957176995027 0 0.028080930249555946 1.1363294057494362e-06 0 0.031021500604728351 1.9077570241432584e-07 0 0.029722360953571045 0.00015123957176995027 0 0.030546800479080174 0.00013123950044150668 0 0.029722360953571045 0.00015123957176995027 0 0.029790936087666565 0.00019972496348779554 0 0.028770864113673467 8.1039875647348489e-05 0 0.029790936087666565 0.00019972496348779554 0 0.030546800479080174 0.00013123950044150668 0 0.030344230915180185 0.00015207558736841779 0 0.029722360953571045 0.00015123957176995027 0 0.029790936087666565 0.00019972496348779554 0 0.030546800479080174 0.00013123950044150668 0 0.031136298448401167 8.2193133523842974e-05 0 0.030546800479080174 0.00013123950044150668 0 0.030344230915180185 0.00015207558736841779 0 0.032005380724997465 4.0447508915038015e-05 0 0.031604697487463571 0.00013503289263505045 0 0.031666833856340719 0.00011656449823674576 0 0.034855409255122857 2.9470046714477666e-06 0 0.034882959160754866 1.5962889684043028e-05 0 0.034825026075425584 6.7335290681439761e-06 0 0.034855409255122857 2.9470046714477666e-06 0 0.034825026075425584 6.7335290681439761e-06 0 0.034804444986353197 -1.5347313568745192e-05 0 0.034838083234626539 -3.0212338419370555e-05 0 0.034855409255122857 2.9470046714477666e-06 0 0.034804444986353197 -1.5347313568745192e-05 0 0.034804444986353197 -1.5347313568745192e-05 0 0.034755964667782156 -3.442314530987754e-05 0 0.034771454201447269 -3.4370294924456992e-05 0 0.034838083234626539 -3.0212338419370555e-05 0 0.034804444986353197 -1.5347313568745192e-05 0 0.034771454201447269 -3.4370294924456992e-05 0 0.033317122151234377 7.065054390449956e-05 0 0.032072940709872134 0.00010070885701705042 0 0.034825026075425584 6.7335290681439761e-06 0 0.034804444986353197 -1.5347313568745192e-05 0 0.034755964667782156 -3.442314530987754e-05 0 0.030846138701961779 0.00024183215369972554 0 0.032072940709872134 0.00010070885701705042 0 0.029790936087666565 0.00019972496348779554 0 0.030344230915180185 0.00015207558736841779 0 0.029515228948300994 0.00020742770039024956 0 0.031604697487463571 0.00013503289263505045 0 0.031666833856340719 0.00011656449823674576 0 0.031370608354978881 0.00025122775000854445 0 0.032072940709872134 0.00010070885701705042 0 0.02903752492693986 -0.00017003072233336269 0 0.029515228948300994 0.00020742770039024956 0 0.02945043282160939 -0.00049260652387428936 0 0.028770864113673467 8.1039875647348489e-05 0 0.034743472877879274 -5.0380195962046891e-05 0 0.034705571662959657 -5.2099270734268219e-05 0 0.034755964667782156 -3.442314530987754e-05 0 0.034771454201447269 -3.4370294924456992e-05 0 0.034694553883676219 -5.4845158185938416e-05 0 0.034838083234626539 -3.0212338419370555e-05 0 0.034771454201447269 -3.4370294924456992e-05 0 0.034694553883676219 -5.4845158185938416e-05 0 0.031105790767108406 0.00074388075124037225 0 0.02903752492693986 -0.00017003072233336269 0 0.034644249668889168 -4.2494398048884622e-05 0 0.034694553883676219 -5.4845158185938416e-05 0 0.034702750298373164 -4.7518714032585115e-05 0 0.027028102866147933 0.00062728899019638934 0 0.026934373085752899 0.00055758182024176158 0 0.026731645026009311 0.00057190107300195744 0 0.026893007331203419 0.0005125791517722625 0 0.026934373085752899 0.00055758182024176158 0 0.026731645026009311 0.00057190107300195744 0 0.026893007331203419 0.0005125791517722625 0 0.027024301027042719 0.00051674984669098712 0 0.026934373085752899 0.00055758182024176158 0 0.026178378923388316 -0.00044242631536950384 0 0.02903752492693986 -0.00017003072233336269 0 0.034755964667782156 -3.442314530987754e-05 0 0.034694553883676219 -5.4845158185938416e-05 0 0.034702750298373164 -4.7518714032585115e-05 0 0.028381699568295254 -0.00063162325594709988 0 0.02945043282160939 -0.00049260652387428936 0 0.028770864113673467 8.1039875647348489e-05 0 0.025912182944743446 -2.5557404989167921e-06 0 0.028080930249555946 1.1363294057494362e-06 0 0.028770864113673467 8.1039875647348489e-05 0 0.025912182944743446 -2.5557404989167921e-06 0 0.028381699568295254 -0.00063162325594709988 0 0.028770864113673467 8.1039875647348489e-05 0 0.029722360953571045 0.00015123957176995027 0 0.028080930249555946 1.1363294057494362e-06 0 0.028770864113673467 8.1039875647348489e-05 0 0.029790936087666565 0.00019972496348779554 0 0.029515228948300994 0.00020742770039024956 0 0.028770864113673467 8.1039875647348489e-05 0 0.020014064080580554 -0.0022227287898369218 0 0.020765083938310783 0.00028827953467611692 0 0.020325285609771464 -0.0018555181190680425 0 0.01999306446751668 -0.00051136332568101886 0 0.021361768303717218 -0.00037590684054997334 0 0.020429353746581516 -0.0021445459136384838 0 0.019787048002438853 -0.002136452078938316 0 0.020260566456663784 -0.0012815139023013957 0 0.019976854496395427 0.0017998725254802471 0 0.019771177464343533 0.0029125856948348117 0 0.020362631607171864 0.0024097430123538491 0 0.020101490419471381 -4.4171059801798646e-05 0 0.020765083938310783 0.00028827953467611692 0 0.020429353746581516 -0.0021445459136384838 0 0.019787048002438853 -0.002136452078938316 0 0.019888686520784477 -0.0027218526999427924 0 0.020325285609771464 -0.0018555181190680425 0 0.019553279096546722 -0.0021661908096343024 0 0.019424586108679958 -0.0029341805781909927 0 0.019553279096546722 -0.0021661908096343024 0 0.019019610874279409 -0.0016125948918009356 0 0.019283320900161514 -0.0028244716054199211 0 0.019553279096546722 -0.0021661908096343024 0 0.019019610874279409 -0.0016125948918009356 0 0.019717127417675583 -0.0015525606205006538 0 0.020325285609771464 -0.0018555181190680425 0 0.019553279096546722 -0.0021661908096343024 0 0.019717127417675583 -0.0015525606205006538 0 0.019892662439642193 -0.0052213630954485229 0 0.019959678711618297 -0.0053397204913630892 0 0.019694845518805123 -0.005115631942949765 0 0.019996493803030979 -0.0036342519691906741 0 0.019429584373638273 -0.0039088045235236967 0 0.019926685941006574 -0.0052268486642273017 0 0.019978012878001033 -0.0052253181222770501 0 0.019870948852352341 -0.0052151388289278433 0 0.019926685941006574 -0.0052268486642273017 0 0.019839687611114005 -0.0051904557371248517 0 0.019870948852352341 -0.0052151388289278433 0 0.019926685941006574 -0.0052268486642273017 0 0.019839687611114005 -0.0051904557371248517 0 0.019827935011304573 -0.0051789381715535146 0 0.019926685941006574 -0.0052268486642273017 0 0.019892662439642193 -0.0052213630954485229 0 0.020063500477206682 -0.0052852383432560246 0 0.019926685941006574 -0.0052268486642273017 0 0.019892662439642193 -0.0052213630954485229 0 0.019827935011304573 -0.0051789381715535146 0 0.019892662439642193 -0.0052213630954485229 0 0.020063500477206682 -0.0052852383432560246 0 0.019959678711618297 -0.0053397204913630892 0 0.01973231435781117 -0.0046662527045654781 0 0.019996493803030979 -0.0036342519691906741 0 0.020063500477206682 -0.0052852383432560246 0 0.020390681112864028 -0.0051926673863762164 0 0.020653362492787399 -0.0052666312427987628 0 0.019926685941006574 -0.0052268486642273017 0 0.020063500477206682 -0.0052852383432560246 0 0.019978012878001033 -0.0052253181222770501 0 0.020063500477206682 -0.0052852383432560246 0 0.020202178185855509 -0.0050945458914014958 0 0.020390681112864028 -0.0051926673863762164 0 0.020063500477206682 -0.0052852383432560246 0 0.019978012878001033 -0.0052253181222770501 0 0.020202178185855509 -0.0050945458914014958 0 0.019978012878001033 -0.0052253181222770501 0 0.020202178185855509 -0.0050945458914014958 0 0.019956092379374672 -0.0051096919598610062 0 0.020202178185855509 -0.0050945458914014958 0 0.019955425727236832 -0.0048508658008586444 0 0.019956092379374672 -0.0051096919598610062 0 0.020202178185855509 -0.0050945458914014958 0 0.020275449987037151 -0.0047040214536567494 0 0.019955425727236832 -0.0048508658008586444 0 0.020202178185855509 -0.0050945458914014958 0 0.020478681968342349 -0.004945193891003224 0 0.020275449987037151 -0.0047040214536567494 0 0.020478681968342349 -0.004945193891003224 0 0.020473981212260867 -0.0051043955208159584 0 0.02078660946705781 -0.0049225934470411067 0 0.020478681968342349 -0.004945193891003224 0 0.02078660946705781 -0.0049225934470411067 0 0.020665227925573706 -0.0046174266713762454 0 0.020202178185855509 -0.0050945458914014958 0 0.020390681112864028 -0.0051926673863762164 0 0.020473981212260867 -0.0051043955208159584 0 0.020202178185855509 -0.0050945458914014958 0 0.020478681968342349 -0.004945193891003224 0 0.020473981212260867 -0.0051043955208159584 0 0.020390681112864028 -0.0051926673863762164 0 0.020473981212260867 -0.0051043955208159584 0 0.020653362492787399 -0.0052666312427987628 0 0.020473981212260867 -0.0051043955208159584 0 0.020653362492787399 -0.0052666312427987628 0 0.02078660946705781 -0.0049225934470411067 0 0.02078660946705781 -0.0049225934470411067 0 0.020665227925573706 -0.0046174266713762454 0 0.020977220332236129 -0.0042164347882498237 0 0.020665227925573706 -0.0046174266713762454 0 0.020275449987037151 -0.0047040214536567494 0 0.020977220332236129 -0.0042164347882498237 0 0.020478681968342349 -0.004945193891003224 0 0.020665227925573706 -0.0046174266713762454 0 0.020275449987037151 -0.0047040214536567494 0 0.020653362492787399 -0.0052666312427987628 0 0.02078660946705781 -0.0049225934470411067 0 0.022415965119730503 -0.0041411171295455988 0 0.019019610874279409 -0.0016125948918009356 0 0.019717127417675583 -0.0015525606205006538 0 0.01999306446751668 -0.00051136332568101886 0 0.019996493803030979 -0.0036342519691906741 0 0.021297608824560124 -0.0022425591498745423 0 0.020325285609771464 -0.0018555181190680425 0 0.019717127417675583 -0.0015525606205006538 0 0.01999306446751668 -0.00051136332568101886 0 0.02078660946705781 -0.0049225934470411067 0 0.022415965119730503 -0.0041411171295455988 0 0.020977220332236129 -0.0042164347882498237 0 0.022415965119730503 -0.0041411171295455988 0 0.021634778117785382 -0.0037421267171308878 0 0.020977220332236129 -0.0042164347882498237 0 0.021634778117785382 -0.0037421267171308878 0 0.020977220332236129 -0.0042164347882498237 0 0.021411208656773068 -0.0029171511535379963 0 0.022415965119730503 -0.0041411171295455988 0 0.021634778117785382 -0.0037421267171308878 0 0.023056315944412233 -0.0027838248712856615 0 0.021634778117785382 -0.0037421267171308878 0 0.021411208656773068 -0.0029171511535379963 0 0.023056315944412233 -0.0027838248712856615 0 0.020275449987037151 -0.0047040214536567494 0 0.020977220332236129 -0.0042164347882498237 0 0.019866469058677259 -0.004257816172010525 0 0.027721584498532341 -0.0023484160329561195 0 0.026529231567690277 -0.0033189516125107627 0 0.034143439508657364 -0.0017440206652753123 0 0.033085362935967338 -0.0024416621588339159 0 0.033201883874323518 -0.0017624674270632868 0 0.020977220332236129 -0.0042164347882498237 0 0.021411208656773068 -0.0029171511535379963 0 0.019866469058677259 -0.004257816172010525 0 0.033790892699986363 -0.0014844333538757512 0 0.033040668338490967 -0.0011309343916044846 0 0.033201883874323518 -0.0017624674270632868 0 0.033790892699986363 -0.0014844333538757512 0 0.034143439508657364 -0.0017440206652753123 0 0.033201883874323518 -0.0017624674270632868 0 0.034143439508657364 -0.0017440206652753123 0 0.034307329428782257 -0.0013135932755197787 0 0.034577642740995569 -0.0013127348585665792 0 0.033790892699986363 -0.0014844333538757512 0 0.034143439508657364 -0.0017440206652753123 0 0.034100539353281174 -0.0014143903636990901 0 0.034100539353281174 -0.0014143903636990901 0 0.034307329428782257 -0.0013135932755197787 0 0.034135754565688521 -0.0011891042042419043 0 0.033790892699986363 -0.0014844333538757512 0 0.034100539353281174 -0.0014143903636990901 0 0.034135754565688521 -0.0011891042042419043 0 0.034143439508657364 -0.0017440206652753123 0 0.034100539353281174 -0.0014143903636990901 0 0.034307329428782257 -0.0013135932755197787 0 0.027721584498532341 -0.0023484160329561195 0 0.029592871841975964 -0.0013890235109627514 0 0.021411208656773068 -0.0029171511535379963 0 0.02392152806023885 -0.001401912611584474 0 0.023056315944412233 -0.0027838248712856615 0 0.02392152806023885 -0.001401912611584474 0 0.023056315944412233 -0.0027838248712856615 0 0.024599226591544444 -0.0022347204622583982 0 0.022415965119730503 -0.0041411171295455988 0 0.023056315944412233 -0.0027838248712856615 0 0.024599226591544444 -0.0022347204622583982 0 0.01999306446751668 -0.00051136332568101886 0 0.021361768303717218 -0.00037590684054997334 0 0.021210629987089436 0.00061435652679252045 0 0.021297608824560124 -0.0022425591498745423 0 0.022378959352735862 -0.00069149198241560874 0 0.01999306446751668 -0.00051136332568101886 0 0.021210629987089436 0.00061435652679252045 0 0.021244875455875816 0.00079469120323756527 0 0.021580583582018403 -0.0010665543301272803 0 0.0227967850341846 0.00086840181857657218 0 0.021210629987089436 0.00061435652679252045 0 0.020765083938310783 0.00028827953467611692 0 0.021314458875290203 0.0022471540278702976 0 0.019771177464343533 0.0029125856948348117 0 0.020249785402216211 0.0037131170843242929 0 0.020412952699983628 0.0029219698670536007 0 0.019771177464343533 0.0029125856948348117 0 0.020412952699983628 0.0029219698670536007 0 0.020362631607171864 0.0024097430123538491 0 0.020765083938310783 0.00028827953467611692 0 0.021252457747006126 0.00010074014262581094 0 0.0227967850341846 0.00086840181857657218 0 0.021244875455875816 0.00079469120323756527 0 0.023466978827091634 0.0030641423202701044 0 0.02392152806023885 -0.001401912611584474 0 0.024599226591544444 -0.0022347204622583982 0 0.027056390470232502 0.00022172476604315284 0 0.022378959352735862 -0.00069149198241560874 0 0.029147627840648116 0.00033004459082133341 0 0.0227967850341846 0.00086840181857657218 0 0.021210629987089436 0.00061435652679252045 0 0.021244875455875816 0.00079469120323756527 0 0.020249785402216211 0.0037131170843242929 0 0.020707593434563215 0.0040166579495580093 0 0.020704636514469157 0.0037385557789386429 0 0.021314458875290203 0.0022471540278702976 0 0.026279114028920362 0.0030033693454897298 0 0.020249785402216211 0.0037131170843242929 0 0.020707593434563215 0.0040166579495580093 0 0.02075286487581534 0.0045375278486307277 0 0.020249785402216211 0.0037131170843242929 0 0.020704636514469157 0.0037385557789386429 0 0.020663980714270704 0.0034015868474390346 0 0.020979957699222746 0.0035056698317673454 0 0.020704636514469157 0.0037385557789386429 0 0.020663980714270704 0.0034015868474390346 0 0.020979957699222746 0.0035056698317673454 0 0.020704636514469157 0.0037385557789386429 0 0.02104249811146628 0.0038752076383363034 0 0.020707593434563215 0.0040166579495580093 0 0.02104249811146628 0.0038752076383363034 0 0.02075286487581534 0.0045375278486307277 0 0.020707593434563215 0.0040166579495580093 0 0.020704636514469157 0.0037385557789386429 0 0.02104249811146628 0.0038752076383363034 0 0.02104249811146628 0.0038752076383363034 0 0.021868982198940189 0.0037220923697209763 0 0.021310156468484446 0.0035864703402469686 0 0.026532005111174272 0.0040500525462346809 0 0.026279114028920362 0.0030033693454897298 0 0.03135014316595941 0.0040338128830006374 0 0.031492261398319378 0.0038660061330036788 0 0.030994921987873854 0.0041729178281506088 0 0.02104249811146628 0.0038752076383363034 0 0.021868982198940189 0.0037220923697209763 0 0.02075286487581534 0.0045375278486307277 0 0.031466177373978006 0.0039925473469989833 0 0.03135014316595941 0.0040338128830006374 0 0.031492261398319378 0.0038660061330036788 0 0.031466177373978006 0.0039925473469989833 0 0.03135014316595941 0.0040338128830006374 0 0.031464469172696158 0.0040856018370899532 0 0.031466177373978006 0.0039925473469989833 0 0.031557100918651319 0.0039838204160070646 0 0.031464469172696158 0.0040856018370899532 0 0.031466177373978006 0.0039925473469989833 0 0.031492261398319378 0.0038660061330036788 0 0.031557100918651319 0.0039838204160070646 0 0.021737559764527105 0.0035909815824578593 0 0.021310156468484446 0.0035864703402469686 0 0.021424245741461973 0.0032427155958678101 0 0.021737559764527105 0.0035909815824578593 0 0.021868982198940189 0.0037220923697209763 0 0.021310156468484446 0.0035864703402469686 0 0.020979957699222746 0.0035056698317673454 0 0.02104249811146628 0.0038752076383363034 0 0.021310156468484446 0.0035864703402469686 0 0.020979957699222746 0.0035056698317673454 0 0.021310156468484446 0.0035864703402469686 0 0.02115507047457349 0.0032189133491341221 0 0.021310156468484446 0.0035864703402469686 0 0.021424245741461973 0.0032427155958678101 0 0.02115507047457349 0.0032189133491341221 0 0.021424245741461973 0.0032427155958678101 0 0.02115507047457349 0.0032189133491341221 0 0.021222033986986102 0.0029176706555873438 0 0.021737559764527105 0.0035909815824578593 0 0.021424245741461973 0.0032427155958678101 0 0.021636775297629231 0.0030002132608445294 0 0.021636775297629231 0.0030002132608445294 0 0.021222033986986102 0.0029176706555873438 0 0.02146819468129783 0.0024826358202194288 0 0.021424245741461973 0.0032427155958678101 0 0.021636775297629231 0.0030002132608445294 0 0.021222033986986102 0.0029176706555873438 0 0.021636775297629231 0.0030002132608445294 0 0.022053416937328998 0.0027312178196859027 0 0.02146819468129783 0.0024826358202194288 0 0.02115507047457349 0.0032189133491341221 0 0.021222033986986102 0.0029176706555873438 0 0.020852625904742357 0.0030635332320468429 0 0.020852625904742357 0.0030635332320468429 0 0.020412952699983628 0.0029219698670536007 0 0.020859653220058241 0.0025663961395042318 0 0.020249785402216211 0.0037131170843242929 0 0.020412952699983628 0.0029219698670536007 0 0.020663980714270704 0.0034015868474390346 0 0.021222033986986102 0.0029176706555873438 0 0.020852625904742357 0.0030635332320468429 0 0.020859653220058241 0.0025663961395042318 0 0.020852625904742357 0.0030635332320468429 0 0.020412952699983628 0.0029219698670536007 0 0.020663980714270704 0.0034015868474390346 0 0.020979957699222746 0.0035056698317673454 0 0.02115507047457349 0.0032189133491341221 0 0.020852625904742357 0.0030635332320468429 0 0.020979957699222746 0.0035056698317673454 0 0.020852625904742357 0.0030635332320468429 0 0.020663980714270704 0.0034015868474390346 0 0.031938012095483657 0.0039163846029511397 0 0.031732892324984732 0.0039455007087290401 0 0.031851629910968411 0.0041919821272001024 0 0.031938012095483657 0.0039163846029511397 0 0.031851629910968411 0.0041919821272001024 0 0.032147191683499068 0.0039698142880444948 0 0.031938012095483657 0.0039163846029511397 0 0.031732892324984732 0.0039455007087290401 0 0.031942799234661423 0.003660192473805563 0 0.031938012095483657 0.0039163846029511397 0 0.03206542899256113 0.00381161690918438 0 0.032147191683499068 0.0039698142880444948 0 0.031492261398319378 0.0038660061330036788 0 0.031732892324984732 0.0039455007087290401 0 0.031942799234661423 0.003660192473805563 0 0.031732892324984732 0.0039455007087290401 0 0.031557100918651319 0.0039838204160070646 0 0.031610763372888741 0.0040855694940408185 0 0.031492261398319378 0.0038660061330036788 0 0.031732892324984732 0.0039455007087290401 0 0.031557100918651319 0.0039838204160070646 0 0.031557100918651319 0.0039838204160070646 0 0.031610763372888741 0.0040855694940408185 0 0.031464469172696158 0.0040856018370899532 0 0.026532005111174272 0.0040500525462346809 0 0.02802219805364399 0.0029625721896269059 0 0.021868982198940189 0.0037220923697209763 0 0.022675130933976325 0.002157075192250394 0 0.023793764541803503 0.002416727355443037 0 0.021784357371718032 0.0035029066566945604 0 0.022339567181687378 0.0024991440403714215 0 0.021737559764527105 0.0035909815824578593 0 0.021636775297629231 0.0030002132608445294 0 0.022053416937328998 0.0027312178196859027 0 0.021737559764527105 0.0035909815824578593 0 0.021868982198940189 0.0037220923697209763 0 0.022675130933976325 0.002157075192250394 0 0.031938012095483657 0.0039163846029511397 0 0.031942799234661423 0.003660192473805563 0 0.03206542899256113 0.00381161690918438 0 0.031942799234661423 0.003660192473805563 0 0.03206542899256113 0.00381161690918438 0 0.03222193450895719 0.0036950952698889712 0 0.023793764541803503 0.002416727355443037 0 0.023549159250692751 0.00070704630662991712 0 0.024469936213828678 0.00060985761559344677 0 0.023793764541803503 0.002416727355443037 0 0.024469936213828678 0.00060985761559344677 0 0.025539169258791409 0.0010576624689514211 0 0.022053416937328998 0.0027312178196859027 0 0.02146819468129783 0.0024826358202194288 0 0.021631049904703652 0.0019041120856713855 0 0.022339567181687378 0.0024991440403714215 0 0.023092035443044757 0.0012122645345855239 0 0.022053416937328998 0.0027312178196859027 0 0.022490462764900417 0.0019563908156770104 0 0.021631049904703652 0.0019041120856713855 0 0.022675130933976325 0.002157075192250394 0 0.023793764541803503 0.002416727355443037 0 0.023549159250692751 0.00070704630662991712 0 0.022490462764900417 0.0019563908156770104 0 0.022590521006446488 0.0012759754015631262 0 0.021854291601733605 0.0011388225502968043 0 0.022490462764900417 0.0019563908156770104 0 0.021631049904703652 0.0019041120856713855 0 0.021854291601733605 0.0011388225502968043 0 0.023092035443044757 0.0012122645345855239 0 0.023509701154782479 0.00081890354258544115 0 0.023549159250692751 0.00070704630662991712 0 0.024469936213828678 0.00060985761559344677 0 0.024361067775384205 -0.00074009304837044105 0 0.022490462764900417 0.0019563908156770104 0 0.023152337827204727 0.0012256587116085038 0 0.022590521006446488 0.0012759754015631262 0 0.020362631607171864 0.0024097430123538491 0 0.020859653220058241 0.0025663961395042318 0 0.020784869913018412 0.0018605355505366143 0 0.019976854496395427 0.0017998725254802471 0 0.020362631607171864 0.0024097430123538491 0 0.020784869913018412 0.0018605355505366143 0 0.020412952699983628 0.0029219698670536007 0 0.020362631607171864 0.0024097430123538491 0 0.020859653220058241 0.0025663961395042318 0 0.021222033986986102 0.0029176706555873438 0 0.020859653220058241 0.0025663961395042318 0 0.02146819468129783 0.0024826358202194288 0 0.020859653220058241 0.0025663961395042318 0 0.02146819468129783 0.0024826358202194288 0 0.020784869913018412 0.0018605355505366143 0 0.02146819468129783 0.0024826358202194288 0 0.021631049904703652 0.0019041120856713855 0 0.020784869913018412 0.0018605355505366143 0 0.021631049904703652 0.0019041120856713855 0 0.020784869913018412 0.0018605355505366143 0 0.021058908714098462 0.0011397075842843644 0 0.021631049904703652 0.0019041120856713855 0 0.021058908714098462 0.0011397075842843644 0 0.021854291601733605 0.0011388225502968043 0 0.019976854496395427 0.0017998725254802471 0 0.020784869913018412 0.0018605355505366143 0 0.020123562894518155 0.00066498200560174449 0 0.020784869913018412 0.0018605355505366143 0 0.021058908714098462 0.0011397075842843644 0 0.020123562894518155 0.00066498200560174449 0 0.021058908714098462 0.0011397075842843644 0 0.02113307048921139 0.00022346207598550381 0 0.020123562894518155 0.00066498200560174449 0 0.021058908714098462 0.0011397075842843644 0 0.02113307048921139 0.00022346207598550381 0 0.021854291601733605 0.0011388225502968043 0 0.02113307048921139 0.00022346207598550381 0 0.020260517177524136 -0.00053610829191896728 0 0.020123562894518155 0.00066498200560174449 0 0.020447893101663065 -0.0020933795223788644 0 0.020349348635458491 -0.0011638625268902728 0 0.023152337827204727 0.0012256587116085038 0 0.022462097577048583 0.0007816049338362544 0 0.023382333337651714 0.00053500169532649984 0 0.023152337827204727 0.0012256587116085038 0 0.022590521006446488 0.0012759754015631262 0 0.022462097577048583 0.0007816049338362544 0 0.02113307048921139 0.00022346207598550381 0 0.021854291601733605 0.0011388225502968043 0 0.021868708955740359 0.00032569405968028335 0 0.022462097577048583 0.0007816049338362544 0 0.021854291601733605 0.0011388225502968043 0 0.021868708955740359 0.00032569405968028335 0 0.022590521006446488 0.0012759754015631262 0 0.022462097577048583 0.0007816049338362544 0 0.021854291601733605 0.0011388225502968043 0 0.02113307048921139 0.00022346207598550381 0 0.021868708955740359 0.00032569405968028335 0 0.021783585064976747 -0.00058705097004947866 0 0.021868708955740359 0.00032569405968028335 0 0.022448114188418692 0.00011133135500431426 0 0.022353124515562081 -0.00041667541600993188 0 0.022462097577048583 0.0007816049338362544 0 0.021868708955740359 0.00032569405968028335 0 0.022448114188418692 0.00011133135500431426 0 0.022448114188418692 0.00011133135500431426 0 0.023382333337651714 0.00053500169532649984 0 0.024433762395752592 0.00015027153845874282 0 0.022462097577048583 0.0007816049338362544 0 0.022448114188418692 0.00011133135500431426 0 0.023382333337651714 0.00053500169532649984 0 0.022353124515562081 -0.00041667541600993188 0 0.021783585064976747 -0.00058705097004947866 0 0.02235290376166281 -0.0011937332565983042 0 0.022353124515562081 -0.00041667541600993188 0 0.02235290376166281 -0.0011937332565983042 0 0.022782227782760511 -0.00074607153710880172 0 0.022353124515562081 -0.00041667541600993188 0 0.022782227782760511 -0.00074607153710880172 0 0.022816982135584678 -0.00022814142863435897 0 0.022448114188418692 0.00011133135500431426 0 0.022353124515562081 -0.00041667541600993188 0 0.022816982135584678 -0.00022814142863435897 0 0.021868708955740359 0.00032569405968028335 0 0.022353124515562081 -0.00041667541600993188 0 0.021783585064976747 -0.00058705097004947866 0 0.021700309627557757 -0.0016707688235139387 0 0.021783585064976747 -0.00058705097004947866 0 0.02235290376166281 -0.0011937332565983042 0 0.021811074403272759 -0.0018881293264051812 0 0.021796317990000206 -0.00068266666732791565 0 0.022007207047044477 -0.0021811699323518296 0 0.021783585064976747 -0.00058705097004947866 0 0.021082919797721447 -0.0011737739663904474 0 0.02113307048921139 0.00022346207598550381 0 0.021783585064976747 -0.00058705097004947866 0 0.021082919797721447 -0.0011737739663904474 0 0.02113307048921139 0.00022346207598550381 0 0.020260517177524136 -0.00053610829191896728 0 0.021082919797721447 -0.0011737739663904474 0 0.020382709949222678 -0.0018600852326305056 0 0.021081043316802918 -0.0024842353866337983 0 0.021082919797721447 -0.0011737739663904474 0 0.020162035650085779 -0.0043824920275452716 0 0.020718416854945968 -0.0043251744499003602 0 0.020641045664162094 -0.0036519656893426655 0 0.020549637904837912 -0.0030950326469497825 0 0.020447893101663065 -0.0020933795223788644 0 0.020382709949222678 -0.0018600852326305056 0 0.020260517177524136 -0.00053610829191896728 0 0.021082919797721447 -0.0011737739663904474 0 0.020162035650085779 -0.0043824920275452716 0 0.020641045664162094 -0.0036519656893426655 0 0.01991519404949732 -0.0037186075172433884 0 0.020162035650085779 -0.0043824920275452716 0 0.01991519404949732 -0.0037186075172433884 0 0.019565204817262569 -0.0042306405434412893 0 0.01991519404949732 -0.0037186075172433884 0 0.019705169347293217 -0.0032361185350099561 0 0.01943321675475336 -0.0035463975917492054 0 0.020641045664162094 -0.0036519656893426655 0 0.01991519404949732 -0.0037186075172433884 0 0.020073684107858952 -0.0032516369589303518 0 0.020641045664162094 -0.0036519656893426655 0 0.020073684107858952 -0.0032516369589303518 0 0.020547847615909502 -0.0029275262213917545 0 0.01991519404949732 -0.0037186075172433884 0 0.019705169347293217 -0.0032361185350099561 0 0.020073684107858952 -0.0032516369589303518 0 0.019705169347293217 -0.0032361185350099561 0 0.020073684107858952 -0.0032516369589303518 0 0.019888686520784477 -0.0027218526999427924 0 0.019705169347293217 -0.0032361185350099561 0 0.019888686520784477 -0.0027218526999427924 0 0.019424586108679958 -0.0029341805781909927 0 0.019787048002438853 -0.002136452078938316 0 0.019888686520784477 -0.0027218526999427924 0 0.019424586108679958 -0.0029341805781909927 0 0.020073684107858952 -0.0032516369589303518 0 0.019888686520784477 -0.0027218526999427924 0 0.020547847615909502 -0.0029275262213917545 0 0.020429353746581516 -0.0021445459136384838 0 0.019888686520784477 -0.0027218526999427924 0 0.020547847615909502 -0.0029275262213917545 0 0.020101490419471381 -4.4171059801798646e-05 0 0.020349348635458491 -0.0011638625268902728 0 0.019754845077247153 -0.0051289322888129337 0 0.019694845518805123 -0.005115631942949765 0 0.019672756313521333 -0.0050741213797733855 0 0.019754845077247153 -0.0051289322888129337 0 0.019780629377864185 -0.0051654436499962543 0 0.019712670006454217 -0.0051107731260001225 0 0.019754845077247153 -0.0051289322888129337 0 0.019839687611114005 -0.0051904557371248517 0 0.019780629377864185 -0.0051654436499962543 0 0.019754845077247153 -0.0051289322888129337 0 0.019839687611114005 -0.0051904557371248517 0 0.019827935011304573 -0.0051789381715535146 0 0.019892662439642193 -0.0052213630954485229 0 0.019827935011304573 -0.0051789381715535146 0 0.019694845518805123 -0.005115631942949765 0 0.019754845077247153 -0.0051289322888129337 0 0.019827935011304573 -0.0051789381715535146 0 0.019694845518805123 -0.005115631942949765 0 0.019553279096546722 -0.0021661908096343024 0 0.019424586108679958 -0.0029341805781909927 0 0.019283320900161514 -0.0028244716054199211 0 0.020014064080580554 -0.0022227287898369218 0 0.019500094922652374 -0.0027867486994795315 0 0.019694845518805123 -0.005115631942949765 0 0.019672756313521333 -0.0050741213797733855 0 0.019591841800769425 -0.0050041012247742985 0 0.019429584373638273 -0.0039088045235236967 0 0.019523257619669186 -0.0042854848586597752 0 0.019705169347293217 -0.0032361185350099561 0 0.019424586108679958 -0.0029341805781909927 0 0.01943321675475336 -0.0035463975917492054 0 0.019424586108679958 -0.0029341805781909927 0 0.019283320900161514 -0.0028244716054199211 0 0.01943321675475336 -0.0035463975917492054 0 0.019670726465835946 -0.0050658128571483534 0 0.019617241362228862 -0.0050174162039019945 0 0.019591841800769425 -0.0050041012247742985 0 0.019672756313521333 -0.0050741213797733855 0 0.019670726465835946 -0.0050658128571483534 0 0.019591841800769425 -0.0050041012247742985 0 0.019754845077247153 -0.0051289322888129337 0 0.019672756313521333 -0.0050741213797733855 0 0.019670726465835946 -0.0050658128571483534 0 0.019754845077247153 -0.0051289322888129337 0 0.019670726465835946 -0.0050658128571483534 0 0.019712670006454217 -0.0051107731260001225 0 0.019670726465835946 -0.0050658128571483534 0 0.019617241362228862 -0.0050174162039019945 0 0.019646140227081946 -0.0050604590523378422 0 0.019617241362228862 -0.0050174162039019945 0 0.019574129104620887 -0.0049760564777209908 0 0.019560526517592287 -0.0049965456113142438 0 0.019617241362228862 -0.0050174162039019945 0 0.019591841800769425 -0.0050041012247742985 0 0.019574129104620887 -0.0049760564777209908 0 0.01991519404949732 -0.0037186075172433884 0 0.01943321675475336 -0.0035463975917492054 0 0.019565204817262569 -0.0042306405434412893 0 0.019523257619669186 -0.0042854848586597752 0 0.019591037215972735 -0.0045988765833339957 0 0.019591841800769425 -0.0050041012247742985 0 0.019601600348274906 -0.0049554167362711775 0 0.019574129104620887 -0.0049760564777209908 0 0.019549804627173768 -0.0049861221481972079 0 0.019601600348274906 -0.0049554167362711775 0 0.019574129104620887 -0.0049760564777209908 0 0.019549804627173768 -0.0049861221481972079 0 0.019574129104620887 -0.0049760564777209908 0 0.019475198108757023 -0.0049901775410500825 0 0.019475198108757023 -0.0049901775410500825 0 0.019560526517592287 -0.0049965456113142438 0 0.019464165783840449 -0.0049898715940659847 0 0.019574129104620887 -0.0049760564777209908 0 0.019475198108757023 -0.0049901775410500825 0 0.019560526517592287 -0.0049965456113142438 0 0.019617241362228862 -0.0050174162039019945 0 0.019560526517592287 -0.0049965456113142438 0 0.019646140227081946 -0.0050604590523378422 0 0.019560526517592287 -0.0049965456113142438 0 0.019571607254501244 -0.0050150028046836072 0 0.019646140227081946 -0.0050604590523378422 0 0.019571607254501244 -0.0050150028046836072 0 0.019464165783840449 -0.0049898715940659847 0 0.019423310965029257 -0.0049758783438169285 0 0.019560526517592287 -0.0049965456113142438 0 0.019571607254501244 -0.0050150028046836072 0 0.019464165783840449 -0.0049898715940659847 0 0.019331559789774588 -0.0050218506631634543 0 0.019475198108757023 -0.0049901775410500825 0 0.019464165783840449 -0.0049898715940659847 0 0.019331559789774588 -0.0050218506631634543 0 0.019464165783840449 -0.0049898715940659847 0 0.019423310965029257 -0.0049758783438169285 0 0.019174431375935892 -0.004975392634005673 0 0.019423310965029257 -0.0049758783438169285 0 0.019542486833584338 -0.0049801847147764467 0 0.019423310965029257 -0.0049758783438169285 0 0.01965485979397695 -0.0050876921373482209 0 0.019542486833584338 -0.0049801847147764467 0 0.01965485979397695 -0.0050876921373482209 0 0.019542486833584338 -0.0049801847147764467 0 0.019737162694762844 -0.0052232230333879772 0 0.019571607254501244 -0.0050150028046836072 0 0.019423310965029257 -0.0049758783438169285 0 0.019669449376590518 -0.005057573565875959 0 0.019423310965029257 -0.0049758783438169285 0 0.019669449376590518 -0.005057573565875959 0 0.01965485979397695 -0.0050876921373482209 0 0.019669449376590518 -0.005057573565875959 0 0.01965485979397695 -0.0050876921373482209 0 0.019992026127154179 -0.0050950073676287212 0 0.01965485979397695 -0.0050876921373482209 0 0.019992026127154179 -0.0050950073676287212 0 0.019737162694762844 -0.0052232230333879772 0 0.020017247626931588 -0.0051039496917211968 0 0.020696189485214306 -0.0047543891061696758 0 0.019669449376590518 -0.005057573565875959 0 0.019992026127154179 -0.0050950073676287212 0 0.019718810915457383 -0.0051655185128566677 0 0.019992026127154179 -0.0050950073676287212 0 0.019718810915457383 -0.0051655185128566677 0 0.019795492441037493 -0.0053081594979033407 0 0.019705514551819264 -0.0051647497233645243 0 0.019705511674257881 -0.0051300677117306253 0 0.019665423274526486 -0.0051008301045921203 0 0.019718810915457383 -0.0051655185128566677 0 0.019705514551819264 -0.0051647497233645243 0 0.019665423274526486 -0.0051008301045921203 0 0.019718810915457383 -0.0051655185128566677 0 0.019705514551819264 -0.0051647497233645243 0 0.01970834914377434 -0.0052014014136074907 0 0.019705514551819264 -0.0051647497233645243 0 0.019767295025766032 -0.0052048044898202091 0 0.01970834914377434 -0.0052014014136074907 0 0.019705514551819264 -0.0051647497233645243 0 0.019748294260077254 -0.0051727519690224983 0 0.019767295025766032 -0.0052048044898202091 0 0.019748294260077254 -0.0051727519690224983 0 0.019802793187838501 -0.005195303675107215 0 0.019767295025766032 -0.0052048044898202091 0 0.019839687611114005 -0.0051904557371248517 0 0.019780629377864185 -0.0051654436499962543 0 0.019802793187838501 -0.005195303675107215 0 0.019748294260077254 -0.0051727519690224983 0 0.019780629377864185 -0.0051654436499962543 0 0.019802793187838501 -0.005195303675107215 0 0.019780629377864185 -0.0051654436499962543 0 0.019705511674257881 -0.0051300677117306253 0 0.019712670006454217 -0.0051107731260001225 0 0.019748294260077254 -0.0051727519690224983 0 0.019780629377864185 -0.0051654436499962543 0 0.019705511674257881 -0.0051300677117306253 0 0.019705514551819264 -0.0051647497233645243 0 0.019748294260077254 -0.0051727519690224983 0 0.019705511674257881 -0.0051300677117306253 0 0.019705511674257881 -0.0051300677117306253 0 0.019646140227081946 -0.0050604590523378422 0 0.019665423274526486 -0.0051008301045921203 0 0.019670726465835946 -0.0050658128571483534 0 0.019712670006454217 -0.0051107731260001225 0 0.019646140227081946 -0.0050604590523378422 0 0.019705511674257881 -0.0051300677117306253 0 0.019712670006454217 -0.0051107731260001225 0 0.019646140227081946 -0.0050604590523378422 0 0.019669449376590518 -0.005057573565875959 0 0.019718810915457383 -0.0051655185128566677 0 0.019665423274526486 -0.0051008301045921203 0 0.019571607254501244 -0.0050150028046836072 0 0.019669449376590518 -0.005057573565875959 0 0.019665423274526486 -0.0051008301045921203 0 0.019571607254501244 -0.0050150028046836072 0 0.019646140227081946 -0.0050604590523378422 0 0.019665423274526486 -0.0051008301045921203 0 0.022911228823465257 -0.0044261646304699096 0 0.02297462002250179 -0.0043873672895732426 0 0.02304682870685875 -0.0044487403434363918 0 0.022932013384670921 -0.0044679099203095178 0 0.022893392846244125 -0.004448673834333448 0 0.022967662646449342 -0.0044226311923281055 0 0.022893392846244125 -0.004448673834333448 0 0.02297462002250179 -0.0043873672895732426 0 0.022967662646449342 -0.0044226311923281055 0 0.022459312579945351 -0.0042749163025220457 0 0.02156194898791549 -0.0045257421053235434 0 0.02297462002250179 -0.0043873672895732426 0 0.022967662646449342 -0.0044226311923281055 0 0.022977549178128522 -0.0043195962886812891 0 0.02122279539619655 -0.0048241285059445783 0 0.020412947119886254 -0.0051348546846553354 0 0.020595348498837356 -0.0048748983824210288 0 0.023265599031311372 -0.0036051755373189632 0 0.023032101719142474 -0.003841684897591879 0 0.022814727321301499 -0.003968518103929077 0 0.02122279539619655 -0.0048241285059445783 0 0.020855117398189047 -0.0047252048569203023 0 0.020595348498837356 -0.0048748983824210288 0 0.022459312579945351 -0.0042749163025220457 0 0.023035242513078948 -0.0040004224787018629 0 0.02297462002250179 -0.0043873672895732426 0 0.022979465182445778 -0.0043101466556422167 0 0.02304682870685875 -0.0044487403434363918 0 0.022977549178128522 -0.0043195962886812891 0 0.022979465182445778 -0.0043101466556422167 0 0.022758343637498141 -0.0041109664651079051 0 0.023035242513078948 -0.0040004224787018629 0 0.022782653550252739 -0.0041717768990571363 0 0.02297462002250179 -0.0043873672895732426 0 0.022977549178128522 -0.0043195962886812891 0 0.022979465182445778 -0.0043101466556422167 0 0.022979465182445778 -0.0043101466556422167 0 0.022758343637498141 -0.0041109664651079051 0 0.022976868085662992 -0.0044185865745115021 0 0.020412947119886254 -0.0051348546846553354 0 0.020002413858550776 -0.0050165209680379675 0 0.019737162694762844 -0.0052232230333879772 0 0.02156194898791549 -0.0045257421053235434 0 0.020696189485214306 -0.0047543891061696758 0 0.022758343637498141 -0.0041109664651079051 0 0.022814727321301499 -0.003968518103929077 0 0.021647823182111715 -0.0042137609288786099 0 0.020412947119886254 -0.0051348546846553354 0 0.020310365656615981 -0.004961934366990715 0 0.020002413858550776 -0.0050165209680379675 0 0.023032101719142474 -0.003841684897591879 0 0.022758343637498141 -0.0041109664651079051 0 0.022814727321301499 -0.003968518103929077 0 0.020595348498837356 -0.0048748983824210288 0 0.020263721536374898 -0.0047636009335409388 0 0.020310365656615981 -0.004961934366990715 0 0.020412947119886254 -0.0051348546846553354 0 0.020595348498837356 -0.0048748983824210288 0 0.020310365656615981 -0.004961934366990715 0 0.020450064125246987 -0.0045818908193072305 0 0.020855117398189047 -0.0047252048569203023 0 0.020595348498837356 -0.0048748983824210288 0 0.020450064125246987 -0.0045818908193072305 0 0.020595348498837356 -0.0048748983824210288 0 0.020263721536374898 -0.0047636009335409388 0 0.020263721536374898 -0.0047636009335409388 0 0.020310365656615981 -0.004961934366990715 0 0.020002413858550776 -0.0050165209680379675 0 0.019430969289240714 -0.0047336261743110555 0 0.019493581957591707 -0.0049865343765898304 0 0.020263721536374898 -0.0047636009335409388 0 0.019542486833584338 -0.0049801847147764467 0 0.020002413858550776 -0.0050165209680379675 0 0.018783907248717011 -0.00496679225262867 0 0.019174431375935892 -0.004975392634005673 0 0.019542486833584338 -0.0049801847147764467 0 0.02009219715282937 -0.0043949806375107609 0 0.020263721536374898 -0.0047636009335409388 0 0.019542486833584338 -0.0049801847147764467 0 0.019542486833584338 -0.0049801847147764467 0 0.020002413858550776 -0.0050165209680379675 0 0.019737162694762844 -0.0052232230333879772 0 0.019992026127154179 -0.0050950073676287212 0 0.021647823182111715 -0.0042137609288786099 0 0.021614420018518054 -0.0055796570728864356 0 0.023345323949521078 -0.0049320603465250563 0 0.023595648689767362 -0.005089464063257226 0 0.021647823182111715 -0.0042137609288786099 0 0.023262887528309167 -0.0048864644953276418 0 0.021614420018518054 -0.0055796570728864356 0 0.022758343637498141 -0.0041109664651079051 0 0.021647823182111715 -0.0042137609288786099 0 0.022976868085662992 -0.0044185865745115021 0 0.021647823182111715 -0.0042137609288786099 0 0.022976868085662992 -0.0044185865745115021 0 0.023262887528309167 -0.0048864644953276418 0 0.022976868085662992 -0.0044185865745115021 0 0.02304682870685875 -0.0044487403434363918 0 0.023262887528309167 -0.0048864644953276418 0 0.02304682870685875 -0.0044487403434363918 0 0.023262887528309167 -0.0048864644953276418 0 0.022967174026925351 -0.004450797013945536 0 0.022979465182445778 -0.0043101466556422167 0 0.022976868085662992 -0.0044185865745115021 0 0.02304682870685875 -0.0044487403434363918 0 0.023262887528309167 -0.0048864644953276418 0 0.022967174026925351 -0.004450797013945536 0 0.022971046232207842 -0.0039805628980019141 0 0.022911228823465257 -0.0044261646304699096 0 0.02304682870685875 -0.0044487403434363918 0 0.022967174026925351 -0.004450797013945536 0 0.022848754643267365 -0.0040759556885365351 0 0.022968649615766046 -0.0038050684950974938 0 0.022971046232207842 -0.0039805628980019141 0 0.022968649615766046 -0.0038050684950974938 0 0.022971046232207842 -0.0039805628980019141 0 0.023217842987311527 -0.003729514049201306 0 0.022848754643267365 -0.0040759556885365351 0 0.022967174026925351 -0.004450797013945536 0 0.022971046232207842 -0.0039805628980019141 0 0.023262887528309167 -0.0048864644953276418 0 0.022971046232207842 -0.0039805628980019141 0 0.024096369759757309 -0.0033255912496782123 0 0.022971046232207842 -0.0039805628980019141 0 0.024096369759757309 -0.0033255912496782123 0 0.023140480046207151 -0.0018668709540947445 0 0.023071633224217569 -0.0038507717522876929 0 0.0228063053831431 -0.0028208565168679422 0 0.024096369759757309 -0.0033255912496782123 0 0.025868564665875629 -0.0026800480526384717 0 0.02448817018543514 -0.00086461170558481426 0 0.023262887528309167 -0.0048864644953276418 0 0.024096369759757309 -0.0033255912496782123 0 0.025511136965384703 -0.0047267574951612408 0 0.025511136965384703 -0.0047267574951612408 0 0.025868564665875629 -0.0026800480526384717 0 0.02809199312217122 -0.0041547509966994743 0 0.024096369759757309 -0.0033255912496782123 0 0.025511136965384703 -0.0047267574951612408 0 0.025868564665875629 -0.0026800480526384717 0 0.025868564665875629 -0.0026800480526384717 0 0.026017897583169129 -0.00032697913545856394 0 0.027445944742740022 -0.0026867533605812498 0 0.025868564665875629 -0.0026800480526384717 0 0.026017897583169129 -0.00032697913545856394 0 0.02448817018543514 -0.00086461170558481426 0 0.029632464076756643 -0.0017339121974650948 0 0.028496621846194402 -0.0011061455101831097 0 0.029775232316065763 -0.00058020155073798801 0 0.026017897583169129 -0.00032697913545856394 0 0.024072190694166308 0.00062213850653957217 0 0.02448817018543514 -0.00086461170558481426 0 0.027499386440286662 -0.0008642358933828514 0 0.02790163005893307 -0.00086047309153330117 0 0.024072190694166308 0.00062213850653957217 0 0.02448817018543514 -0.00086461170558481426 0 0.023745414631206285 0.00048161242734068662 0 0.02790163005893307 -0.00086047309153330117 0 0.026665992379955948 -0.0016674550779780212 0 0.027920007009260672 -0.00076829317357670376 0 0.027879011921887908 -0.00078690715330980885 0 0.027890336369668495 -0.00075251988910881445 0 0.024096369759757309 -0.0033255912496782123 0 0.02448817018543514 -0.00086461170558481426 0 0.023140480046207151 -0.0018668709540947445 0 0.023217842987311527 -0.003729514049201306 0 0.023144355130528722 -0.0034006159347880547 0 0.023061652774987541 -0.0036188543804711979 0 0.02448817018543514 -0.00086461170558481426 0 0.023140480046207151 -0.0018668709540947445 0 0.023745414631206285 0.00048161242734068662 0 0.02896783461807937 -0.0022712487589878943 0 0.028647444296128026 -0.0024182191341964791 0 0.028673664477893226 -0.0020160594723826861 0 0.0228063053831431 -0.0028208565168679422 0 0.026665992379955948 -0.0016674550779780212 0 0.023217842987311527 -0.003729514049201306 0 0.02343325924150547 -0.0032716942309567293 0 0.023144355130528722 -0.0034006159347880547 0 0.026665992379955948 -0.0016674550779780212 0 0.028683010587259031 -0.0012306609296336571 0 0.026665992379955948 -0.0016674550779780212 0 0.025386783388778207 -0.0031522760257041175 0 0.033519796481164828 -0.0016486421658917863 0 0.033813608958668577 -0.0033909127255443562 0 0.035037874156591056 -0.00067853274688259204 0 0.028647444296128026 -0.0024182191341964791 0 0.028322717290198363 -0.0025657365062213052 0 0.028673664477893226 -0.0020160594723826861 0 0.025386783388778207 -0.0031522760257041175 0 0.028885781880218748 -0.0035379912416248576 0 0.023144355130528722 -0.0034006159347880547 0 0.022925519492667586 -0.0035302967626146182 0 0.023061652774987541 -0.0036188543804711979 0 0.028885781880218748 -0.0035379912416248576 0 0.031994712324029423 -0.0008894270646600419 0 0.022968649615766046 -0.0038050684950974938 0 0.022925519492667586 -0.0035302967626146182 0 0.023061652774987541 -0.0036188543804711979 0 0.022968649615766046 -0.0038050684950974938 0 0.023217842987311527 -0.003729514049201306 0 0.023061652774987541 -0.0036188543804711979 0 0.031536316138613997 -0.0028720996624084527 0 0.031533214591847498 -0.003036881426053246 0 0.033085362935967338 -0.0024416621588339159 0 0.019665191327491761 -0.005127692301479061 0 0.019697426389349355 -0.0050233821814917746 0 0.019692242979035855 -0.0051611191365878613 0 0.019665191327491761 -0.005127692301479061 0 0.019697426389349355 -0.0050233821814917746 0 0.019613443343978722 -0.005140483446486566 0 0.019697426389349355 -0.0050233821814917746 0 0.019692242979035855 -0.0051611191365878613 0 0.019736832998226712 -0.0050929619417003219 0 0.019692242979035855 -0.0051611191365878613 0 0.019665715731283246 -0.0051862124265878978 0 0.019689979951221834 -0.0052197069705884501 0 0.019665191327491761 -0.005127692301479061 0 0.019692242979035855 -0.0051611191365878613 0 0.019665715731283246 -0.0051862124265878978 0 0.019665715731283246 -0.0051862124265878978 0 0.019613443343978722 -0.005140483446486566 0 0.01972844268601219 -0.0052987079006895296 0 0.019665191327491761 -0.005127692301479061 0 0.019665715731283246 -0.0051862124265878978 0 0.019613443343978722 -0.005140483446486566 0 0.031536316138613997 -0.0028720996624084527 0 0.031533214591847498 -0.003036881426053246 0 0.029350825161864259 -0.002805684191184286 0 0.019697426389349355 -0.0050233821814917746 0 0.019613443343978722 -0.005140483446486566 0 0.019774304530555162 -0.0048318093622616628 0 0.025585010029192577 -0.0040625482203782756 0 0.026529231567690277 -0.0033189516125107627 0 0.019613443343978722 -0.005140483446486566 0 0.019774304530555162 -0.0048318093622616628 0 0.019866469058677259 -0.004257816172010525 0 0.019774304530555162 -0.0048318093622616628 0 0.019955425727236832 -0.0048508658008586444 0 0.019866469058677259 -0.004257816172010525 0 0.020275449987037151 -0.0047040214536567494 0 0.019955425727236832 -0.0048508658008586444 0 0.019866469058677259 -0.004257816172010525 0 0.019774304530555162 -0.0048318093622616628 0 0.019955425727236832 -0.0048508658008586444 0 0.019837559028005818 -0.0050604629995170004 0 0.019955425727236832 -0.0048508658008586444 0 0.019956092379374672 -0.0051096919598610062 0 0.019837559028005818 -0.0050604629995170004 0 0.019697426389349355 -0.0050233821814917746 0 0.019774304530555162 -0.0048318093622616628 0 0.019736832998226712 -0.0050929619417003219 0 0.019774304530555162 -0.0048318093622616628 0 0.019837559028005818 -0.0050604629995170004 0 0.019736832998226712 -0.0050929619417003219 0 0.019777790499556448 -0.0051645329332807438 0 0.019862330719988445 -0.0051840469140288599 0 0.019767295025766032 -0.0052048044898202091 0 0.019736832998226712 -0.0050929619417003219 0 0.019777790499556448 -0.0051645329332807438 0 0.019725424612734237 -0.0051641345656006339 0 0.019837559028005818 -0.0050604629995170004 0 0.019777790499556448 -0.0051645329332807438 0 0.019862330719988445 -0.0051840469140288599 0 0.019837559028005818 -0.0050604629995170004 0 0.019736832998226712 -0.0050929619417003219 0 0.019777790499556448 -0.0051645329332807438 0 0.019777790499556448 -0.0051645329332807438 0 0.019713511922188346 -0.0052047791597063416 0 0.019725424612734237 -0.0051641345656006339 0 0.019978012878001033 -0.0052253181222770501 0 0.019956092379374672 -0.0051096919598610062 0 0.019862330719988445 -0.0051840469140288599 0 0.019956092379374672 -0.0051096919598610062 0 0.019837559028005818 -0.0050604629995170004 0 0.019862330719988445 -0.0051840469140288599 0 0.019978012878001033 -0.0052253181222770501 0 0.019862330719988445 -0.0051840469140288599 0 0.019870948852352341 -0.0052151388289278433 0 0.019802793187838501 -0.005195303675107215 0 0.019870948852352341 -0.0052151388289278433 0 0.019767295025766032 -0.0052048044898202091 0 0.019862330719988445 -0.0051840469140288599 0 0.019870948852352341 -0.0052151388289278433 0 0.019767295025766032 -0.0052048044898202091 0 0.019839687611114005 -0.0051904557371248517 0 0.019802793187838501 -0.005195303675107215 0 0.019870948852352341 -0.0052151388289278433 0 0.019777790499556448 -0.0051645329332807438 0 0.019767295025766032 -0.0052048044898202091 0 0.019713511922188346 -0.0052047791597063416 0 0.019767295025766032 -0.0052048044898202091 0 0.01970834914377434 -0.0052014014136074907 0 0.019713511922188346 -0.0052047791597063416 0 0.01970834914377434 -0.0052014014136074907 0 0.019713511922188346 -0.0052047791597063416 0 0.019707829056370967 -0.0052479041798500509 0 0.019692242979035855 -0.0051611191365878613 0 0.019713511922188346 -0.0052047791597063416 0 0.019725424612734237 -0.0051641345656006339 0 0.019692242979035855 -0.0051611191365878613 0 0.019713511922188346 -0.0052047791597063416 0 0.019689979951221834 -0.0052197069705884501 0 0.019692242979035855 -0.0051611191365878613 0 0.019736832998226712 -0.0050929619417003219 0 0.019725424612734237 -0.0051641345656006339 0 0.019713511922188346 -0.0052047791597063416 0 0.019689979951221834 -0.0052197069705884501 0 0.019707829056370967 -0.0052479041798500509 0 0.019665715731283246 -0.0051862124265878978 0 0.019689979951221834 -0.0052197069705884501 0 0.01972844268601219 -0.0052987079006895296 0 0.019689979951221834 -0.0052197069705884501 0 0.019707829056370967 -0.0052479041798500509 0 0.01972844268601219 -0.0052987079006895296 0 0.019718810915457383 -0.0051655185128566677 0 0.01970834914377434 -0.0052014014136074907 0 0.019707829056370967 -0.0052479041798500509 0 0.019795492441037493 -0.0053081594979033407 0 0.01972844268601219 -0.0052987079006895296 0 0.020053572536536092 -0.005664078319673747 0 0.019718810915457383 -0.0051655185128566677 0 0.019707829056370967 -0.0052479041798500509 0 0.019795492441037493 -0.0053081594979033407 0 0.019992026127154179 -0.0050950073676287212 0 0.019795492441037493 -0.0053081594979033407 0 0.020053572536536092 -0.005664078319673747 0 0.019707829056370967 -0.0052479041798500509 0 0.019795492441037493 -0.0053081594979033407 0 0.01972844268601219 -0.0052987079006895296 0 0.023595648689767362 -0.005089464063257226 0 0.02416270476918549 -0.0048645033889988844 0 0.019992026127154179 -0.0050950073676287212 0 0.021614420018518054 -0.0055796570728864356 0 0.020053572536536092 -0.005664078319673747 0 0.025868564665875629 -0.0026800480526384717 0 0.02809199312217122 -0.0041547509966994743 0 0.027445944742740022 -0.0026867533605812498 0 0.02809199312217122 -0.0041547509966994743 0 0.027445944742740022 -0.0026867533605812498 0 0.029350825161864259 -0.002805684191184286 0 0.027445944742740022 -0.0026867533605812498 0 0.029350825161864259 -0.002805684191184286 0 0.028348526542478294 -0.0012679385805037162 0 0.019613443343978722 -0.005140483446486566 0 0.01972844268601219 -0.0052987079006895296 0 0.020053572536536092 -0.005664078319673747 0 0.031533214591847498 -0.003036881426053246 0 0.02809199312217122 -0.0041547509966994743 0 0.029350825161864259 -0.002805684191184286 0 0.025585010029192577 -0.0040625482203782756 0 0.02416270476918549 -0.0048645033889988844 0 0.031536316138613997 -0.0028720996624084527 0 0.029350825161864259 -0.002805684191184286 0 0.028348526542478294 -0.0012679385805037162 0 0.031454879184535517 -0.0021235389542249819 0 0.030754313319712435 -0.0023238667240275414 0 0.030975461033799848 -0.0012930218116919895 0 0.031536316138613997 -0.0028720996624084527 0 0.031454879184535517 -0.0021235389542249819 0 0.030754313319712435 -0.0023238667240275414 0 0.031386750494636913 -0.0027916811498541992 0 0.029668044024861839 -0.0018753023111275622 0 0.026017897583169129 -0.00032697913545856394 0 0.027445944742740022 -0.0026867533605812498 0 0.028348526542478294 -0.0012679385805037162 0 0.027499386440286662 -0.0008642358933828514 0 0.029668044024861839 -0.0018753023111275622 0 0.029632464076756643 -0.0017339121974650948 0 0.030754313319712435 -0.0023238667240275414 0 0.030975461033799848 -0.0012930218116919895 0 0.029632464076756643 -0.0017339121974650948 0 0.030975461033799848 -0.0012930218116919895 0 0.029775232316065763 -0.00058020155073798801 0 0.031454879184535517 -0.0021235389542249819 0 0.030975461033799848 -0.0012930218116919895 0 0.032106387495505727 -0.0015317668445608524 0 0.030975461033799848 -0.0012930218116919895 0 0.032106387495505727 -0.0015317668445608524 0 0.03209218445794846 -0.00053963376497885942 0 0.031536316138613997 -0.0028720996624084527 0 0.032170546802213658 -0.002225760406657968 0 0.033085362935967338 -0.0024416621588339159 0 0.031536316138613997 -0.0028720996624084527 0 0.031454879184535517 -0.0021235389542249819 0 0.032170546802213658 -0.002225760406657968 0 0.031454879184535517 -0.0021235389542249819 0 0.032106387495505727 -0.0015317668445608524 0 0.032170546802213658 -0.002225760406657968 0 0.032170546802213658 -0.002225760406657968 0 0.033085362935967338 -0.0024416621588339159 0 0.033201883874323518 -0.0017624674270632868 0 0.032106387495505727 -0.0015317668445608524 0 0.033040668338490967 -0.0011309343916044846 0 0.033201883874323518 -0.0017624674270632868 0 0.032106387495505727 -0.0015317668445608524 0 0.032170546802213658 -0.002225760406657968 0 0.033201883874323518 -0.0017624674270632868 0 0.033040668338490967 -0.0011309343916044846 0 0.033283271896740546 -0.00031057667620598169 0 0.0336109432258219 -0.0006519201208987738 0 0.033040668338490967 -0.0011309343916044846 0 0.033283271896740546 -0.00031057667620598169 0 0.03209218445794846 -0.00053963376497885942 0 0.033283271896740546 -0.00031057667620598169 0 0.033803631331128355 3.9255410514506716e-05 0 0.033879907447138403 -0.00010883255065572393 0 0.033283271896740546 -0.00031057667620598169 0 0.033319794598678336 -5.8662306679499804e-05 0 0.033803631331128355 3.9255410514506716e-05 0 0.033186182840426119 -0.00014227696633867736 0 0.033236926283024014 -7.1849779431953986e-06 0 0.033283271896740546 -0.00031057667620598169 0 0.032532037992133077 0.00059715424407804133 0 0.03209218445794846 -0.00053963376497885942 0 0.032532037992133077 0.00059715424407804133 0 0.03209218445794846 -0.00053963376497885942 0 0.031061402230852825 -3.3912837685424705e-05 0 0.033236926283024014 -7.1849779431953986e-06 0 0.031769076163293025 -0.00025978389541987706 0 0.032106387495505727 -0.0015317668445608524 0 0.033040668338490967 -0.0011309343916044846 0 0.03209218445794846 -0.00053963376497885942 0 0.030975461033799848 -0.0012930218116919895 0 0.03209218445794846 -0.00053963376497885942 0 0.031061402230852825 -3.3912837685424705e-05 0 0.030975461033799848 -0.0012930218116919895 0 0.031061402230852825 -3.3912837685424705e-05 0 0.029775232316065763 -0.00058020155073798801 0 0.031769076163293025 -0.00025978389541987706 0 0.031206130598943834 -0.00073068002356646794 0 0.032110217447869786 -0.00040628999847989268 0 0.032733596660416635 -0.00048644319416714089 0 0.031909730468456583 -0.00091720087439011507 0 0.032110217447869786 -0.00040628999847989268 0 0.032405380213437578 -7.8086013014052344e-05 0 0.031795547112984275 -6.8613899820298881e-05 0 0.032110217447869786 -0.00040628999847989268 0 0.032733596660416635 -0.00048644319416714089 0 0.032405380213437578 -7.8086013014052344e-05 0 0.032733596660416635 -0.00048644319416714089 0 0.03287558164143143 -7.4362193512246324e-05 0 0.032405380213437578 -7.8086013014052344e-05 0 0.033337572972260511 -0.00018778654809935129 0 0.032733596660416635 -0.00048644319416714089 0 0.03287558164143143 -7.4362193512246324e-05 0 0.03287558164143143 -7.4362193512246324e-05 0 0.032405380213437578 -7.8086013014052344e-05 0 0.032592530105993778 0.00028865027074717717 0 0.03287558164143143 -7.4362193512246324e-05 0 0.032592530105993778 0.00028865027074717717 0 0.032955905736603973 0.00025663750220089875 0 0.032405380213437578 -7.8086013014052344e-05 0 0.032592530105993778 0.00028865027074717717 0 0.032217731732472062 0.00023418313719813236 0 0.032337174433079596 -6.9050641872627272e-05 0 0.031977670955573662 -7.8210932459268448e-05 0 0.032217731732472062 0.00023418313719813236 0 0.032054820514359698 0.00058535405827419239 0 0.032606988315452418 0.00064913592962667491 0 0.032592530105993778 0.00028865027074717717 0 0.032217731732472062 0.00023418313719813236 0 0.032606988315452418 0.00064913592962667491 0 0.032592530105993778 0.00028865027074717717 0 0.032955905736603973 0.00025663750220089875 0 0.032606988315452418 0.00064913592962667491 0 0.033797288769725077 9.084852994200786e-05 0 0.033891838622342456 0.00029866614721589285 0 0.033652248760469357 0.00027392389816522001 0 0.033322802538559321 0.00019836648022910104 0 0.03390866070243248 0.00039058327393895345 0 0.033797288769725077 9.084852994200786e-05 0 0.033916437103982726 7.5378616538917815e-05 0 0.033891838622342456 0.00029866614721589285 0 0.033916437103982726 7.5378616538917815e-05 0 0.034068352539915921 0.00013330181438203249 0 0.033891838622342456 0.00029866614721589285 0 0.033880279069537549 4.0357753498098023e-05 0 0.033916437103982726 7.5378616538917815e-05 0 0.033803631331128355 3.9255410514506716e-05 0 0.033916437103982726 7.5378616538917815e-05 0 0.034068352539915921 0.00013330181438203249 0 0.033803631331128355 3.9255410514506716e-05 0 0.034068352539915921 0.00013330181438203249 0 0.033803631331128355 3.9255410514506716e-05 0 0.03413754722718701 0.00012643282398420262 0 0.033236926283024014 -7.1849779431953986e-06 0 0.033836831719488168 8.6156491076158233e-05 0 0.033337572972260511 -0.00018778654809935129 0 0.03287558164143143 -7.4362193512246324e-05 0 0.032955905736603973 0.00025663750220089875 0 0.033880279069537549 4.0357753498098023e-05 0 0.033797288769725077 9.084852994200786e-05 0 0.033916437103982726 7.5378616538917815e-05 0 0.033236926283024014 -7.1849779431953986e-06 0 0.033322802538559321 0.00019836648022910104 0 0.033220391034478353 -0.0001239724523298667 0 0.033501061746483492 -9.4398756783880571e-05 0 0.033217752639077003 -8.6927833647015883e-05 0 0.033006471133420263 -0.00018043042427266627 0 0.032926726378185188 6.3119281377729117e-05 0 0.033985132017592554 -0.00010113438748997402 0 0.031994712324029423 -0.0008894270646600419 0 0.033217752639077003 -8.6927833647015883e-05 0 0.033816648696317293 -0.00073674503047018748 0 0.035037874156591056 -0.00067853274688259204 0 0.033519796481164828 -0.0016486421658917863 0 0.033816648696317293 -0.00073674503047018748 0 0.035037874156591056 -0.00067853274688259204 0 0.030805620203936991 -0.00073254301734880197 0 0.031170783534387507 -0.00094224905993876916 0 0.031287323141596657 -0.00056519583073081931 0 0.031994712324029423 -0.0008894270646600419 0 0.028683010587259031 -0.0012306609296336571 0 0.02896783461807937 -0.0022712487589878943 0 0.028673664477893226 -0.0020160594723826861 0 0.028988477790986625 -0.0022027786806412342 0 0.033501061746483492 -9.4398756783880571e-05 0 0.032447474283492053 -5.5979431452468053e-05 0 0.031994712324029423 -0.0008894270646600419 0 0.032447474283492053 -5.5979431452468053e-05 0 0.030805620203936991 -0.00073254301734880197 0 0.03114338344475933 -0.00020555439252509738 0 0.031287323141596657 -0.00056519583073081931 0 0.033006471133420263 -0.00018043042427266627 0 0.032926726378185188 6.3119281377729117e-05 0 0.032755525466689771 -0.00020049789454959456 0 0.031433952867113708 -0.00019141969108504747 0 0.031103057178888494 -0.00049677608679563154 0 0.03114338344475933 -0.00020555439252509738 0 0.031401454447808362 -0.00018542566511210723 0 0.031287323141596657 -0.00056519583073081931 0 0.032447474283492053 -5.5979431452468053e-05 0 0.031433952867113708 -0.00019141969108504747 0 0.031176508425612925 -9.5647827410478729e-05 0 0.030993160135758247 -0.00068112055689211284 0 0.031603977362779513 -0.00044555482411281664 0 0.028683010587259031 -0.0012306609296336571 0 0.031103057178888494 -0.00049677608679563154 0 0.02790163005893307 -0.00086047309153330117 0 0.031206130598943834 -0.00073068002356646794 0 0.030912811761258908 -0.0013473197880421932 0 0.030800341372227199 -0.0012851761337271774 0 0.030993160135758247 -0.00068112055689211284 0 0.030912811761258908 -0.0013473197880421932 0 0.030993160135758247 -0.00068112055689211284 0 0.031909730468456583 -0.00091720087439011507 0 0.02790163005893307 -0.00086047309153330117 0 0.028683010587259031 -0.0012306609296336571 0 0.031176508425612925 -9.5647827410478729e-05 0 0.031603977362779513 -0.00044555482411281664 0 0.031795547112984275 -6.8613899820298881e-05 0 0.030993160135758247 -0.00068112055689211284 0 0.031909730468456583 -0.00091720087439011507 0 0.031603977362779513 -0.00044555482411281664 0 0.032110217447869786 -0.00040628999847989268 0 0.031909730468456583 -0.00091720087439011507 0 0.031603977362779513 -0.00044555482411281664 0 0.032110217447869786 -0.00040628999847989268 0 0.031603977362779513 -0.00044555482411281664 0 0.031795547112984275 -6.8613899820298881e-05 0 0.031999396228847399 7.302240790204914e-05 0 0.032217731732472062 0.00023418313719813236 0 0.031837266236327565 0.00022727177297449816 0 0.031433952867113708 -0.00019141969108504747 0 0.031977670955573662 -7.8210932459268448e-05 0 0.032405380213437578 -7.8086013014052344e-05 0 0.032121395651095834 -7.5530954291624391e-05 0 0.032217731732472062 0.00023418313719813236 0 0.031826474125679682 -8.8499517976639141e-05 0 0.031999396228847399 7.302240790204914e-05 0 0.032121395651095834 -7.5530954291624391e-05 0 0.031999396228847399 7.302240790204914e-05 0 0.032121395651095834 -7.5530954291624391e-05 0 0.032217731732472062 0.00023418313719813236 0 0.032217731732472062 0.00023418313719813236 0 0.031837266236327565 0.00022727177297449816 0 0.032054820514359698 0.00058535405827419239 0 0.03384396761248968 0.00012847700037775845 0 0.033743352194474649 0.00019777674236616779 0 0.033899959021315249 0.00021540416921866728 0 0.032789485292018167 0.00016796892156635708 0 0.033979619881714489 0.00018072331947697904 0 0.032447474283492053 -5.5979431452468053e-05 0 0.032789485292018167 0.00016796892156635708 0 0.031637366048882787 -0.00010326742983313242 0 0.031826474125679682 -8.8499517976639141e-05 0 0.031837266236327565 0.00022727177297449816 0 0.031826474125679682 -8.8499517976639141e-05 0 0.031999396228847399 7.302240790204914e-05 0 0.031837266236327565 0.00022727177297449816 0 0.033705046477848638 -2.3803468451884494e-05 0 0.033802139266362136 2.5587712889045987e-05 0 0.03376812213640059 0.00012064615001875744 0 0.033802139266362136 2.5587712889045987e-05 0 0.03384396761248968 0.00012847700037775845 0 0.03376812213640059 0.00012064615001875744 0 0.03384396761248968 0.00012847700037775845 0 0.03376812213640059 0.00012064615001875744 0 0.033743352194474649 0.00019777674236616779 0 0.03376812213640059 0.00012064615001875744 0 0.03368818648925026 0.00017119531956021067 0 0.033743352194474649 0.00019777674236616779 0 0.033786963357176403 0.00022033992361081435 0 0.03368818648925026 0.00017119531956021067 0 0.033743352194474649 0.00019777674236616779 0 0.033778568600948355 0.00019654859833308612 0 0.034310911320875825 0.00010499441109965721 0 0.033705046477848638 -2.3803468451884494e-05 0 0.03376812213640059 0.00012064615001875744 0 0.03368818648925026 0.00017119531956021067 0 0.033531937748815556 6.1533946589627315e-05 0 0.033705046477848638 -2.3803468451884494e-05 0 0.03368818648925026 0.00017119531956021067 0 0.03434340795072386 0.00028640394415733252 0 0.03467916939942934 0.00022881925528358478 0 0.034575550055636575 0.00029698794857512803 0 0.033786963357176403 0.00022033992361081435 0 0.03434340795072386 0.00028640394415733252 0 0.034681770287166173 -6.6950633829595079e-06 0 0.03434340795072386 0.00028640394415733252 0 0.034681770287166173 -6.6950633829595079e-06 0 0.03467916939942934 0.00022881925528358478 0 0.034681770287166173 -6.6950633829595079e-06 0 0.03467916939942934 0.00022881925528358478 0 0.03481943965705124 0.00010360308602704721 0 0.03467916939942934 0.00022881925528358478 0 0.034847264435661121 0.00015762554570076807 0 0.03481943965705124 0.00010360308602704721 0 0.034847264435661121 0.00015762554570076807 0 0.034901215244775408 9.9937246192197151e-05 0 0.034924742266404289 0.00011097648690622704 0 0.034847264435661121 0.00015762554570076807 0 0.03481943965705124 0.00010360308602704721 0 0.034901215244775408 9.9937246192197151e-05 0 0.03481943965705124 0.00010360308602704721 0 0.034917589087395139 2.4888818085068468e-05 0 0.034901215244775408 9.9937246192197151e-05 0 0.034681770287166173 -6.6950633829595079e-06 0 0.03481943965705124 0.00010360308602704721 0 0.034917589087395139 2.4888818085068468e-05 0 0.034310911320875825 0.00010499441109965721 0 0.033979619881714489 0.00018072331947697904 0 0.035050801392921271 0.00018672702677884905 0 0.035022314186260561 0.00015195164466792112 0 0.035033433441919122 0.0001194121500920843 0 0.033979619881714489 0.00018072331947697904 0 0.035155235109659601 0.00013676226757940562 0 0.034917589087395139 2.4888818085068468e-05 0 0.034901215244775408 9.9937246192197151e-05 0 0.034950335734472177 9.9746434078677886e-05 0 0.034901215244775408 9.9937246192197151e-05 0 0.034924742266404289 0.00011097648690622704 0 0.034950335734472177 9.9746434078677886e-05 0 0.034961874940409948 6.6427806753128785e-05 0 0.034924742266404289 0.00011097648690622704 0 0.034950335734472177 9.9746434078677886e-05 0 0.034961874940409948 6.6427806753128785e-05 0 0.034924742266404289 0.00011097648690622704 0 0.034933117079542261 9.7817582474063125e-05 0 0.034961874940409948 6.6427806753128785e-05 0 0.034999873058347238 1.019353457942088e-07 0 0.034999966869396999 4.1434608697657397e-08 0 0.034961874940409948 6.6427806753128785e-05 0 0.034999873058347238 1.019353457942088e-07 0 0.034933117079542261 9.7817582474063125e-05 0 0.034999873058347238 1.019353457942088e-07 0 0.034933117079542261 9.7817582474063125e-05 0 0.034849068635516824 0.00016259427757549878 0 0.034847264435661121 0.00015762554570076807 0 0.034933117079542261 9.7817582474063125e-05 0 0.034849068635516824 0.00016259427757549878 0 0.034847264435661121 0.00015762554570076807 0 0.034924742266404289 0.00011097648690622704 0 0.034933117079542261 9.7817582474063125e-05 0 0.03467916939942934 0.00022881925528358478 0 0.034849068635516824 0.00016259427757549878 0 0.034575550055636575 0.00029698794857512803 0 0.03467916939942934 0.00022881925528358478 0 0.034847264435661121 0.00015762554570076807 0 0.034849068635516824 0.00016259427757549878 0 0.034999873058347238 1.019353457942088e-07 0 0.034849068635516824 0.00016259427757549878 0 0.034999643176203153 2.2147879347083079e-07 0 0.034849068635516824 0.00016259427757549878 0 0.034999643176203153 2.2147879347083079e-07 0 0.034784036996987434 0.00017103516027839512 0 0.034999370503852933 1.5794288621583602e-07 0 0.034999643176203153 2.2147879347083079e-07 0 0.034784036996987434 0.00017103516027839512 0 0.034849068635516824 0.00016259427757549878 0 0.034784036996987434 0.00017103516027839512 0 0.034575550055636575 0.00029698794857512803 0 0.034809466550345718 6.8473944673352598e-05 0 0.034876511920912553 0.00025249638271422717 0 0.034944791521797247 0.00011514714596617029 0 0.034809466550345718 6.8473944673352598e-05 0 0.034876511920912553 0.00025249638271422717 0 0.034462570299330891 0.00024257006221025461 0 0.034068352539915921 0.00013330181438203249 0 0.033891838622342456 0.00029866614721589285 0 0.034462570299330891 0.00024257006221025461 0 0.03447684751982396 0.00025451992441837039 0 0.034411451778009423 0.00025221109619407052 0 0.034876511920912553 0.00025249638271422717 0 0.034976405491854448 0.00016838193310357767 0 0.034944791521797247 0.00011514714596617029 0 0.03447684751982396 0.00025451992441837039 0 0.03390866070243248 0.00039058327393895345 0 0.034876511920912553 0.00025249638271422717 0 0.034976405491854448 0.00016838193310357767 0 0.034999928003543603 0.00021207881062378539 0 0.035050801392921271 0.00018672702677884905 0 0.034990460401906037 0.00018200721624636663 0 0.035022314186260561 0.00015195164466792112 0 0.033979619881714489 0.00018072331947697904 0 0.03390866070243248 0.00039058327393895345 0 0.034976405491854448 0.00016838193310357767 0 0.034999928003543603 0.00021207881062378539 0 0.035022314186260561 0.00015195164466792112 0 0.03390866070243248 0.00039058327393895345 0 0.035101318685377053 -6.9908641266229837e-05 0 0.034976405491854448 0.00016838193310357767 0 0.035022314186260561 0.00015195164466792112 0 0.034995940388911774 0.00012736483306836788 0 0.035033433441919122 0.0001194121500920843 0 0.034995940388911774 0.00012736483306836788 0 0.034981784090128969 8.2718697013891784e-05 0 0.035022314186260561 0.00015195164466792112 0 0.035033433441919122 0.0001194121500920843 0 0.034995940388911774 0.00012736483306836788 0 0.034976405491854448 0.00016838193310357767 0 0.034995940388911774 0.00012736483306836788 0 0.034944791521797247 0.00011514714596617029 0 0.034995940388911774 0.00012736483306836788 0 0.034944791521797247 0.00011514714596617029 0 0.034981784090128969 8.2718697013891784e-05 0 0.034944791521797247 0.00011514714596617029 0 0.034981784090128969 8.2718697013891784e-05 0 0.034950429444383022 3.4323330410774312e-05 0 0.034981784090128969 8.2718697013891784e-05 0 0.034983840302420965 2.7076607883607393e-05 0 0.034950429444383022 3.4323330410774312e-05 0 0.035155235109659601 0.00013676226757940562 0 0.034929875561036938 1.3230339624453445e-05 0 0.035033433441919122 0.0001194121500920843 0 0.034981784090128969 8.2718697013891784e-05 0 0.034983840302420965 2.7076607883607393e-05 0 0.034961874940409948 6.6427806753128785e-05 0 0.034950335734472177 9.9746434078677886e-05 0 0.034983840302420965 2.7076607883607393e-05 0 0.034961874940409948 6.6427806753128785e-05 0 0.034999966869396999 4.1434608697657397e-08 0 0.034983840302420965 2.7076607883607393e-05 0 0.034999966869396999 4.1434608697657397e-08 0 0.034983840302420965 2.7076607883607393e-05 0 0.034999918629935393 1.9279722497156279e-10 0 0.034983840302420965 2.7076607883607393e-05 0 0.034999918629935393 1.9279722497156279e-10 0 0.034950429444383022 3.4323330410774312e-05 0 0.034999918629935393 1.9279722497156279e-10 0 0.034950429444383022 3.4323330410774312e-05 0 0.034913824590978866 1.4416887230460682e-05 0 0.034809466550345718 6.8473944673352598e-05 0 0.034944791521797247 0.00011514714596617029 0 0.034950429444383022 3.4323330410774312e-05 0 0.034809466550345718 6.8473944673352598e-05 0 0.034950429444383022 3.4323330410774312e-05 0 0.034913824590978866 1.4416887230460682e-05 0 0.034809466550345718 6.8473944673352598e-05 0 0.034913824590978866 1.4416887230460682e-05 0 0.034819347853494893 2.904134179638441e-05 0 0.034913824590978866 1.4416887230460682e-05 0 0.034999765446895245 -1.0672917034248198e-08 0 0.034819347853494893 2.904134179638441e-05 0 0.034999918629935393 1.9279722497156279e-10 0 0.034913824590978866 1.4416887230460682e-05 0 0.034999765446895245 -1.0672917034248198e-08 0 0.034999765446895245 -1.0672917034248198e-08 0 0.034856901279195329 2.6016478358860257e-05 0 0.034819347853494893 2.904134179638441e-05 0 0.034856901279195329 2.6016478358860257e-05 0 0.034999769476548516 7.6425991954046752e-08 0 0.034806836106074331 3.4475982887554045e-05 0 0.034999765446895245 -1.0672917034248198e-08 0 0.034856901279195329 2.6016478358860257e-05 0 0.034999769476548516 7.6425991954046752e-08 0 0.034856901279195329 2.6016478358860257e-05 0 0.034728603853761766 5.2691364962027716e-05 0 0.034806836106074331 3.4475982887554045e-05 0 0.034856901279195329 2.6016478358860257e-05 0 0.034728603853761766 5.2691364962027716e-05 0 0.034819347853494893 2.904134179638441e-05 0 0.034999936832015417 1.4328196002802119e-07 0 0.034874783111148611 2.9453548514705174e-05 0 0.03500209022103689 1.5251605043881841e-05 0 0.035000005572116133 -2.1464948146112443e-08 0 0.034999769476548516 7.6425991954046752e-08 0 0.034919120460554204 3.1097993661194996e-05 0 0.034999964406072767 1.5092757721850683e-08 0 0.034889119749798622 2.8912056923013253e-05 0 0.034806836106074331 3.4475982887554045e-05 0 0.034919120460554204 3.1097993661194996e-05 0 0.03471058231290132 -9.8325626934623324e-06 0 0.034999769476548516 7.6425991954046752e-08 0 0.034806836106074331 3.4475982887554045e-05 0 0.034919120460554204 3.1097993661194996e-05 0 0.034874783111148611 2.9453548514705174e-05 0 0.03491905937543581 -5.0249615160302769e-05 0 0.034959105605351495 4.6627474301392875e-06 0 0.034874783111148611 2.9453548514705174e-05 0 0.034959105605351495 4.6627474301392875e-06 0 0.03500209022103689 1.5251605043881841e-05 0 0.034804129796730351 -5.7801859967141502e-05 0 0.034854105369258696 -0.00017466505376451284 0 0.03491905937543581 -5.0249615160302769e-05 0 0.034874783111148611 2.9453548514705174e-05 0 0.034804129796730351 -5.7801859967141502e-05 0 0.03491905937543581 -5.0249615160302769e-05 0 0.034874783111148611 2.9453548514705174e-05 0 0.034804129796730351 -5.7801859967141502e-05 0 0.03471058231290132 -9.8325626934623324e-06 0 0.034889119749798622 2.8912056923013253e-05 0 0.03473955893794297 -1.4185726358190668e-05 0 0.034804129796730351 -5.7801859967141502e-05 0 0.03471058231290132 -9.8325626934623324e-06 0 0.034724242084778242 -8.8469233550541966e-05 0 0.034806836106074331 3.4475982887554045e-05 0 0.03471058231290132 -9.8325626934623324e-06 0 0.034648323897797435 4.5372087860463288e-05 0 0.03471058231290132 -9.8325626934623324e-06 0 0.034622868919498839 -0.00013952607086260813 0 0.034648323897797435 4.5372087860463288e-05 0 0.034622868919498839 -0.00013952607086260813 0 0.034747013000490372 -0.00015962380416492948 0 0.034617271154206743 -0.00034431149951519747 0 0.03471058231290132 -9.8325626934623324e-06 0 0.034622868919498839 -0.00013952607086260813 0 0.034724242084778242 -8.8469233550541966e-05 0 0.034804129796730351 -5.7801859967141502e-05 0 0.034747013000490372 -0.00015962380416492948 0 0.034724242084778242 -8.8469233550541966e-05 0 0.034622868919498839 -0.00013952607086260813 0 0.034747013000490372 -0.00015962380416492948 0 0.034724242084778242 -8.8469233550541966e-05 0 0.034804129796730351 -5.7801859967141502e-05 0 0.034747013000490372 -0.00015962380416492948 0 0.034854105369258696 -0.00017466505376451284 0 0.034747013000490372 -0.00015962380416492948 0 0.034854105369258696 -0.00017466505376451284 0 0.034812890451741803 -0.00030657591778205468 0 0.034809466550345718 6.8473944673352598e-05 0 0.034616448008718825 0.0001169976376097734 0 0.034462570299330891 0.00024257006221025461 0 0.034809466550345718 6.8473944673352598e-05 0 0.034819347853494893 2.904134179638441e-05 0 0.034616448008718825 0.0001169976376097734 0 0.034728603853761766 5.2691364962027716e-05 0 0.034819347853494893 2.904134179638441e-05 0 0.034616448008718825 0.0001169976376097734 0 0.034728603853761766 5.2691364962027716e-05 0 0.034616448008718825 0.0001169976376097734 0 0.034648323897797435 4.5372087860463288e-05 0 0.034728603853761766 5.2691364962027716e-05 0 0.034806836106074331 3.4475982887554045e-05 0 0.034648323897797435 4.5372087860463288e-05 0 0.034616448008718825 0.0001169976376097734 0 0.034648323897797435 4.5372087860463288e-05 0 0.03443874030394236 0.00020999990598608346 0 0.034605605115011477 5.2680688233872897e-05 0 0.03444447390298936 -1.6937519749914904e-05 0 0.034622868919498839 -0.00013952607086260813 0 0.034648323897797435 4.5372087860463288e-05 0 0.034432888343368939 -0.00024052516580737768 0 0.034616448008718825 0.0001169976376097734 0 0.034462570299330891 0.00024257006221025461 0 0.03443874030394236 0.00020999990598608346 0 0.034068352539915921 0.00013330181438203249 0 0.034462570299330891 0.00024257006221025461 0 0.03413754722718701 0.00012643282398420262 0 0.034462570299330891 0.00024257006221025461 0 0.03413754722718701 0.00012643282398420262 0 0.03443874030394236 0.00020999990598608346 0 0.03413754722718701 0.00012643282398420262 0 0.034237064249734571 5.3479521601887578e-05 0 0.033879907447138403 -0.00010883255065572393 0 0.033803631331128355 3.9255410514506716e-05 0 0.03413754722718701 0.00012643282398420262 0 0.033879907447138403 -0.00010883255065572393 0 0.034251041831061757 -0.00054092598808620784 0 0.034513981653998556 -0.00057463962119652038 0 0.034377880532787272 -0.00075334121880836263 0 0.034251041831061757 -0.00054092598808620784 0 0.034617271154206743 -0.00034431149951519747 0 0.034513981653998556 -0.00057463962119652038 0 0.034249055157402147 -0.00024653001549006129 0 0.03444447390298936 -1.6937519749914904e-05 0 0.034251041831061757 -0.00054092598808620784 0 0.034432888343368939 -0.00024052516580737768 0 0.034617271154206743 -0.00034431149951519747 0 0.03413754722718701 0.00012643282398420262 0 0.034237064249734571 5.3479521601887578e-05 0 0.03443874030394236 0.00020999990598608346 0 0.034622868919498839 -0.00013952607086260813 0 0.034432888343368939 -0.00024052516580737768 0 0.034617271154206743 -0.00034431149951519747 0 0.034747013000490372 -0.00015962380416492948 0 0.034617271154206743 -0.00034431149951519747 0 0.034812890451741803 -0.00030657591778205468 0 0.034617271154206743 -0.00034431149951519747 0 0.034812890451741803 -0.00030657591778205468 0 0.034704338862889032 -0.00048414024896077358 0 0.034854105369258696 -0.00017466505376451284 0 0.034812890451741803 -0.00030657591778205468 0 0.034936557557819312 -0.0003063342361108943 0 0.034812890451741803 -0.00030657591778205468 0 0.034870398380068987 -0.00048948343713121944 0 0.034704338862889032 -0.00048414024896077358 0 0.034812890451741803 -0.00030657591778205468 0 0.034870398380068987 -0.00048948343713121944 0 0.034936557557819312 -0.0003063342361108943 0 0.034870398380068987 -0.00048948343713121944 0 0.034704338862889032 -0.00048414024896077358 0 0.034691603897239957 -0.00074291197720097039 0 0.034870398380068987 -0.00048948343713121944 0 0.034691603897239957 -0.00074291197720097039 0 0.034902946172023205 -0.00068950591685639385 0 0.034617271154206743 -0.00034431149951519747 0 0.034704338862889032 -0.00048414024896077358 0 0.034513981653998556 -0.00057463962119652038 0 0.034704338862889032 -0.00048414024896077358 0 0.034513981653998556 -0.00057463962119652038 0 0.034691603897239957 -0.00074291197720097039 0 0.034691603897239957 -0.00074291197720097039 0 0.03435106236827988 -0.0010017406020374627 0 0.034377880532787272 -0.00075334121880836263 0 0.034513981653998556 -0.00057463962119652038 0 0.034691603897239957 -0.00074291197720097039 0 0.034377880532787272 -0.00075334121880836263 0 0.036231702005332656 -0.0016012097645391144 0 0.030729753597564885 0.00051415123939142695 0 0.034691603897239957 -0.00074291197720097039 0 0.0348916779124007 -0.00087017965763774017 0 0.034902946172023205 -0.00068950591685639385 0 0.034691603897239957 -0.00074291197720097039 0 0.034742847235250798 -0.0010529090444241693 0 0.034955839395773264 -0.001033759972520363 0 0.034577642740995569 -0.0013127348585665792 0 0.034742847235250798 -0.0010529090444241693 0 0.034930145697166258 -0.0010587696298482196 0 0.034691603897239957 -0.00074291197720097039 0 0.034742847235250798 -0.0010529090444241693 0 0.034549380566246658 -0.0011191228401167725 0 0.029592871841975964 -0.0013890235109627514 0 0.029147627840648116 0.00033004459082133341 0 0.034742847235250798 -0.0010529090444241693 0 0.034955839395773264 -0.001033759972520363 0 0.034930145697166258 -0.0010587696298482196 0 0.034691603897239957 -0.00074291197720097039 0 0.034549380566246658 -0.0011191228401167725 0 0.03435106236827988 -0.0010017406020374627 0 0.034577642740995569 -0.0013127348585665792 0 0.034742847235250798 -0.0010529090444241693 0 0.034549380566246658 -0.0011191228401167725 0 0.034307329428782257 -0.0013135932755197787 0 0.034577642740995569 -0.0013127348585665792 0 0.034549380566246658 -0.0011191228401167725 0 0.034307329428782257 -0.0013135932755197787 0 0.034549380566246658 -0.0011191228401167725 0 0.03435106236827988 -0.0010017406020374627 0 0.034307329428782257 -0.0013135932755197787 0 0.03435106236827988 -0.0010017406020374627 0 0.034135754565688521 -0.0011891042042419043 0 0.03435106236827988 -0.0010017406020374627 0 0.034135754565688521 -0.0011891042042419043 0 0.034045998380366024 -0.00093407966103933404 0 0.033790892699986363 -0.0014844333538757512 0 0.033040668338490967 -0.0011309343916044846 0 0.0336109432258219 -0.0006519201208987738 0 0.033829488265559406 -0.0014304792452139016 0 0.034055884898759416 -0.00071195624813609189 0 0.033790892699986363 -0.0014844333538757512 0 0.0336109432258219 -0.0006519201208987738 0 0.034088971592615251 -0.00043753347037192765 0 0.033790892699986363 -0.0014844333538757512 0 0.034135754565688521 -0.0011891042042419043 0 0.034045998380366024 -0.00093407966103933404 0 0.034237064249734571 5.3479521601887578e-05 0 0.034088971592615251 -0.00043753347037192765 0 0.033879907447138403 -0.00010883255065572393 0 0.0336109432258219 -0.0006519201208987738 0 0.034088971592615251 -0.00043753347037192765 0 0.033879907447138403 -0.00010883255065572393 0 0.033283271896740546 -0.00031057667620598169 0 0.0336109432258219 -0.0006519201208987738 0 0.033879907447138403 -0.00010883255065572393 0 0.034249055157402147 -0.00024653001549006129 0 0.034055884898759416 -0.00071195624813609189 0 0.034251041831061757 -0.00054092598808620784 0 0.034045998380366024 -0.00093407966103933404 0 0.034377880532787272 -0.00075334121880836263 0 0.03435106236827988 -0.0010017406020374627 0 0.034045998380366024 -0.00093407966103933404 0 0.034377880532787272 -0.00075334121880836263 0 0.033500454579959892 0.0018972422336754012 0 0.032405690154869618 0.0018113918302021079 0 0.033227406134840855 0.0026240029168782264 0 0.031712448925272557 0.0045894526385556415 0 0.031851629910968411 0.0041919821272001024 0 0.031563262412680371 0.0042685517935802794 0 0.033001104190202739 0.0030951737470376003 0 0.031579938565748991 0.0047841656869752787 0 0.031712448925272557 0.0045894526385556415 0 0.031563262412680371 0.0042685517935802794 0 0.031397501187784338 0.004442497580311771 0 0.033001104190202739 0.0030951737470376003 0 0.032164429546411633 0.0030226996912855911 0 0.031951512087274252 0.0043066318837980764 0 0.032041600975890309 0.0044293202805344937 0 0.032079702569945898 0.0042508721142285964 0 0.031835051714581418 0.0043368650499125156 0 0.031951512087274252 0.0043066318837980764 0 0.032041600975890309 0.0044293202805344937 0 0.031835051714581418 0.0043368650499125156 0 0.031951512087274252 0.0043066318837980764 0 0.031851629910968411 0.0041919821272001024 0 0.031951512087274252 0.0043066318837980764 0 0.031851629910968411 0.0041919821272001024 0 0.032079702569945898 0.0042508721142285964 0 0.031851629910968411 0.0041919821272001024 0 0.032079702569945898 0.0042508721142285964 0 0.032147191683499068 0.0039698142880444948 0 0.031732892324984732 0.0039455007087290401 0 0.031851629910968411 0.0041919821272001024 0 0.031610763372888741 0.0040855694940408185 0 0.031563262412680371 0.0042685517935802794 0 0.031610763372888741 0.0040855694940408185 0 0.031464469172696158 0.0040856018370899532 0 0.031851629910968411 0.0041919821272001024 0 0.031563262412680371 0.0042685517935802794 0 0.031610763372888741 0.0040855694940408185 0 0.03135014316595941 0.0040338128830006374 0 0.031227648857689062 0.0041628211862776744 0 0.030994921987873854 0.0041729178281506088 0 0.031464469172696158 0.0040856018370899532 0 0.031340692472300577 0.0041209048249597558 0 0.031342084192493409 0.0042479265126325058 0 0.03135014316595941 0.0040338128830006374 0 0.031464469172696158 0.0040856018370899532 0 0.031340692472300577 0.0041209048249597558 0 0.03135014316595941 0.0040338128830006374 0 0.031340692472300577 0.0041209048249597558 0 0.031227648857689062 0.0041628211862776744 0 0.031340692472300577 0.0041209048249597558 0 0.031227648857689062 0.0041628211862776744 0 0.031342084192493409 0.0042479265126325058 0 0.031227648857689062 0.0041628211862776744 0 0.031342084192493409 0.0042479265126325058 0 0.031069452571508876 0.0042900818944510144 0 0.031342084192493409 0.0042479265126325058 0 0.031069452571508876 0.0042900818944510144 0 0.031397501187784338 0.004442497580311771 0 0.031563262412680371 0.0042685517935802794 0 0.031342084192493409 0.0042479265126325058 0 0.031397501187784338 0.004442497580311771 0 0.031563262412680371 0.0042685517935802794 0 0.031464469172696158 0.0040856018370899532 0 0.031342084192493409 0.0042479265126325058 0 0.0227967850341846 0.00086840181857657218 0 0.024098822983456027 0.0029356667488037859 0 0.023466978827091634 0.0030641423202701044 0 0.031227648857689062 0.0041628211862776744 0 0.030994921987873854 0.0041729178281506088 0 0.031069452571508876 0.0042900818944510144 0 0.03189435874049356 0.0010837523874560042 0 0.031520799896753521 0.00094994097255814223 0 0.032161181387594787 0.0015063022311432471 0 0.028735261948605172 0.00073997933354110585 0 0.029496798232681101 0.0020179519432201262 0 0.027901922379214284 0.0014084756740380419 0 0.026279114028920362 0.0030033693454897298 0 0.030487376246266771 0.0023476386783508395 0 0.030487376246266771 0.0023476386783508395 0 0.030729753597564885 0.00051415123939142695 0 0.024098822983456027 0.0029356667488037859 0 0.023678806776811816 0.0032756155407243776 0 0.023466978827091634 0.0030641423202701044 0 0.026279114028920362 0.0030033693454897298 0 0.030729753597564885 0.00051415123939142695 0 0.030729753597564885 0.00051415123939142695 0 0.029147627840648116 0.00033004459082133341 0 0.0348916779124007 -0.00087017965763774017 0 0.034902946172023205 -0.00068950591685639385 0 0.035084575011769384 -0.00068443040180134857 0 0.034902946172023205 -0.00068950591685639385 0 0.035084575011769384 -0.00068443040180134857 0 0.034969666168067202 -0.00057321314699106422 0 0.031520799896753521 0.00094994097255814223 0 0.032161181387594787 0.0015063022311432471 0 0.032405690154869618 0.0018113918302021079 0 0.030729753597564885 0.00051415123939142695 0 0.034032026791068808 0.00069973436718983467 0 0.030487376246266771 0.0023476386783508395 0 0.031292240744707038 0.0018308964396791122 0 0.033500454579959892 0.0018972422336754012 0 0.032719868613922794 0.00150218947506245 0 0.032405690154869618 0.0018113918302021079 0 0.032719868613922794 0.00150218947506245 0 0.032161181387594787 0.0015063022311432471 0 0.032405690154869618 0.0018113918302021079 0 0.030487376246266771 0.0023476386783508395 0 0.032164429546411633 0.0030226996912855911 0 0.031903867751453381 0.001090997818942714 0 0.032719868613922794 0.00150218947506245 0 0.032161181387594787 0.0015063022311432471 0 0.035084575011769384 -0.00068443040180134857 0 0.035020995442072697 -0.00043317109194895257 0 0.035256853802935993 -0.00048802798166304575 0 0.034032026791068808 0.00069973436718983467 0 0.034461276362400345 0.00062666785841325836 0 0.035084575011769384 -0.00068443040180134857 0 0.034969666168067202 -0.00057321314699106422 0 0.035020995442072697 -0.00043317109194895257 0 0.034870398380068987 -0.00048948343713121944 0 0.034902946172023205 -0.00068950591685639385 0 0.034969666168067202 -0.00057321314699106422 0 0.034870398380068987 -0.00048948343713121944 0 0.034969666168067202 -0.00057321314699106422 0 0.035020995442072697 -0.00043317109194895257 0 0.034870398380068987 -0.00048948343713121944 0 0.035020995442072697 -0.00043317109194895257 0 0.034936557557819312 -0.0003063342361108943 0 0.035020995442072697 -0.00043317109194895257 0 0.034936557557819312 -0.0003063342361108943 0 0.035056634207149599 -0.00029874830736704197 0 0.034936557557819312 -0.0003063342361108943 0 0.035056634207149599 -0.00029874830736704197 0 0.03496566279934487 -0.00018456163953822489 0 0.034461276362400345 0.00062666785841325836 0 0.035201788556804496 1.5666336131140576e-05 0 0.035020995442072697 -0.00043317109194895257 0 0.035056634207149599 -0.00029874830736704197 0 0.035256853802935993 -0.00048802798166304575 0 0.035056634207149599 -0.00029874830736704197 0 0.035256853802935993 -0.00048802798166304575 0 0.035135528882151552 -0.00020368595455103232 0 0.034875082988580698 0.00058344583267782419 0 0.034758317754035796 0.00070818495447667678 0 0.034936545819149047 0.00088322284156328295 0 0.034875082988580698 0.00058344583267782419 0 0.034936545819149047 0.00088322284156328295 0 0.035071112860459809 0.00045966117902764811 0 0.034875082988580698 0.00058344583267782419 0 0.034758317754035796 0.00070818495447667678 0 0.034736005997314336 0.00049252189127900405 0 0.034894405897710715 0.00085793922346218078 0 0.034461276362400345 0.00062666785841325836 0 0.034852839925468913 0.0011882736519156221 0 0.034954279733143648 0.00093112732973113315 0 0.034447312489808452 0.00096418542480432182 0 0.033001104190202739 0.0030951737470376003 0 0.034461276362400345 0.00062666785841325836 0 0.034758317754035796 0.00070818495447667678 0 0.034954279733143648 0.00093112732973113315 0 0.034447312489808452 0.00096418542480432182 0 0.033001104190202739 0.0030951737470376003 0 0.033298004964723182 0.0022633358168052515 0 0.034758317754035796 0.00070818495447667678 0 0.034510987126111843 0.0006444441518270108 0 0.034447312489808452 0.00096418542480432182 0 0.034758317754035796 0.00070818495447667678 0 0.034510987126111843 0.0006444441518270108 0 0.034736005997314336 0.00049252189127900405 0 0.034513791185461488 0.00071636650389299316 0 0.034552866202888825 0.00048872365389372643 0 0.034510987126111843 0.0006444441518270108 0 0.03458034489401441 0.00038506049019776926 0 0.034736005997314336 0.00049252189127900405 0 0.034875082988580698 0.00058344583267782419 0 0.034736005997314336 0.00049252189127900405 0 0.034938322999623947 0.00042797267314688327 0 0.034736005997314336 0.00049252189127900405 0 0.034938322999623947 0.00042797267314688327 0 0.034888270221453216 2.3585636374960149e-05 0 0.034875082988580698 0.00058344583267782419 0 0.034938322999623947 0.00042797267314688327 0 0.035071112860459809 0.00045966117902764811 0 0.034938322999623947 0.00042797267314688327 0 0.035000018206734908 0.00022931798836655436 0 0.034926910376909648 0.00010680546363265658 0 0.034941309114983908 0.00040691936422272717 0 0.034913045038145019 7.5542906518561893e-05 0 0.03458034489401441 0.00038506049019776926 0 0.034736005997314336 0.00049252189127900405 0 0.034888270221453216 2.3585636374960149e-05 0 0.03458034489401441 0.00038506049019776926 0 0.034888270221453216 2.3585636374960149e-05 0 0.034641189853159574 2.0087146224600471e-05 0 0.03496566279934487 -0.00018456163953822489 0 0.035005623187490509 -0.00011721130887561123 0 0.03491905937543581 -5.0249615160302769e-05 0 0.034854105369258696 -0.00017466505376451284 0 0.03496566279934487 -0.00018456163953822489 0 0.03491905937543581 -5.0249615160302769e-05 0 0.034854105369258696 -0.00017466505376451284 0 0.034936557557819312 -0.0003063342361108943 0 0.03496566279934487 -0.00018456163953822489 0 0.035056634207149599 -0.00029874830736704197 0 0.03496566279934487 -0.00018456163953822489 0 0.035038713993513611 -0.00019233817331007553 0 0.03496566279934487 -0.00018456163953822489 0 0.035038713993513611 -0.00019233817331007553 0 0.035005623187490509 -0.00011721130887561123 0 0.034938322999623947 0.00042797267314688327 0 0.035071112860459809 0.00045966117902764811 0 0.035000018206734908 0.00022931798836655436 0 0.035038713993513611 -0.00019233817331007553 0 0.035005623187490509 -0.00011721130887561123 0 0.035135528882151552 -0.00020368595455103232 0 0.035056634207149599 -0.00029874830736704197 0 0.035038713993513611 -0.00019233817331007553 0 0.035135528882151552 -0.00020368595455103232 0 0.035201788556804496 1.5666336131140576e-05 0 0.035025727120460051 0.00010373624002483007 0 0.035005623187490509 -0.00011721130887561123 0 0.035135528882151552 -0.00020368595455103232 0 0.03500506391516698 -1.0744873871645552e-05 0 0.035071112860459809 0.00045966117902764811 0 0.035000018206734908 0.00022931798836655436 0 0.035085420422912995 0.0001544835789592133 0 0.03500506391516698 -1.0744873871645552e-05 0 0.03491905937543581 -5.0249615160302769e-05 0 0.034959105605351495 4.6627474301392875e-06 0 0.035005623187490509 -0.00011721130887561123 0 0.03500506391516698 -1.0744873871645552e-05 0 0.03491905937543581 -5.0249615160302769e-05 0 0.035085420422912995 0.0001544835789592133 0 0.035019248383506757 6.6461265300222925e-05 0 0.03500209022103689 1.5251605043881841e-05 0 0.03500506391516698 -1.0744873871645552e-05 0 0.034959105605351495 4.6627474301392875e-06 0 0.03500209022103689 1.5251605043881841e-05 0 0.035025727120460051 0.00010373624002483007 0 0.035014926728502808 1.4372390276399957e-05 0 0.035000018206734908 0.00022931798836655436 0 0.035019248383506757 6.6461265300222925e-05 0 0.034926910376909648 0.00010680546363265658 0 0.035000018206734908 0.00022931798836655436 0 0.035085420422912995 0.0001544835789592133 0 0.035019248383506757 6.6461265300222925e-05 0 0.035019248383506757 6.6461265300222925e-05 0 0.03500008974678645 -2.5956656387326821e-08 0 0.03500209022103689 1.5251605043881841e-05 0 0.035019248383506757 6.6461265300222925e-05 0 0.03500008974678645 -2.5956656387326821e-08 0 0.034926910376909648 0.00010680546363265658 0 0.034999936832015417 1.4328196002802119e-07 0 0.03500008974678645 -2.5956656387326821e-08 0 0.03500209022103689 1.5251605043881841e-05 0 0.034888270221453216 2.3585636374960149e-05 0 0.034837107199299125 -5.989116946361532e-05 0 0.034641189853159574 2.0087146224600471e-05 0 0.03500008974678645 -2.5956656387326821e-08 0 0.034926910376909648 0.00010680546363265658 0 0.034999805219394754 6.3745416019510947e-08 0 0.034913045038145019 7.5542906518561893e-05 0 0.034999958095361119 -7.4841875271344238e-09 0 0.034888270221453216 2.3585636374960149e-05 0 0.034999764895896776 -2.322184352477607e-07 0 0.034837107199299125 -5.989116946361532e-05 0 0.034999764895896776 -2.322184352477607e-07 0 0.034837107199299125 -5.989116946361532e-05 0 0.034999252227920115 -4.5670475764358251e-08 0 0.034837107199299125 -5.989116946361532e-05 0 0.034382386411438697 -0.00018802899419859918 0 0.034999252227920115 -4.5670475764358251e-08 0 0.034837107199299125 -5.989116946361532e-05 0 0.034641189853159574 2.0087146224600471e-05 0 0.034382386411438697 -0.00018802899419859918 0 0.034641189853159574 2.0087146224600471e-05 0 0.034382386411438697 -0.00018802899419859918 0 0.03424591494809822 0.00017849554081560956 0 0.034382386411438697 -0.00018802899419859918 0 0.034849126753783433 -8.8562512892293046e-06 0 0.034999252227920115 -4.5670475764358251e-08 0 0.034849126753783433 -8.8562512892293046e-06 0 0.034999252227920115 -4.5670475764358251e-08 0 0.034999897142707598 1.855734439771391e-08 0 0.034849126753783433 -8.8562512892293046e-06 0 0.034999897142707598 1.855734439771391e-08 0 0.034958849752635739 -3.6416434045291176e-05 0 0.034849126753783433 -8.8562512892293046e-06 0 0.034958849752635739 -3.6416434045291176e-05 0 0.03494045653609567 -0.00011615966243138378 0 0.034999897142707598 1.855734439771391e-08 0 0.03499097951026775 -2.8618090972818904e-05 0 0.035000057231898619 -2.9060857803901899e-08 0 0.034999897142707598 1.855734439771391e-08 0 0.034958849752635739 -3.6416434045291176e-05 0 0.03499097951026775 -2.8618090972818904e-05 0 0.034958849752635739 -3.6416434045291176e-05 0 0.03499097951026775 -2.8618090972818904e-05 0 0.03494045653609567 -0.00011615966243138378 0 0.035109116206745901 -0.00024411789139791693 0 0.03494045653609567 -0.00011615966243138378 0 0.035375702169544811 -0.00010317376462033449 0 0.03499097951026775 -2.8618090972818904e-05 0 0.03494045653609567 -0.00011615966243138378 0 0.035011824195765803 -2.3738550958501094e-05 0 0.034977891173968927 -8.2889422517404946e-05 0 0.035122672280979504 -0.00018281039667351683 0 0.034382386411438697 -0.00018802899419859918 0 0.032695362573292246 -0.00020985829240159387 0 0.033273745631325118 0.00017434515038631545 0 0.034382386411438697 -0.00018802899419859918 0 0.035109116206745901 -0.00024411789139791693 0 0.03494045653609567 -0.00011615966243138378 0 0.034382386411438697 -0.00018802899419859918 0 0.034849126753783433 -8.8562512892293046e-06 0 0.03494045653609567 -0.00011615966243138378 0 0.034353944349714928 -0.0001927949530698056 0 0.033887102743789858 -0.00024595318002148907 0 0.033273745631325118 0.00017434515038631545 0 0.032942638660318352 0.000550657450581367 0 0.033744003388547585 0.00026780061912967201 0 0.033273745631325118 0.00017434515038631545 0 0.032680691514836234 0.00029116535098413815 0 0.032942638660318352 0.000550657450581367 0 0.032695362573292246 -0.00020985829240159387 0 0.032680691514836234 0.00029116535098413815 0 0.032369565093079103 0.00019037566673843283 0 0.032695362573292246 -0.00020985829240159387 0 0.033273745631325118 0.00017434515038631545 0 0.032680691514836234 0.00029116535098413815 0 0.032680691514836234 0.00029116535098413815 0 0.032584343259549835 0.00055930404631235797 0 0.032942638660318352 0.000550657450581367 0 0.032680691514836234 0.00029116535098413815 0 0.032584343259549835 0.00055930404631235797 0 0.03236976443802856 0.00050689790684550469 0 0.032680691514836234 0.00029116535098413815 0 0.032369565093079103 0.00019037566673843283 0 0.03236976443802856 0.00050689790684550469 0 0.032584343259549835 0.00055930404631235797 0 0.03236976443802856 0.00050689790684550469 0 0.032369694434765534 0.00074351242912488351 0 0.032584343259549835 0.00055930404631235797 0 0.032617134595836421 0.00076683195718093612 0 0.032942638660318352 0.000550657450581367 0 0.032617134595836421 0.00076683195718093612 0 0.032766286456229067 0.00083162283019958731 0 0.032574881246603196 0.00097201923341382166 0 0.032584343259549835 0.00055930404631235797 0 0.032617134595836421 0.00076683195718093612 0 0.032369694434765534 0.00074351242912488351 0 0.032617134595836421 0.00076683195718093612 0 0.032369694434765534 0.00074351242912488351 0 0.032481068134243084 0.00089100577732520773 0 0.032942638660318352 0.000550657450581367 0 0.033142570416496771 0.00077318539364007476 0 0.033744003388547585 0.00026780061912967201 0 0.032617134595836421 0.00076683195718093612 0 0.032942638660318352 0.000550657450581367 0 0.032766286456229067 0.00083162283019958731 0 0.032942638660318352 0.000550657450581367 0 0.032766286456229067 0.00083162283019958731 0 0.033142570416496771 0.00077318539364007476 0 0.033142570416496771 0.00077318539364007476 0 0.03386029938183116 0.00052868886273762985 0 0.033802850062625393 0.00096122591742848205 0 0.033142570416496771 0.00077318539364007476 0 0.03386029938183116 0.00052868886273762985 0 0.033744003388547585 0.00026780061912967201 0 0.03458034489401441 0.00038506049019776926 0 0.03386029938183116 0.00052868886273762985 0 0.03424591494809822 0.00017849554081560956 0 0.03458034489401441 0.00038506049019776926 0 0.03386029938183116 0.00052868886273762985 0 0.033802850062625393 0.00096122591742848205 0 0.034441569362134869 0.0011061551911986979 0 0.03458034489401441 0.00038506049019776926 0 0.033802850062625393 0.00096122591742848205 0 0.03458034489401441 0.00038506049019776926 0 0.034641189853159574 2.0087146224600471e-05 0 0.03424591494809822 0.00017849554081560956 0 0.034382386411438697 -0.00018802899419859918 0 0.033273745631325118 0.00017434515038631545 0 0.033744003388547585 0.00026780061912967201 0 0.034382386411438697 -0.00018802899419859918 0 0.03424591494809822 0.00017849554081560956 0 0.033744003388547585 0.00026780061912967201 0 0.03386029938183116 0.00052868886273762985 0 0.03424591494809822 0.00017849554081560956 0 0.033744003388547585 0.00026780061912967201 0 0.034970398932625914 -3.7115538778638823e-05 0 0.034906871522176273 -8.2743085823222583e-05 0 0.035003904503399012 -7.9372700328734822e-05 0 0.034970398932625914 -3.7115538778638823e-05 0 0.034932127852792288 -2.6978147629418105e-05 0 0.034906871522176273 -8.2743085823222583e-05 0 0.034970398932625914 -3.7115538778638823e-05 0 0.034989999955937032 2.1187685046224003e-06 0 0.034932127852792288 -2.6978147629418105e-05 0 0.034970398932625914 -3.7115538778638823e-05 0 0.034989999955937032 2.1187685046224003e-06 0 0.035009568112122233 -1.5358613539698695e-05 0 0.034989999955937032 2.1187685046224003e-06 0 0.034999974224571719 -9.1693746648188654e-10 0 0.035000004010807252 1.2674288055127178e-08 0 0.035007425969078083 1.9344058917492277e-06 0 0.034873203267733827 1.4583609771552252e-05 0 0.034989999955937032 2.1187685046224003e-06 0 0.035003187958103171 -2.1853337835695787e-06 0 0.034999974224571719 -9.1693746648188654e-10 0 0.034989999955937032 2.1187685046224003e-06 0 0.034855252170067061 8.159714681077757e-06 0 0.034932127852792288 -2.6978147629418105e-05 0 0.034855252170067061 8.159714681077757e-06 0 0.034932127852792288 -2.6978147629418105e-05 0 0.034906871522176273 -8.2743085823222583e-05 0 0.034855252170067061 8.159714681077757e-06 0 0.034779297609859504 -7.24845440849686e-05 0 0.034719846296288895 -1.2641748905066501e-05 0 0.034873203267733827 1.4583609771552252e-05 0 0.035122672280979504 -0.00018281039667351683 0 0.033900585085345436 0.00014967212480247852 0 0.034320993919495751 0.00017097728741946705 0 0.034855252170067061 8.159714681077757e-06 0 0.034779297609859504 -7.24845440849686e-05 0 0.034906871522176273 -8.2743085823222583e-05 0 0.035003187958103171 -2.1853337835695787e-06 0 0.035000057231898619 -2.9060857803901899e-08 0 0.035011824195765803 -2.3738550958501094e-05 0 0.035003187958103171 -2.1853337835695787e-06 0 0.034999974224571719 -9.1693746648188654e-10 0 0.035000057231898619 -2.9060857803901899e-08 0 0.03499097951026775 -2.8618090972818904e-05 0 0.035000057231898619 -2.9060857803901899e-08 0 0.035011824195765803 -2.3738550958501094e-05 0 0.035109116206745901 -0.00024411789139791693 0 0.035532904094929339 -0.00026568287103245308 0 0.035375702169544811 -0.00010317376462033449 0 0.032695362573292246 -0.00020985829240159387 0 0.031989905062265955 6.2443185856142364e-05 0 0.032369565093079103 0.00019037566673843283 0 0.033887102743789858 -0.00024595318002148907 0 0.033900585085345436 0.00014967212480247852 0 0.033900585085345436 0.00014967212480247852 0 0.035122672280979504 -0.00018281039667351683 0 0.031989905062265955 6.2443185856142364e-05 0 0.032369565093079103 0.00019037566673843283 0 0.032173757468470794 0.00029725612303229949 0 0.032369565093079103 0.00019037566673843283 0 0.032173757468470794 0.00029725612303229949 0 0.03236976443802856 0.00050689790684550469 0 0.032173757468470794 0.00029725612303229949 0 0.03236976443802856 0.00050689790684550469 0 0.032189962755601549 0.00058843916306298343 0 0.032189962755601549 0.00058843916306298343 0 0.031973028245031183 0.00050870491767179675 0 0.032077521030536876 0.00084950480669584375 0 0.03236976443802856 0.00050689790684550469 0 0.032369694434765534 0.00074351242912488351 0 0.032189962755601549 0.00058843916306298343 0 0.032369694434765534 0.00074351242912488351 0 0.032189962755601549 0.00058843916306298343 0 0.032077521030536876 0.00084950480669584375 0 0.032173757468470794 0.00029725612303229949 0 0.032189962755601549 0.00058843916306298343 0 0.031973028245031183 0.00050870491767179675 0 0.031973028245031183 0.00050870491767179675 0 0.031637563924958853 0.00052775640254576917 0 0.031748404618200769 0.00087676535748797059 0 0.031973028245031183 0.00050870491767179675 0 0.031748404618200769 0.00087676535748797059 0 0.032077521030536876 0.00084950480669584375 0 0.033900585085345436 0.00014967212480247852 0 0.032405994452784866 0.0005780732891671978 0 0.031989905062265955 6.2443185856142364e-05 0 0.031973028245031183 0.00050870491767179675 0 0.031637563924958853 0.00052775640254576917 0 0.031989905062265955 6.2443185856142364e-05 0 0.032173757468470794 0.00029725612303229949 0 0.031973028245031183 0.00050870491767179675 0 0.033753053022573393 0.00042490614516860274 0 0.033674215585298303 0.00043756995115526822 0 0.033680990185605518 0.00049724803661741791 0 0.033674215585298303 0.00043756995115526822 0 0.033680990185605518 0.00049724803661741791 0 0.033641447448753435 0.00047150493569207182 0 0.031637563924958853 0.00052775640254576917 0 0.031295012408914726 0.00091368998178279989 0 0.031748404618200769 0.00087676535748797059 0 0.033680990185605518 0.00049724803661741791 0 0.033607630260127239 0.00050465729954964154 0 0.03361216729815529 0.00056513922726043702 0 0.033680990185605518 0.00049724803661741791 0 0.033607630260127239 0.00050465729954964154 0 0.033641447448753435 0.00047150493569207182 0 0.03432152451293348 0.00034095948767499934 0 0.032873582797431543 0.0007831268585830485 0 0.032405994452784866 0.0005780732891671978 0 0.032873582797431543 0.0007831268585830485 0 0.033607630260127239 0.00050465729954964154 0 0.033641447448753435 0.00047150493569207182 0 0.033604280451010327 0.00044768127640662509 0 0.033674215585298303 0.00043756995115526822 0 0.033641447448753435 0.00047150493569207182 0 0.033604280451010327 0.00044768127640662509 0 0.034320993919495751 0.00017097728741946705 0 0.034518843972273353 0.00026647819153828074 0 0.031861606993261272 0.0015469005744470769 0 0.031745883901032265 0.0011256940458465074 0 0.032048244456218782 0.0013625635953068028 0 0.032873582797431543 0.0007831268585830485 0 0.031409500203258209 0.0013826018336136078 0 0.031295012408914726 0.00091368998178279989 0 0.031587652183836371 0.0011417634850533346 0 0.031399021667013992 0.0013899441361141683 0 0.031295012408914726 0.00091368998178279989 0 0.031748404618200769 0.00087676535748797059 0 0.031587652183836371 0.0011417634850533346 0 0.031748404618200769 0.00087676535748797059 0 0.031587652183836371 0.0011417634850533346 0 0.031806641363288132 0.0011500622833043651 0 0.031587652183836371 0.0011417634850533346 0 0.031692939720352274 0.0013732460996371974 0 0.031399021667013992 0.0013899441361141683 0 0.031587652183836371 0.0011417634850533346 0 0.031806641363288132 0.0011500622833043651 0 0.031692939720352274 0.0013732460996371974 0 0.031806641363288132 0.0011500622833043651 0 0.031950936446713027 0.0013642009743406285 0 0.031692939720352274 0.0013732460996371974 0 0.032052050614164017 0.0012159195398148857 0 0.031806641363288132 0.0011500622833043651 0 0.031950936446713027 0.0013642009743406285 0 0.032052050614164017 0.0012159195398148857 0 0.031806641363288132 0.0011500622833043651 0 0.031989910388865582 0.0010399708436985215 0 0.031748404618200769 0.00087676535748797059 0 0.031806641363288132 0.0011500622833043651 0 0.031989910388865582 0.0010399708436985215 0 0.031748404618200769 0.00087676535748797059 0 0.031989910388865582 0.0010399708436985215 0 0.032077521030536876 0.00084950480669584375 0 0.032077521030536876 0.00084950480669584375 0 0.032326174545368021 0.00092855331659765622 0 0.0322145243979872 0.00109995605497896 0 0.031989910388865582 0.0010399708436985215 0 0.032077521030536876 0.00084950480669584375 0 0.0322145243979872 0.00109995605497896 0 0.032369694434765534 0.00074351242912488351 0 0.032077521030536876 0.00084950480669584375 0 0.032326174545368021 0.00092855331659765622 0 0.032326174545368021 0.00092855331659765622 0 0.0322145243979872 0.00109995605497896 0 0.032486254513544512 0.00099887370732044804 0 0.0322145243979872 0.00109995605497896 0 0.032224497334118613 0.0013683996416986039 0 0.032486254513544512 0.00099887370732044804 0 0.031490490112651939 0.0013350923018083981 0 0.032682079862054576 0.00091335295622932086 0 0.032052050614164017 0.0012159195398148857 0 0.031989910388865582 0.0010399708436985215 0 0.0322145243979872 0.00109995605497896 0 0.032052050614164017 0.0012159195398148857 0 0.0322145243979872 0.00109995605497896 0 0.032224497334118613 0.0013683996416986039 0 0.032052050614164017 0.0012159195398148857 0 0.032224497334118613 0.0013683996416986039 0 0.031950936446713027 0.0013642009743406285 0 0.030184536605443842 0.0017417571027711406 0 0.030056817467518045 0.0018503784008995141 0 0.029921475753249358 0.0018361977321562743 0 0.031490490112651939 0.0013350923018083981 0 0.030565386599179505 0.0012761054159511707 0 0.030184536605443842 0.0017417571027711406 0 0.030056817467518045 0.0018503784008995141 0 0.030645825925455776 0.001714086603130613 0 0.030056817467518045 0.0018503784008995141 0 0.02994260087792279 0.0018215251663813111 0 0.029961905841845875 0.0018292030967216051 0 0.030056817467518045 0.0018503784008995141 0 0.029961905841845875 0.0018292030967216051 0 0.029921475753249358 0.0018361977321562743 0 0.029961905841845875 0.0018292030967216051 0 0.029921475753249358 0.0018361977321562743 0 0.029904640405301535 0.001796927554846295 0 0.02994260087792279 0.0018215251663813111 0 0.029961905841845875 0.0018292030967216051 0 0.029904640405301535 0.001796927554846295 0 0.031450192901435657 0.0006244916595395429 0 0.03158968864639438 0.00062961412798856725 0 0.031603687026498198 0.0005765927074736926 0 0.031450192901435657 0.0006244916595395429 0 0.031530104770894865 0.00076238334675095092 0 0.03158968864639438 0.00062961412798856725 0 0.031490490112651939 0.0013350923018083981 0 0.0317161683643137 0.0011868122845455633 0 0.031234876525562859 0.00097932708675263014 0 0.031450192901435657 0.0006244916595395429 0 0.031530104770894865 0.00076238334675095092 0 0.032224497334118613 0.0013683996416986039 0 0.031849559507376682 0.0016032245977496084 0 0.031950936446713027 0.0013642009743406285 0 0.031849559507376682 0.0016032245977496084 0 0.031950936446713027 0.0013642009743406285 0 0.031799373798605125 0.0014669041568072534 0 0.031950936446713027 0.0013642009743406285 0 0.031799373798605125 0.0014669041568072534 0 0.031692939720352274 0.0013732460996371974 0 0.031692939720352274 0.0013732460996371974 0 0.031606350106474078 0.0015693145599068531 0 0.031399021667013992 0.0013899441361141683 0 0.031799373798605125 0.0014669041568072534 0 0.031692939720352274 0.0013732460996371974 0 0.031606350106474078 0.0015693145599068531 0 0.031849559507376682 0.0016032245977496084 0 0.031799373798605125 0.0014669041568072534 0 0.031606350106474078 0.0015693145599068531 0 0.031450192901435657 0.0006244916595395429 0 0.031603687026498198 0.0005765927074736926 0 0.031676586089993811 0.00047320925987791312 0 0.0317161683643137 0.0011868122845455633 0 0.031674860142592777 0.00094345963301673236 0 0.031530104770894865 0.00076238334675095092 0 0.03158968864639438 0.00062961412798856725 0 0.031749811659067748 0.00056551212414293053 0 0.031849559507376682 0.0016032245977496084 0 0.031606350106474078 0.0015693145599068531 0 0.031498220780165884 0.0018369500654448439 0 0.03158968864639438 0.00062961412798856725 0 0.031603687026498198 0.0005765927074736926 0 0.031670560200123987 0.000552536357170574 0 0.03158968864639438 0.00062961412798856725 0 0.031670560200123987 0.000552536357170574 0 0.031749811659067748 0.00056551212414293053 0 0.031670560200123987 0.000552536357170574 0 0.031749811659067748 0.00056551212414293053 0 0.031722181594009961 0.00050659460598813128 0 0.031609262425619906 0.00063003083319247016 0 0.031788378136532007 0.00073892470792429185 0 0.031745883901032265 0.0011256940458465074 0 0.031609262425619906 0.00063003083319247016 0 0.031788378136532007 0.00073892470792429185 0 0.031754644532252428 0.00051750886053546208 0 0.031674860142592777 0.00094345963301673236 0 0.031814290429862661 0.00066049647177115892 0 0.031674860142592777 0.00094345963301673236 0 0.03165550038429097 0.0006868750440735613 0 0.031788378136532007 0.00073892470792429185 0 0.031888699390214235 0.00055045203226172161 0 0.031952325526074736 0.00083886274601728832 0 0.031788378136532007 0.00073892470792429185 0 0.031754644532252428 0.00051750886053546208 0 0.031888699390214235 0.00055045203226172161 0 0.031606350106474078 0.0015693145599068531 0 0.031498220780165884 0.0018369500654448439 0 0.031399021667013992 0.0013899441361141683 0 0.031788378136532007 0.00073892470792429185 0 0.031745883901032265 0.0011256940458465074 0 0.031952325526074736 0.00083886274601728832 0 0.031674860142592777 0.00094345963301673236 0 0.031409500203258209 0.0013826018336136078 0 0.03278966207402105 0.0018432880499413707 0 0.032538306741276772 0.0016681680036367489 0 0.032099245945713513 0.0021063663809447204 0 0.03278966207402105 0.0018432880499413707 0 0.032538306741276772 0.0016681680036367489 0 0.033047426906664068 0.0013637177696580851 0 0.033298004964723182 0.0022633358168052515 0 0.03319077517798686 0.0013568602448829022 0 0.03278966207402105 0.0018432880499413707 0 0.033141652855185208 0.0017358190033768346 0 0.033047426906664068 0.0013637177696580851 0 0.034441569362134869 0.0011061551911986979 0 0.034344802138363356 0.0020404431255011007 0 0.033802850062625393 0.00096122591742848205 0 0.034344802138363356 0.0020404431255011007 0 0.033802850062625393 0.00096122591742848205 0 0.033047426906664068 0.0013637177696580851 0 0.034513791185461488 0.00071636650389299316 0 0.033298004964723182 0.0022633358168052515 0 0.033142570416496771 0.00077318539364007476 0 0.033047426906664068 0.0013637177696580851 0 0.032548885659923157 0.0010446430699822937 0 0.033142570416496771 0.00077318539364007476 0 0.033802850062625393 0.00096122591742848205 0 0.033047426906664068 0.0013637177696580851 0 0.032538306741276772 0.0016681680036367489 0 0.033047426906664068 0.0013637177696580851 0 0.032548885659923157 0.0010446430699822937 0 0.032417250469993907 0.0010325045656390775 0 0.031754763463069317 0.0012828090059558985 0 0.032766286456229067 0.00083162283019958731 0 0.033142570416496771 0.00077318539364007476 0 0.032548885659923157 0.0010446430699822937 0 0.032766286456229067 0.00083162283019958731 0 0.032548885659923157 0.0010446430699822937 0 0.032574881246603196 0.00097201923341382166 0 0.032548885659923157 0.0010446430699822937 0 0.032574881246603196 0.00097201923341382166 0 0.032517225473900159 0.0010743215231186945 0 0.032369694434765534 0.00074351242912488351 0 0.032326174545368021 0.00092855331659765622 0 0.032481068134243084 0.00089100577732520773 0 0.032326174545368021 0.00092855331659765622 0 0.032481068134243084 0.00089100577732520773 0 0.032486254513544512 0.00099887370732044804 0 0.032617134595836421 0.00076683195718093612 0 0.032481068134243084 0.00089100577732520773 0 0.032574881246603196 0.00097201923341382166 0 0.032481068134243084 0.00089100577732520773 0 0.032574881246603196 0.00097201923341382166 0 0.032486254513544512 0.00099887370732044804 0 0.032574881246603196 0.00097201923341382166 0 0.032486254513544512 0.00099887370732044804 0 0.032517225473900159 0.0010743215231186945 0 0.032363968824048898 0.0011743988941885564 0 0.032486254513544512 0.00099887370732044804 0 0.032517225473900159 0.0010743215231186945 0 0.030184536605443842 0.0017417571027711406 0 0.03104539718286542 0.0013833904161585473 0 0.030645825925455776 0.001714086603130613 0 0.031490490112651939 0.0013350923018083981 0 0.031754763463069317 0.0012828090059558985 0 0.03104539718286542 0.0013833904161585473 0 0.031502430816525047 0.001912123712142234 0 0.030645825925455776 0.001714086603130613 0 0.03104539718286542 0.0013833904161585473 0 0.031502430816525047 0.001912123712142234 0 0.031993094562475712 0.0015821921660783764 0 0.032548885659923157 0.0010446430699822937 0 0.03104539718286542 0.0013833904161585473 0 0.031993094562475712 0.0015821921660783764 0 0.032538306741276772 0.0016681680036367489 0 0.032548885659923157 0.0010446430699822937 0 0.031993094562475712 0.0015821921660783764 0 0.031502430816525047 0.001912123712142234 0 0.031993094562475712 0.0015821921660783764 0 0.032099245945713513 0.0021063663809447204 0 0.032538306741276772 0.0016681680036367489 0 0.031993094562475712 0.0015821921660783764 0 0.032099245945713513 0.0021063663809447204 0 0.031502430816525047 0.001912123712142234 0 0.032099245945713513 0.0021063663809447204 0 0.031475104242040419 0.0023440811305123301 0 0.032099245945713513 0.0021063663809447204 0 0.031475104242040419 0.0023440811305123301 0 0.031694791562388344 0.0026077629617474 0 0.032099245945713513 0.0021063663809447204 0 0.031694791562388344 0.0026077629617474 0 0.032416112904445911 0.0022855593412843705 0 0.03060668691975954 0.0017147882041895618 0 0.030597954320970882 0.0023295072045616339 0 0.030056817467518045 0.0018503784008995141 0 0.030645825925455776 0.001714086603130613 0 0.029927488004007248 0.0018619157009959037 0 0.030645825925455776 0.001714086603130613 0 0.031475104242040419 0.0023440811305123301 0 0.031290120919590172 0.0029184508886234148 0 0.031502430816525047 0.001912123712142234 0 0.030645825925455776 0.001714086603130613 0 0.031475104242040419 0.0023440811305123301 0 0.030056817467518045 0.0018503784008995141 0 0.02994260087792279 0.0018215251663813111 0 0.029927488004007248 0.0018619157009959037 0 0.02994260087792279 0.0018215251663813111 0 0.029927488004007248 0.0018619157009959037 0 0.029805003374120738 0.0017325887335669654 0 0.031694791562388344 0.0026077629617474 0 0.032213337241425111 0.0027104901347075171 0 0.0312571771452557 0.0029447098494817183 0 0.031475104242040419 0.0023440811305123301 0 0.031290120919590172 0.0029184508886234148 0 0.031694791562388344 0.0026077629617474 0 0.031290120919590172 0.0029184508886234148 0 0.031694791562388344 0.0026077629617474 0 0.0312571771452557 0.0029447098494817183 0 0.032213337241425111 0.0027104901347075171 0 0.032416112904445911 0.0022855593412843705 0 0.032951834000404211 0.0023667814781599549 0 0.031694791562388344 0.0026077629617474 0 0.032213337241425111 0.0027104901347075171 0 0.032416112904445911 0.0022855593412843705 0 0.03278966207402105 0.0018432880499413707 0 0.032099245945713513 0.0021063663809447204 0 0.032416112904445911 0.0022855593412843705 0 0.033298004964723182 0.0022633358168052515 0 0.032438782900465209 0.0034750927964329078 0 0.03278966207402105 0.0018432880499413707 0 0.032416112904445911 0.0022855593412843705 0 0.032951834000404211 0.0023667814781599549 0 0.03278966207402105 0.0018432880499413707 0 0.033141652855185208 0.0017358190033768346 0 0.032951834000404211 0.0023667814781599549 0 0.032213337241425111 0.0027104901347075171 0 0.032951834000404211 0.0023667814781599549 0 0.032589903997870824 0.0031229716728858438 0 0.032438782900465209 0.0034750927964329078 0 0.032376674856621282 0.0034869767627907027 0 0.032589903997870824 0.0031229716728858438 0 0.032040332043974142 0.0031710971481112567 0 0.03222193450895719 0.0036950952698889712 0 0.032213337241425111 0.0027104901347075171 0 0.032589903997870824 0.0031229716728858438 0 0.032040332043974142 0.0031710971481112567 0 0.032040332043974142 0.0031710971481112567 0 0.031994633874719201 0.0036412963491539046 0 0.0312571771452557 0.0029447098494817183 0 0.032213337241425111 0.0027104901347075171 0 0.032040332043974142 0.0031710971481112567 0 0.0312571771452557 0.0029447098494817183 0 0.032040332043974142 0.0031710971481112567 0 0.031994633874719201 0.0036412963491539046 0 0.03222193450895719 0.0036950952698889712 0 0.032376674856621282 0.0034869767627907027 0 0.032251998599991005 0.0036849150994437336 0 0.03206542899256113 0.00381161690918438 0 0.032147191683499068 0.0039698142880444948 0 0.03222193450895719 0.0036950952698889712 0 0.02802219805364399 0.0029625721896269059 0 0.02820134378314618 0.0023685851967088192 0 0.031994633874719201 0.0036412963491539046 0 0.03222193450895719 0.0036950952698889712 0 0.032217638897805864 0.0036700940616723513 0 0.031942799234661423 0.003660192473805563 0 0.03222193450895719 0.0036950952698889712 0 0.032217638897805864 0.0036700940616723513 0 0.029722370108465474 0.0022222033411279565 0 0.029171076110506736 0.001490588071020438 0 0.029661924224075816 0.0014055256738408381 0 0.031258099271498432 0.0030499599979418612 0 0.02820134378314618 0.0023685851967088192 0 0.029171076110506736 0.001490588071020438 0 0.02945481651580047 0.0012764860788698072 0 0.029661924224075816 0.0014055256738408381 0 0.025182228993783071 0.0043887354215655311 0 0.027102617186689357 0.0028371199571286696 0 0.025635532337763504 0.0021614430380613582 0 0.02820134378314618 0.0023685851967088192 0 0.028052392755188824 0.0021679744650129795 0 0.023509701154782479 0.00081890354258544115 0 0.02820134378314618 0.0023685851967088192 0 0.024469936213828678 0.00060985761559344677 0 0.024361067775384205 -0.00074009304837044105 0 0.025539169258791409 0.0010576624689514211 0 0.025182228993783071 0.0043887354215655311 0 0.024772372023757566 0.0025051873803384242 0 0.025635532337763504 0.0021614430380613582 0 0.023558912656076719 0.0019561772935398022 0 0.025182228993783071 0.0043887354215655311 0 0.024772372023757566 0.0025051873803384242 0 0.029428395510145759 0.0013797878247931088 0 0.029300437064669956 0.0012596866273151027 0 0.029272706575548136 0.0012792459839464762 0 0.029428395510145759 0.0013797878247931088 0 0.029300437064669956 0.0012596866273151027 0 0.029469058501795223 0.0014018190516584268 0 0.029300437064669956 0.0012596866273151027 0 0.029272706575548136 0.0012792459839464762 0 0.029120300819224818 0.0010997472982974485 0 0.02945481651580047 0.0012764860788698072 0 0.029272706575548136 0.0012792459839464762 0 0.029661924224075816 0.0014055256738408381 0 0.029428395510145759 0.0013797878247931088 0 0.029272706575548136 0.0012792459839464762 0 0.029661924224075816 0.0014055256738408381 0 0.029759558595631841 0.0014830994821072648 0 0.030247921524943856 0.0020804024560128758 0 0.029661924224075816 0.0014055256738408381 0 0.02953591815626444 0.0014643830238887409 0 0.02957198171850333 0.0015934287586303892 0 0.029428395510145759 0.0013797878247931088 0 0.029661924224075816 0.0014055256738408381 0 0.02953591815626444 0.0014643830238887409 0 0.029428395510145759 0.0013797878247931088 0 0.02953591815626444 0.0014643830238887409 0 0.029469058501795223 0.0014018190516584268 0 0.029679808909876176 0.0016064397563685566 0 0.02957198171850333 0.0015934287586303892 0 0.029805003374120738 0.0017325887335669654 0 0.02953591815626444 0.0014643830238887409 0 0.029679808909876176 0.0016064397563685566 0 0.02957198171850333 0.0015934287586303892 0 0.029722370108465474 0.0022222033411279565 0 0.029661924224075816 0.0014055256738408381 0 0.030960656415588483 0.0025242993822246922 0 0.031258099271498432 0.0030499599979418612 0 0.031034355773435222 0.002822145036415319 0 0.029722370108465474 0.0022222033411279565 0 0.030960656415588483 0.0025242993822246922 0 0.0312571771452557 0.0029447098494817183 0 0.031290120919590172 0.0029184508886234148 0 0.030960656415588483 0.0025242993822246922 0 0.0312571771452557 0.0029447098494817183 0 0.029927488004007248 0.0018619157009959037 0 0.02957198171850333 0.0015934287586303892 0 0.029805003374120738 0.0017325887335669654 0 0.030597954320970882 0.0023295072045616339 0 0.030247921524943856 0.0020804024560128758 0 0.02994260087792279 0.0018215251663813111 0 0.029805003374120738 0.0017325887335669654 0 0.029904640405301535 0.001796927554846295 0 0.029679808909876176 0.0016064397563685566 0 0.029805003374120738 0.0017325887335669654 0 0.029797189620531735 0.0016982634283708136 0 0.029805003374120738 0.0017325887335669654 0 0.029797189620531735 0.0016982634283708136 0 0.029904640405301535 0.001796927554846295 0 0.029797189620531735 0.0016982634283708136 0 0.029904640405301535 0.001796927554846295 0 0.029879512773436791 0.0017609443507653078 0 0.029921475753249358 0.0018361977321562743 0 0.029879512773436791 0.0017609443507653078 0 0.029941689422769646 0.0017444916992112112 0 0.030565386599179505 0.0012761054159511707 0 0.030838289642360291 0.0010651507622081284 0 0.029921475753249358 0.0018361977321562743 0 0.029904640405301535 0.001796927554846295 0 0.029879512773436791 0.0017609443507653078 0 0.029879512773436791 0.0017609443507653078 0 0.029837691175490785 0.0016796054172189651 0 0.029941689422769646 0.0017444916992112112 0 0.029837691175490785 0.0016796054172189651 0 0.029650654494818934 0.0015482533817543882 0 0.029856114225948475 0.0015719656901739879 0 0.029797189620531735 0.0016982634283708136 0 0.029879512773436791 0.0017609443507653078 0 0.029837691175490785 0.0016796054172189651 0 0.029837691175490785 0.0016796054172189651 0 0.029941689422769646 0.0017444916992112112 0 0.029856114225948475 0.0015719656901739879 0 0.02953591815626444 0.0014643830238887409 0 0.029679808909876176 0.0016064397563685566 0 0.029650654494818934 0.0015482533817543882 0 0.029797189620531735 0.0016982634283708136 0 0.029837691175490785 0.0016796054172189651 0 0.029650654494818934 0.0015482533817543882 0 0.029679808909876176 0.0016064397563685566 0 0.029797189620531735 0.0016982634283708136 0 0.029650654494818934 0.0015482533817543882 0 0.031823730573858816 0.00036756338373376666 0 0.03177585030336675 0.00044170470649956643 0 0.031733013136259383 0.00041234100722445166 0 0.031823730573858816 0.00036756338373376666 0 0.031733013136259383 0.00041234100722445166 0 0.031727659852921974 0.00038555411878166346 0 0.031754644532252428 0.00051750886053546208 0 0.03177585030336675 0.00044170470649956643 0 0.031888699390214235 0.00055045203226172161 0 0.031823730573858816 0.00036756338373376666 0 0.03177585030336675 0.00044170470649956643 0 0.031888699390214235 0.00055045203226172161 0 0.031754644532252428 0.00051750886053546208 0 0.03177585030336675 0.00044170470649956643 0 0.031731954386174731 0.00046962597118027562 0 0.031754644532252428 0.00051750886053546208 0 0.031731954386174731 0.00046962597118027562 0 0.031722181594009961 0.00050659460598813128 0 0.03172616286266914 0.00053021119939408517 0 0.031754644532252428 0.00051750886053546208 0 0.031722181594009961 0.00050659460598813128 0 0.03177585030336675 0.00044170470649956643 0 0.031731954386174731 0.00046962597118027562 0 0.031733013136259383 0.00041234100722445166 0 0.031450192901435657 0.0006244916595395429 0 0.031676586089993811 0.00047320925987791312 0 0.031682321297709107 0.00038588965271022391 0 0.031731954386174731 0.00046962597118027562 0 0.031733013136259383 0.00041234100722445166 0 0.031676586089993811 0.00047320925987791312 0 0.031733013136259383 0.00041234100722445166 0 0.031676586089993811 0.00047320925987791312 0 0.031682321297709107 0.00038588965271022391 0 0.031670560200123987 0.000552536357170574 0 0.031676586089993811 0.00047320925987791312 0 0.031722181594009961 0.00050659460598813128 0 0.031731954386174731 0.00046962597118027562 0 0.031676586089993811 0.00047320925987791312 0 0.031722181594009961 0.00050659460598813128 0 0.031603687026498198 0.0005765927074736926 0 0.031670560200123987 0.000552536357170574 0 0.031676586089993811 0.00047320925987791312 0 0.030838289642360291 0.0010651507622081284 0 0.030967075800744124 0.0010486303118205612 0 0.031682321297709107 0.00038588965271022391 0 0.031727659852921974 0.00038555411878166346 0 0.03173107708853299 0.00053596184254310739 0 0.031733013136259383 0.00041234100722445166 0 0.031682321297709107 0.00038588965271022391 0 0.031727659852921974 0.00038555411878166346 0 0.031727659852921974 0.00038555411878166346 0 0.031609143485419981 0.0004550773261334118 0 0.031765087770388029 0.0003651620843926291 0 0.031823730573858816 0.00036756338373376666 0 0.031727659852921974 0.00038555411878166346 0 0.031765087770388029 0.0003651620843926291 0 0.031727659852921974 0.00038555411878166346 0 0.03173107708853299 0.00053596184254310739 0 0.031609143485419981 0.0004550773261334118 0 0.03173107708853299 0.00053596184254310739 0 0.031334650258099228 0.00071842447836843596 0 0.031609143485419981 0.0004550773261334118 0 0.029941689422769646 0.0017444916992112112 0 0.03021883975948372 0.001608958894812625 0 0.029856114225948475 0.0015719656901739879 0 0.03021883975948372 0.001608958894812625 0 0.029988479148567875 0.0013811402989954752 0 0.029856114225948475 0.0015719656901739879 0 0.029988479148567875 0.0013811402989954752 0 0.029856114225948475 0.0015719656901739879 0 0.029697527783384726 0.0012938714603772555 0 0.029988479148567875 0.0013811402989954752 0 0.030285126454032675 0.00114654567433169 0 0.029815219753370436 0.0010182924328963133 0 0.03021883975948372 0.001608958894812625 0 0.029988479148567875 0.0013811402989954752 0 0.030285126454032675 0.00114654567433169 0 0.029988479148567875 0.0013811402989954752 0 0.029697527783384726 0.0012938714603772555 0 0.029815219753370436 0.0010182924328963133 0 0.030967075800744124 0.0010486303118205612 0 0.031041482415006611 0.0009065230353416594 0 0.03021883975948372 0.001608958894812625 0 0.030285126454032675 0.00114654567433169 0 0.031014346166957831 0.00092920271713457748 0 0.03173107708853299 0.00053596184254310739 0 0.031014346166957831 0.00092920271713457748 0 0.031334650258099228 0.00071842447836843596 0 0.02953591815626444 0.0014643830238887409 0 0.029650654494818934 0.0015482533817543882 0 0.029469058501795223 0.0014018190516584268 0 0.029650654494818934 0.0015482533817543882 0 0.029469058501795223 0.0014018190516584268 0 0.029533989356744558 0.0013670344880298 0 0.029650654494818934 0.0015482533817543882 0 0.029856114225948475 0.0015719656901739879 0 0.029533989356744558 0.0013670344880298 0 0.029856114225948475 0.0015719656901739879 0 0.029697527783384726 0.0012938714603772555 0 0.029533989356744558 0.0013670344880298 0 0.029697527783384726 0.0012938714603772555 0 0.029533989356744558 0.0013670344880298 0 0.029261731784619858 0.00099901396407509947 0 0.029300437064669956 0.0012596866273151027 0 0.029533989356744558 0.0013670344880298 0 0.029261731784619858 0.00099901396407509947 0 0.029300437064669956 0.0012596866273151027 0 0.029469058501795223 0.0014018190516584268 0 0.029533989356744558 0.0013670344880298 0 0.029300437064669956 0.0012596866273151027 0 0.029261731784619858 0.00099901396407509947 0 0.029120300819224818 0.0010997472982974485 0 0.029261731784619858 0.00099901396407509947 0 0.029120300819224818 0.0010997472982974485 0 0.029008791190305399 0.00079098370968016965 0 0.029697527783384726 0.0012938714603772555 0 0.029261731784619858 0.00099901396407509947 0 0.029815219753370436 0.0010182924328963133 0 0.029261731784619858 0.00099901396407509947 0 0.029379251673728842 0.00076010455796417275 0 0.029815219753370436 0.0010182924328963133 0 0.029261731784619858 0.00099901396407509947 0 0.029379251673728842 0.00076010455796417275 0 0.028666487080830118 0.00054243076028285381 0 0.029379251673728842 0.00076010455796417275 0 0.029884117505223365 0.00032625216599966732 0 0.028666487080830118 0.00054243076028285381 0 0.029261731784619858 0.00099901396407509947 0 0.028666487080830118 0.00054243076028285381 0 0.029008791190305399 0.00079098370968016965 0 0.028595111220821826 0.0005329877041694844 0 0.026981155759205844 0.0004858402981445058 0 0.028666487080830118 0.00054243076028285381 0 0.028835828805620533 0.0003221941767042608 0 0.029008791190305399 0.00079098370968016965 0 0.030285126454032675 0.00114654567433169 0 0.03043864278411219 0.00070297549544656409 0 0.031014346166957831 0.00092920271713457748 0 0.03043864278411219 0.00070297549544656409 0 0.030991300853524525 0.00052592893287361781 0 0.031014346166957831 0.00092920271713457748 0 0.03043864278411219 0.00070297549544656409 0 0.029815219753370436 0.0010182924328963133 0 0.029884117505223365 0.00032625216599966732 0 0.030285126454032675 0.00114654567433169 0 0.03043864278411219 0.00070297549544656409 0 0.029815219753370436 0.0010182924328963133 0 0.029379251673728842 0.00076010455796417275 0 0.029815219753370436 0.0010182924328963133 0 0.029884117505223365 0.00032625216599966732 0 0.029884117505223365 0.00032625216599966732 0 0.030611693487736763 0.00027474168996514573 0 0.030404687454353672 -0.00010466436204863837 0 0.03043864278411219 0.00070297549544656409 0 0.029884117505223365 0.00032625216599966732 0 0.030611693487736763 0.00027474168996514573 0 0.03043864278411219 0.00070297549544656409 0 0.030611693487736763 0.00027474168996514573 0 0.030991300853524525 0.00052592893287361781 0 0.030611693487736763 0.00027474168996514573 0 0.030404687454353672 -0.00010466436204863837 0 0.031046542943346578 -9.7698715954134695e-05 0 0.030404687454353672 -0.00010466436204863837 0 0.030608129733217103 -0.00055877580760631479 0 0.031046542943346578 -9.7698715954134695e-05 0 0.030404687454353672 -0.00010466436204863837 0 0.030608129733217103 -0.00055877580760631479 0 0.030260463134494642 -0.00094576452809331786 0 0.030404687454353672 -0.00010466436204863837 0 0.029492337625694774 -0.00042831397116575458 0 0.030260463134494642 -0.00094576452809331786 0 0.029884117505223365 0.00032625216599966732 0 0.030404687454353672 -0.00010466436204863837 0 0.029492337625694774 -0.00042831397116575458 0 0.030260463134494642 -0.00094576452809331786 0 0.029083748379323808 -0.0015387729771165215 0 0.029830605899793163 -0.0017123727727564083 0 0.029492337625694774 -0.00042831397116575458 0 0.030260463134494642 -0.00094576452809331786 0 0.029083748379323808 -0.0015387729771165215 0 0.030260463134494642 -0.00094576452809331786 0 0.030948925308455156 -0.00081514102578052964 0 0.0306679419063761 -0.0014021005338367635 0 0.030608129733217103 -0.00055877580760631479 0 0.030260463134494642 -0.00094576452809331786 0 0.030948925308455156 -0.00081514102578052964 0 0.028666487080830118 0.00054243076028285381 0 0.028108568545267665 -0.0010846162421113666 0 0.025461591446285042 -0.001284162015393158 0 0.029492337625694774 -0.00042831397116575458 0 0.028666487080830118 0.00054243076028285381 0 0.028108568545267665 -0.0010846162421113666 0 0.029884117505223365 0.00032625216599966732 0 0.029492337625694774 -0.00042831397116575458 0 0.028666487080830118 0.00054243076028285381 0 0.029083748379323808 -0.0015387729771165215 0 0.028108568545267665 -0.0010846162421113666 0 0.027999562854391074 -0.0027017882594726835 0 0.029492337625694774 -0.00042831397116575458 0 0.029083748379323808 -0.0015387729771165215 0 0.028108568545267665 -0.0010846162421113666 0 0.028108568545267665 -0.0010846162421113666 0 0.025461591446285042 -0.001284162015393158 0 0.027999562854391074 -0.0027017882594726835 0 0.028666487080830118 0.00054243076028285381 0 0.025461591446285042 -0.001284162015393158 0 0.025131034366251685 0.0007245217728210965 0 0.023968145753517984 -0.00066111605093231566 0 0.023335006828419314 0.00030618091255261699 0 0.025131034366251685 0.0007245217728210965 0 0.025461591446285042 -0.001284162015393158 0 0.023968145753517984 -0.00066111605093231566 0 0.025131034366251685 0.0007245217728210965 0 0.025461591446285042 -0.001284162015393158 0 0.023968145753517984 -0.00066111605093231566 0 0.024124381852375504 -0.0017054063803321831 0 0.023968145753517984 -0.00066111605093231566 0 0.023136409541785582 -0.0014722563317427458 0 0.023273348009244899 -0.00046582546856141667 0 0.023968145753517984 -0.00066111605093231566 0 0.023136409541785582 -0.0014722563317427458 0 0.024124381852375504 -0.0017054063803321831 0 0.02235290376166281 -0.0011937332565983042 0 0.023136409541785582 -0.0014722563317427458 0 0.022782227782760511 -0.00074607153710880172 0 0.023136409541785582 -0.0014722563317427458 0 0.022782227782760511 -0.00074607153710880172 0 0.023273348009244899 -0.00046582546856141667 0 0.022816982135584678 -0.00022814142863435897 0 0.023273348009244899 -0.00046582546856141667 0 0.023335006828419314 0.00030618091255261699 0 0.022782227782760511 -0.00074607153710880172 0 0.022816982135584678 -0.00022814142863435897 0 0.023273348009244899 -0.00046582546856141667 0 0.023968145753517984 -0.00066111605093231566 0 0.023273348009244899 -0.00046582546856141667 0 0.023335006828419314 0.00030618091255261699 0 0.025889580280419568 -0.00012393067609006524 0 0.026971657048759104 0.0012438993698944707 0 0.027694821513561761 0.00069006346391291111 0 0.025889580280419568 -0.00012393067609006524 0 0.025543740637699579 0.0010008500728798868 0 0.026971657048759104 0.0012438993698944707 0 0.022448114188418692 0.00011133135500431426 0 0.025889580280419568 -0.00012393067609006524 0 0.024433762395752592 0.00015027153845874282 0 0.022555611557842272 0.00011870232236000657 0 0.024596508626442068 0.00012967883922828757 0 0.022448114188418692 0.00011133135500431426 0 0.022816982135584678 -0.00022814142863435897 0 0.023335006828419314 0.00030618091255261699 0 0.024433762395752592 0.00015027153845874282 0 0.025543740637699579 0.0010008500728798868 0 0.024714766997764578 0.0015064727519223183 0 0.025889580280419568 -0.00012393067609006524 0 0.024433762395752592 0.00015027153845874282 0 0.025543740637699579 0.0010008500728798868 0 0.023509701154782479 0.00081890354258544115 0 0.024197985265926154 0.00044819950536028127 0 0.023152337827204727 0.0012256587116085038 0 0.023382333337651714 0.00053500169532649984 0 0.024433762395752592 0.00015027153845874282 0 0.023558912656076719 0.0019561772935398022 0 0.024433762395752592 0.00015027153845874282 0 0.024714766997764578 0.0015064727519223183 0 0.025543740637699579 0.0010008500728798868 0 0.024714766997764578 0.0015064727519223183 0 0.025635532337763504 0.0021614430380613582 0 0.024714766997764578 0.0015064727519223183 0 0.024772372023757566 0.0025051873803384242 0 0.025635532337763504 0.0021614430380613582 0 0.023558912656076719 0.0019561772935398022 0 0.024714766997764578 0.0015064727519223183 0 0.024772372023757566 0.0025051873803384242 0 0.027102617186689357 0.0028371199571286696 0 0.026971657048759104 0.0012438993698944707 0 0.025635532337763504 0.0021614430380613582 0 0.025543740637699579 0.0010008500728798868 0 0.026971657048759104 0.0012438993698944707 0 0.025635532337763504 0.0021614430380613582 0 0.028052392755188824 0.0021679744650129795 0 0.029006456918601223 0.0011947237953341366 0 0.027102617186689357 0.0028371199571286696 0 0.026971657048759104 0.0012438993698944707 0 0.028922028239569089 0.0011700863006782367 0 0.026971657048759104 0.0012438993698944707 0 0.028922028239569089 0.0011700863006782367 0 0.027694821513561761 0.00069006346391291111 0 0.02945481651580047 0.0012764860788698072 0 0.029272706575548136 0.0012792459839464762 0 0.028922028239569089 0.0011700863006782367 0 0.029272706575548136 0.0012792459839464762 0 0.029120300819224818 0.0010997472982974485 0 0.028922028239569089 0.0011700863006782367 0 0.029120300819224818 0.0010997472982974485 0 0.028922028239569089 0.0011700863006782367 0 0.029008791190305399 0.00079098370968016965 0 0.028922028239569089 0.0011700863006782367 0 0.028835828805620533 0.0003221941767042608 0 0.029008791190305399 0.00079098370968016965 0 0.024596508626442068 0.00012967883922828757 0 0.026981155759205844 0.0004858402981445058 0 0.025889580280419568 -0.00012393067609006524 0 0.028835828805620533 0.0003221941767042608 0 0.027694821513561761 0.00069006346391291111 0 0.028922028239569089 0.0011700863006782367 0 0.028835828805620533 0.0003221941767042608 0 0.027694821513561761 0.00069006346391291111 0 0.030877313064749164 -0.00025435010486096147 0 0.031418298145176007 -0.00037976503210046379 0 0.031263156594128233 -0.00058649719817020437 0 0.030877313064749164 -0.00025435010486096147 0 0.031418298145176007 -0.00037976503210046379 0 0.031196162763002702 -1.1717694284326202e-05 0 0.031418298145176007 -0.00037976503210046379 0 0.031263156594128233 -0.00058649719817020437 0 0.031654188265796336 -0.00062268356822604886 0 0.031263156594128233 -0.00058649719817020437 0 0.031654188265796336 -0.00062268356822604886 0 0.031514146493125519 -0.00071101358278456825 0 0.031263156594128233 -0.00058649719817020437 0 0.031227077224889224 -0.00082609931268465156 0 0.031514146493125519 -0.00071101358278456825 0 0.030877313064749164 -0.00025435010486096147 0 0.031263156594128233 -0.00058649719817020437 0 0.030800937740489573 -0.00074751408738855116 0 0.030877313064749164 -0.00025435010486096147 0 0.030800937740489573 -0.00074751408738855116 0 0.030440858905275085 -0.00050334209220014535 0 0.031263156594128233 -0.00058649719817020437 0 0.030800937740489573 -0.00074751408738855116 0 0.031227077224889224 -0.00082609931268465156 0 0.034142415183032182 0.0015044956400124072 0 0.033592414200008809 0.001214764267917902 0 0.033964347655718249 0.00097197820727451686 0 0.033592414200008809 0.001214764267917902 0 0.033528858812506612 0.0018354506977125255 0 0.033027221536643218 0.0015484517140577406 0 0.034142415183032182 0.0015044956400124072 0 0.033592414200008809 0.001214764267917902 0 0.033528858812506612 0.0018354506977125255 0 0.034142415183032182 0.0015044956400124072 0 0.033528858812506612 0.0018354506977125255 0 0.033812465716782487 0.0024474933934760762 0 0.032251711696508333 0.00041877877236422631 0 0.031933462636889086 0.0014437502103213846 0 0.030877313064749164 -0.00025435010486096147 0 0.030440858905275085 -0.00050334209220014535 0 0.02995730730445181 0.00014879069352127517 0 0.033528858812506612 0.0018354506977125255 0 0.033812465716782487 0.0024474933934760762 0 0.033017542792422326 0.0022842738371300479 0 0.02995730730445181 0.00014879069352127517 0 0.030074174858793039 0.00069400513814349462 0 0.029440949355004468 0.00098980929027392178 0 0.033812465716782487 0.0024474933934760762 0 0.033041317467970364 0.0030472750791253177 0 0.033486051953164238 0.0033236018420290231 0 0.031933462636889086 0.0014437502103213846 0 0.031037870368377126 0.0015651064225237579 0 0.02995730730445181 0.00014879069352127517 0 0.030074174858793039 0.00069400513814349462 0 0.03062475637841109 0.0003049046870979663 0 0.03062475637841109 0.0003049046870979663 0 0.031018257073452741 0.0005794575767591576 0 0.030533177582394735 0.00079828478168472142 0 0.030074174858793039 0.00069400513814349462 0 0.03062475637841109 0.0003049046870979663 0 0.030533177582394735 0.00079828478168472142 0 0.030877313064749164 -0.00025435010486096147 0 0.02995730730445181 0.00014879069352127517 0 0.03062475637841109 0.0003049046870979663 0 0.030877313064749164 -0.00025435010486096147 0 0.03062475637841109 0.0003049046870979663 0 0.031196162763002702 -1.1717694284326202e-05 0 0.031196162763002702 -1.1717694284326202e-05 0 0.031018257073452741 0.0005794575767591576 0 0.031472483375698482 0.00016113368054907111 0 0.03062475637841109 0.0003049046870979663 0 0.031196162763002702 -1.1717694284326202e-05 0 0.031018257073452741 0.0005794575767591576 0 0.031018257073452741 0.0005794575767591576 0 0.031472483375698482 0.00016113368054907111 0 0.031616427890392929 0.00074203342701977578 0 0.032687173313216439 -0.00030958484456606965 0 0.028960378254314287 -0.00042191008718357769 0 0.03199639543995856 0.00090321008966915263 0 0.028960378254314287 -0.00042191008718357769 0 0.031905973320108326 -0.00019961281186506947 0 0.031472483375698482 0.00016113368054907111 0 0.031616427890392929 0.00074203342701977578 0 0.03188018424396246 -0.00073820528233827561 0 0.031905973320108326 -0.00019961281186506947 0 0.032380617640428475 -0.0010278205928332914 0 0.03188018424396246 -0.00073820528233827561 0 0.031671779529777365 -0.00099193995487903918 0 0.031749065483902765 -0.0012841773231691289 0 0.03188018424396246 -0.00073820528233827561 0 0.031905973320108326 -0.00019961281186506947 0 0.031678210992278508 -0.00030231131616638239 0 0.031905973320108326 -0.00019961281186506947 0 0.031678210992278508 -0.00030231131616638239 0 0.031841273512383743 -0.00030485613026456329 0 0.031905973320108326 -0.00019961281186506947 0 0.031627757616796953 -0.00020288489149569193 0 0.031841273512383743 -0.00030485613026456329 0 0.031196162763002702 -1.1717694284326202e-05 0 0.031627757616796953 -0.00020288489149569193 0 0.031472483375698482 0.00016113368054907111 0 0.031905973320108326 -0.00019961281186506947 0 0.031627757616796953 -0.00020288489149569193 0 0.031472483375698482 0.00016113368054907111 0 0.030948925308455156 -0.00081514102578052964 0 0.031469992796576168 -0.00085852329453943031 0 0.031137576629383733 -0.001189299448531364 0 0.030948925308455156 -0.00081514102578052964 0 0.031469992796576168 -0.00085852329453943031 0 0.031289689042197408 -0.00052482118037166917 0 0.030948925308455156 -0.00081514102578052964 0 0.0306679419063761 -0.0014021005338367635 0 0.031137576629383733 -0.001189299448531364 0 0.03188018424396246 -0.00073820528233827561 0 0.031469992796576168 -0.00085852329453943031 0 0.031671779529777365 -0.00099193995487903918 0 0.03188018424396246 -0.00073820528233827561 0 0.031469992796576168 -0.00085852329453943031 0 0.031678210992278508 -0.00030231131616638239 0 0.031469992796576168 -0.00085852329453943031 0 0.031678210992278508 -0.00030231131616638239 0 0.031289689042197408 -0.00052482118037166917 0 0.031469992796576168 -0.00085852329453943031 0 0.031137576629383733 -0.001189299448531364 0 0.03144386563115216 -0.0011894041671399467 0 0.031469992796576168 -0.00085852329453943031 0 0.031671779529777365 -0.00099193995487903918 0 0.03144386563115216 -0.0011894041671399467 0 0.031678210992278508 -0.00030231131616638239 0 0.031289689042197408 -0.00052482118037166917 0 0.031046542943346578 -9.7698715954134695e-05 0 0.031678210992278508 -0.00030231131616638239 0 0.031046542943346578 -9.7698715954134695e-05 0 0.031442071556458714 0.00047485879306121955 0 0.030948925308455156 -0.00081514102578052964 0 0.031289689042197408 -0.00052482118037166917 0 0.031046542943346578 -9.7698715954134695e-05 0 0.030608129733217103 -0.00055877580760631479 0 0.030948925308455156 -0.00081514102578052964 0 0.031046542943346578 -9.7698715954134695e-05 0 0.031046542943346578 -9.7698715954134695e-05 0 0.030991300853524525 0.00052592893287361781 0 0.031442071556458714 0.00047485879306121955 0 0.030611693487736763 0.00027474168996514573 0 0.031046542943346578 -9.7698715954134695e-05 0 0.030991300853524525 0.00052592893287361781 0 0.03169485954953203 -0.00028982741928244117 0 0.031672402653824309 2.2463219691989777e-06 0 0.031678210992278508 -0.00030231131616638239 0 0.031930451416736658 -0.00040571438297055831 0 0.031841273512383743 -0.00030485613026456329 0 0.030991300853524525 0.00052592893287361781 0 0.031442071556458714 0.00047485879306121955 0 0.031187780920567398 0.00093210490648241474 0 0.031672402653824309 2.2463219691989777e-06 0 0.031546483583716901 0.00015502789824111454 0 0.031930451416736658 -0.00040571438297055831 0 0.031896758765081031 -0.00064291629041082396 0 0.031941154072480472 -0.00064429124113743095 0 0.030991300853524525 0.00052592893287361781 0 0.031014346166957831 0.00092920271713457748 0 0.031187780920567398 0.00093210490648241474 0 0.031418298145176007 -0.00037976503210046379 0 0.031196162763002702 -1.1717694284326202e-05 0 0.031627757616796953 -0.00020288489149569193 0 0.031418298145176007 -0.00037976503210046379 0 0.031627757616796953 -0.00020288489149569193 0 0.031690830541748871 -0.00038780672678867165 0 0.031627757616796953 -0.00020288489149569193 0 0.031690830541748871 -0.00038780672678867165 0 0.031841273512383743 -0.00030485613026456329 0 0.031930451416736658 -0.00040571438297055831 0 0.031841273512383743 -0.00030485613026456329 0 0.031832931941635632 -0.00052177133593209559 0 0.031690830541748871 -0.00038780672678867165 0 0.031841273512383743 -0.00030485613026456329 0 0.031832931941635632 -0.00052177133593209559 0 0.031930451416736658 -0.00040571438297055831 0 0.031832931941635632 -0.00052177133593209559 0 0.031896758765081031 -0.00064291629041082396 0 0.031832931941635632 -0.00052177133593209559 0 0.031858879513692213 -0.000713900159176247 0 0.031896758765081031 -0.00064291629041082396 0 0.031690830541748871 -0.00038780672678867165 0 0.031832931941635632 -0.00052177133593209559 0 0.031654188265796336 -0.00062268356822604886 0 0.031832931941635632 -0.00052177133593209559 0 0.031654188265796336 -0.00062268356822604886 0 0.031858879513692213 -0.000713900159176247 0 0.031418298145176007 -0.00037976503210046379 0 0.031690830541748871 -0.00038780672678867165 0 0.031654188265796336 -0.00062268356822604886 0 0.031654188265796336 -0.00062268356822604886 0 0.031895483520735124 -0.00081782527739359431 0 0.031514146493125519 -0.00071101358278456825 0 0.031654188265796336 -0.00062268356822604886 0 0.031895483520735124 -0.00081782527739359431 0 0.031858879513692213 -0.000713900159176247 0 0.031895483520735124 -0.00081782527739359431 0 0.031858879513692213 -0.000713900159176247 0 0.03194223447118201 -0.00078051079223964714 0 0.031858879513692213 -0.000713900159176247 0 0.031896758765081031 -0.00064291629041082396 0 0.031918081387701303 -0.00070847301896168145 0 0.031896758765081031 -0.00064291629041082396 0 0.031918081387701303 -0.00070847301896168145 0 0.031908892007624777 -0.00066787442193542187 0 0.031858879513692213 -0.000713900159176247 0 0.031918081387701303 -0.00070847301896168145 0 0.03194223447118201 -0.00078051079223964714 0 0.031918081387701303 -0.00070847301896168145 0 0.031965597850932614 -0.00068403530704114375 0 0.03194223447118201 -0.00078051079223964714 0 0.031918081387701303 -0.00070847301896168145 0 0.031965597850932614 -0.00068403530704114375 0 0.031908892007624777 -0.00066787442193542187 0 0.031965597850932614 -0.00068403530704114375 0 0.031908892007624777 -0.00066787442193542187 0 0.031986904697799773 -0.00056605455241024913 0 0.031908892007624777 -0.00066787442193542187 0 0.031986904697799773 -0.00056605455241024913 0 0.031899879438013277 -0.00056856292820037615 0 0.031965597850932614 -0.00068403530704114375 0 0.031986904697799773 -0.00056605455241024913 0 0.032166207153036426 -0.00055587915387647982 0 0.031895483520735124 -0.00081782527739359431 0 0.03194223447118201 -0.00078051079223964714 0 0.032218237363085628 -0.00047720437481665618 0 0.032166207153036426 -0.00055587915387647982 0 0.03194223447118201 -0.00078051079223964714 0 0.032454121484201223 -0.00053173286024760203 0 0.031965597850932614 -0.00068403530704114375 0 0.032166207153036426 -0.00055587915387647982 0 0.03194223447118201 -0.00078051079223964714 0 0.031014346166957831 0.00092920271713457748 0 0.031334650258099228 0.00071842447836843596 0 0.031187780920567398 0.00093210490648241474 0 0.031334650258099228 0.00071842447836843596 0 0.031187780920567398 0.00093210490648241474 0 0.031196491729767017 0.00058807672508763098 0 0.031896758765081031 -0.00064291629041082396 0 0.031908892007624777 -0.00066787442193542187 0 0.031941154072480472 -0.00064429124113743095 0 0.031546483583716901 0.00015502789824111454 0 0.031775811163738656 -7.4514380392803152e-05 0 0.031908892007624777 -0.00066787442193542187 0 0.031941154072480472 -0.00064429124113743095 0 0.031828991873360489 -0.00061713217663639708 0 0.031908892007624777 -0.00066787442193542187 0 0.031899879438013277 -0.00056856292820037615 0 0.031828991873360489 -0.00061713217663639708 0 0.031381949748179219 0.00073905630229599106 0 0.031775811163738656 -7.4514380392803152e-05 0 0.031486981175528755 0.00046444340496577796 0 0.031609143485419981 0.0004550773261334118 0 0.031765087770388029 0.0003651620843926291 0 0.031334650258099228 0.00071842447836843596 0 0.031486981175528755 0.00046444340496577796 0 0.031609143485419981 0.0004550773261334118 0 0.032444748063225039 -0.00085120717741623035 0 0.032357194405039855 2.1628842430397746e-05 0 0.032070223476152883 0.00029567613538205017 0 0.031775811163738656 -7.4514380392803152e-05 0 0.03209047489627135 0.00025747781182256364 0 0.031486981175528755 0.00046444340496577796 0 0.031765087770388029 0.0003651620843926291 0 0.032070223476152883 0.00029567613538205017 0 0.031899879438013277 -0.00056856292820037615 0 0.031828991873360489 -0.00061713217663639708 0 0.031892981906355707 -0.00040108575530654271 0 0.032444748063225039 -0.00085120717741623035 0 0.032357194405039855 2.1628842430397746e-05 0 0.032989553669265897 -0.00020479392096837097 0 0.031775811163738656 -7.4514380392803152e-05 0 0.032455384259765054 -0.00037869486851585722 0 0.032357194405039855 2.1628842430397746e-05 0 0.032935841965350883 0.00013124769213612348 0 0.032936759566783942 0.00021048464536707772 0 0.032357194405039855 2.1628842430397746e-05 0 0.032989553669265897 -0.00020479392096837097 0 0.032935841965350883 0.00013124769213612348 0 0.032408773919725804 -4.7348588186363806e-06 0 0.032476008354284221 0.00049601340492509477 0 0.032070223476152883 0.00029567613538205017 0 0.031888699390214235 0.00055045203226172161 0 0.032218314934693265 0.0007878502577379551 0 0.032357194405039855 2.1628842430397746e-05 0 0.032070223476152883 0.00029567613538205017 0 0.032218314934693265 0.0007878502577379551 0 0.031823730573858816 0.00036756338373376666 0 0.032070223476152883 0.00029567613538205017 0 0.031888699390214235 0.00055045203226172161 0 0.031823730573858816 0.00036756338373376666 0 0.031765087770388029 0.0003651620843926291 0 0.032070223476152883 0.00029567613538205017 0 0.032491509870387139 -0.00037213289461694867 0 0.032162583887267754 -0.00040038547759872203 0 0.032313576436542341 -6.9982544513694383e-05 0 0.032166207153036426 -0.00055587915387647982 0 0.032491509870387139 -0.00037213289461694867 0 0.032454121484201223 -0.00053173286024760203 0 0.032166207153036426 -0.00055587915387647982 0 0.032491509870387139 -0.00037213289461694867 0 0.032162583887267754 -0.00040038547759872203 0 0.031986904697799773 -0.00056605455241024913 0 0.032166207153036426 -0.00055587915387647982 0 0.032162583887267754 -0.00040038547759872203 0 0.031892981906355707 -0.00040108575530654271 0 0.032162583887267754 -0.00040038547759872203 0 0.032313576436542341 -6.9982544513694383e-05 0 0.031986904697799773 -0.00056605455241024913 0 0.031892981906355707 -0.00040108575530654271 0 0.032162583887267754 -0.00040038547759872203 0 0.031986904697799773 -0.00056605455241024913 0 0.031899879438013277 -0.00056856292820037615 0 0.031892981906355707 -0.00040108575530654271 0 0.032989553669265897 -0.00020479392096837097 0 0.032935841965350883 0.00013124769213612348 0 0.033209157589840804 0.00015392071933767167 0 0.032935841965350883 0.00013124769213612348 0 0.033209157589840804 0.00015392071933767167 0 0.033159152357384848 0.00018736344741233826 0 0.032455384259765054 -0.00037869486851585722 0 0.032755700651441164 2.3780761788684365e-05 0 0.032491509870387139 -0.00037213289461694867 0 0.032313576436542341 -6.9982544513694383e-05 0 0.032826807015069209 -0.00014992172938085605 0 0.032313576436542341 -6.9982544513694383e-05 0 0.032826807015069209 -0.00014992172938085605 0 0.032958798797727028 0.00011644228164455594 0 0.032826807015069209 -0.00014992172938085605 0 0.032990151190509576 -8.2403488563339419e-05 0 0.032958798797727028 0.00011644228164455594 0 0.032990151190509576 -8.2403488563339419e-05 0 0.032983702602743512 -0.00024143586752151439 0 0.033081916595128553 -0.00019753080265825715 0 0.032990151190509576 -8.2403488563339419e-05 0 0.033081916595128553 -0.00019753080265825715 0 0.033049837994723844 -0.00010712194187048657 0 0.032826807015069209 -0.00014992172938085605 0 0.032990151190509576 -8.2403488563339419e-05 0 0.032983702602743512 -0.00024143586752151439 0 0.032983702602743512 -0.00024143586752151439 0 0.033071841599920812 -0.00028434475883571384 0 0.033081916595128553 -0.00019753080265825715 0 0.032983702602743512 -0.00024143586752151439 0 0.03298984451975872 -0.00038890562343309279 0 0.032782883583000688 -0.00036665797054569145 0 0.032983702602743512 -0.00024143586752151439 0 0.03298984451975872 -0.00038890562343309279 0 0.033071841599920812 -0.00028434475883571384 0 0.032826807015069209 -0.00014992172938085605 0 0.032983702602743512 -0.00024143586752151439 0 0.032782883583000688 -0.00036665797054569145 0 0.032491509870387139 -0.00037213289461694867 0 0.032826807015069209 -0.00014992172938085605 0 0.032782883583000688 -0.00036665797054569145 0 0.032491509870387139 -0.00037213289461694867 0 0.032782883583000688 -0.00036665797054569145 0 0.032454121484201223 -0.00053173286024760203 0 0.031895483520735124 -0.00081782527739359431 0 0.032218237363085628 -0.00047720437481665618 0 0.032450090471773461 -0.00050485126352352132 0 0.03199075762179257 -0.00075176206216588854 0 0.032525204188774977 -0.00056018933754961022 0 0.03194223447118201 -0.00078051079223964714 0 0.032454121484201223 -0.00053173286024760203 0 0.032839597543194043 -0.00066295562031837589 0 0.032782883583000688 -0.00036665797054569145 0 0.032454121484201223 -0.00053173286024760203 0 0.032839597543194043 -0.00066295562031837589 0 0.03298984451975872 -0.00038890562343309279 0 0.032782883583000688 -0.00036665797054569145 0 0.032839597543194043 -0.00066295562031837589 0 0.032525204188774977 -0.00056018933754961022 0 0.032965728011464628 -0.00024352212165893239 0 0.032218237363085628 -0.00047720437481665618 0 0.032450090471773461 -0.00050485126352352132 0 0.032817836702604714 -0.00014397117019323094 0 0.03298984451975872 -0.00038890562343309279 0 0.032839597543194043 -0.00066295562031837589 0 0.033147112371985608 -0.00033510867241952976 0 0.032594048391157274 -0.00044317595198949231 0 0.032450090471773461 -0.00050485126352352132 0 0.032817836702604714 -0.00014397117019323094 0 0.030800937740489573 -0.00074751408738855116 0 0.030768522299175129 -0.0011519677467629081 0 0.030932649930540911 -0.0009351859814165632 0 0.030902248670532571 -0.0011630907709551785 0 0.030932649930540911 -0.0009351859814165632 0 0.031227077224889224 -0.00082609931268465156 0 0.030768522299175129 -0.0011519677467629081 0 0.030902248670532571 -0.0011630907709551785 0 0.030932649930540911 -0.0009351859814165632 0 0.032805864280475591 2.2000773772852991e-05 0 0.031781010458321921 -0.00052919269162317176 0 0.030800937740489573 -0.00074751408738855116 0 0.030932649930540911 -0.0009351859814165632 0 0.031227077224889224 -0.00082609931268465156 0 0.031803221247077761 -0.00090547684183095477 0 0.031781010458321921 -0.00052919269162317176 0 0.031895483520735124 -0.00081782527739359431 0 0.031227077224889224 -0.00082609931268465156 0 0.031514146493125519 -0.00071101358278456825 0 0.031895483520735124 -0.00081782527739359431 0 0.030902248670532571 -0.0011630907709551785 0 0.031227077224889224 -0.00082609931268465156 0 0.033592414200008809 0.001214764267917902 0 0.033964347655718249 0.00097197820727451686 0 0.033690635554308811 0.0005192005549875449 0 0.033592414200008809 0.001214764267917902 0 0.033690635554308811 0.0005192005549875449 0 0.033181131862139987 0.00094898428262361011 0 0.032251711696508333 0.00041877877236422631 0 0.032805864280475591 2.2000773772852991e-05 0 0.030800937740489573 -0.00074751408738855116 0 0.030440858905275085 -0.00050334209220014535 0 0.030768522299175129 -0.0011519677467629081 0 0.034419868134669331 0.00057552207967132452 0 0.033964347655718249 0.00097197820727451686 0 0.033690635554308811 0.0005192005549875449 0 0.034142415183032182 0.0015044956400124072 0 0.034419868134669331 0.00057552207967132452 0 0.033964347655718249 0.00097197820727451686 0 0.032594048391157274 -0.00044317595198949231 0 0.032817836702604714 -0.00014397117019323094 0 0.033019248834047298 -0.000130009611598848 0 0.032805864280475591 2.2000773772852991e-05 0 0.033458298049969068 0.00020795162371070933 0 0.03298984451975872 -0.00038890562343309279 0 0.033147112371985608 -0.00033510867241952976 0 0.033071841599920812 -0.00028434475883571384 0 0.032817836702604714 -0.00014397117019323094 0 0.033019248834047298 -0.000130009611598848 0 0.03302822428668583 -1.6907203938107727e-05 0 0.032965728011464628 -0.00024352212165893239 0 0.033020620716466047 -5.7472853342574691e-05 0 0.033147112371985608 -0.00033510867241952976 0 0.033114257124713921 -0.00019220554258703629 0 0.03302822428668583 -1.6907203938107727e-05 0 0.033114257124713921 -0.00019220554258703629 0 0.033109376321881642 -0.00023224056804484563 0 0.033127045860718164 -0.00023942219519189467 0 0.033114257124713921 -0.00019220554258703629 0 0.03302822428668583 -1.6907203938107727e-05 0 0.033025166356852959 -0.00015665188524202929 0 0.033114257124713921 -0.00019220554258703629 0 0.033109376321881642 -0.00023224056804484563 0 0.033025166356852959 -0.00015665188524202929 0 0.033147112371985608 -0.00033510867241952976 0 0.033071841599920812 -0.00028434475883571384 0 0.033127045860718164 -0.00023942219519189467 0 0.033147112371985608 -0.00033510867241952976 0 0.033114257124713921 -0.00019220554258703629 0 0.033127045860718164 -0.00023942219519189467 0 0.033071841599920812 -0.00028434475883571384 0 0.033127045860718164 -0.00023942219519189467 0 0.033081916595128553 -0.00019753080265825715 0 0.033081916595128553 -0.00019753080265825715 0 0.033117620689818994 -0.00020368071387834853 0 0.033049837994723844 -0.00010712194187048657 0 0.033127045860718164 -0.00023942219519189467 0 0.033081916595128553 -0.00019753080265825715 0 0.033128833754322469 -0.00023431219217221705 0 0.033081916595128553 -0.00019753080265825715 0 0.033128833754322469 -0.00023431219217221705 0 0.033117620689818994 -0.00020368071387834853 0 0.033109376321881642 -0.00023224056804484563 0 0.033127045860718164 -0.00023942219519189467 0 0.033128833754322469 -0.00023431219217221705 0 0.033109376321881642 -0.00023224056804484563 0 0.033142660434948366 -0.00028078622344349986 0 0.033100538498594186 -0.00029731200511740459 0 0.033109376321881642 -0.00023224056804484563 0 0.033128833754322469 -0.00023431219217221705 0 0.033142660434948366 -0.00028078622344349986 0 0.033128833754322469 -0.00023431219217221705 0 0.033142660434948366 -0.00028078622344349986 0 0.033117620689818994 -0.00020368071387834853 0 0.033142660434948366 -0.00028078622344349986 0 0.033162585486065869 -0.00025009949335247367 0 0.033200381073385098 -0.00033725419278454657 0 0.033142660434948366 -0.00028078622344349986 0 0.033162585486065869 -0.00025009949335247367 0 0.033117620689818994 -0.00020368071387834853 0 0.033162585486065869 -0.00025009949335247367 0 0.033232336669206525 -0.0002514259602812922 0 0.033200381073385098 -0.00033725419278454657 0 0.033162585486065869 -0.00025009949335247367 0 0.033139330246018207 -0.00013231332245184472 0 0.033089428225643959 -0.00013736840283005945 0 0.033162585486065869 -0.00025009949335247367 0 0.033232336669206525 -0.0002514259602812922 0 0.033139330246018207 -0.00013231332245184472 0 0.033139330246018207 -0.00013231332245184472 0 0.033286499661100637 -0.00011308088062147436 0 0.033115240957690979 6.4443297145054867e-06 0 0.033232336669206525 -0.0002514259602812922 0 0.033139330246018207 -0.00013231332245184472 0 0.033286499661100637 -0.00011308088062147436 0 0.033139330246018207 -0.00013231332245184472 0 0.03305410861290517 -5.7390811629082028e-05 0 0.033115240957690979 6.4443297145054867e-06 0 0.033139330246018207 -0.00013231332245184472 0 0.03305410861290517 -5.7390811629082028e-05 0 0.033089428225643959 -0.00013736840283005945 0 0.03305410861290517 -5.7390811629082028e-05 0 0.033089428225643959 -0.00013736840283005945 0 0.033037581840193266 -6.0677934000046753e-05 0 0.033089428225643959 -0.00013736840283005945 0 0.033049837994723844 -0.00010712194187048657 0 0.033037581840193266 -6.0677934000046753e-05 0 0.033162585486065869 -0.00025009949335247367 0 0.033089428225643959 -0.00013736840283005945 0 0.033117620689818994 -0.00020368071387834853 0 0.033089428225643959 -0.00013736840283005945 0 0.033117620689818994 -0.00020368071387834853 0 0.033049837994723844 -0.00010712194187048657 0 0.032990151190509576 -8.2403488563339419e-05 0 0.033049837994723844 -0.00010712194187048657 0 0.033001506488533831 1.5362389542090648e-05 0 0.033049837994723844 -0.00010712194187048657 0 0.033001506488533831 1.5362389542090648e-05 0 0.033037581840193266 -6.0677934000046753e-05 0 0.032990151190509576 -8.2403488563339419e-05 0 0.033001506488533831 1.5362389542090648e-05 0 0.032958798797727028 0.00011644228164455594 0 0.033001506488533831 1.5362389542090648e-05 0 0.032958798797727028 0.00011644228164455594 0 0.033072653659521029 6.737926829424242e-05 0 0.033001506488533831 1.5362389542090648e-05 0 0.033072653659521029 6.737926829424242e-05 0 0.033044736841426767 8.2079213317347623e-06 0 0.033072653659521029 6.737926829424242e-05 0 0.033044736841426767 8.2079213317347623e-06 0 0.033252799767628176 -1.2823758541710126e-06 0 0.033044736841426767 8.2079213317347623e-06 0 0.033019245492560911 -1.8628896772858356e-05 0 0.033003236485864514 1.029305232089457e-05 0 0.033001506488533831 1.5362389542090648e-05 0 0.033044736841426767 8.2079213317347623e-06 0 0.033019245492560911 -1.8628896772858356e-05 0 0.033001506488533831 1.5362389542090648e-05 0 0.033037581840193266 -6.0677934000046753e-05 0 0.033019245492560911 -1.8628896772858356e-05 0 0.03305410861290517 -5.7390811629082028e-05 0 0.033019245492560911 -1.8628896772858356e-05 0 0.033003236485864514 1.029305232089457e-05 0 0.03305410861290517 -5.7390811629082028e-05 0 0.033037581840193266 -6.0677934000046753e-05 0 0.033019245492560911 -1.8628896772858356e-05 0 0.033044736841426767 8.2079213317347623e-06 0 0.032941250180073045 -0.00013604938945031554 0 0.033026710481366135 -0.00016330176841260067 0 0.033082265741532446 3.1370998227136441e-05 0 0.032858219838320837 -0.00011570537699919177 0 0.032941250180073045 -0.00013604938945031554 0 0.033026710481366135 -0.00016330176841260067 0 0.032939070627842196 -0.00021980297453301194 0 0.033044736841426767 8.2079213317347623e-06 0 0.033026710481366135 -0.00016330176841260067 0 0.033252799767628176 -1.2823758541710126e-06 0 0.03342949219763279 -1.9730115435473665e-05 0 0.033252799767628176 -1.2823758541710126e-06 0 0.033457128826870679 -3.2594929190931297e-05 0 0.033146704447456606 -0.00012570273988418972 0 0.033292396752176705 1.0315431013107999e-05 0 0.03342949219763279 -1.9730115435473665e-05 0 0.033313756239896297 -0.00012614004568124983 0 0.033592709032744535 -0.00015826338819994445 0 0.033716721601311124 -0.00018550213050134867 0 0.033585459440177198 -0.00020669834696523994 0 0.03342949219763279 -1.9730115435473665e-05 0 0.033457128826870679 -3.2594929190931297e-05 0 0.033592709032744535 -0.00015826338819994445 0 0.033146704447456606 -0.00012570273988418972 0 0.033716721601311124 -0.00018550213050134867 0 0.032941250180073045 -0.00013604938945031554 0 0.032939070627842196 -0.00021980297453301194 0 0.032884698908758843 -0.00020058517458654062 0 0.034613305389697771 -4.9303709894536938e-05 0 0.034706222140238704 -7.1647867722009426e-05 0 0.034770434907839015 5.434791275833403e-05 0 0.033716721601311124 -0.00018550213050134867 0 0.033831315242696211 -2.1306642639270105e-06 0 0.034455936055153055 6.3536762131675175e-05 0 0.034386472112542719 0.00010665705777503551 0 0.034371631595792297 3.7587392098517464e-05 0 0.033831315242696211 -2.1306642639270105e-06 0 0.034733895407705731 6.3861800860582472e-05 0 0.033831315242696211 -2.1306642639270105e-06 0 0.033844466494657152 0.0001426879509641501 0 0.034455936055153055 6.3536762131675175e-05 0 0.03438203535065585 2.0749938393563762e-05 0 0.034371631595792297 3.7587392098517464e-05 0 0.033286499661100637 -0.00011308088062147436 0 0.033306792407493749 0.00018429243149647748 0 0.033115240957690979 6.4443297145054867e-06 0 0.033091132733057721 0.00015572353957156373 0 0.033306792407493749 0.00018429243149647748 0 0.033115240957690979 6.4443297145054867e-06 0 0.03305410861290517 -5.7390811629082028e-05 0 0.033003236485864514 1.029305232089457e-05 0 0.033115240957690979 6.4443297145054867e-06 0 0.032858219838320837 -0.00011570537699919177 0 0.033831315242696211 -2.1306642639270105e-06 0 0.033003236485864514 1.029305232089457e-05 0 0.033091132733057721 0.00015572353957156373 0 0.033115240957690979 6.4443297145054867e-06 0 0.03204189799035638 0.0010581074104669232 0 0.032218314934693265 0.0007878502577379551 0 0.032242120109355711 0.0011713296291303548 0 0.031745883901032265 0.0011256940458465074 0 0.03204189799035638 0.0010581074104669232 0 0.031952325526074736 0.00083886274601728832 0 0.03204189799035638 0.0010581074104669232 0 0.031952325526074736 0.00083886274601728832 0 0.032218314934693265 0.0007878502577379551 0 0.031888699390214235 0.00055045203226172161 0 0.031952325526074736 0.00083886274601728832 0 0.032218314934693265 0.0007878502577379551 0 0.032935841965350883 0.00013124769213612348 0 0.032936759566783942 0.00021048464536707772 0 0.033159152357384848 0.00018736344741233826 0 0.032936759566783942 0.00021048464536707772 0 0.033264548381433272 0.00023105662317415214 0 0.033159152357384848 0.00018736344741233826 0 0.032476008354284221 0.00049601340492509477 0 0.033506996002234266 0.0005991030281015142 0 0.032936759566783942 0.00021048464536707772 0 0.033264548381433272 0.00023105662317415214 0 0.033087973958897551 0.0004125036777095155 0 0.033264548381433272 0.00023105662317415214 0 0.033497555372444171 3.9390967228763913e-05 0 0.033610316017212691 9.3733760432772122e-05 0 0.033330070518127627 0.00020875332063520336 0 0.033506996002234266 0.0005991030281015142 0 0.033264548381433272 0.00023105662317415214 0 0.033354297224329719 5.9796759939203174e-05 0 0.033497555372444171 3.9390967228763913e-05 0 0.033264548381433272 0.00023105662317415214 0 0.033206091684089917 0.00012321112388252663 0 0.033354297224329719 5.9796759939203174e-05 0 0.033209157589840804 0.00015392071933767167 0 0.033159152357384848 0.00018736344741233826 0 0.033206091684089917 0.00012321112388252663 0 0.033264548381433272 0.00023105662317415214 0 0.033159152357384848 0.00018736344741233826 0 0.033206091684089917 0.00012321112388252663 0 0.033209157589840804 0.00015392071933767167 0 0.032958798797727028 0.00011644228164455594 0 0.033206091684089917 0.00012321112388252663 0 0.032755700651441164 2.3780761788684365e-05 0 0.032914335516722661 0.00010208735102486299 0 0.032958798797727028 0.00011644228164455594 0 0.033072653659521029 6.737926829424242e-05 0 0.033206091684089917 0.00012321112388252663 0 0.033206091684089917 0.00012321112388252663 0 0.033252799767628176 -1.2823758541710126e-06 0 0.033354297224329719 5.9796759939203174e-05 0 0.033072653659521029 6.737926829424242e-05 0 0.033206091684089917 0.00012321112388252663 0 0.033252799767628176 -1.2823758541710126e-06 0 0.033252799767628176 -1.2823758541710126e-06 0 0.033457128826870679 -3.2594929190931297e-05 0 0.033354297224329719 5.9796759939203174e-05 0 0.033457128826870679 -3.2594929190931297e-05 0 0.033531305552380493 -2.1504827002651706e-05 0 0.033354297224329719 5.9796759939203174e-05 0 0.033457128826870679 -3.2594929190931297e-05 0 0.033673728414872039 -9.1033114339414693e-05 0 0.033592709032744535 -0.00015826338819994445 0 0.033457128826870679 -3.2594929190931297e-05 0 0.033673728414872039 -9.1033114339414693e-05 0 0.033531305552380493 -2.1504827002651706e-05 0 0.033673728414872039 -9.1033114339414693e-05 0 0.033531305552380493 -2.1504827002651706e-05 0 0.033740715167970822 -8.7685684626939977e-05 0 0.033673728414872039 -9.1033114339414693e-05 0 0.033740715167970822 -8.7685684626939977e-05 0 0.033857214777869439 -0.00012673430763273936 0 0.033531305552380493 -2.1504827002651706e-05 0 0.033354297224329719 5.9796759939203174e-05 0 0.033497555372444171 3.9390967228763913e-05 0 0.033497555372444171 3.9390967228763913e-05 0 0.033610316017212691 9.3733760432772122e-05 0 0.033740715167970822 -8.7685684626939977e-05 0 0.03485588477365225 0.00049624492614544079 0 0.034861384635834602 0.00032193664251168593 0 0.034950029211344123 0.00040952861386176647 0 0.033506996002234266 0.0005991030281015142 0 0.034365418262766061 5.493597910404437e-05 0 0.033531305552380493 -2.1504827002651706e-05 0 0.033497555372444171 3.9390967228763913e-05 0 0.033740715167970822 -8.7685684626939977e-05 0 0.03502992579643531 0.00032781571000054937 0 0.034950029211344123 0.00040952861386176647 0 0.034951544339101588 0.00026234612033734431 0 0.034861384635834602 0.00032193664251168593 0 0.034950029211344123 0.00040952861386176647 0 0.034951544339101588 0.00026234612033734431 0 0.032873582797431543 0.0007831268585830485 0 0.033506932061702424 0.00085758795643015159 0 0.031745883901032265 0.0011256940458465074 0 0.03204189799035638 0.0010581074104669232 0 0.032048244456218782 0.0013625635953068028 0 0.03204189799035638 0.0010581074104669232 0 0.032242120109355711 0.0011713296291303548 0 0.032048244456218782 0.0013625635953068028 0 0.033506996002234266 0.0005991030281015142 0 0.033506932061702424 0.00085758795643015159 0 0.035016918168609842 0.00020718999927546607 0 0.035006400341386357 0.00010527982597302036 0 0.034976175761273147 0.00016464130936832811 0 0.034949207733072821 0.00010817416128819542 0 0.034976175761273147 0.00016464130936832811 0 0.034885164555400278 0.00016703060922396482 0 0.03432152451293348 0.00034095948767499934 0 0.034518843972273353 0.00026647819153828074 0 0.035006400341386357 0.00010527982597302036 0 0.034996580403670534 0.00010656694151649858 0 0.034976175761273147 0.00016464130936832811 0 0.034518843972273353 0.00026647819153828074 0 0.034586596940703582 0.0002552431948320132 0 0.034996580403670534 0.00010656694151649858 0 0.034949207733072821 0.00010817416128819542 0 0.034976175761273147 0.00016464130936832811 0 0.034996580403670534 0.00010656694151649858 0 0.034949207733072821 0.00010817416128819542 0 0.034967005615534084 6.6107351856528786e-05 0 0.035016918168609842 0.00020718999927546607 0 0.03502992579643531 0.00032781571000054937 0 0.034951544339101588 0.00026234612033734431 0 0.034976175761273147 0.00016464130936832811 0 0.034951544339101588 0.00026234612033734431 0 0.034885164555400278 0.00016703060922396482 0 0.035016918168609842 0.00020718999927546607 0 0.034976175761273147 0.00016464130936832811 0 0.034951544339101588 0.00026234612033734431 0 0.034365418262766061 5.493597910404437e-05 0 0.034424926785404875 1.786106915058158e-05 0 0.033740715167970822 -8.7685684626939977e-05 0 0.033960066347576381 -0.00013578963556371476 0 0.033857214777869439 -0.00012673430763273936 0 0.034861384635834602 0.00032193664251168593 0 0.034951544339101588 0.00026234612033734431 0 0.034885164555400278 0.00016703060922396482 0 0.034424926785404875 1.786106915058158e-05 0 0.03465357622203101 -2.2151079250011303e-05 0 0.033960066347576381 -0.00013578963556371476 0 0.034200846992228806 -6.5780613324800652e-05 0 0.034352645517579099 -2.524568858281969e-05 0 0.034949207733072821 0.00010817416128819542 0 0.034885164555400278 0.00016703060922396482 0 0.034932405889148213 5.1270415721693671e-05 0 0.033960066347576381 -0.00013578963556371476 0 0.034200846992228806 -6.5780613324800652e-05 0 0.034007206493099684 -0.00016643241028667095 0 0.034200846992228806 -6.5780613324800652e-05 0 0.034007206493099684 -0.00016643241028667095 0 0.034306032910496963 -3.3293492703802014e-05 0 0.033673728414872039 -9.1033114339414693e-05 0 0.033857214777869439 -0.00012673430763273936 0 0.033747606424631441 -0.00011122120932125846 0 0.034007206493099684 -0.00016643241028667095 0 0.033857214777869439 -0.00012673430763273936 0 0.033747606424631441 -0.00011122120932125846 0 0.033960066347576381 -0.00013578963556371476 0 0.034007206493099684 -0.00016643241028667095 0 0.033857214777869439 -0.00012673430763273936 0 0.033673728414872039 -9.1033114339414693e-05 0 0.033747606424631441 -0.00011122120932125846 0 0.033592709032744535 -0.00015826338819994445 0 0.034007206493099684 -0.00016643241028667095 0 0.034306032910496963 -3.3293492703802014e-05 0 0.03449491515965307 -0.000190112438401355 0 0.034007206493099684 -0.00016643241028667095 0 0.033747606424631441 -0.00011122120932125846 0 0.033652581170639635 -8.2160054121684727e-05 0 0.034016058741246441 -0.00016272614868504209 0 0.03408800284796426 -0.00013060730097147792 0 0.034306032910496963 -3.3293492703802014e-05 0 0.034382817776989497 9.5926869197073311e-06 0 0.034453917738466622 -5.1665705935438883e-05 0 0.034382817776989497 9.5926869197073311e-06 0 0.034440717612940999 2.8141927954889979e-05 0 0.034394858019821978 2.4926910019876903e-05 0 0.034306032910496963 -3.3293492703802014e-05 0 0.034382817776989497 9.5926869197073311e-06 0 0.034394858019821978 2.4926910019876903e-05 0 0.034378194060823118 9.0710700117094071e-06 0 0.034338507711942003 -1.2477142874514261e-05 0 0.034440717612940999 2.8141927954889979e-05 0 0.034382817776989497 9.5926869197073311e-06 0 0.034378194060823118 9.0710700117094071e-06 0 0.034401265493698811 7.7496756518107414e-06 0 0.034382817776989497 9.5926869197073311e-06 0 0.034378194060823118 9.0710700117094071e-06 0 0.034440717612940999 2.8141927954889979e-05 0 0.035000308325445526 4.7025576252807105e-08 0 0.035002933349019848 -1.2389680065797565e-05 0 0.034838548255616955 -1.2104638107760257e-05 0 0.034378194060823118 9.0710700117094071e-06 0 0.034338507711942003 -1.2477142874514261e-05 0 0.03440360087158318 6.8617447989479831e-06 0 0.034378194060823118 9.0710700117094071e-06 0 0.03440360087158318 6.8617447989479831e-06 0 0.034401265493698811 7.7496756518107414e-06 0 0.035000308325445526 4.7025576252807105e-08 0 0.034998651801596246 -1.3733476434202449e-07 0 0.034838548255616955 -1.2104638107760257e-05 0 0.034683998995225673 -5.2704132270192321e-06 0 0.034827594341048471 -1.3331418385529179e-05 0 0.034440717612940999 2.8141927954889979e-05 0 0.034394858019821978 2.4926910019876903e-05 0 0.034838548255616955 -1.2104638107760257e-05 0 0.034338507711942003 -1.2477142874514261e-05 0 0.034440717612940999 2.8141927954889979e-05 0 0.034838548255616955 -1.2104638107760257e-05 0 0.034394858019821978 2.4926910019876903e-05 0 0.034352645517579099 -2.524568858281969e-05 0 0.034838548255616955 -1.2104638107760257e-05 0 0.034200846992228806 -6.5780613324800652e-05 0 0.034394858019821978 2.4926910019876903e-05 0 0.034352645517579099 -2.524568858281969e-05 0 0.034200846992228806 -6.5780613324800652e-05 0 0.034306032910496963 -3.3293492703802014e-05 0 0.034394858019821978 2.4926910019876903e-05 0 0.034949207733072821 0.00010817416128819542 0 0.034932405889148213 5.1270415721693671e-05 0 0.034967005615534084 6.6107351856528786e-05 0 0.034932405889148213 5.1270415721693671e-05 0 0.0349793727732449 1.9123758841033223e-05 0 0.034967005615534084 6.6107351856528786e-05 0 0.03465357622203101 -2.2151079250011303e-05 0 0.034999830899973092 -8.5446409993713137e-08 0 0.034999901660745791 6.2324650755186918e-10 0 0.0349793727732449 1.9123758841033223e-05 0 0.035000029726461303 1.1602161558677063e-08 0 0.034352645517579099 -2.524568858281969e-05 0 0.034998651801596246 -1.3733476434202449e-07 0 0.034838548255616955 -1.2104638107760257e-05 0 0.034932405889148213 5.1270415721693671e-05 0 0.034999901660745791 6.2324650755186918e-10 0 0.0349793727732449 1.9123758841033223e-05 0 0.0349793727732449 1.9123758841033223e-05 0 0.035000029726461303 1.1602161558677063e-08 0 0.034999462824711294 3.6085855141892543e-05 0 0.034989999955937032 2.1187685046224003e-06 0 0.035000004010807252 1.2674288055127178e-08 0 0.035009568112122233 -1.5358613539698695e-05 0 0.035000005840385838 2.2386417434085873e-08 0 0.035001443381448172 -1.7610656457270208e-05 0 0.034518843972273353 0.00026647819153828074 0 0.035001443381448172 -1.7610656457270208e-05 0 0.034970398932625914 -3.7115538778638823e-05 0 0.035003904503399012 -7.9372700328734822e-05 0 0.035009568112122233 -1.5358613539698695e-05 0 0.035003966258530333 0.00010582815579110987 0 0.034996580403670534 0.00010656694151649858 0 0.034999462824711294 3.6085855141892543e-05 0 0.034996580403670534 0.00010656694151649858 0 0.034999462824711294 3.6085855141892543e-05 0 0.034967005615534084 6.6107351856528786e-05 0 0.0349793727732449 1.9123758841033223e-05 0 0.034999462824711294 3.6085855141892543e-05 0 0.034967005615534084 6.6107351856528786e-05 0 0.034742683879990077 -0.00013359188780295075 0 0.034745861488931447 -2.801971740057926e-05 0 0.034769700462565833 -8.4724116263914089e-05 0 0.034153241239447442 6.568018056095438e-05 0 0.034745861488931447 -2.801971740057926e-05 0 0.034504381687918993 -0.00019983885443045535 0 0.034745861488931447 -2.801971740057926e-05 0 0.034504381687918993 -0.00019983885443045535 0 0.034839548825560535 -6.4009526166582253e-06 0 0.034443574560776409 -4.2936137039173829e-05 0 0.034717275873033575 -2.4823302745941932e-05 0 0.034751621549400848 -5.6235505581972873e-05 0 0.034780850439517355 -1.8504831101010675e-05 0 0.034770434907839015 5.434791275833403e-05 0 0.034816459445119005 3.5348711034997063e-05 0 0.034796819379721372 2.4774049996556503e-05 0 0.034706222140238704 -7.1647867722009426e-05 0 0.034770434907839015 5.434791275833403e-05 0 0.034816459445119005 3.5348711034997063e-05 0 0.033716721601311124 -0.00018550213050134867 0 0.034751621549400848 -5.6235505581972873e-05 0 0.034153241239447442 6.568018056095438e-05 0 0.034504381687918993 -0.00019983885443045535 0 0.03411973696258707 -0.00021009845841400126 0 0.034015318189486346 -0.00046558317328382445 0 0.034504381687918993 -0.00019983885443045535 0 0.03411973696258707 -0.00021009845841400126 0 0.034015318189486346 -0.00046558317328382445 0 0.03411973696258707 -0.00021009845841400126 0 0.033878571286572533 -0.00017449755566860124 0 0.034015318189486346 -0.00046558317328382445 0 0.033878571286572533 -0.00017449755566860124 0 0.033592709032744535 -0.00015826338819994445 0 0.034153241239447442 6.568018056095438e-05 0 0.03411973696258707 -0.00021009845841400126 0 0.033878571286572533 -0.00017449755566860124 0 0.033747606424631441 -0.00011122120932125846 0 0.033592709032744535 -0.00015826338819994445 0 0.033652581170639635 -8.2160054121684727e-05 0 0.033878571286572533 -0.00017449755566860124 0 0.033592709032744535 -0.00015826338819994445 0 0.033652581170639635 -8.2160054121684727e-05 0 0.034306032910496963 -3.3293492703802014e-05 0 0.03449491515965307 -0.000190112438401355 0 0.034453917738466622 -5.1665705935438883e-05 0 0.03449491515965307 -0.000190112438401355 0 0.03459735789096885 -7.3081113334209111e-05 0 0.034453917738466622 -5.1665705935438883e-05 0 0.034153241239447442 6.568018056095438e-05 0 0.033878571286572533 -0.00017449755566860124 0 0.033652581170639635 -8.2160054121684727e-05 0 0.034742683879990077 -0.00013359188780295075 0 0.03449491515965307 -0.000190112438401355 0 0.03459735789096885 -7.3081113334209111e-05 0 0.034443574560776409 -4.2936137039173829e-05 0 0.03408800284796426 -0.00013060730097147792 0 0.034704384200640669 -7.0530566107970279e-05 0 0.03459735789096885 -7.3081113334209111e-05 0 0.034657494802489135 -2.4676781078469348e-05 0 0.034742683879990077 -0.00013359188780295075 0 0.034704384200640669 -7.0530566107970279e-05 0 0.03459735789096885 -7.3081113334209111e-05 0 0.03459735789096885 -7.3081113334209111e-05 0 0.034582364456364846 -1.4356311972886085e-05 0 0.034657494802489135 -2.4676781078469348e-05 0 0.03459735789096885 -7.3081113334209111e-05 0 0.034582364456364846 -1.4356311972886085e-05 0 0.034513846774678524 -2.3202262503495248e-05 0 0.034582364456364846 -1.4356311972886085e-05 0 0.034657494802489135 -2.4676781078469348e-05 0 0.034652563104679394 2.8663977284613769e-05 0 0.034657494802489135 -2.4676781078469348e-05 0 0.034652563104679394 2.8663977284613769e-05 0 0.03472414753325978 -3.3856662937154522e-05 0 0.034704384200640669 -7.0530566107970279e-05 0 0.034657494802489135 -2.4676781078469348e-05 0 0.03472414753325978 -3.3856662937154522e-05 0 0.03459735789096885 -7.3081113334209111e-05 0 0.034453917738466622 -5.1665705935438883e-05 0 0.034513846774678524 -2.3202262503495248e-05 0 0.034582364456364846 -1.4356311972886085e-05 0 0.034513846774678524 -2.3202262503495248e-05 0 0.034505472220486326 1.1354843256722364e-05 0 0.034513846774678524 -2.3202262503495248e-05 0 0.03444568602912941 -4.4889329780013073e-06 0 0.034505472220486326 1.1354843256722364e-05 0 0.034453917738466622 -5.1665705935438883e-05 0 0.034513846774678524 -2.3202262503495248e-05 0 0.03444568602912941 -4.4889329780013073e-06 0 0.034382817776989497 9.5926869197073311e-06 0 0.03444568602912941 -4.4889329780013073e-06 0 0.034401265493698811 7.7496756518107414e-06 0 0.034382817776989497 9.5926869197073311e-06 0 0.034453917738466622 -5.1665705935438883e-05 0 0.03444568602912941 -4.4889329780013073e-06 0 0.034338507711942003 -1.2477142874514261e-05 0 0.03440360087158318 6.8617447989479831e-06 0 0.034510688122989221 5.3904025620981612e-05 0 0.034683998995225673 -5.2704132270192321e-06 0 0.034820763840137534 5.2469787207067099e-05 0 0.035000308325445526 4.7025576252807105e-08 0 0.035002933349019848 -1.2389680065797565e-05 0 0.034999989224619887 -3.4823462946548024e-08 0 0.034338507711942003 -1.2477142874514261e-05 0 0.034510688122989221 5.3904025620981612e-05 0 0.034640244863100966 0.00013050881828843979 0 0.035002933349019848 -1.2389680065797565e-05 0 0.034999989224619887 -3.4823462946548024e-08 0 0.035000640005642764 6.5573280350917502e-08 0 0.03440360087158318 6.8617447989479831e-06 0 0.03444593239671296 1.2986827702443762e-05 0 0.034510688122989221 5.3904025620981612e-05 0 0.03440360087158318 6.8617447989479831e-06 0 0.034401265493698811 7.7496756518107414e-06 0 0.03444593239671296 1.2986827702443762e-05 0 0.03444568602912941 -4.4889329780013073e-06 0 0.034401265493698811 7.7496756518107414e-06 0 0.03444593239671296 1.2986827702443762e-05 0 0.03444593239671296 1.2986827702443762e-05 0 0.034505472220486326 1.1354843256722364e-05 0 0.034510688122989221 5.3904025620981612e-05 0 0.03444568602912941 -4.4889329780013073e-06 0 0.03444593239671296 1.2986827702443762e-05 0 0.034505472220486326 1.1354843256722364e-05 0 0.034505472220486326 1.1354843256722364e-05 0 0.034510688122989221 5.3904025620981612e-05 0 0.034565615609341356 3.2451965239132618e-05 0 0.034652563104679394 2.8663977284613769e-05 0 0.034696125082173797 6.2477962518245572e-05 0 0.03473869981297821 2.1000996032612307e-05 0 0.034582364456364846 -1.4356311972886085e-05 0 0.034652563104679394 2.8663977284613769e-05 0 0.034565615609341356 3.2451965239132618e-05 0 0.034652563104679394 2.8663977284613769e-05 0 0.034565615609341356 3.2451965239132618e-05 0 0.034602161142015059 6.3790396992043877e-05 0 0.034582364456364846 -1.4356311972886085e-05 0 0.034505472220486326 1.1354843256722364e-05 0 0.034565615609341356 3.2451965239132618e-05 0 0.034510688122989221 5.3904025620981612e-05 0 0.034565615609341356 3.2451965239132618e-05 0 0.034578981011438935 6.8086631818915015e-05 0 0.034565615609341356 3.2451965239132618e-05 0 0.034602161142015059 6.3790396992043877e-05 0 0.034578981011438935 6.8086631818915015e-05 0 0.034510688122989221 5.3904025620981612e-05 0 0.034578981011438935 6.8086631818915015e-05 0 0.034640244863100966 0.00013050881828843979 0 0.034602161142015059 6.3790396992043877e-05 0 0.034578981011438935 6.8086631818915015e-05 0 0.034640244863100966 0.00013050881828843979 0 0.034640244863100966 0.00013050881828843979 0 0.034696125082173797 6.2477962518245572e-05 0 0.034747658181472997 5.1459954560328726e-05 0 0.034652563104679394 2.8663977284613769e-05 0 0.034640244863100966 0.00013050881828843979 0 0.034696125082173797 6.2477962518245572e-05 0 0.034652563104679394 2.8663977284613769e-05 0 0.034602161142015059 6.3790396992043877e-05 0 0.034640244863100966 0.00013050881828843979 0 0.035000640005642764 6.5573280350917502e-08 0 0.03499979245368065 7.703874283472938e-08 0 0.034987240331021102 7.1446677839362976e-06 0 0.034640244863100966 0.00013050881828843979 0 0.034846588712293104 4.0753874058099411e-05 0 0.034987240331021102 7.1446677839362976e-06 0 0.034640244863100966 0.00013050881828843979 0 0.034747658181472997 5.1459954560328726e-05 0 0.034846588712293104 4.0753874058099411e-05 0 0.034820763840137534 5.2469787207067099e-05 0 0.034970994504568774 1.9680268730089255e-05 0 0.034999989224619887 -3.4823462946548024e-08 0 0.035000640005642764 6.5573280350917502e-08 0 0.03499979245368065 7.703874283472938e-08 0 0.034747658181472997 5.1459954560328726e-05 0 0.034846588712293104 4.0753874058099411e-05 0 0.034805739759652295 1.6704899545601261e-05 0 0.034846588712293104 4.0753874058099411e-05 0 0.034858276217838137 1.0141946350656784e-05 0 0.034899861804937343 8.3618136655267165e-06 0 0.034846588712293104 4.0753874058099411e-05 0 0.034858276217838137 1.0141946350656784e-05 0 0.034805739759652295 1.6704899545601261e-05 0 0.034805739759652295 1.6704899545601261e-05 0 0.03483498164236306 -5.3313501188109756e-06 0 0.034789869192976157 -2.9998661380608612e-05 0 0.034858276217838137 1.0141946350656784e-05 0 0.034805739759652295 1.6704899545601261e-05 0 0.03483498164236306 -5.3313501188109756e-06 0 0.034652563104679394 2.8663977284613769e-05 0 0.03473869981297821 2.1000996032612307e-05 0 0.03472414753325978 -3.3856662937154522e-05 0 0.034805739759652295 1.6704899545601261e-05 0 0.03473869981297821 2.1000996032612307e-05 0 0.034789869192976157 -2.9998661380608612e-05 0 0.034696125082173797 6.2477962518245572e-05 0 0.034747658181472997 5.1459954560328726e-05 0 0.03473869981297821 2.1000996032612307e-05 0 0.034747658181472997 5.1459954560328726e-05 0 0.034805739759652295 1.6704899545601261e-05 0 0.03473869981297821 2.1000996032612307e-05 0 0.03472414753325978 -3.3856662937154522e-05 0 0.034789869192976157 -2.9998661380608612e-05 0 0.034769700462565833 -8.4724116263914089e-05 0 0.03473869981297821 2.1000996032612307e-05 0 0.03472414753325978 -3.3856662937154522e-05 0 0.034789869192976157 -2.9998661380608612e-05 0 0.034789869192976157 -2.9998661380608612e-05 0 0.034769700462565833 -8.4724116263914089e-05 0 0.034822647168627825 -3.4309695025983536e-05 0 0.03483498164236306 -5.3313501188109756e-06 0 0.034789869192976157 -2.9998661380608612e-05 0 0.034822647168627825 -3.4309695025983536e-05 0 0.034742683879990077 -0.00013359188780295075 0 0.034704384200640669 -7.0530566107970279e-05 0 0.034769700462565833 -8.4724116263914089e-05 0 0.034704384200640669 -7.0530566107970279e-05 0 0.03472414753325978 -3.3856662937154522e-05 0 0.034769700462565833 -8.4724116263914089e-05 0 0.034745861488931447 -2.801971740057926e-05 0 0.034769700462565833 -8.4724116263914089e-05 0 0.034790900549495941 -4.1120328171414325e-05 0 0.034745861488931447 -2.801971740057926e-05 0 0.034790900549495941 -4.1120328171414325e-05 0 0.034812868033635598 -1.8413696218489535e-05 0 0.034790900549495941 -4.1120328171414325e-05 0 0.0348365440591442 -2.5544793111803572e-05 0 0.034812868033635598 -1.8413696218489535e-05 0 0.034790900549495941 -4.1120328171414325e-05 0 0.034810504681402961 -4.3656025623018962e-05 0 0.0348365440591442 -2.5544793111803572e-05 0 0.034769700462565833 -8.4724116263914089e-05 0 0.034790900549495941 -4.1120328171414325e-05 0 0.034810504681402961 -4.3656025623018962e-05 0 0.034769700462565833 -8.4724116263914089e-05 0 0.034810504681402961 -4.3656025623018962e-05 0 0.034822647168627825 -3.4309695025983536e-05 0 0.034810504681402961 -4.3656025623018962e-05 0 0.034822647168627825 -3.4309695025983536e-05 0 0.034849478295148117 -2.7144759688133452e-05 0 0.034822647168627825 -3.4309695025983536e-05 0 0.034849478295148117 -2.7144759688133452e-05 0 0.034878735362483079 -9.3685534847020766e-06 0 0.034849478295148117 -2.7144759688133452e-05 0 0.034879685640946317 -1.4443047486766769e-05 0 0.034894787675595139 -1.1827570307292758e-05 0 0.034810504681402961 -4.3656025623018962e-05 0 0.034849478295148117 -2.7144759688133452e-05 0 0.0348365440591442 -2.5544793111803572e-05 0 0.034849478295148117 -2.7144759688133452e-05 0 0.0348365440591442 -2.5544793111803572e-05 0 0.034879685640946317 -1.4443047486766769e-05 0 0.034908528011323325 -8.7998074262343186e-06 0 0.034894787675595139 -1.1827570307292758e-05 0 0.034932112446313598 -2.8608188370806636e-06 0 0.034879685640946317 -1.4443047486766769e-05 0 0.034908528011323325 -8.7998074262343186e-06 0 0.034894787675595139 -1.1827570307292758e-05 0 0.034894787675595139 -1.1827570307292758e-05 0 0.034932112446313598 -2.8608188370806636e-06 0 0.034933186838374694 9.4651978781241043e-07 0 0.03483498164236306 -5.3313501188109756e-06 0 0.034822647168627825 -3.4309695025983536e-05 0 0.034878735362483079 -9.3685534847020766e-06 0 0.034849478295148117 -2.7144759688133452e-05 0 0.034894787675595139 -1.1827570307292758e-05 0 0.034878735362483079 -9.3685534847020766e-06 0 0.034894787675595139 -1.1827570307292758e-05 0 0.034878735362483079 -9.3685534847020766e-06 0 0.034933186838374694 9.4651978781241043e-07 0 0.034878735362483079 -9.3685534847020766e-06 0 0.034899861804937343 8.3618136655267165e-06 0 0.034933186838374694 9.4651978781241043e-07 0 0.034858276217838137 1.0141946350656784e-05 0 0.03483498164236306 -5.3313501188109756e-06 0 0.034878735362483079 -9.3685534847020766e-06 0 0.034858276217838137 1.0141946350656784e-05 0 0.034878735362483079 -9.3685534847020766e-06 0 0.034899861804937343 8.3618136655267165e-06 0 0.034846588712293104 4.0753874058099411e-05 0 0.034920445396503436 1.1521903933570699e-05 0 0.034987240331021102 7.1446677839362976e-06 0 0.034846588712293104 4.0753874058099411e-05 0 0.034899861804937343 8.3618136655267165e-06 0 0.034920445396503436 1.1521903933570699e-05 0 0.034920445396503436 1.1521903933570699e-05 0 0.034933186838374694 9.4651978781241043e-07 0 0.034987240331021102 7.1446677839362976e-06 0 0.034899861804937343 8.3618136655267165e-06 0 0.034920445396503436 1.1521903933570699e-05 0 0.034933186838374694 9.4651978781241043e-07 0 0.034932112446313598 -2.8608188370806636e-06 0 0.034987240331021102 7.1446677839362976e-06 0 0.034927602965408408 -6.0589714159854687e-06 0 0.034932112446313598 -2.8608188370806636e-06 0 0.034933186838374694 9.4651978781241043e-07 0 0.034987240331021102 7.1446677839362976e-06 0 0.034987240331021102 7.1446677839362976e-06 0 0.034927602965408408 -6.0589714159854687e-06 0 0.034999844546882826 -1.720480248834156e-08 0 0.03499979245368065 7.703874283472938e-08 0 0.034987240331021102 7.1446677839362976e-06 0 0.034999844546882826 -1.720480248834156e-08 0 0.034927602965408408 -6.0589714159854687e-06 0 0.034999844546882826 -1.720480248834156e-08 0 0.034880115416424787 -1.7167760058256343e-05 0 0.034908528011323325 -8.7998074262343186e-06 0 0.034932112446313598 -2.8608188370806636e-06 0 0.034927602965408408 -6.0589714159854687e-06 0 0.034879685640946317 -1.4443047486766769e-05 0 0.034908528011323325 -8.7998074262343186e-06 0 0.034927602965408408 -6.0589714159854687e-06 0 0.034999844546882826 -1.720480248834156e-08 0 0.034880115416424787 -1.7167760058256343e-05 0 0.034902085563236242 -2.294841149531436e-05 0 0.034831630754723848 -1.4995081853250534e-05 0 0.034880115416424787 -1.7167760058256343e-05 0 0.034902085563236242 -2.294841149531436e-05 0 0.034831630754723848 -1.4995081853250534e-05 0 0.034880115416424787 -1.7167760058256343e-05 0 0.034788213477768455 -1.4599013590047065e-06 0 0.0348365440591442 -2.5544793111803572e-05 0 0.034879685640946317 -1.4443047486766769e-05 0 0.034873756755764651 -1.3259664616323909e-05 0 0.034879685640946317 -1.4443047486766769e-05 0 0.034927602965408408 -6.0589714159854687e-06 0 0.034873756755764651 -1.3259664616323909e-05 0 0.034927602965408408 -6.0589714159854687e-06 0 0.034873756755764651 -1.3259664616323909e-05 0 0.034880115416424787 -1.7167760058256343e-05 0 0.034873756755764651 -1.3259664616323909e-05 0 0.034880115416424787 -1.7167760058256343e-05 0 0.034839548825560535 -6.4009526166582253e-06 0 0.034880115416424787 -1.7167760058256343e-05 0 0.034839548825560535 -6.4009526166582253e-06 0 0.034788213477768455 -1.4599013590047065e-06 0 0.034873756755764651 -1.3259664616323909e-05 0 0.034812868033635598 -1.8413696218489535e-05 0 0.034839548825560535 -6.4009526166582253e-06 0 0.0348365440591442 -2.5544793111803572e-05 0 0.034873756755764651 -1.3259664616323909e-05 0 0.034812868033635598 -1.8413696218489535e-05 0 0.034770434907839015 5.434791275833403e-05 0 0.034796819379721372 2.4774049996556503e-05 0 0.034839548825560535 -6.4009526166582253e-06 0 0.034745861488931447 -2.801971740057926e-05 0 0.034812868033635598 -1.8413696218489535e-05 0 0.034839548825560535 -6.4009526166582253e-06 0 0.034796819379721372 2.4774049996556503e-05 0 0.034783165324506087 1.4072932075790846e-05 0 0.034839548825560535 -6.4009526166582253e-06 0 0.034796819379721372 2.4774049996556503e-05 0 0.034783165324506087 1.4072932075790846e-05 0 0.034703786375855243 3.2677553738766048e-05 0 0.034783165324506087 1.4072932075790846e-05 0 0.034839548825560535 -6.4009526166582253e-06 0 0.034788213477768455 -1.4599013590047065e-06 0 0.034783165324506087 1.4072932075790846e-05 0 0.034788213477768455 -1.4599013590047065e-06 0 0.034703786375855243 3.2677553738766048e-05 0 0.034788213477768455 -1.4599013590047065e-06 0 0.034762566702335164 5.0297617798563089e-06 0 0.034703786375855243 3.2677553738766048e-05 0 0.034831630754723848 -1.4995081853250534e-05 0 0.034788213477768455 -1.4599013590047065e-06 0 0.034762566702335164 5.0297617798563089e-06 0 0.034762566702335164 5.0297617798563089e-06 0 0.034682909155308479 -2.2491106965204696e-06 0 0.034743548866238573 5.639328600463404e-06 0 0.034762566702335164 5.0297617798563089e-06 0 0.034703786375855243 3.2677553738766048e-05 0 0.034682909155308479 -2.2491106965204696e-06 0 0.034682909155308479 -2.2491106965204696e-06 0 0.034761764505274816 4.9422561217136859e-05 0 0.034897612417155992 0.00013845411594478653 0 0.034651129310864837 4.779327633917145e-05 0 0.034548483288589407 0.00014783548935298706 0 0.034682909155308479 -2.2491106965204696e-06 0 0.034426521532107256 1.9866381599501458e-05 0 0.034545045007553232 1.7723768414626023e-05 0 0.034703786375855243 3.2677553738766048e-05 0 0.034682909155308479 -2.2491106965204696e-06 0 0.034545045007553232 1.7723768414626023e-05 0 0.034682909155308479 -2.2491106965204696e-06 0 0.034426521532107256 1.9866381599501458e-05 0 0.034187281619766516 0.00011485487978084728 0 0.034682909155308479 -2.2491106965204696e-06 0 0.034761764505274816 4.9422561217136859e-05 0 0.034743548866238573 5.639328600463404e-06 0 0.03438203535065585 2.0749938393563762e-05 0 0.034703786375855243 3.2677553738766048e-05 0 0.034545045007553232 1.7723768414626023e-05 0 0.03438203535065585 2.0749938393563762e-05 0 0.034426521532107256 1.9866381599501458e-05 0 0.034545045007553232 1.7723768414626023e-05 0 0.034816459445119005 3.5348711034997063e-05 0 0.034796819379721372 2.4774049996556503e-05 0 0.034703786375855243 3.2677553738766048e-05 0 0.034733895407705731 6.3861800860582472e-05 0 0.034629589426692094 3.1542448816296816e-06 0 0.03438203535065585 2.0749938393563762e-05 0 0.034426521532107256 1.9866381599501458e-05 0 0.034371631595792297 3.7587392098517464e-05 0 0.034653460403130443 2.7964440468043422e-05 0 0.034501411313427773 -2.5667790913672236e-05 0 0.034349452938288651 0.00013239124269543361 0 0.034653460403130443 2.7964440468043422e-05 0 0.034657611756409384 -3.2506735041937659e-05 0 0.034501411313427773 -2.5667790913672236e-05 0 0.034653460403130443 2.7964440468043422e-05 0 0.034733423556477766 -1.4633011946383104e-05 0 0.034657611756409384 -3.2506735041937659e-05 0 0.034653460403130443 2.7964440468043422e-05 0 0.034761764505274816 4.9422561217136859e-05 0 0.034743548866238573 5.639328600463404e-06 0 0.034653460403130443 2.7964440468043422e-05 0 0.034743548866238573 5.639328600463404e-06 0 0.034733423556477766 -1.4633011946383104e-05 0 0.034733423556477766 -1.4633011946383104e-05 0 0.034657611756409384 -3.2506735041937659e-05 0 0.034796448713262623 -3.4403660781188409e-05 0 0.034762566702335164 5.0297617798563089e-06 0 0.034743548866238573 5.639328600463404e-06 0 0.034733423556477766 -1.4633011946383104e-05 0 0.034762566702335164 5.0297617798563089e-06 0 0.034733423556477766 -1.4633011946383104e-05 0 0.034796448713262623 -3.4403660781188409e-05 0 0.034831630754723848 -1.4995081853250534e-05 0 0.034762566702335164 5.0297617798563089e-06 0 0.034796448713262623 -3.4403660781188409e-05 0 0.034670958111855596 -6.9438804978245623e-05 0 0.034657611756409384 -3.2506735041937659e-05 0 0.034501411313427773 -2.5667790913672236e-05 0 0.034670958111855596 -6.9438804978245623e-05 0 0.034657611756409384 -3.2506735041937659e-05 0 0.034796448713262623 -3.4403660781188409e-05 0 0.034670958111855596 -6.9438804978245623e-05 0 0.034831174265063006 -5.7330498092308503e-05 0 0.034796448713262623 -3.4403660781188409e-05 0 0.034831174265063006 -5.7330498092308503e-05 0 0.034796448713262623 -3.4403660781188409e-05 0 0.034902085563236242 -2.294841149531436e-05 0 0.034831630754723848 -1.4995081853250534e-05 0 0.034796448713262623 -3.4403660781188409e-05 0 0.034902085563236242 -2.294841149531436e-05 0 0.034831174265063006 -5.7330498092308503e-05 0 0.034902085563236242 -2.294841149531436e-05 0 0.034999684680489009 -9.2119967069510878e-08 0 0.034999844546882826 -1.720480248834156e-08 0 0.034902085563236242 -2.294841149531436e-05 0 0.034999684680489009 -9.2119967069510878e-08 0 0.034831174265063006 -5.7330498092308503e-05 0 0.034999684680489009 -9.2119967069510878e-08 0 0.034999887555301507 9.668886996448484e-08 0 0.034831174265063006 -5.7330498092308503e-05 0 0.034999887555301507 9.668886996448484e-08 0 0.034710489723748586 -8.5502618015335707e-05 0 0.034999887555301507 9.668886996448484e-08 0 0.034571635971710014 -0.00011612900848694281 0 0.034998199850794345 -9.3329618586291085e-07 0 0.034999887555301507 9.668886996448484e-08 0 0.034571635971710014 -0.00011612900848694281 0 0.034710489723748586 -8.5502618015335707e-05 0 0.034571635971710014 -0.00011612900848694281 0 0.034710489723748586 -8.5502618015335707e-05 0 0.034466640178306911 -8.3408450006148716e-05 0 0.034670958111855596 -6.9438804978245623e-05 0 0.034831174265063006 -5.7330498092308503e-05 0 0.034710489723748586 -8.5502618015335707e-05 0 0.034998199850794345 -9.3329618586291085e-07 0 0.034181488037139302 -0.00012302085395832419 0 0.034004351951808419 -0.0002457457590566132 0 0.035000396904131155 4.9323468964426178e-07 0 0.034999067590476489 -1.014464991192607e-06 0 0.034947704172437054 -2.8626578309734763e-05 0 0.034999727199076069 -1.140571874919119e-08 0 0.034457093451415517 -9.8925870276511167e-05 0 0.034571635971710014 -0.00011612900848694281 0 0.034998199850794345 -9.3329618586291085e-07 0 0.034181488037139302 -0.00012302085395832419 0 0.034181488037139302 -0.00012302085395832419 0 0.034004351951808419 -0.0002457457590566132 0 0.033652519945248177 -6.4648163628810827e-05 0 0.034181488037139302 -0.00012302085395832419 0 0.033733394765417667 -5.4270910671290006e-05 0 0.033652519945248177 -6.4648163628810827e-05 0 0.034181488037139302 -0.00012302085395832419 0 0.0340678573389534 -6.5309794825678765e-05 0 0.033733394765417667 -5.4270910671290006e-05 0 0.034571635971710014 -0.00011612900848694281 0 0.034181488037139302 -0.00012302085395832419 0 0.0340678573389534 -6.5309794825678765e-05 0 0.0340678573389534 -6.5309794825678765e-05 0 0.033733394765417667 -5.4270910671290006e-05 0 0.033426068093908252 1.9876367449025336e-05 0 0.033733394765417667 -5.4270910671290006e-05 0 0.033293716593519991 -9.6386745507478309e-06 0 0.033426068093908252 1.9876367449025336e-05 0 0.033733394765417667 -5.4270910671290006e-05 0 0.033293716593519991 -9.6386745507478309e-06 0 0.033652519945248177 -6.4648163628810827e-05 0 0.034670958111855596 -6.9438804978245623e-05 0 0.034710489723748586 -8.5502618015335707e-05 0 0.034466640178306911 -8.3408450006148716e-05 0 0.034670958111855596 -6.9438804978245623e-05 0 0.034466640178306911 -8.3408450006148716e-05 0 0.034501411313427773 -2.5667790913672236e-05 0 0.034571635971710014 -0.00011612900848694281 0 0.0340678573389534 -6.5309794825678765e-05 0 0.034466640178306911 -8.3408450006148716e-05 0 0.0340678573389534 -6.5309794825678765e-05 0 0.03423868389174943 -1.2036045175844981e-05 0 0.033917592562767392 5.9566631822990274e-05 0 0.0340678573389534 -6.5309794825678765e-05 0 0.034466640178306911 -8.3408450006148716e-05 0 0.03423868389174943 -1.2036045175844981e-05 0 0.034466640178306911 -8.3408450006148716e-05 0 0.03423868389174943 -1.2036045175844981e-05 0 0.034501411313427773 -2.5667790913672236e-05 0 0.03423868389174943 -1.2036045175844981e-05 0 0.034501411313427773 -2.5667790913672236e-05 0 0.034349452938288651 0.00013239124269543361 0 0.03423868389174943 -1.2036045175844981e-05 0 0.034349452938288651 0.00013239124269543361 0 0.033917592562767392 5.9566631822990274e-05 0 0.034349452938288651 0.00013239124269543361 0 0.033917592562767392 5.9566631822990274e-05 0 0.03379547703771292 0.00029131192548058875 0 0.034349452938288651 0.00013239124269543361 0 0.03379547703771292 0.00029131192548058875 0 0.034344546811862678 0.00040713919098076668 0 0.033293716593519991 -9.6386745507478309e-06 0 0.033426068093908252 1.9876367449025336e-05 0 0.032590164608707298 -0.00010602301809831374 0 0.033917592562767392 5.9566631822990274e-05 0 0.03379547703771292 0.00029131192548058875 0 0.033426068093908252 1.9876367449025336e-05 0 0.0340678573389534 -6.5309794825678765e-05 0 0.033917592562767392 5.9566631822990274e-05 0 0.033426068093908252 1.9876367449025336e-05 0 0.03379547703771292 0.00029131192548058875 0 0.033426068093908252 1.9876367449025336e-05 0 0.033205028952516986 0.00038146066557710691 0 0.033426068093908252 1.9876367449025336e-05 0 0.033205028952516986 0.00038146066557710691 0 0.032590164608707298 -0.00010602301809831374 0 0.032441251320510622 0.0006353960823231627 0 0.033205028952516986 0.00038146066557710691 0 0.032590164608707298 -0.00010602301809831374 0 0.032441251320510622 0.0006353960823231627 0 0.033205028952516986 0.00038146066557710691 0 0.033131765254894446 0.00098870858348899175 0 0.033205028952516986 0.00038146066557710691 0 0.033131765254894446 0.00098870858348899175 0 0.0339015050556047 0.00077347958693015984 0 0.032441251320510622 0.0006353960823231627 0 0.033131765254894446 0.00098870858348899175 0 0.032049433524379979 0.0013066536725735412 0 0.03379547703771292 0.00029131192548058875 0 0.034344546811862678 0.00040713919098076668 0 0.0339015050556047 0.00077347958693015984 0 0.034344546811862678 0.00040713919098076668 0 0.0339015050556047 0.00077347958693015984 0 0.034447876019493215 0.0008007198646012494 0 0.03379547703771292 0.00029131192548058875 0 0.033205028952516986 0.00038146066557710691 0 0.0339015050556047 0.00077347958693015984 0 0.033131765254894446 0.00098870858348899175 0 0.0339015050556047 0.00077347958693015984 0 0.03385456942642754 0.0016072306448688847 0 0.0339015050556047 0.00077347958693015984 0 0.034349509203290496 0.0012210571193473139 0 0.03385456942642754 0.0016072306448688847 0 0.0339015050556047 0.00077347958693015984 0 0.034349509203290496 0.0012210571193473139 0 0.034447876019493215 0.0008007198646012494 0 0.034447876019493215 0.0008007198646012494 0 0.034775476932090404 0.00081485436217458812 0 0.034768847558347721 0.0012307258250275634 0 0.034349509203290496 0.0012210571193473139 0 0.034447876019493215 0.0008007198646012494 0 0.034768847558347721 0.0012307258250275634 0 0.034344546811862678 0.00040713919098076668 0 0.034447876019493215 0.0008007198646012494 0 0.034683245737041651 0.0005262845884679351 0 0.034447876019493215 0.0008007198646012494 0 0.034683245737041651 0.0005262845884679351 0 0.034775476932090404 0.00081485436217458812 0 0.034683245737041651 0.0005262845884679351 0 0.034775476932090404 0.00081485436217458812 0 0.035043362628935676 0.00055701514379730838 0 0.034775476932090404 0.00081485436217458812 0 0.034934451577040559 0.00092237362000981973 0 0.035043362628935676 0.00055701514379730838 0 0.034934451577040559 0.00092237362000981973 0 0.034768847558347721 0.0012307258250275634 0 0.035119747635632706 0.0011222486998198448 0 0.034775476932090404 0.00081485436217458812 0 0.034934451577040559 0.00092237362000981973 0 0.034768847558347721 0.0012307258250275634 0 0.033702642423780391 -0.00011007545983911375 0 0.033489493844187215 -0.00033937054154165437 0 0.032830988608256478 -0.00050055006414411298 0 0.033115001495124537 -0.00040127603753477807 0 0.033422871649679886 -0.00035293712635122787 0 0.033702642423780391 -0.00011007545983911375 0 0.033364207382072464 -0.00053134627758290049 0 0.032830988608256478 -0.00050055006414411298 0 0.032912312747863041 -0.00044645586719973938 0 0.032744560270379093 -0.0005001649073190505 0 0.032830988608256478 -0.00050055006414411298 0 0.032912312747863041 -0.00044645586719973938 0 0.033115001495124537 -0.00040127603753477807 0 0.032912312747863041 -0.00044645586719973938 0 0.033021091300330603 -0.00039609077196945541 0 0.033115001495124537 -0.00040127603753477807 0 0.033142660434948366 -0.00028078622344349986 0 0.033114500608662549 -0.00035033164901353346 0 0.033200381073385098 -0.00033725419278454657 0 0.033021091300330603 -0.00039609077196945541 0 0.033114500608662549 -0.00035033164901353346 0 0.033115001495124537 -0.00040127603753477807 0 0.033114500608662549 -0.00035033164901353346 0 0.033115001495124537 -0.00040127603753477807 0 0.033200381073385098 -0.00033725419278454657 0 0.033115001495124537 -0.00040127603753477807 0 0.033200381073385098 -0.00033725419278454657 0 0.033422871649679886 -0.00035293712635122787 0 0.033232336669206525 -0.0002514259602812922 0 0.033200381073385098 -0.00033725419278454657 0 0.033422871649679886 -0.00035293712635122787 0 0.033286499661100637 -0.00011308088062147436 0 0.033422871649679886 -0.00035293712635122787 0 0.033604371286571177 -9.3794658180611009e-05 0 0.033232336669206525 -0.0002514259602812922 0 0.033286499661100637 -0.00011308088062147436 0 0.033422871649679886 -0.00035293712635122787 0 0.034057171969879362 -0.00097758878640199316 0 0.033422871649679886 -0.00035293712635122787 0 0.034020532564074536 -9.9813207494703346e-05 0 0.033702642423780391 -0.00011007545983911375 0 0.034619917716908699 0.00026548084869836691 0 0.034934451577040559 0.00092237362000981973 0 0.035119747635632706 0.0011222486998198448 0 0.035043362628935676 0.00055701514379730838 0 0.033422871649679886 -0.00035293712635122787 0 0.034020532564074536 -9.9813207494703346e-05 0 0.033604371286571177 -9.3794658180611009e-05 0 0.034619917716908699 0.00026548084869836691 0 0.034548483288589407 0.00014783548935298706 0 0.035043362628935676 0.00055701514379730838 0 0.034897612417155992 0.00013845411594478653 0 0.034822359891960794 0.00032614006592726169 0 0.034020532564074536 -9.9813207494703346e-05 0 0.034001748003381585 9.732211216903666e-05 0 0.034187281619766516 0.00011485487978084728 0 0.034020532564074536 -9.9813207494703346e-05 0 0.034001748003381585 9.732211216903666e-05 0 0.033604371286571177 -9.3794658180611009e-05 0 0.033286499661100637 -0.00011308088062147436 0 0.033306792407493749 0.00018429243149647748 0 0.033604371286571177 -9.3794658180611009e-05 0 0.033844466494657152 0.0001426879509641501 0 0.034006643795757699 9.7978881278153375e-05 0 0.033306792407493749 0.00018429243149647748 0 0.034001748003381585 9.732211216903666e-05 0 0.033604371286571177 -9.3794658180611009e-05 0 0.034386472112542719 0.00010665705777503551 0 0.034001748003381585 9.732211216903666e-05 0 0.034256384166718716 5.9043428370612288e-05 0 0.034386472112542719 0.00010665705777503551 0 0.034256384166718716 5.9043428370612288e-05 0 0.034371631595792297 3.7587392098517464e-05 0 0.034426521532107256 1.9866381599501458e-05 0 0.034256384166718716 5.9043428370612288e-05 0 0.034371631595792297 3.7587392098517464e-05 0 0.034001748003381585 9.732211216903666e-05 0 0.034256384166718716 5.9043428370612288e-05 0 0.034187281619766516 0.00011485487978084728 0 0.034426521532107256 1.9866381599501458e-05 0 0.034256384166718716 5.9043428370612288e-05 0 0.034187281619766516 0.00011485487978084728 0 0.034761764505274816 4.9422561217136859e-05 0 0.034897612417155992 0.00013845411594478653 0 0.034745482017543218 0.00015932734049895915 0 0.034897612417155992 0.00013845411594478653 0 0.034745482017543218 0.00015932734049895915 0 0.034822359891960794 0.00032614006592726169 0 0.034745482017543218 0.00015932734049895915 0 0.034588713099794541 0.00014732220618600083 0 0.034633685238088359 0.000311391973537814 0 0.034653460403130443 2.7964440468043422e-05 0 0.034761764505274816 4.9422561217136859e-05 0 0.034745482017543218 0.00015932734049895915 0 0.034653460403130443 2.7964440468043422e-05 0 0.034745482017543218 0.00015932734049895915 0 0.034588713099794541 0.00014732220618600083 0 0.034349452938288651 0.00013239124269543361 0 0.034588713099794541 0.00014732220618600083 0 0.034633685238088359 0.000311391973537814 0 0.034653460403130443 2.7964440468043422e-05 0 0.034349452938288651 0.00013239124269543361 0 0.034588713099794541 0.00014732220618600083 0 0.034344546811862678 0.00040713919098076668 0 0.034683245737041651 0.0005262845884679351 0 0.034633685238088359 0.000311391973537814 0 0.034349452938288651 0.00013239124269543361 0 0.034344546811862678 0.00040713919098076668 0 0.034633685238088359 0.000311391973537814 0 0.034683245737041651 0.0005262845884679351 0 0.034633685238088359 0.000311391973537814 0 0.034822359891960794 0.00032614006592726169 0 0.034683245737041651 0.0005262845884679351 0 0.035043362628935676 0.00055701514379730838 0 0.034822359891960794 0.00032614006592726169 0 0.034745482017543218 0.00015932734049895915 0 0.034633685238088359 0.000311391973537814 0 0.034822359891960794 0.00032614006592726169 0 0.030728007877832138 -0.00026347616945175076 0 0.031593534163343588 -9.2008684890019573e-07 0 0.029518358591918818 -2.8661296670410822e-07 0 0.030728007877832138 -0.00026347616945175076 0 0.031593534163343588 -9.2008684890019573e-07 0 0.031666320726643993 5.2129958626408067e-05 0 0.030728007877832138 -0.00026347616945175076 0 0.030816040308591842 -0.00042433948988052561 0 0.03079311537394638 -0.00018436308143447152 0 0.030728007877832138 -0.00026347616945175076 0 0.030816040308591842 -0.00042433948988052561 0 0.031666320726643993 5.2129958626408067e-05 0 0.033807786514900677 -0.0002926320714807629 0 0.034300325820135327 7.5422233650223244e-05 0 0.034265372500970635 -2.0833668926573484e-05 0 0.032386064100105333 -0.00028526758542609461 0 0.032933431803974296 -5.4233769087748565e-05 0 0.031593534163343588 -9.2008684890019573e-07 0 0.031666320726643993 5.2129958626408067e-05 0 0.03366694356006434 1.2469700579734899e-06 0 0.034997991786689359 -4.4377804133663854e-07 0 0.034537902136805729 -5.2952099356560885e-05 0 0.034998629743856605 2.026398097174991e-07 0 0.034300325820135327 7.5422233650223244e-05 0 0.033673034263840544 4.5582561274785147e-07 0 0.034537902136805729 -5.2952099356560885e-05 0 0.032933431803974296 -5.4233769087748565e-05 0 0.033668571742559446 -1.346779401170824e-07 0 0.033673034263840544 4.5582561274785147e-07 0 0.034997991786689359 -4.4377804133663854e-07 0 0.034537902136805729 -5.2952099356560885e-05 0 0.034537902136805729 -5.2952099356560885e-05 0 0.034265372500970635 -2.0833668926573484e-05 0 0.034495689917313777 -3.3299508210709262e-05 0 0.034300325820135327 7.5422233650223244e-05 0 0.034537902136805729 -5.2952099356560885e-05 0 0.034265372500970635 -2.0833668926573484e-05 0 0.034998629743856605 2.026398097174991e-07 0 0.034830970665040935 4.7043103385128736e-05 0 0.034972371595611597 6.3010142404232898e-06 0 0.034265372500970635 -2.0833668926573484e-05 0 0.034495689917313777 -3.3299508210709262e-05 0 0.033928561811467493 -0.00014606853750167184 0 0.034495689917313777 -3.3299508210709262e-05 0 0.034150296700722019 -0.00018654397537582002 0 0.033928561811467493 -0.00014606853750167184 0 0.034495689917313777 -3.3299508210709262e-05 0 0.034998629743856605 2.026398097174991e-07 0 0.034830970665040935 4.7043103385128736e-05 0 0.034537902136805729 -5.2952099356560885e-05 0 0.034495689917313777 -3.3299508210709262e-05 0 0.034998629743856605 2.026398097174991e-07 0 0.034830970665040935 4.7043103385128736e-05 0 0.034150296700722019 -0.00018654397537582002 0 0.033986747067428776 0.00015911414904765152 0 0.034495689917313777 -3.3299508210709262e-05 0 0.034830970665040935 4.7043103385128736e-05 0 0.034150296700722019 -0.00018654397537582002 0 0.034816060145392215 4.9818961087928923e-05 0 0.034430793610577312 8.831604391088781e-05 0 0.034150296700722019 -0.00018654397537582002 0 0.033862383562760272 -0.00027264898019008899 0 0.033928561811467493 -0.00014606853750167184 0 0.033862383562760272 -0.00027264898019008899 0 0.03324944078067494 -0.00030475005676494979 0 0.033698302287920423 -0.00030749309677197058 0 0.033862383562760272 -0.00027264898019008899 0 0.033928561811467493 -0.00014606853750167184 0 0.03324944078067494 -0.00030475005676494979 0 0.033807786514900677 -0.0002926320714807629 0 0.033928561811467493 -0.00014606853750167184 0 0.03324944078067494 -0.00030475005676494979 0 0.033807786514900677 -0.0002926320714807629 0 0.034265372500970635 -2.0833668926573484e-05 0 0.033928561811467493 -0.00014606853750167184 0 0.030816040308591842 -0.00042433948988052561 0 0.032171244656723781 -0.00030972370541509833 0 0.03079311537394638 -0.00018436308143447152 0 0.033807786514900677 -0.0002926320714807629 0 0.03324944078067494 -0.00030475005676494979 0 0.032171244656723781 -0.00030972370541509833 0 0.032386064100105333 -0.00028526758542609461 0 0.032292146034826642 -0.00023140131372575935 0 0.033411872719072221 -0.00023341781089956273 0 0.033437652347994312 9.0843713885970586e-05 0 0.032190326508498499 -4.7325864382238351e-05 0 0.033482553773691824 -0.00029149237329015651 0 0.032389885842860497 2.7835609544704126e-07 0 0.03324944078067494 -0.00030475005676494979 0 0.033698302287920423 -0.00030749309677197058 0 0.032171244656723781 -0.00030972370541509833 0 0.033698302287920423 -0.00030749309677197058 0 0.032190326508498499 -4.7325864382238351e-05 0 0.032171244656723781 -0.00030972370541509833 0 0.033411872719072221 -0.00023341781089956273 0 0.034079711350518835 1.2197691704036525e-05 0 0.033437652347994312 9.0843713885970586e-05 0 0.033601043840091556 -3.5710400081175551e-06 0 0.033491310841824995 -4.1208548727434268e-05 0 0.033172885069947124 -3.7872935815160707e-05 0 0.033166483218210314 -1.2320869423338625e-05 0 0.033122976243930916 -3.3442467386534568e-05 0 0.034079711350518835 1.2197691704036525e-05 0 0.034022010818074926 -0.00022943461892681734 0 0.034353375777073189 -0.00012393734543879377 0 0.033862383562760272 -0.00027264898019008899 0 0.033698302287920423 -0.00030749309677197058 0 0.033878691657238849 -0.00023354377642467269 0 0.033482553773691824 -0.00029149237329015651 0 0.033850397626777169 -0.00021050294587124667 0 0.033411872719072221 -0.00023341781089956273 0 0.034079711350518835 1.2197691704036525e-05 0 0.034022010818074926 -0.00022943461892681734 0 0.034150296700722019 -0.00018654397537582002 0 0.033862383562760272 -0.00027264898019008899 0 0.033878691657238849 -0.00023354377642467269 0 0.034150296700722019 -0.00018654397537582002 0 0.033878691657238849 -0.00023354377642467269 0 0.033986747067428776 0.00015911414904765152 0 0.034998629743856605 2.026398097174991e-07 0 0.034972371595611597 6.3010142404232898e-06 0 0.035000340621584899 -6.253434276602611e-08 0 0.034972371595611597 6.3010142404232898e-06 0 0.034998350126187509 2.6097561393843186e-06 0 0.035000340621584899 -6.253434276602611e-08 0 0.033878691657238849 -0.00023354377642467269 0 0.033986747067428776 0.00015911414904765152 0 0.033620975809113371 0.00018426285577626282 0 0.033850397626777169 -0.00021050294587124667 0 0.034599865149899683 1.8699006747764391e-05 0 0.034430793610577312 8.831604391088781e-05 0 0.034599865149899683 1.8699006747764391e-05 0 0.034599865149899683 1.8699006747764391e-05 0 0.034998657394434182 -3.4059898018326031e-07 0 0.034022010818074926 -0.00022943461892681734 0 0.034437711746369518 -0.00032919025532732676 0 0.034353375777073189 -0.00012393734543879377 0 0.034353375777073189 -0.00012393734543879377 0 0.034685608444317242 -0.0001031855277685691 0 0.034587417699783699 1.3171968786371442e-05 0 0.034599865149899683 1.8699006747764391e-05 0 0.035000033542135697 -1.5313367989677572e-07 0 0.034437711746369518 -0.00032919025532732676 0 0.034685608444317242 -0.0001031855277685691 0 0.034999067590476489 -1.014464991192607e-06 0 0.034999764899870521 -4.7917527699343957e-09 0 0.034999995819518008 5.616830466778185e-10 0 0.035000000270557587 -7.4902061075725985e-10 0 0.034437711746369518 -0.00032919025532732676 0 0.034353375777073189 -0.00012393734543879377 0 0.034685608444317242 -0.0001031855277685691 0 0.034685608444317242 -0.0001031855277685691 0 0.034999067590476489 -1.014464991192607e-06 0 0.034947704172437054 -2.8626578309734763e-05 0 0.034457093451415517 -9.8925870276511167e-05 0 0.034010851648193896 -7.8669710850766937e-05 0 0.034685608444317242 -0.0001031855277685691 0 0.034947704172437054 -2.8626578309734763e-05 0 0.034587417699783699 1.3171968786371442e-05 0 0.034004351951808419 -0.0002457457590566132 0 0.033652519945248177 -6.4648163628810827e-05 0 0.03339375448825245 -0.00015164972332326512 0 0.033652519945248177 -6.4648163628810827e-05 0 0.03339375448825245 -0.00015164972332326512 0 0.033221905208054098 5.0825783812064341e-05 0 0.033601043840091556 -3.5710400081175551e-06 0 0.034010851648193896 -7.8669710850766937e-05 0 0.034079711350518835 1.2197691704036525e-05 0 0.034353375777073189 -0.00012393734543879377 0 0.034587417699783699 1.3171968786371442e-05 0 0.033172885069947124 -3.7872935815160707e-05 0 0.033221905208054098 5.0825783812064341e-05 0 0.033166483218210314 -1.2320869423338625e-05 0 0.033172885069947124 -3.7872935815160707e-05 0 0.03339375448825245 -0.00015164972332326512 0 0.033221905208054098 5.0825783812064341e-05 0 0.033293716593519991 -9.6386745507478309e-06 0 0.033652519945248177 -6.4648163628810827e-05 0 0.033221905208054098 5.0825783812064341e-05 0 0.033293716593519991 -9.6386745507478309e-06 0 0.033221905208054098 5.0825783812064341e-05 0 0.032590164608707298 -0.00010602301809831374 0 0.033221905208054098 5.0825783812064341e-05 0 0.033137318991583224 -7.7734797736061777e-05 0 0.032590164608707298 -0.00010602301809831374 0 0.033221905208054098 5.0825783812064341e-05 0 0.033137318991583224 -7.7734797736061777e-05 0 0.033166483218210314 -1.2320869423338625e-05 0 0.030591241405760722 -0.00047950167546345856 0 0.032590164608707298 -0.00010602301809831374 0 0.03059404454098065 0.00028255474847924215 0 0.031884707220055562 -0.00023956624059732118 0 0.03252365569064973 -0.00014248424163823005 0 0.032441251320510622 0.0006353960823231627 0 0.032590164608707298 -0.00010602301809831374 0 0.031093276708128448 0.00075931684312937622 0 0.032590164608707298 -0.00010602301809831374 0 0.031093276708128448 0.00075931684312937622 0 0.03059404454098065 0.00028255474847924215 0 0.032441251320510622 0.0006353960823231627 0 0.031093276708128448 0.00075931684312937622 0 0.032049433524379979 0.0013066536725735412 0 0.031093276708128448 0.00075931684312937622 0 0.02979434396137284 0.00075603516136451372 0 0.02986534036375223 0.0011906863332313469 0 0.031093276708128448 0.00075931684312937622 0 0.03059404454098065 0.00028255474847924215 0 0.02979434396137284 0.00075603516136451372 0 0.03059404454098065 0.00028255474847924215 0 0.02979434396137284 0.00075603516136451372 0 0.029617774286708271 0.0002854364028429617 0 0.030591241405760722 -0.00047950167546345856 0 0.03059404454098065 0.00028255474847924215 0 0.029617774286708271 0.0002854364028429617 0 0.02979434396137284 0.00075603516136451372 0 0.029307062701115976 0.00058820803216121488 0 0.029617774286708271 0.0002854364028429617 0 0.02979434396137284 0.00075603516136451372 0 0.029307062701115976 0.00058820803216121488 0 0.029227207424748897 0.00087995199056150166 0 0.029307062701115976 0.00058820803216121488 0 0.028971050329635487 0.00080507739786717233 0 0.029227207424748897 0.00087995199056150166 0 0.029307062701115976 0.00058820803216121488 0 0.029617774286708271 0.0002854364028429617 0 0.029261501243486386 0.00031456095184335546 0 0.029617774286708271 0.0002854364028429617 0 0.029364624157759013 0.00015530597965313222 0 0.029261501243486386 0.00031456095184335546 0 0.029617774286708271 0.0002854364028429617 0 0.029364624157759013 0.00015530597965313222 0 0.02953214382387331 -0.00020037864555223585 0 0.029364624157759013 0.00015530597965313222 0 0.02953214382387331 -0.00020037864555223585 0 0.02937125013057014 0.00014150438372532447 0 0.031884707220055562 -0.00023956624059732118 0 0.031332219489609972 -0.00010505832290841 0 0.030591241405760722 -0.00047950167546345856 0 0.029617774286708271 0.0002854364028429617 0 0.02953214382387331 -0.00020037864555223585 0 0.033137318991583224 -7.7734797736061777e-05 0 0.033135229241979092 4.9434064944674682e-07 0 0.033166483218210314 -1.2320869423338625e-05 0 0.033135229241979092 4.9434064944674682e-07 0 0.033122976243930916 -3.3442467386534568e-05 0 0.033030876746240168 1.1853379900119338e-05 0 0.033135229241979092 4.9434064944674682e-07 0 0.033166483218210314 -1.2320869423338625e-05 0 0.033122976243930916 -3.3442467386534568e-05 0 0.033437652347994312 9.0843713885970586e-05 0 0.032190326508498499 -4.7325864382238351e-05 0 0.032153876991822185 0.00060261202811498612 0 0.033491310841824995 -4.1208548727434268e-05 0 0.031372054011152811 0.00025772755558497301 0 0.032190326508498499 -4.7325864382238351e-05 0 0.032171244656723781 -0.00030972370541509833 0 0.031296735629499493 5.3982659280315547e-05 0 0.032171244656723781 -0.00030972370541509833 0 0.031296735629499493 5.3982659280315547e-05 0 0.03079311537394638 -0.00018436308143447152 0 0.031296735629499493 5.3982659280315547e-05 0 0.030813091327857315 0.00038257805950161805 0 0.030354572065704969 0.00019654801439210657 0 0.031296735629499493 5.3982659280315547e-05 0 0.030354572065704969 0.00019654801439210657 0 0.03079311537394638 -0.00018436308143447152 0 0.032190326508498499 -4.7325864382238351e-05 0 0.031296735629499493 5.3982659280315547e-05 0 0.031571557594914007 0.00020907889458182796 0 0.032190326508498499 -4.7325864382238351e-05 0 0.031571557594914007 0.00020907889458182796 0 0.032153876991822185 0.00060261202811498612 0 0.031296735629499493 5.3982659280315547e-05 0 0.031571557594914007 0.00020907889458182796 0 0.030813091327857315 0.00038257805950161805 0 0.031113753667208973 0.00032972164838122094 0 0.031372054011152811 0.00025772755558497301 0 0.031571557594914007 0.00020907889458182796 0 0.030813091327857315 0.00038257805950161805 0 0.032153876991822185 0.00060261202811498612 0 0.029938377137510217 0.00053695550802037857 0 0.031372054011152811 0.00025772755558497301 0 0.030813091327857315 0.00038257805950161805 0 0.029887898300274489 0.00033825267711133915 0 0.031109671319431393 0.00042996332137518347 0 0.030813091327857315 0.00038257805950161805 0 0.029887898300274489 0.00033825267711133915 0 0.030354572065704969 0.00019654801439210657 0 0.029887898300274489 0.00033825267711133915 0 0.029359293447622496 0.0003259787534145362 0 0.02932484280119416 0.00019926177750400088 0 0.031332219489609972 -0.00010505832290841 0 0.031372054011152811 0.00025772755558497301 0 0.02953214382387331 -0.00020037864555223585 0 0.029359293447622496 0.0003259787534145362 0 0.02937125013057014 0.00014150438372532447 0 0.029359293447622496 0.0003259787534145362 0 0.02937125013057014 0.00014150438372532447 0 0.02932484280119416 0.00019926177750400088 0 0.029364624157759013 0.00015530597965313222 0 0.02937125013057014 0.00014150438372532447 0 0.02932484280119416 0.00019926177750400088 0 0.029364624157759013 0.00015530597965313222 0 0.02932484280119416 0.00019926177750400088 0 0.029261501243486386 0.00031456095184335546 0 0.02932484280119416 0.00019926177750400088 0 0.029261501243486386 0.00031456095184335546 0 0.029189997545618868 0.00029656108831234738 0 0.029261501243486386 0.00031456095184335546 0 0.029115790244895811 0.00052123274075730093 0 0.029189997545618868 0.00029656108831234738 0 0.029115790244895811 0.00052123274075730093 0 0.028891276258694504 0.00063500972813850985 0 0.029189997545618868 0.00029656108831234738 0 0.029307062701115976 0.00058820803216121488 0 0.029261501243486386 0.00031456095184335546 0 0.029115790244895811 0.00052123274075730093 0 0.029115790244895811 0.00052123274075730093 0 0.028891276258694504 0.00063500972813850985 0 0.028971050329635487 0.00080507739786717233 0 0.029307062701115976 0.00058820803216121488 0 0.029115790244895811 0.00052123274075730093 0 0.028971050329635487 0.00080507739786717233 0 0.028891276258694504 0.00063500972813850985 0 0.029189997545618868 0.00029656108831234738 0 0.028750786175784668 0.00039110350802584043 0 0.028891276258694504 0.00063500972813850985 0 0.028750786175784668 0.00039110350802584043 0 0.028574309092761048 0.000789542035523545 0 0.029189997545618868 0.00029656108831234738 0 0.029267954365166261 0.00020151040201314707 0 0.028750786175784668 0.00039110350802584043 0 0.029189997545618868 0.00029656108831234738 0 0.029449638742911885 0.00021531186121940602 0 0.029267954365166261 0.00020151040201314707 0 0.02932484280119416 0.00019926177750400088 0 0.029189997545618868 0.00029656108831234738 0 0.029449638742911885 0.00021531186121940602 0 0.029887898300274489 0.00033825267711133915 0 0.02932484280119416 0.00019926177750400088 0 0.029449638742911885 0.00021531186121940602 0 0.029887898300274489 0.00033825267711133915 0 0.029449638742911885 0.00021531186121940602 0 0.029267954365166261 0.00020151040201314707 0 0.029267954365166261 0.00020151040201314707 0 0.02894954101318634 9.9289941312311522e-05 0 0.029658465307582805 0.00014778827931262597 0 0.028712181679977408 0.00018767347600315469 0 0.028065512612061329 0.00014095200967475705 0 0.028339087773793709 6.59589515947405e-05 0 0.02894954101318634 9.9289941312311522e-05 0 0.028712181679977408 0.00018767347600315469 0 0.028339087773793709 6.59589515947405e-05 0 0.029267954365166261 0.00020151040201314707 0 0.028712181679977408 0.00018767347600315469 0 0.028750786175784668 0.00039110350802584043 0 0.029267954365166261 0.00020151040201314707 0 0.02894954101318634 9.9289941312311522e-05 0 0.028712181679977408 0.00018767347600315469 0 0.028712181679977408 0.00018767347600315469 0 0.028750786175784668 0.00039110350802584043 0 0.028065512612061329 0.00014095200967475705 0 0.028750786175784668 0.00039110350802584043 0 0.028065512612061329 0.00014095200967475705 0 0.028156719229364444 0.00057556934761493321 0 0.028750786175784668 0.00039110350802584043 0 0.028156719229364444 0.00057556934761493321 0 0.028574309092761048 0.000789542035523545 0 0.02653239116685592 8.1310849723457848e-05 0 0.027444320215835434 5.980493470802371e-07 0 0.025366657713506609 3.279951162522912e-08 0 0.02653239116685592 8.1310849723457848e-05 0 0.028065512612061329 0.00014095200967475705 0 0.028156719229364444 0.00057556934761493321 0 0.02653239116685592 8.1310849723457848e-05 0 0.028065512612061329 0.00014095200967475705 0 0.027444320215835434 5.980493470802371e-07 0 0.027444320215835434 5.980493470802371e-07 0 0.028339087773793709 6.59589515947405e-05 0 0.029018935935303396 1.7988375059191354e-05 0 0.028065512612061329 0.00014095200967475705 0 0.027444320215835434 5.980493470802371e-07 0 0.028339087773793709 6.59589515947405e-05 0 0.02894954101318634 9.9289941312311522e-05 0 0.028339087773793709 6.59589515947405e-05 0 0.029018935935303396 1.7988375059191354e-05 0 0.029518358591918818 -2.8661296670410822e-07 0 0.029018935935303396 1.7988375059191354e-05 0 0.030039539776163759 -1.3407788152877458e-05 0 0.027444320215835434 5.980493470802371e-07 0 0.029518358591918818 -2.8661296670410822e-07 0 0.029018935935303396 1.7988375059191354e-05 0 0.02894954101318634 9.9289941312311522e-05 0 0.029018935935303396 1.7988375059191354e-05 0 0.029658465307582805 0.00014778827931262597 0 0.029018935935303396 1.7988375059191354e-05 0 0.029658465307582805 0.00014778827931262597 0 0.030039539776163759 -1.3407788152877458e-05 0 0.029887898300274489 0.00033825267711133915 0 0.029267954365166261 0.00020151040201314707 0 0.029658465307582805 0.00014778827931262597 0 0.029658465307582805 0.00014778827931262597 0 0.030354572065704969 0.00019654801439210657 0 0.030039539776163759 -1.3407788152877458e-05 0 0.029887898300274489 0.00033825267711133915 0 0.029658465307582805 0.00014778827931262597 0 0.030354572065704969 0.00019654801439210657 0 0.030728007877832138 -0.00026347616945175076 0 0.030039539776163759 -1.3407788152877458e-05 0 0.03079311537394638 -0.00018436308143447152 0 0.030354572065704969 0.00019654801439210657 0 0.030039539776163759 -1.3407788152877458e-05 0 0.03079311537394638 -0.00018436308143447152 0 0.030728007877832138 -0.00026347616945175076 0 0.029518358591918818 -2.8661296670410822e-07 0 0.030039539776163759 -1.3407788152877458e-05 0 0.023070913756531104 0.0001650371030099999 0 0.023291934335020508 6.9842905754893173e-09 0 0.02122750091654612 -0.00037791851498911118 0 0.023289165758531068 1.1135315520315275e-06 0 0.021604663126708681 -1.1780854852211857e-06 0 0.024908380680062927 0.00083528283118172774 0 0.024596582237696812 0.00038118225975817638 0 0.025247135385714246 0.0010317513267668486 0 0.024908380680062927 0.00083528283118172774 0 0.024596582237696812 0.00038118225975817638 0 0.02429304447688508 -0.00010314491340470658 0 0.024596582237696812 0.00038118225975817638 0 0.02429304447688508 -0.00010314491340470658 0 0.024330438491667071 -5.8464969388633684e-05 0 0.024908380680062927 0.00083528283118172774 0 0.02429304447688508 -0.00010314491340470658 0 0.023295274809284498 5.6673789400563239e-07 0 0.02429304447688508 -0.00010314491340470658 0 0.025366657713506609 3.279951162522912e-08 0 0.024639272518799871 3.3420982295547652e-05 0 0.02429304447688508 -0.00010314491340470658 0 0.023295274809284498 5.6673789400563239e-07 0 0.025366657713506609 3.279951162522912e-08 0 0.02653239116685592 8.1310849723457848e-05 0 0.025366657713506609 3.279951162522912e-08 0 0.024639272518799871 3.3420982295547652e-05 0 0.02653239116685592 8.1310849723457848e-05 0 0.028156719229364444 0.00057556934761493321 0 0.02804422367590605 0.001320094980107579 0 0.026399905026768249 8.5578402664649982e-05 0 0.026331221182867973 0.00056167103445075575 0 0.02804422367590605 0.001320094980107579 0 0.028440930677919442 0.0010811389283429146 0 0.028574309092761048 0.000789542035523545 0 0.028156719229364444 0.00057556934761493321 0 0.02804422367590605 0.001320094980107579 0 0.028574309092761048 0.000789542035523545 0 0.02804422367590605 0.001320094980107579 0 0.028222054516311993 0.0012377280147167146 0 0.028440930677919442 0.0010811389283429146 0 0.02429304447688508 -0.00010314491340470658 0 0.024639272518799871 3.3420982295547652e-05 0 0.024330438491667071 -5.8464969388633684e-05 0 0.026331221182867973 0.00056167103445075575 0 0.026260649153230359 0.00069876592933457409 0 0.02804422367590605 0.001320094980107579 0 0.028222054516311993 0.0012377280147167146 0 0.028129809910013348 0.0012431129111277579 0 0.028222054516311993 0.0012377280147167146 0 0.028214394226735596 0.0012305665114438356 0 0.028129809910013348 0.0012431129111277579 0 0.028222054516311993 0.0012377280147167146 0 0.028214394226735596 0.0012305665114438356 0 0.028440930677919442 0.0010811389283429146 0 0.028214394226735596 0.0012305665114438356 0 0.028440930677919442 0.0010811389283429146 0 0.02867286206184565 0.0010020170230292853 0 0.028440930677919442 0.0010811389283429146 0 0.028574309092761048 0.000789542035523545 0 0.02867286206184565 0.0010020170230292853 0 0.028891276258694504 0.00063500972813850985 0 0.028574309092761048 0.000789542035523545 0 0.02867286206184565 0.0010020170230292853 0 0.028971050329635487 0.00080507739786717233 0 0.02867286206184565 0.0010020170230292853 0 0.028743815657705618 0.0011367017508538775 0 0.028891276258694504 0.00063500972813850985 0 0.028971050329635487 0.00080507739786717233 0 0.02867286206184565 0.0010020170230292853 0 0.028214394226735596 0.0012305665114438356 0 0.02867286206184565 0.0010020170230292853 0 0.028743815657705618 0.0011367017508538775 0 0.028743815657705618 0.0011367017508538775 0 0.028134115150180741 0.001257599629444754 0 0.028622765757572718 0.001275615663153017 0 0.028214394226735596 0.0012305665114438356 0 0.028743815657705618 0.0011367017508538775 0 0.028134115150180741 0.001257599629444754 0 0.028134115150180741 0.001257599629444754 0 0.028389075372458095 0.0013946164762597523 0 0.028622765757572718 0.001275615663153017 0 0.028134115150180741 0.001257599629444754 0 0.027761918750211386 0.0013583017852951951 0 0.028389075372458095 0.0013946164762597523 0 0.028134115150180741 0.001257599629444754 0 0.027706997612901491 0.0012663714548147816 0 0.027761918750211386 0.0013583017852951951 0 0.028214394226735596 0.0012305665114438356 0 0.028134115150180741 0.001257599629444754 0 0.027706997612901491 0.0012663714548147816 0 0.028214394226735596 0.0012305665114438356 0 0.028129809910013348 0.0012431129111277579 0 0.027706997612901491 0.0012663714548147816 0 0.028129809910013348 0.0012431129111277579 0 0.027706997612901491 0.0012663714548147816 0 0.026520259811434858 0.0014975148434265937 0 0.024596582237696812 0.00038118225975817638 0 0.024330438491667071 -5.8464969388633684e-05 0 0.025247135385714246 0.0010317513267668486 0 0.024330438491667071 -5.8464969388633684e-05 0 0.025247135385714246 0.0010317513267668486 0 0.026520259811434858 0.0014975148434265937 0 0.024908380680062927 0.00083528283118172774 0 0.025247135385714246 0.0010317513267668486 0 0.022765663215313967 -0.00032337105204226745 0 0.026260649153230359 0.00069876592933457409 0 0.026612749875712195 0.0015105372670569978 0 0.026520259811434858 0.0014975148434265937 0 0.027951554858525941 0.0018415144941695432 0 0.027761918750211386 0.0013583017852951951 0 0.025136546854911186 0.00095100110156101224 0 0.025162798672684734 0.0009892070765868898 0 0.025247135385714246 0.0010317513267668486 0 0.026520259811434858 0.0014975148434265937 0 0.028343155609236195 0.002492091517342148 0 0.027706997612901491 0.0012663714548147816 0 0.026520259811434858 0.0014975148434265937 0 0.027761918750211386 0.0013583017852951951 0 0.027951554858525941 0.0018415144941695432 0 0.027761918750211386 0.0013583017852951951 0 0.028234504211063854 0.0017204011292590675 0 0.027761918750211386 0.0013583017852951951 0 0.028234504211063854 0.0017204011292590675 0 0.028389075372458095 0.0013946164762597523 0 0.02863825879795568 0.0016283001496986711 0 0.028234504211063854 0.0017204011292590675 0 0.028389075372458095 0.0013946164762597523 0 0.02863825879795568 0.0016283001496986711 0 0.028234504211063854 0.0017204011292590675 0 0.028458350204049403 0.0020815744468661791 0 0.027951554858525941 0.0018415144941695432 0 0.028234504211063854 0.0017204011292590675 0 0.028458350204049403 0.0020815744468661791 0 0.02863825879795568 0.0016283001496986711 0 0.028666700047000605 0.0018288703670228186 0 0.028458350204049403 0.0020815744468661791 0 0.028666700047000605 0.0018288703670228186 0 0.029110082300592463 0.0015634270458580026 0 0.02878143901142359 0.0018123401962233279 0 0.02863825879795568 0.0016283001496986711 0 0.028666700047000605 0.0018288703670228186 0 0.029110082300592463 0.0015634270458580026 0 0.02863825879795568 0.0016283001496986711 0 0.029110082300592463 0.0015634270458580026 0 0.028961818000554362 0.0013989994810035794 0 0.029110082300592463 0.0015634270458580026 0 0.028961818000554362 0.0013989994810035794 0 0.029562097871993036 0.0014286969774561899 0 0.02863825879795568 0.0016283001496986711 0 0.028961818000554362 0.0013989994810035794 0 0.028389075372458095 0.0013946164762597523 0 0.028961818000554362 0.0013989994810035794 0 0.028389075372458095 0.0013946164762597523 0 0.028622765757572718 0.001275615663153017 0 0.028961818000554362 0.0013989994810035794 0 0.028622765757572718 0.001275615663153017 0 0.029265686411566277 0.0011936757921863111 0 0.028743815657705618 0.0011367017508538775 0 0.028622765757572718 0.001275615663153017 0 0.029265686411566277 0.0011936757921863111 0 0.028743815657705618 0.0011367017508538775 0 0.029265686411566277 0.0011936757921863111 0 0.029227207424748897 0.00087995199056150166 0 0.02979434396137284 0.00075603516136451372 0 0.029265686411566277 0.0011936757921863111 0 0.029227207424748897 0.00087995199056150166 0 0.028971050329635487 0.00080507739786717233 0 0.028743815657705618 0.0011367017508538775 0 0.029227207424748897 0.00087995199056150166 0 0.02979434396137284 0.00075603516136451372 0 0.029265686411566277 0.0011936757921863111 0 0.02986534036375223 0.0011906863332313469 0 0.028961818000554362 0.0013989994810035794 0 0.029265686411566277 0.0011936757921863111 0 0.029562097871993036 0.0014286969774561899 0 0.029265686411566277 0.0011936757921863111 0 0.02986534036375223 0.0011906863332313469 0 0.029562097871993036 0.0014286969774561899 0 0.029562097871993036 0.0014286969774561899 0 0.030297352648277251 0.0015574239869940024 0 0.029667157451975453 0.001476513239164192 0 0.031093276708128448 0.00075931684312937622 0 0.02986534036375223 0.0011906863332313469 0 0.030297352648277251 0.0015574239869940024 0 0.02986534036375223 0.0011906863332313469 0 0.029562097871993036 0.0014286969774561899 0 0.030297352648277251 0.0015574239869940024 0 0.030297352648277251 0.0015574239869940024 0 0.032049433524379979 0.0013066536725735412 0 0.031883514428906329 0.00241919043331058 0 0.031093276708128448 0.00075931684312937622 0 0.030297352648277251 0.0015574239869940024 0 0.032049433524379979 0.0013066536725735412 0 0.030297352648277251 0.0015574239869940024 0 0.029667157451975453 0.001476513239164192 0 0.029575589216340736 0.0015528736030900579 0 0.030304306006233166 0.0016015119398458469 0 0.030685056866671744 0.0019209442516885742 0 0.029667157451975453 0.001476513239164192 0 0.029575589216340736 0.0015528736030900579 0 0.029503228691019123 0.0015215086155773341 0 0.029667157451975453 0.001476513239164192 0 0.02945071658935948 0.0015547801915733761 0 0.029503228691019123 0.0015215086155773341 0 0.029110082300592463 0.0015634270458580026 0 0.029562097871993036 0.0014286969774561899 0 0.029667157451975453 0.001476513239164192 0 0.029110082300592463 0.0015634270458580026 0 0.029667157451975453 0.001476513239164192 0 0.02945071658935948 0.0015547801915733761 0 0.029110082300592463 0.0015634270458580026 0 0.02945071658935948 0.0015547801915733761 0 0.029161161804653314 0.0017094746365028629 0 0.029110082300592463 0.0015634270458580026 0 0.029161161804653314 0.0017094746365028629 0 0.02878143901142359 0.0018123401962233279 0 0.02945071658935948 0.0015547801915733761 0 0.029503228691019123 0.0015215086155773341 0 0.029426897743271091 0.0015796860497649078 0 0.02945071658935948 0.0015547801915733761 0 0.029161161804653314 0.0017094746365028629 0 0.029426897743271091 0.0015796860497649078 0 0.029352157978822842 0.0016200491250164164 0 0.029161161804653314 0.0017094746365028629 0 0.029426897743271091 0.0015796860497649078 0 0.029352157978822842 0.0016200491250164164 0 0.029161161804653314 0.0017094746365028629 0 0.029424536638866239 0.0015110893747040577 0 0.029161161804653314 0.0017094746365028629 0 0.028856342041369411 0.0021659927534451629 0 0.028564829243055961 0.0019624548807010487 0 0.029161161804653314 0.0017094746365028629 0 0.028564829243055961 0.0019624548807010487 0 0.02878143901142359 0.0018123401962233279 0 0.028856342041369411 0.0021659927534451629 0 0.029284568914323274 0.002427417186555193 0 0.029058168959526964 0.0026675152766461548 0 0.028856342041369411 0.0021659927534451629 0 0.029058168959526964 0.0026675152766461548 0 0.027931309620414284 0.0021318757750103836 0 0.029161161804653314 0.0017094746365028629 0 0.028856342041369411 0.0021659927534451629 0 0.029284568914323274 0.002427417186555193 0 0.025540659030853105 0.00069766691183891047 0 0.027813273052423922 0.0020800262517454843 0 0.029018452855868244 0.0015143210242507033 0 0.029748931925022291 0.0023390513771608008 0 0.029352157978822842 0.0016200491250164164 0 0.029424536638866239 0.0015110893747040577 0 0.029270492784168781 0.0015418430167938747 0 0.029748931925022291 0.0023390513771608008 0 0.027038573806500085 0.00054960822383653442 0 0.025540659030853105 0.00069766691183891047 0 0.027038573806500085 0.00054960822383653442 0 0.029284568914323274 0.002427417186555193 0 0.029058168959526964 0.0026675152766461548 0 0.029444324745656177 0.0028443382224582429 0 0.022238240544921902 -0.0020065088298662774 0 0.022159610234059365 -0.0011616351346889532 0 0.022664342910786901 -0.0020878080832356259 0 0.022238240544921902 -0.0020065088298662774 0 0.022531861662776508 -0.001626147946714224 0 0.022664342910786901 -0.0020878080832356259 0 0.022238240544921902 -0.0020065088298662774 0 0.022121414197158212 -0.0014709349402539807 0 0.02184604607417388 -0.0018684197243271003 0 0.022238240544921902 -0.0020065088298662774 0 0.022121414197158212 -0.0014709349402539807 0 0.022531861662776508 -0.001626147946714224 0 0.020870390755436379 -0.0019970978377489143 0 0.02184604607417388 -0.0018684197243271003 0 0.021348881470226982 -0.0012858615576279047 0 0.022121414197158212 -0.0014709349402539807 0 0.02184604607417388 -0.0018684197243271003 0 0.021348881470226982 -0.0012858615576279047 0 0.022238240544921902 -0.0020065088298662774 0 0.02184604607417388 -0.0018684197243271003 0 0.022215398271365181 -0.0022664967183226741 0 0.020870390755436379 -0.0019970978377489143 0 0.02184604607417388 -0.0018684197243271003 0 0.022215398271365181 -0.0022664967183226741 0 0.022215398271365181 -0.0022664967183226741 0 0.023770329939765491 -0.0018699608249472918 0 0.025260902606379847 -0.0036413668055483373 0 0.022576820639864447 -0.002380417331850872 0 0.022270186228207974 -0.0014737696290419641 0 0.020870390755436379 -0.0019970978377489143 0 0.022215398271365181 -0.0022664967183226741 0 0.020511537314523851 -0.0024455460812408069 0 0.021078452839145865 -0.0024078014300781478 0 0.022270186228207974 -0.0014737696290419641 0 0.022159610234059365 -0.0011616351346889532 0 0.025289501424883166 -0.00069458838652998044 0 0.027931309620414284 0.0021318757750103836 0 0.023770329939765491 -0.0018699608249472918 0 0.025289501424883166 -0.00069458838652998044 0 0.025260902606379847 -0.0036413668055483373 0 0.022238240544921902 -0.0020065088298662774 0 0.022215398271365181 -0.0022664967183226741 0 0.022159610234059365 -0.0011616351346889532 0 0.022215398271365181 -0.0022664967183226741 0 0.023770329939765491 -0.0018699608249472918 0 0.022159610234059365 -0.0011616351346889532 0 0.023770329939765491 -0.0018699608249472918 0 0.022159610234059365 -0.0011616351346889532 0 0.025289501424883166 -0.00069458838652998044 0 0.022893058677111045 0.00038328811160349914 0 0.022405115370101113 0.00022264608528130517 0 0.022372589895006619 -0.0001727633231410344 0 0.026764836535891984 -0.00023000928075527993 0 0.025260902606379847 -0.0036413668055483373 0 0.028792258750689442 0.0010078705017376234 0 0.022270186228207974 -0.0014737696290419641 0 0.025776350057748462 0.00045702599130566712 0 0.025289501424883166 -0.00069458838652998044 0 0.026764836535891984 -0.00023000928075527993 0 0.025260902606379847 -0.0036413668055483373 0 0.022893058677111045 0.00038328811160349914 0 0.0222460283856812 0.00061304783102940558 0 0.022405115370101113 0.00022264608528130517 0 0.022270186228207974 -0.0014737696290419641 0 0.019378789876044782 -0.00069926135199321426 0 0.020037339192712757 -0.0030185652425608533 0 0.019230716728006629 -0.0017299902843374276 0 0.016802064712174748 -0.0021481031476465861 0 0.020870390755436379 -0.0019970978377489143 0 0.020037339192712757 -0.0030185652425608533 0 0.019230716728006629 -0.0017299902843374276 0 0.020870390755436379 -0.0019970978377489143 0 0.019230716728006629 -0.0017299902843374276 0 0.020114304389910038 -0.00094313773847418743 0 0.0222460283856812 0.00061304783102940558 0 0.022405115370101113 0.00022264608528130517 0 0.022003079304188284 0.00022160388137543698 0 0.022372589895006619 -0.0001727633231410344 0 0.021987675931900326 -0.00010553172182344828 0 0.022003079304188284 0.00022160388137543698 0 0.022405115370101113 0.00022264608528130517 0 0.022372589895006619 -0.0001727633231410344 0 0.022003079304188284 0.00022160388137543698 0 0.028792258750689442 0.0010078705017376234 0 0.028438057595816073 0.0020548528684037853 0 0.028343155609236195 0.002492091517342148 0 0.025776350057748462 0.00045702599130566712 0 0.025162798672684734 0.0009892070765868898 0 0.022372589895006619 -0.0001727633231410344 0 0.022083168062202195 -0.0002031727525164754 0 0.022142852941842196 -0.00027393772186541865 0 0.028792258750689442 0.0010078705017376234 0 0.027931309620414284 0.0021318757750103836 0 0.028438057595816073 0.0020548528684037853 0 0.026764836535891984 -0.00023000928075527993 0 0.028792258750689442 0.0010078705017376234 0 0.027931309620414284 0.0021318757750103836 0 0.028856342041369411 0.0021659927534451629 0 0.027931309620414284 0.0021318757750103836 0 0.028564829243055961 0.0019624548807010487 0 0.025289501424883166 -0.00069458838652998044 0 0.026764836535891984 -0.00023000928075527993 0 0.027931309620414284 0.0021318757750103836 0 0.027931309620414284 0.0021318757750103836 0 0.028444475615237136 0.0020111046486389534 0 0.028438057595816073 0.0020548528684037853 0 0.027931309620414284 0.0021318757750103836 0 0.028444475615237136 0.0020111046486389534 0 0.028564829243055961 0.0019624548807010487 0 0.028444475615237136 0.0020111046486389534 0 0.028564829243055961 0.0019624548807010487 0 0.02878143901142359 0.0018123401962233279 0 0.028666700047000605 0.0018288703670228186 0 0.028444475615237136 0.0020111046486389534 0 0.02878143901142359 0.0018123401962233279 0 0.028666700047000605 0.0018288703670228186 0 0.028444475615237136 0.0020111046486389534 0 0.028458350204049403 0.0020815744468661791 0 0.028458350204049403 0.0020815744468661791 0 0.028438057595816073 0.0020548528684037853 0 0.028343155609236195 0.002492091517342148 0 0.028444475615237136 0.0020111046486389534 0 0.028458350204049403 0.0020815744468661791 0 0.028438057595816073 0.0020548528684037853 0 0.025247135385714246 0.0010317513267668486 0 0.022765663215313967 -0.00032337105204226745 0 0.022083168062202195 -0.0002031727525164754 0 0.022765663215313967 -0.00032337105204226745 0 0.022083168062202195 -0.0002031727525164754 0 0.022142852941842196 -0.00027393772186541865 0 0.027951554858525941 0.0018415144941695432 0 0.028458350204049403 0.0020815744468661791 0 0.028343155609236195 0.002492091517342148 0 0.026520259811434858 0.0014975148434265937 0 0.027951554858525941 0.0018415144941695432 0 0.028343155609236195 0.002492091517342148 0 0.02122750091654612 -0.00037791851498911118 0 0.022765663215313967 -0.00032337105204226745 0 0.021362425566615172 -0.00021965058703498884 0 0.023070913756531104 0.0001650371030099999 0 0.022817394071504144 -0.00021735426333956953 0 0.022765663215313967 -0.00032337105204226745 0 0.021820377042867354 -0.00015114918948780311 0 0.021362425566615172 -0.00021965058703498884 0 0.021820377042867354 -0.00015114918948780311 0 0.020834118657118723 -0.00010848980140112531 0 0.021362425566615172 -0.00021965058703498884 0 0.021820377042867354 -0.00015114918948780311 0 0.022142852941842196 -0.00027393772186541865 0 0.021987675931900326 -0.00010553172182344828 0 0.022372589895006619 -0.0001727633231410344 0 0.022142852941842196 -0.00027393772186541865 0 0.021987675931900326 -0.00010553172182344828 0 0.022765663215313967 -0.00032337105204226745 0 0.021820377042867354 -0.00015114918948780311 0 0.022142852941842196 -0.00027393772186541865 0 0.021820377042867354 -0.00015114918948780311 0 0.021987675931900326 -0.00010553172182344828 0 0.021350237816242561 0.00011706293594321 0 0.021987675931900326 -0.00010553172182344828 0 0.022003079304188284 0.00022160388137543698 0 0.021350237816242561 0.00011706293594321 0 0.019378789876044782 -0.00069926135199321426 0 0.018077099673676173 4.3710844024408899e-07 0 0.0222460283856812 0.00061304783102940558 0 0.022003079304188284 0.00022160388137543698 0 0.021313184873510159 0.0008957046787347663 0 0.022003079304188284 0.00022160388137543698 0 0.021350237816242561 0.00011706293594321 0 0.021313184873510159 0.0008957046787347663 0 0.021350237816242561 0.00011706293594321 0 0.020119464540894107 0.00021594932813917322 0 0.021313184873510159 0.0008957046787347663 0 0.021820377042867354 -0.00015114918948780311 0 0.021350237816242561 0.00011706293594321 0 0.020834118657118723 -0.00010848980140112531 0 0.021350237816242561 0.00011706293594321 0 0.020834118657118723 -0.00010848980140112531 0 0.020119464540894107 0.00021594932813917322 0 0.020834118657118723 -0.00010848980140112531 0 0.020119464540894107 0.00021594932813917322 0 0.019842406533275233 -7.5495212819550646e-05 0 0.020119464540894107 0.00021594932813917322 0 0.019532432969354727 0.00091748218878091913 0 0.021313184873510159 0.0008957046787347663 0 0.020119464540894107 0.00021594932813917322 0 0.018227737353259419 -9.2057660830202885e-07 0 0.019532432969354727 0.00091748218878091913 0 0.020119464540894107 0.00021594932813917322 0 0.018227737353259419 -9.2057660830202885e-07 0 0.019842406533275233 -7.5495212819550646e-05 0 0.018227737353259419 -9.2057660830202885e-07 0 0.019842406533275233 -7.5495212819550646e-05 0 0.019916510085857569 -2.2517130832313593e-08 0 0.019842406533275233 -7.5495212819550646e-05 0 0.019916510085857569 -2.2517130832313593e-08 0 0.020649002952398993 -0.0002110378876289949 0 0.019916510085857569 -2.2517130832313593e-08 0 0.020649002952398993 -0.0002110378876289949 0 0.021604663126708681 -1.1780854852211857e-06 0 0.020834118657118723 -0.00010848980140112531 0 0.020649002952398993 -0.0002110378876289949 0 0.021362425566615172 -0.00021965058703498884 0 0.020834118657118723 -0.00010848980140112531 0 0.019842406533275233 -7.5495212819550646e-05 0 0.020649002952398993 -0.0002110378876289949 0 0.02122750091654612 -0.00037791851498911118 0 0.021100520342305282 -0.00025852015997585687 0 0.021362425566615172 -0.00021965058703498884 0 0.020649002952398993 -0.0002110378876289949 0 0.021100520342305282 -0.00025852015997585687 0 0.021362425566615172 -0.00021965058703498884 0 0.020649002952398993 -0.0002110378876289949 0 0.021100520342305282 -0.00025852015997585687 0 0.021604663126708681 -1.1780854852211857e-06 0 0.02122750091654612 -0.00037791851498911118 0 0.021100520342305282 -0.00025852015997585687 0 0.021604663126708681 -1.1780854852211857e-06 0 0.031869074703081243 0.00013424131228432416 0 0.032188815924708854 0.00054503277805910888 0 0.032431997175170785 -7.9801797057549272e-06 0 0.031869074703081243 0.00013424131228432416 0 0.031440343134579198 0.00065084154333036159 0 0.032188815924708854 0.00054503277805910888 0 0.031869074703081243 0.00013424131228432416 0 0.031440343134579198 0.00065084154333036159 0 0.031161850677044113 -1.9498540994849096e-06 0 0.031440343134579198 0.00065084154333036159 0 0.031118699911723918 0.0013200658627752961 0 0.031856517237448242 0.0011468647478143838 0 0.032188815924708854 0.00054503277805910888 0 0.032542136904687394 0.0010750576643134288 0 0.031856517237448242 0.0011468647478143838 0 0.031440343134579198 0.00065084154333036159 0 0.032188815924708854 0.00054503277805910888 0 0.031856517237448242 0.0011468647478143838 0 0.032542136904687394 0.0010750576643134288 0 0.033181131862139987 0.00094898428262361011 0 0.032793445611203058 0.00034941500157722511 0 0.032188815924708854 0.00054503277805910888 0 0.032542136904687394 0.0010750576643134288 0 0.032793445611203058 0.00034941500157722511 0 0.033690635554308811 0.0005192005549875449 0 0.033181131862139987 0.00094898428262361011 0 0.032793445611203058 0.00034941500157722511 0 0.03302822428668583 -1.6907203938107727e-05 0 0.032793445611203058 0.00034941500157722511 0 0.032849798347496323 -4.9745609754559079e-05 0 0.033019248834047298 -0.000130009611598848 0 0.03302822428668583 -1.6907203938107727e-05 0 0.032793445611203058 0.00034941500157722511 0 0.033458298049969068 0.00020795162371070933 0 0.032736862472850535 0.00031407535812549788 0 0.032793445611203058 0.00034941500157722511 0 0.032849798347496323 -4.9745609754559079e-05 0 0.032431997175170785 -7.9801797057549272e-06 0 0.032188815924708854 0.00054503277805910888 0 0.032793445611203058 0.00034941500157722511 0 0.032431997175170785 -7.9801797057549272e-06 0 0.032849798347496323 -4.9745609754559079e-05 0 0.032719305072991645 -0.00018822941206111412 0 0.032431997175170785 -7.9801797057549272e-06 0 0.032719305072991645 -0.00018822941206111412 0 0.032528351548496037 -0.00034814401546073175 0 0.032431997175170785 -7.9801797057549272e-06 0 0.032894785944626574 -0.00020449935632295828 0 0.032719305072991645 -0.00018822941206111412 0 0.032842367840468123 -0.00031256935336173756 0 0.032849798347496323 -4.9745609754559079e-05 0 0.032894785944626574 -0.00020449935632295828 0 0.032719305072991645 -0.00018822941206111412 0 0.03302822428668583 -1.6907203938107727e-05 0 0.032849798347496323 -4.9745609754559079e-05 0 0.033025166356852959 -0.00015665188524202929 0 0.032849798347496323 -4.9745609754559079e-05 0 0.032894785944626574 -0.00020449935632295828 0 0.033025166356852959 -0.00015665188524202929 0 0.032894785944626574 -0.00020449935632295828 0 0.033025166356852959 -0.00015665188524202929 0 0.033024524763460822 -0.00027865466655683412 0 0.033109376321881642 -0.00023224056804484563 0 0.033025166356852959 -0.00015665188524202929 0 0.033024524763460822 -0.00027865466655683412 0 0.033109376321881642 -0.00023224056804484563 0 0.033024524763460822 -0.00027865466655683412 0 0.033100538498594186 -0.00029731200511740459 0 0.032894785944626574 -0.00020449935632295828 0 0.033024524763460822 -0.00027865466655683412 0 0.032842367840468123 -0.00031256935336173756 0 0.033024524763460822 -0.00027865466655683412 0 0.032981724176024685 -0.00035309898635823314 0 0.032842367840468123 -0.00031256935336173756 0 0.033114500608662549 -0.00035033164901353346 0 0.033024524763460822 -0.00027865466655683412 0 0.032981724176024685 -0.00035309898635823314 0 0.033021091300330603 -0.00039609077196945541 0 0.033114500608662549 -0.00035033164901353346 0 0.032981724176024685 -0.00035309898635823314 0 0.033142660434948366 -0.00028078622344349986 0 0.033114500608662549 -0.00035033164901353346 0 0.033100538498594186 -0.00029731200511740459 0 0.033114500608662549 -0.00035033164901353346 0 0.033024524763460822 -0.00027865466655683412 0 0.033100538498594186 -0.00029731200511740459 0 0.032842367840468123 -0.00031256935336173756 0 0.032854466175970182 -0.00040315815608635047 0 0.032528351548496037 -0.00034814401546073175 0 0.032719305072991645 -0.00018822941206111412 0 0.032842367840468123 -0.00031256935336173756 0 0.032528351548496037 -0.00034814401546073175 0 0.032981724176024685 -0.00035309898635823314 0 0.032842367840468123 -0.00031256935336173756 0 0.032854466175970182 -0.00040315815608635047 0 0.033021091300330603 -0.00039609077196945541 0 0.032981724176024685 -0.00035309898635823314 0 0.032854466175970182 -0.00040315815608635047 0 0.032912312747863041 -0.00044645586719973938 0 0.033021091300330603 -0.00039609077196945541 0 0.032854466175970182 -0.00040315815608635047 0 0.032912312747863041 -0.00044645586719973938 0 0.032854466175970182 -0.00040315815608635047 0 0.032744560270379093 -0.0005001649073190505 0 0.032854466175970182 -0.00040315815608635047 0 0.032744560270379093 -0.0005001649073190505 0 0.032528351548496037 -0.00034814401546073175 0 0.032784831062133632 -0.00060024580904766969 0 0.032744560270379093 -0.0005001649073190505 0 0.032054726411970901 -0.00041028128164362446 0 0.032744560270379093 -0.0005001649073190505 0 0.032054726411970901 -0.00041028128164362446 0 0.032528351548496037 -0.00034814401546073175 0 0.034768847558347721 0.0012307258250275634 0 0.035119747635632706 0.0011222486998198448 0 0.034743076128048861 0.0016957614302426035 0 0.033702642423780391 -0.00011007545983911375 0 0.033382000928813216 0.00071831419019567264 0 0.031869074703081243 0.00013424131228432416 0 0.032054726411970901 -0.00041028128164362446 0 0.032431997175170785 -7.9801797057549272e-06 0 0.032054726411970901 -0.00041028128164362446 0 0.032528351548496037 -0.00034814401546073175 0 0.032431997175170785 -7.9801797057549272e-06 0 0.031869074703081243 0.00013424131228432416 0 0.032054726411970901 -0.00041028128164362446 0 0.031161850677044113 -1.9498540994849096e-06 0 0.033382000928813216 0.00071831419019567264 0 0.032784001480575219 0.0012416091699740961 0 0.034349509203290496 0.0012210571193473139 0 0.034743076128048861 0.0016957614302426035 0 0.03385456942642754 0.0016072306448688847 0 0.034349509203290496 0.0012210571193473139 0 0.034768847558347721 0.0012307258250275634 0 0.034743076128048861 0.0016957614302426035 0 0.033131765254894446 0.00098870858348899175 0 0.03385456942642754 0.0016072306448688847 0 0.032951117466722822 0.0018781013372617963 0 0.03385456942642754 0.0016072306448688847 0 0.033496318553266506 0.0023549416744652295 0 0.032951117466722822 0.0018781013372617963 0 0.03385456942642754 0.0016072306448688847 0 0.033496318553266506 0.0023549416744652295 0 0.034218773830854171 0.0024021279923827333 0 0.034743076128048861 0.0016957614302426035 0 0.03385456942642754 0.0016072306448688847 0 0.034218773830854171 0.0024021279923827333 0 0.032049433524379979 0.0013066536725735412 0 0.032951117466722822 0.0018781013372617963 0 0.031883514428906329 0.00241919043331058 0 0.033131765254894446 0.00098870858348899175 0 0.032049433524379979 0.0013066536725735412 0 0.032951117466722822 0.0018781013372617963 0 0.033496318553266506 0.0023549416744652295 0 0.032951117466722822 0.0018781013372617963 0 0.032826354059592437 0.0027732163074390536 0 0.032951117466722822 0.0018781013372617963 0 0.031883514428906329 0.00241919043331058 0 0.032826354059592437 0.0027732163074390536 0 0.029575589216340736 0.0015528736030900579 0 0.029503228691019123 0.0015215086155773341 0 0.029486492540832687 0.0015315805082579939 0 0.030685056866671744 0.0019209442516885742 0 0.031270802475335799 0.0022879429139778785 0 0.029503228691019123 0.0015215086155773341 0 0.029486492540832687 0.0015315805082579939 0 0.029459091115344282 0.0015507973223314378 0 0.031270802475335799 0.0022879429139778785 0 0.031129529469074869 0.0014694936717740011 0 0.029486492540832687 0.0015315805082579939 0 0.029487123602139217 0.0015507787514807412 0 0.029536108179675526 0.0015456811892214258 0 0.029487123602139217 0.0015507787514807412 0 0.029536108179675526 0.0015456811892214258 0 0.029462406368348175 0.0015881018059327385 0 0.029486492540832687 0.0015315805082579939 0 0.029487123602139217 0.0015507787514807412 0 0.029459091115344282 0.0015507973223314378 0 0.029487123602139217 0.0015507787514807412 0 0.029459091115344282 0.0015507973223314378 0 0.029462406368348175 0.0015881018059327385 0 0.029503228691019123 0.0015215086155773341 0 0.029459091115344282 0.0015507973223314378 0 0.029426897743271091 0.0015796860497649078 0 0.029459091115344282 0.0015507973223314378 0 0.029426897743271091 0.0015796860497649078 0 0.029387655031987873 0.0015845580546003978 0 0.032784001480575219 0.0012416091699740961 0 0.031129529469074869 0.0014694936717740011 0 0.031161850677044113 -1.9498540994849096e-06 0 0.030227172245654826 0.00062970835295905725 0 0.030501259818657141 0.0008043884383933795 0 0.031440343134579198 0.00065084154333036159 0 0.031161850677044113 -1.9498540994849096e-06 0 0.030501259818657141 0.0008043884383933795 0 0.033496318553266506 0.0023549416744652295 0 0.032826354059592437 0.0027732163074390536 0 0.03356068173079732 0.0031432616699620997 0 0.033496318553266506 0.0023549416744652295 0 0.034218773830854171 0.0024021279923827333 0 0.03356068173079732 0.0031432616699620997 0 0.031129529469074869 0.0014694936717740011 0 0.029034603864637729 0.0015525251081627217 0 0.02992197072423217 0.00045625230692409799 0 0.030047859962040884 0.0010524694684389069 0 0.029219706001211064 0.0015118134894428743 0 0.02992197072423217 0.00045625230692409799 0 0.029219706001211064 0.0015118134894428743 0 0.028928682900972735 0.0015459538056797498 0 0.031129529469074869 0.0014694936717740011 0 0.030295757482009199 0.00080710710371411319 0 0.030047859962040884 0.0010524694684389069 0 0.030501259818657141 0.0008043884383933795 0 0.030516958408875739 0.0013823664120707615 0 0.02992197072423217 0.00045625230692409799 0 0.030047859962040884 0.0010524694684389069 0 0.030501259818657141 0.0008043884383933795 0 0.031440343134579198 0.00065084154333036159 0 0.030501259818657141 0.0008043884383933795 0 0.031118699911723918 0.0013200658627752961 0 0.031118699911723918 0.0013200658627752961 0 0.030696130968967842 0.002015874232073063 0 0.031526732865213736 0.0017238169527680749 0 0.031118699911723918 0.0013200658627752961 0 0.030516958408875739 0.0013823664120707615 0 0.030696130968967842 0.002015874232073063 0 0.030501259818657141 0.0008043884383933795 0 0.031118699911723918 0.0013200658627752961 0 0.030516958408875739 0.0013823664120707615 0 0.030047859962040884 0.0010524694684389069 0 0.030516958408875739 0.0013823664120707615 0 0.029219706001211064 0.0015118134894428743 0 0.030516958408875739 0.0013823664120707615 0 0.030696130968967842 0.002015874232073063 0 0.029219706001211064 0.0015118134894428743 0 0.02881424538425913 0.0014211788881753925 0 0.02856859211841907 0.0014619865696516331 0 0.029219706001211064 0.0015118134894428743 0 0.02881424538425913 0.0014211788881753925 0 0.029219706001211064 0.0015118134894428743 0 0.02900942016492945 0.0015243871231654471 0 0.0296125981206385 0.0017083403249680484 0 0.029214387686745759 0.0015053261967601815 0 0.02881424538425913 0.0014211788881753925 0 0.02856859211841907 0.0014619865696516331 0 0.028528646177435901 0.0012243022106913424 0 0.02856859211841907 0.0014619865696516331 0 0.028528646177435901 0.0012243022106913424 0 0.028378174182400254 0.0011860772934895675 0 0.029034603864637729 0.0015525251081627217 0 0.029329717435003101 0.0015051496854128371 0 0.029459091115344282 0.0015507973223314378 0 0.029387655031987873 0.0015845580546003978 0 0.029462406368348175 0.0015881018059327385 0 0.029387655031987873 0.0015845580546003978 0 0.029462406368348175 0.0015881018059327385 0 0.029270492784168781 0.0015418430167938747 0 0.029352157978822842 0.0016200491250164164 0 0.029387655031987873 0.0015845580546003978 0 0.029270492784168781 0.0015418430167938747 0 0.029352157978822842 0.0016200491250164164 0 0.029426897743271091 0.0015796860497649078 0 0.029387655031987873 0.0015845580546003978 0 0.028928682900972735 0.0015459538056797498 0 0.02900942016492945 0.0015243871231654471 0 0.029043400149686024 0.0014944398842614795 0 0.029219706001211064 0.0015118134894428743 0 0.028928682900972735 0.0015459538056797498 0 0.02900942016492945 0.0015243871231654471 0 0.028928682900972735 0.0015459538056797498 0 0.029043400149686024 0.0014944398842614795 0 0.029270492784168781 0.0015418430167938747 0 0.02900942016492945 0.0015243871231654471 0 0.028917567617024527 0.0013947218700248786 0 0.029043400149686024 0.0014944398842614795 0 0.02881424538425913 0.0014211788881753925 0 0.02900942016492945 0.0015243871231654471 0 0.028917567617024527 0.0013947218700248786 0 0.028917567617024527 0.0013947218700248786 0 0.029043400149686024 0.0014944398842614795 0 0.029080529171588695 0.0013016622942232316 0 0.029043400149686024 0.0014944398842614795 0 0.029270492784168781 0.0015418430167938747 0 0.029080529171588695 0.0013016622942232316 0 0.029270492784168781 0.0015418430167938747 0 0.029266730060856599 0.0013508698042876868 0 0.029080529171588695 0.0013016622942232316 0 0.029424536638866239 0.0015110893747040577 0 0.029270492784168781 0.0015418430167938747 0 0.029266730060856599 0.0013508698042876868 0 0.029424536638866239 0.0015110893747040577 0 0.029266730060856599 0.0013508698042876868 0 0.029283542838306784 0.0010114143648581185 0 0.029266730060856599 0.0013508698042876868 0 0.029080529171588695 0.0013016622942232316 0 0.029283542838306784 0.0010114143648581185 0 0.029080529171588695 0.0013016622942232316 0 0.029001858793733362 0.0010602499710251402 0 0.029283542838306784 0.0010114143648581185 0 0.028917567617024527 0.0013947218700248786 0 0.029080529171588695 0.0013016622942232316 0 0.028603051424483699 0.0011365523488332929 0 0.029080529171588695 0.0013016622942232316 0 0.029001858793733362 0.0010602499710251402 0 0.028603051424483699 0.0011365523488332929 0 0.028182351908095815 0.00055005356623480351 0 0.028695910771245812 0.0012013833950858981 0 0.029004543766256861 0.00079404149593065711 0 0.029001858793733362 0.0010602499710251402 0 0.028603051424483699 0.0011365523488332929 0 0.028304488948362658 0.0011067783973639257 0 0.028603051424483699 0.0011365523488332929 0 0.028408164079372675 0.0011317078509116513 0 0.028304488948362658 0.0011067783973639257 0 0.028408164079372675 0.0011317078509116513 0 0.028330520816077089 0.0011288160037702334 0 0.029004543766256861 0.00079404149593065711 0 0.029001858793733362 0.0010602499710251402 0 0.029283542838306784 0.0010114143648581185 0 0.027038573806500085 0.00054960822383653442 0 0.025820296453981238 -0.00077057879227728713 0 0.026754925666587038 0.00016648809908798121 0 0.027043164864144136 0.00035923815885990977 0 0.026879852615319774 4.7480286650694032e-05 0 0.028182351908095815 0.00055005356623480351 0 0.027038573806500085 0.00054960822383653442 0 0.022531861662776508 -0.001626147946714224 0 0.022664342910786901 -0.0020878080832356259 0 0.023594759525179951 -0.0010930708026275573 0 0.028528646177435901 0.0012243022106913424 0 0.028603051424483699 0.0011365523488332929 0 0.028412529592218561 0.0011400597556023757 0 0.02881424538425913 0.0014211788881753925 0 0.028917567617024527 0.0013947218700248786 0 0.028603051424483699 0.0011365523488332929 0 0.02881424538425913 0.0014211788881753925 0 0.028528646177435901 0.0012243022106913424 0 0.028603051424483699 0.0011365523488332929 0 0.028603051424483699 0.0011365523488332929 0 0.028408164079372675 0.0011317078509116513 0 0.028416489460736907 0.0011255070270269484 0 0.028603051424483699 0.0011365523488332929 0 0.028416489460736907 0.0011255070270269484 0 0.028412529592218561 0.0011400597556023757 0 0.028416489460736907 0.0011255070270269484 0 0.028412529592218561 0.0011400597556023757 0 0.02836623564728601 0.0011425146587455684 0 0.02836623564728601 0.0011425146587455684 0 0.028390576755719665 0.0011222765754986277 0 0.02836815042031644 0.0011652591293306528 0 0.028412529592218561 0.0011400597556023757 0 0.02836623564728601 0.0011425146587455684 0 0.028390576755719665 0.0011222765754986277 0 0.028390576755719665 0.0011222765754986277 0 0.028503286521236137 0.0010341395741360062 0 0.028444694448996603 0.0011532742139289186 0 0.028390576755719665 0.0011222765754986277 0 0.028444694448996603 0.0011532742139289186 0 0.02836815042031644 0.0011652591293306528 0 0.029998562959854886 0.0017545861693311982 0 0.030415385349684028 0.0018386800106673321 0 0.028390576755719665 0.0011222765754986277 0 0.028378174182400254 0.0011860772934895675 0 0.028503286521236137 0.0010341395741360062 0 0.031604861037637488 0.0023011243477026912 0 0.032236389143448715 0.0018037676549711654 0 0.032349969623007804 0.0026570048237495249 0 0.028528646177435901 0.0012243022106913424 0 0.028412529592218561 0.0011400597556023757 0 0.028378174182400254 0.0011860772934895675 0 0.028412529592218561 0.0011400597556023757 0 0.028390576755719665 0.0011222765754986277 0 0.028378174182400254 0.0011860772934895675 0 0.0296125981206385 0.0017083403249680484 0 0.029998562959854886 0.0017545861693311982 0 0.030696130968967842 0.002015874232073063 0 0.031604861037637488 0.0023011243477026912 0 0.031526732865213736 0.0017238169527680749 0 0.031604861037637488 0.0023011243477026912 0 0.032236389143448715 0.0018037676549711654 0 0.031526732865213736 0.0017238169527680749 0 0.032542136904687394 0.0010750576643134288 0 0.032236389143448715 0.0018037676549711654 0 0.031856517237448242 0.0011468647478143838 0 0.032236389143448715 0.0018037676549711654 0 0.031856517237448242 0.0011468647478143838 0 0.031526732865213736 0.0017238169527680749 0 0.031118699911723918 0.0013200658627752961 0 0.031856517237448242 0.0011468647478143838 0 0.031526732865213736 0.0017238169527680749 0 0.033592414200008809 0.001214764267917902 0 0.033181131862139987 0.00094898428262361011 0 0.033027221536643218 0.0015484517140577406 0 0.032542136904687394 0.0010750576643134288 0 0.033181131862139987 0.00094898428262361011 0 0.033027221536643218 0.0015484517140577406 0 0.032542136904687394 0.0010750576643134288 0 0.032236389143448715 0.0018037676549711654 0 0.033027221536643218 0.0015484517140577406 0 0.032236389143448715 0.0018037676549711654 0 0.033027221536643218 0.0015484517140577406 0 0.033017542792422326 0.0022842738371300479 0 0.033528858812506612 0.0018354506977125255 0 0.033027221536643218 0.0015484517140577406 0 0.033017542792422326 0.0022842738371300479 0 0.033812465716782487 0.0024474933934760762 0 0.033017542792422326 0.0022842738371300479 0 0.033041317467970364 0.0030472750791253177 0 0.032236389143448715 0.0018037676549711654 0 0.033017542792422326 0.0022842738371300479 0 0.032349969623007804 0.0026570048237495249 0 0.028503286521236137 0.0010341395741360062 0 0.028883311487752975 0.0009941862512849696 0 0.028605501869119629 0.0011532442223032349 0 0.028503286521236137 0.0010341395741360062 0 0.028605501869119629 0.0011532442223032349 0 0.028444694448996603 0.0011532742139289186 0 0.033017542792422326 0.0022842738371300479 0 0.032349969623007804 0.0026570048237495249 0 0.033041317467970364 0.0030472750791253177 0 0.030415385349684028 0.0018386800106673321 0 0.031059716751954923 0.0020811651595144471 0 0.028883311487752975 0.0009941862512849696 0 0.029022602499418786 0.0012817730684072052 0 0.029347713489547227 0.0010579656374542972 0 0.028883311487752975 0.0009941862512849696 0 0.028791516477337697 0.0011839107203373616 0 0.029022602499418786 0.0012817730684072052 0 0.028883311487752975 0.0009941862512849696 0 0.028791516477337697 0.0011839107203373616 0 0.028605501869119629 0.0011532442223032349 0 0.031059716751954923 0.0020811651595144471 0 0.031037870368377126 0.0015651064225237579 0 0.028791516477337697 0.0011839107203373616 0 0.029022602499418786 0.0012817730684072052 0 0.028680779727182148 0.0013225391228575641 0 0.028791516477337697 0.0011839107203373616 0 0.028605501869119629 0.0011532442223032349 0 0.028680779727182148 0.0013225391228575641 0 0.028605501869119629 0.0011532442223032349 0 0.028680779727182148 0.0013225391228575641 0 0.028487177310564857 0.001262542297639834 0 0.021489282006338341 0.0020287014262847028 0 0.021835429295605557 0.0022111204312264755 0 0.028680779727182148 0.0013225391228575641 0 0.028945692696183044 0.0017125992078922817 0 0.028428465304018657 0.0014223389606956571 0 0.014011578273245338 0.0024155829811723091 0 0.015482796186237853 0.0022486713138721382 0 0.015786724377442076 0.0030342445957191239 0 0.028680779727182148 0.0013225391228575641 0 0.028428465304018657 0.0014223389606956571 0 0.028487177310564857 0.001262542297639834 0 0.029022602499418786 0.0012817730684072052 0 0.028680779727182148 0.0013225391228575641 0 0.028945692696183044 0.0017125992078922817 0 0.029022602499418786 0.0012817730684072052 0 0.028945692696183044 0.0017125992078922817 0 0.029330122887217553 0.0013688922392425986 0 0.014011578273245338 0.0024155829811723091 0 0.015482796186237853 0.0022486713138721382 0 0.013973418693453152 0.0012243090902958839 0 0.015482796186237853 0.0022486713138721382 0 0.014549502068977231 0.00096774503662055565 0 0.013105905708564713 0.0010763843219812022 0 0.0153705777001635 0.002177531166160544 0 0.013563549835661852 0.001156165374432497 0 0.015482796186237853 0.0022486713138721382 0 0.014549502068977231 0.00096774503662055565 0 0.015655356580819426 0.0010616740421319582 0 0.014549502068977231 0.00096774503662055565 0 0.014758676128167504 2.7126809216808478e-05 0 0.015655356580819426 0.0010616740421319582 0 0.014549502068977231 0.00096774503662055565 0 0.014758676128167504 2.7126809216808478e-05 0 0.013893044045029924 0.00031077982980050919 0 0.014758676128167504 2.7126809216808478e-05 0 0.013893044045029924 0.00031077982980050919 0 0.013325720898336548 -0.00067712723008135081 0 0.013105905708564713 0.0010763843219812022 0 0.013325720898336548 -0.00067712723008135081 0 0.012107662575559387 -0.00078133283837064703 0 0.013893044045029924 0.00031077982980050919 0 0.013105905708564713 0.0010763843219812022 0 0.013325720898336548 -0.00067712723008135081 0 0.014549502068977231 0.00096774503662055565 0 0.013893044045029924 0.00031077982980050919 0 0.013105905708564713 0.0010763843219812022 0 0.018913963087007206 0.00016478074071277026 0 0.022822271823569058 0.0015413832023051524 0 0.017745503362301691 0.00032454518115535328 0 0.016658533626515967 0.0011402142624021094 0 0.017385819803091149 0.0017021156411347938 0 0.020138749043653831 0.00017075777521543392 0 0.020950828757440663 0.0020632896472951492 0 0.021216641605592005 -0.00096088810280100861 0 0.017745503362301691 0.00032454518115535328 0 0.016133164947564109 -4.2481757388204591e-05 0 0.016658533626515967 0.0011402142624021094 0 0.014758676128167504 2.7126809216808478e-05 0 0.016133164947564109 -4.2481757388204591e-05 0 0.015655356580819426 0.0010616740421319582 0 0.016133164947564109 -4.2481757388204591e-05 0 0.015655356580819426 0.0010616740421319582 0 0.016658533626515967 0.0011402142624021094 0 0.016658533626515967 0.0011402142624021094 0 0.01630781442308606 0.0020009835714806306 0 0.017385819803091149 0.0017021156411347938 0 0.015655356580819426 0.0010616740421319582 0 0.016658533626515967 0.0011402142624021094 0 0.01630781442308606 0.0020009835714806306 0 0.015482796186237853 0.0022486713138721382 0 0.015655356580819426 0.0010616740421319582 0 0.01630781442308606 0.0020009835714806306 0 0.015482796186237853 0.0022486713138721382 0 0.01630781442308606 0.0020009835714806306 0 0.015786724377442076 0.0030342445957191239 0 0.01630781442308606 0.0020009835714806306 0 0.017029601447790328 0.0025028649069498646 0 0.017385819803091149 0.0017021156411347938 0 0.017029601447790328 0.0025028649069498646 0 0.017385819803091149 0.0017021156411347938 0 0.017889087847268847 0.0022934497537227929 0 0.017745503362301691 0.00032454518115535328 0 0.017385819803091149 0.0017021156411347938 0 0.018348000574076279 0.0016788615248291346 0 0.017385819803091149 0.0017021156411347938 0 0.017889087847268847 0.0022934497537227929 0 0.018348000574076279 0.0016788615248291346 0 0.017391590730519747 0.0029391767672144425 0 0.018195694764821489 0.0037313596624834748 0 0.015786724377442076 0.0030342445957191239 0 0.017889087847268847 0.0022934497537227929 0 0.017391590730519747 0.0029391767672144425 0 0.018195694764821489 0.0037313596624834748 0 0.024631345619580393 0.0024772259503149908 0 0.022822271823569058 0.0015413832023051524 0 0.017889087847268847 0.0022934497537227929 0 0.018195694764821489 0.0037313596624834748 0 0.018348000574076279 0.0016788615248291346 0 0.017029601447790328 0.0025028649069498646 0 0.017889087847268847 0.0022934497537227929 0 0.017391590730519747 0.0029391767672144425 0 0.024631345619580393 0.0024772259503149908 0 0.021835429295605557 0.0022111204312264755 0 0.017029601447790328 0.0025028649069498646 0 0.017391590730519747 0.0029391767672144425 0 0.015786724377442076 0.0030342445957191239 0 0.02826873107069772 0.0012545229670464851 0 0.028428465304018657 0.0014223389606956571 0 0.028378519767393206 0.0012601917891766038 0 0.01630781442308606 0.0020009835714806306 0 0.017029601447790328 0.0025028649069498646 0 0.015786724377442076 0.0030342445957191239 0 0.028428465304018657 0.0014223389606956571 0 0.028487177310564857 0.001262542297639834 0 0.028378519767393206 0.0012601917891766038 0 0.028487177310564857 0.001262542297639834 0 0.028378519767393206 0.0012601917891766038 0 0.028444694448996603 0.0011532742139289186 0 0.028378519767393206 0.0012601917891766038 0 0.028444694448996603 0.0011532742139289186 0 0.02836815042031644 0.0011652591293306528 0 0.028605501869119629 0.0011532442223032349 0 0.028487177310564857 0.001262542297639834 0 0.028444694448996603 0.0011532742139289186 0 0.02826873107069772 0.0012545229670464851 0 0.028378519767393206 0.0012601917891766038 0 0.02833638901175798 0.001207996528874994 0 0.02826873107069772 0.0012545229670464851 0 0.02833638901175798 0.001207996528874994 0 0.028330999805637837 0.0011663205666921103 0 0.028308942496542144 0.0011453203625159804 0 0.028330999805637837 0.0011663205666921103 0 0.028322793392741824 0.0011438415314443178 0 0.024631345619580393 0.0024772259503149908 0 0.02704093229719827 0.00086764355003524736 0 0.028378519767393206 0.0012601917891766038 0 0.02833638901175798 0.001207996528874994 0 0.02836815042031644 0.0011652591293306528 0 0.02836623564728601 0.0011425146587455684 0 0.02836815042031644 0.0011652591293306528 0 0.028330999805637837 0.0011663205666921103 0 0.02833638901175798 0.001207996528874994 0 0.02836815042031644 0.0011652591293306528 0 0.028330999805637837 0.0011663205666921103 0 0.028416489460736907 0.0011255070270269484 0 0.02836623564728601 0.0011425146587455684 0 0.028357781828498702 0.0011423479429985492 0 0.02836623564728601 0.0011425146587455684 0 0.028330999805637837 0.0011663205666921103 0 0.028357781828498702 0.0011423479429985492 0 0.028330999805637837 0.0011663205666921103 0 0.028357781828498702 0.0011423479429985492 0 0.028322793392741824 0.0011438415314443178 0 0.028357781828498702 0.0011423479429985492 0 0.028331971161582502 0.0011416302290148781 0 0.028322793392741824 0.0011438415314443178 0 0.028416489460736907 0.0011255070270269484 0 0.028357781828498702 0.0011423479429985492 0 0.028331971161582502 0.0011416302290148781 0 0.028408164079372675 0.0011317078509116513 0 0.028416489460736907 0.0011255070270269484 0 0.028340182424707032 0.0011393773956806415 0 0.028416489460736907 0.0011255070270269484 0 0.028331971161582502 0.0011416302290148781 0 0.028340182424707032 0.0011393773956806415 0 0.028408164079372675 0.0011317078509116513 0 0.028340182424707032 0.0011393773956806415 0 0.028345909880413672 0.0011389748575345931 0 0.028340182424707032 0.0011393773956806415 0 0.028270365482243088 0.0011551224722442523 0 0.028297635653385212 0.0011433302043642973 0 0.028331971161582502 0.0011416302290148781 0 0.028340182424707032 0.0011393773956806415 0 0.028275414877304277 0.0011548196150551241 0 0.028270365482243088 0.0011551224722442523 0 0.028210840616593198 0.0011761192427811229 0 0.02823104062721989 0.001152816186214746 0 0.028340182424707032 0.0011393773956806415 0 0.028275414877304277 0.0011548196150551241 0 0.028270365482243088 0.0011551224722442523 0 0.028210840616593198 0.0011761192427811229 0 0.028260556360826961 0.0011683950941612153 0 0.028239828417117745 0.0011873271609448937 0 0.028275414877304277 0.0011548196150551241 0 0.028210840616593198 0.0011761192427811229 0 0.028260556360826961 0.0011683950941612153 0 0.028275414877304277 0.0011548196150551241 0 0.028270365482243088 0.0011551224722442523 0 0.028210840616593198 0.0011761192427811229 0 0.028260556360826961 0.0011683950941612153 0 0.028276574267262631 0.0011739362578290608 0 0.028239828417117745 0.0011873271609448937 0 0.028315730429333868 0.0011349941794781021 0 0.028327672519844249 0.0012537000589704533 0 0.02830945896141197 0.001212797284893651 0 0.028275414877304277 0.0011548196150551241 0 0.028260556360826961 0.0011683950941612153 0 0.028299430310563627 0.001153618289902236 0 0.028315730429333868 0.0011349941794781021 0 0.028303141729688463 0.0011798035936844259 0 0.02830945896141197 0.001212797284893651 0 0.028260556360826961 0.0011683950941612153 0 0.028276574267262631 0.0011739362578290608 0 0.028299430310563627 0.001153618289902236 0 0.028276574267262631 0.0011739362578290608 0 0.028295415802876644 0.0011726715523249246 0 0.028299430310563627 0.001153618289902236 0 0.028276574267262631 0.0011739362578290608 0 0.02828629089032773 0.0011944377700025342 0 0.028239828417117745 0.0011873271609448937 0 0.028303141729688463 0.0011798035936844259 0 0.028295415802876644 0.0011726715523249246 0 0.02828629089032773 0.0011944377700025342 0 0.028276574267262631 0.0011739362578290608 0 0.028295415802876644 0.0011726715523249246 0 0.02828629089032773 0.0011944377700025342 0 0.028303141729688463 0.0011798035936844259 0 0.028295415802876644 0.0011726715523249246 0 0.028306435695300915 0.0011567614548847803 0 0.028295415802876644 0.0011726715523249246 0 0.028306435695300915 0.0011567614548847803 0 0.028299430310563627 0.001153618289902236 0 0.028306435695300915 0.0011567614548847803 0 0.028322793392741824 0.0011438415314443178 0 0.028299430310563627 0.001153618289902236 0 0.028315730429333868 0.0011349941794781021 0 0.028303141729688463 0.0011798035936844259 0 0.028306435695300915 0.0011567614548847803 0 0.028315730429333868 0.0011349941794781021 0 0.028306435695300915 0.0011567614548847803 0 0.028322793392741824 0.0011438415314443178 0 0.024631345619580393 0.0024772259503149908 0 0.026998840127096708 0.0024683460335210268 0 0.028331971161582502 0.0011416302290148781 0 0.028322793392741824 0.0011438415314443178 0 0.028299430310563627 0.001153618289902236 0 0.028331971161582502 0.0011416302290148781 0 0.028275414877304277 0.0011548196150551241 0 0.028299430310563627 0.001153618289902236 0 0.023594759525179951 -0.0010930708026275573 0 0.022670714784026335 -0.00092033788651669113 0 0.022627692455385501 0.00021083158549087196 0 0.025820296453981238 -0.00077057879227728713 0 0.023121863375084074 -0.00099991573732778746 0 0.025364791055438349 -0.0035064613052880936 0 0.024943217348612677 -0.0020562244344199863 0 0.023439696633233136 -0.0018863637755276331 0 0.022531861662776508 -0.001626147946714224 0 0.023594759525179951 -0.0010930708026275573 0 0.022670714784026335 -0.00092033788651669113 0 0.028303702110013481 0.0011276864074567659 0 0.028297635653385212 0.0011433302043642973 0 0.02823104062721989 0.001152816186214746 0 0.028303702110013481 0.0011276864074567659 0 0.028310674359211283 0.001132175287883149 0 0.028297635653385212 0.0011433302043642973 0 0.028330520816077089 0.0011288160037702334 0 0.028310674359211283 0.001132175287883149 0 0.028297635653385212 0.0011433302043642973 0 0.028309436925200694 0.0011194749695089942 0 0.028303702110013481 0.0011276864074567659 0 0.028310674359211283 0.001132175287883149 0 0.028182351908095815 0.00055005356623480351 0 0.025820296453981238 -0.00077057879227728713 0 0.028182351908095815 0.00055005356623480351 0 0.028359388600834978 0.00077563795648145732 0 0.028309436925200694 0.0011194749695089942 0 0.028330520816077089 0.0011288160037702334 0 0.028310674359211283 0.001132175287883149 0 0.028408164079372675 0.0011317078509116513 0 0.028330520816077089 0.0011288160037702334 0 0.028345909880413672 0.0011389748575345931 0 0.028330520816077089 0.0011288160037702334 0 0.028345909880413672 0.0011389748575345931 0 0.028297635653385212 0.0011433302043642973 0 0.028340182424707032 0.0011393773956806415 0 0.028345909880413672 0.0011389748575345931 0 0.028297635653385212 0.0011433302043642973 0 0.026672954436046843 -0.00094721880867126634 0 0.024943217348612677 -0.0020562244344199863 0 0.025414296391867527 -0.00072099339872584809 0 0.025820296453981238 -0.00077057879227728713 0 0.02758045607785 8.4745767067540104e-05 0 0.028270365482243088 0.0011551224722442523 0 0.028297635653385212 0.0011433302043642973 0 0.02823104062721989 0.001152816186214746 0 0.024943217348612677 -0.0020562244344199863 0 0.023983120692985211 0.00094140142931791468 0 0.023140679666411475 -0.0004470470015787018 0 0.024943217348612677 -0.0020562244344199863 0 0.025414296391867527 -0.00072099339872584809 0 0.024209210696088165 0.00045206648820544557 0 0.025364791055438349 -0.0035064613052880936 0 0.026672954436046843 -0.00094721880867126634 0 0.024943217348612677 -0.0020562244344199863 0 0.025769327650368476 -0.0017889965629820607 0 0.020320308766077884 -0.00013250964366649305 0 0.024209210696088165 0.00045206648820544557 0 0.025765738670193557 3.0022532619090157e-05 0 0.026754832886630952 0.0012932877615959653 0 0.025414296391867527 -0.00072099339872584809 0 0.024209210696088165 0.00045206648820544557 0 0.025765738670193557 3.0022532619090157e-05 0 0.026672954436046843 -0.00094721880867126634 0 0.026754832886630952 0.0012932877615959653 0 0.027883023946597571 0.0013106498150950818 0 0.026672954436046843 -0.00094721880867126634 0 0.025765738670193557 3.0022532619090157e-05 0 0.026754832886630952 0.0012932877615959653 0 0.026672954436046843 -0.00094721880867126634 0 0.025414296391867527 -0.00072099339872584809 0 0.025765738670193557 3.0022532619090157e-05 0 0.016389190898913934 -0.0010863807901898678 0 0.016869286080488533 -0.001417054185425623 0 0.016343974104071964 -0.001590221213281551 0 0.024209210696088165 0.00045206648820544557 0 0.026754832886630952 0.0012932877615959653 0 0.026985110483441158 0.0014558554208817863 0 0.026754832886630952 0.0012932877615959653 0 0.02699540443264016 0.0014499081081520431 0 0.027883023946597571 0.0013106498150950818 0 0.023299624102137432 0.00078749147176003249 0 0.022355306958071499 0.00023784555151415329 0 0.020320308766077884 -0.00013250964366649305 0 0.022355306958071499 0.00023784555151415329 0 0.017236763331227881 -0.00074324852150315539 0 0.016869286080488533 -0.001417054185425623 0 0.017430262634064192 -0.0015494988386285892 0 0.017236763331227881 -0.00074324852150315539 0 0.016389190898913934 -0.0010863807901898678 0 0.016869286080488533 -0.001417054185425623 0 0.02824504344255644 0.0012601411825509368 0 0.028104378554219177 0.0012298162174522714 0 0.028231395112509741 0.0013958088522643525 0 0.02824504344255644 0.0012601411825509368 0 0.028189549981015152 0.0012098167945375461 0 0.028104378554219177 0.0012298162174522714 0 0.02824504344255644 0.0012601411825509368 0 0.028327672519844249 0.0012537000589704533 0 0.028231395112509741 0.0013958088522643525 0 0.02824504344255644 0.0012601411825509368 0 0.028327672519844249 0.0012537000589704533 0 0.028293622420304955 0.0012324757500874826 0 0.028293622420304955 0.0012324757500874826 0 0.028288915301480796 0.001211196764973819 0 0.028261245370913648 0.0012122944860556257 0 0.028293622420304955 0.0012324757500874826 0 0.02830945896141197 0.001212797284893651 0 0.028288915301480796 0.001211196764973819 0 0.028327672519844249 0.0012537000589704533 0 0.028293622420304955 0.0012324757500874826 0 0.02830945896141197 0.001212797284893651 0 0.02828629089032773 0.0011944377700025342 0 0.028288915301480796 0.001211196764973819 0 0.028261245370913648 0.0012122944860556257 0 0.028303141729688463 0.0011798035936844259 0 0.02828629089032773 0.0011944377700025342 0 0.028288915301480796 0.001211196764973819 0 0.028303141729688463 0.0011798035936844259 0 0.02830945896141197 0.001212797284893651 0 0.028288915301480796 0.001211196764973819 0 0.02828629089032773 0.0011944377700025342 0 0.028261245370913648 0.0012122944860556257 0 0.028239828417117745 0.0011873271609448937 0 0.02824504344255644 0.0012601411825509368 0 0.028261245370913648 0.0012122944860556257 0 0.028189549981015152 0.0012098167945375461 0 0.02824504344255644 0.0012601411825509368 0 0.028293622420304955 0.0012324757500874826 0 0.028261245370913648 0.0012122944860556257 0 0.028261245370913648 0.0012122944860556257 0 0.028189549981015152 0.0012098167945375461 0 0.028239828417117745 0.0011873271609448937 0 0.028210840616593198 0.0011761192427811229 0 0.028189549981015152 0.0012098167945375461 0 0.028104378554219177 0.0012298162174522714 0 0.028210840616593198 0.0011761192427811229 0 0.02823104062721989 0.001152816186214746 0 0.028104378554219177 0.0012298162174522714 0 0.02823104062721989 0.001152816186214746 0 0.028104378554219177 0.0012298162174522714 0 0.027883023946597571 0.0013106498150950818 0 0.028210840616593198 0.0011761192427811229 0 0.028189549981015152 0.0012098167945375461 0 0.028239828417117745 0.0011873271609448937 0 0.02758045607785 8.4745767067540104e-05 0 0.027858946727614728 0.0012609159739801186 0 0.022355306958071499 0.00023784555151415329 0 0.025472293981657863 0.0010732736153510976 0 0.028104378554219177 0.0012298162174522714 0 0.028112654452076724 0.0013702067716982421 0 0.028231395112509741 0.0013958088522643525 0 0.02699540443264016 0.0014499081081520431 0 0.027883023946597571 0.0013106498150950818 0 0.028177784874564314 0.001604839968744374 0 0.028104378554219177 0.0012298162174522714 0 0.028112654452076724 0.0013702067716982421 0 0.027883023946597571 0.0013106498150950818 0 0.028112654452076724 0.0013702067716982421 0 0.028177784874564314 0.001604839968744374 0 0.028231395112509741 0.0013958088522643525 0 0.022770389943653341 0.00051951231847939658 0 0.021405538665682674 -5.9281682796616641e-05 0 0.021443792788979898 -0.00052002275450372271 0 0.022355306958071499 0.00023784555151415329 0 0.018271650839081593 -0.001229212977993918 0 0.016389190898913934 -0.0010863807901898678 0 0.015868600537775387 -0.0014751899792579029 0 0.016343974104071964 -0.001590221213281551 0 0.028112654452076724 0.0013702067716982421 0 0.027883023946597571 0.0013106498150950818 0 0.028177784874564314 0.001604839968744374 0 0.028177784874564314 0.001604839968744374 0 0.028231395112509741 0.0013958088522643525 0 0.02830273069902136 0.0015832676325654544 0 0.028327672519844249 0.0012537000589704533 0 0.028231395112509741 0.0013958088522643525 0 0.02830273069902136 0.0015832676325654544 0 0.022822271823569058 0.0015413832023051524 0 0.022242309612173779 -0.0004954411891790895 0 0.020004973565014839 -0.00063357970722552304 0 0.020079310020339393 -0.0015618647399508764 0 0.021443792788979898 -0.00052002275450372271 0 0.025472293981657863 0.0010732736153510976 0 0.022242309612173779 -0.0004954411891790895 0 0.021405538665682674 -5.9281682796616641e-05 0 0.020004973565014839 -0.00063357970722552304 0 0.021443792788979898 -0.00052002275450372271 0 0.022242309612173779 -0.0004954411891790895 0 0.017655201140547458 -0.0017797959440135145 0 0.017655201140547458 -0.0017797959440135145 0 0.018271650839081593 -0.001229212977993918 0 0.01535544322356726 -0.0018679061725552393 0 0.015868600537775387 -0.0014751899792579029 0 0.01599678257322296 -0.0020739591860154528 0 0.015868600537775387 -0.0014751899792579029 0 0.01599678257322296 -0.0020739591860154528 0 0.016343974104071964 -0.001590221213281551 0 0.017655201140547458 -0.0017797959440135145 0 0.014897556380088561 -0.0027501362042191236 0 0.01535544322356726 -0.0018679061725552393 0 0.01599678257322296 -0.0020739591860154528 0 0.015429773236519954 -0.0027528194950864711 0 0.015386697213437149 -0.0020679922455989971 0 0.015429773236519954 -0.0027528194950864711 0 0.015016663705116687 -0.0023439754942497265 0 0.016869286080488533 -0.001417054185425623 0 0.016613950735650588 -0.0019828887683402707 0 0.017430262634064192 -0.0015494988386285892 0 0.016869286080488533 -0.001417054185425623 0 0.016343974104071964 -0.001590221213281551 0 0.016613950735650588 -0.0019828887683402707 0 0.01599678257322296 -0.0020739591860154528 0 0.016343974104071964 -0.001590221213281551 0 0.016613950735650588 -0.0019828887683402707 0 0.016613950735650588 -0.0019828887683402707 0 0.017027488529458484 -0.0024009992670804212 0 0.016340320961360098 -0.0027516033430857708 0 0.01599678257322296 -0.0020739591860154528 0 0.016613950735650588 -0.0019828887683402707 0 0.016340320961360098 -0.0027516033430857708 0 0.016613950735650588 -0.0019828887683402707 0 0.017027488529458484 -0.0024009992670804212 0 0.017430262634064192 -0.0015494988386285892 0 0.017027488529458484 -0.0024009992670804212 0 0.016340320961360098 -0.0027516033430857708 0 0.017016730455376012 -0.0030140770326714068 0 0.016340320961360098 -0.0027516033430857708 0 0.015783601678643247 -0.0032656105933545946 0 0.016392916411833307 -0.0036579309068950198 0 0.016340320961360098 -0.0027516033430857708 0 0.017016730455376012 -0.0030140770326714068 0 0.016392916411833307 -0.0036579309068950198 0 0.013117952800351136 -0.0015616900852797229 0 0.013223189210162448 -0.0018920072003542057 0 0.01599678257322296 -0.0020739591860154528 0 0.016340320961360098 -0.0027516033430857708 0 0.015429773236519954 -0.0027528194950864711 0 0.016340320961360098 -0.0027516033430857708 0 0.015429773236519954 -0.0027528194950864711 0 0.015783601678643247 -0.0032656105933545946 0 0.015783601678643247 -0.0032656105933545946 0 0.015251090734782572 -0.0031449489657140732 0 0.015463363560213878 -0.0035452290796919401 0 0.015251090734782572 -0.0031449489657140732 0 0.015020926618369772 -0.0034086085313763115 0 0.015463363560213878 -0.0035452290796919401 0 0.015429773236519954 -0.0027528194950864711 0 0.015783601678643247 -0.0032656105933545946 0 0.015251090734782572 -0.0031449489657140732 0 0.015251090734782572 -0.0031449489657140732 0 0.015020926618369772 -0.0034086085313763115 0 0.014868006485680318 -0.0031321855665336525 0 0.015020926618369772 -0.0034086085313763115 0 0.014868006485680318 -0.0031321855665336525 0 0.014733456557666846 -0.0033729734064721676 0 0.015251090734782572 -0.0031449489657140732 0 0.014868006485680318 -0.0031321855665336525 0 0.014985245111372046 -0.0027715809374440348 0 0.015429773236519954 -0.0027528194950864711 0 0.015251090734782572 -0.0031449489657140732 0 0.014985245111372046 -0.0027715809374440348 0 0.015429773236519954 -0.0027528194950864711 0 0.014985245111372046 -0.0027715809374440348 0 0.015016663705116687 -0.0023439754942497265 0 0.014985245111372046 -0.0027715809374440348 0 0.014629804133349767 -0.0026346591029904171 0 0.015016663705116687 -0.0023439754942497265 0 0.01550992920131929 -0.0028471461372883825 0 0.014785933669956791 -0.0043528559277759768 0 0.014786046469495303 -0.0033766155985017841 0 0.014629804133349767 -0.0026346591029904171 0 0.01465821365344226 -0.0030052375781993595 0 0.014358542835074322 -0.0033122587279574905 0 0.015475537872444694 -0.0030894845905251544 0 0.014560664498818368 -0.0038247896366669018 0 0.015475537872444694 -0.0030894845905251544 0 0.014983248724827617 -0.0032885547054240525 0 0.015501665570720803 -0.0028454101329286195 0 0.014786046469495303 -0.0033766155985017841 0 0.014796598881834131 -0.0025804659777499891 0 0.014985245111372046 -0.0027715809374440348 0 0.014629804133349767 -0.0026346591029904171 0 0.01465821365344226 -0.0030052375781993595 0 0.014868006485680318 -0.0031321855665336525 0 0.014985245111372046 -0.0027715809374440348 0 0.01465821365344226 -0.0030052375781993595 0 0.014612028170971137 -0.0032244006010862499 0 0.01465821365344226 -0.0030052375781993595 0 0.014358542835074322 -0.0033122587279574905 0 0.014868006485680318 -0.0031321855665336525 0 0.014612028170971137 -0.0032244006010862499 0 0.01465821365344226 -0.0030052375781993595 0 0.014868006485680318 -0.0031321855665336525 0 0.014612028170971137 -0.0032244006010862499 0 0.014733456557666846 -0.0033729734064721676 0 0.014612028170971137 -0.0032244006010862499 0 0.014733456557666846 -0.0033729734064721676 0 0.014582541688586087 -0.0033948372448226985 0 0.014733456557666846 -0.0033729734064721676 0 0.014582541688586087 -0.0033948372448226985 0 0.014574165206290471 -0.0035614125394798535 0 0.014612028170971137 -0.0032244006010862499 0 0.014497189581163453 -0.00338367023694968 0 0.014358542835074322 -0.0033122587279574905 0 0.014612028170971137 -0.0032244006010862499 0 0.014497189581163453 -0.00338367023694968 0 0.014582541688586087 -0.0033948372448226985 0 0.014497189581163453 -0.00338367023694968 0 0.014582541688586087 -0.0033948372448226985 0 0.014489451405809898 -0.0035053118795721179 0 0.014785933669956791 -0.0043528559277759768 0 0.014267854668903325 -0.0045012083505194143 0 0.013923687542760797 -0.0050815839114233602 0 0.014497189581163453 -0.00338367023694968 0 0.014358542835074322 -0.0033122587279574905 0 0.014469521055913591 -0.0051658994483002891 0 0.014785933669956791 -0.0043528559277759768 0 0.014267854668903325 -0.0045012083505194143 0 0.014371668882409422 -0.0040989037411588488 0 0.014267854668903325 -0.0045012083505194143 0 0.013989729107945985 -0.0044634206141329121 0 0.013923687542760797 -0.0050815839114233602 0 0.013989729107945985 -0.0044634206141329121 0 0.0133524550976129 -0.0047197426017974702 0 0.013923687542760797 -0.0050815839114233602 0 0.013989729107945985 -0.0044634206141329121 0 0.013848455157101598 -0.0038533673898038198 0 0.0133524550976129 -0.0047197426017974702 0 0.014267854668903325 -0.0045012083505194143 0 0.013989729107945985 -0.0044634206141329121 0 0.014371668882409422 -0.0040989037411588488 0 0.013989729107945985 -0.0044634206141329121 0 0.013848455157101598 -0.0038533673898038198 0 0.014371668882409422 -0.0040989037411588488 0 0.014785933669956791 -0.0043528559277759768 0 0.014371668882409422 -0.0040989037411588488 0 0.014786046469495303 -0.0033766155985017841 0 0.013848455157101598 -0.0038533673898038198 0 0.014371668882409422 -0.0040989037411588488 0 0.014786046469495303 -0.0033766155985017841 0 0.0133524550976129 -0.0047197426017974702 0 0.011970058119592831 -0.0052215636078171267 0 0.01251173911682772 -0.004052205529455644 0 0.013848455157101598 -0.0038533673898038198 0 0.0133524550976129 -0.0047197426017974702 0 0.01251173911682772 -0.004052205529455644 0 0.013848455157101598 -0.0038533673898038198 0 0.013305993301260758 -0.0028288115991960093 0 0.01251173911682772 -0.004052205529455644 0 0.013848455157101598 -0.0038533673898038198 0 0.013305993301260758 -0.0028288115991960093 0 0.014183090383308177 -0.0029754847997829955 0 0.013848455157101598 -0.0038533673898038198 0 0.014786046469495303 -0.0033766155985017841 0 0.014183090383308177 -0.0029754847997829955 0 0.014786046469495303 -0.0033766155985017841 0 0.014183090383308177 -0.0029754847997829955 0 0.014796598881834131 -0.0025804659777499891 0 0.014183090383308177 -0.0029754847997829955 0 0.014796598881834131 -0.0025804659777499891 0 0.014448153888325013 -0.0019538908998556399 0 0.013305993301260758 -0.0028288115991960093 0 0.014183090383308177 -0.0029754847997829955 0 0.014448153888325013 -0.0019538908998556399 0 0.014448153888325013 -0.0019538908998556399 0 0.013325720898336548 -0.00067712723008135081 0 0.012330020442807531 -0.0018924339537371377 0 0.013305993301260758 -0.0028288115991960093 0 0.014448153888325013 -0.0019538908998556399 0 0.012330020442807531 -0.0018924339537371377 0 0.014758676128167504 2.7126809216808478e-05 0 0.016133164947564109 -4.2481757388204591e-05 0 0.014448153888325013 -0.0019538908998556399 0 0.014758676128167504 2.7126809216808478e-05 0 0.014448153888325013 -0.0019538908998556399 0 0.013325720898336548 -0.00067712723008135081 0 0.016133164947564109 -4.2481757388204591e-05 0 0.014448153888325013 -0.0019538908998556399 0 0.017123903122777177 -0.0010855393859735556 0 0.017745503362301691 0.00032454518115535328 0 0.016133164947564109 -4.2481757388204591e-05 0 0.017123903122777177 -0.0010855393859735556 0 0.020138749043653831 0.00017075777521543392 0 0.021216641605592005 -0.00096088810280100861 0 0.019323483846206888 -0.0017263337796676764 0 0.018943886822064316 -0.00063850145653822344 0 0.019037164821349057 -0.0017523212800073288 0 0.017279157352222258 -0.0013132403734486626 0 0.022242309612173779 -0.0004954411891790895 0 0.017271946407655853 -0.0014388242363559973 0 0.018913963087007206 0.00016478074071277026 0 0.017271946407655853 -0.0014388242363559973 0 0.016173388329898807 -0.0039048720421933202 0 0.017279157352222258 -0.0013132403734486626 0 0.017602262495666068 -0.0028302317097315924 0 0.019037164821349057 -0.0017523212800073288 0 0.017279157352222258 -0.0013132403734486626 0 0.017602262495666068 -0.0028302317097315924 0 0.017655201140547458 -0.0017797959440135145 0 0.01623204392366729 -0.0026468852862943275 0 0.015475537872444694 -0.0030894845905251544 0 0.017271946407655853 -0.0014388242363559973 0 0.015501665570720803 -0.0028454101329286195 0 0.014796598881834131 -0.0025804659777499891 0 0.0161795823119988 -0.0012482713965821539 0 0.014796598881834131 -0.0025804659777499891 0 0.014448153888325013 -0.0019538908998556399 0 0.0161795823119988 -0.0012482713965821539 0 0.015475537872444694 -0.0030894845905251544 0 0.01623204392366729 -0.0026468852862943275 0 0.014310961576909358 -0.001878550955925488 0 0.017271946407655853 -0.0014388242363559973 0 0.013409387389205168 -0.00017734386212560593 0 0.014487578893662258 -8.0074077813162429e-07 0 0.012432827939425121 -3.5864335017475673e-07 0 0.013409387389205168 -0.00017734386212560593 0 0.014101337405899051 -7.1526074681742594e-05 0 0.013493190975531729 -0.00014684823924206777 0 0.013409387389205168 -0.00017734386212560593 0 0.013493190975531729 -0.00014684823924206777 0 0.012759414772273226 -0.00015833116896262113 0 0.013409387389205168 -0.00017734386212560593 0 0.014101337405899051 -7.1526074681742594e-05 0 0.014487578893662258 -8.0074077813162429e-07 0 0.014101337405899051 -7.1526074681742594e-05 0 0.014487578893662258 -8.0074077813162429e-07 0 0.016535063282142798 1.434733225980258e-06 0 0.016540376489887983 2.6207998175728558e-07 0 0.017108677383876572 0.00050980167958698808 0 0.018227737353259419 -9.2057660830202885e-07 0 0.016543971165782628 3.4220441227976774e-06 0 0.019532432969354727 0.00091748218878091913 0 0.014101337405899051 -7.1526074681742594e-05 0 0.014497522674225799 0.00039495085841486917 0 0.014242176467526693 9.1221558277562281e-05 0 0.014101337405899051 -7.1526074681742594e-05 0 0.016535063282142798 1.434733225980258e-06 0 0.014497522674225799 0.00039495085841486917 0 0.014101337405899051 -7.1526074681742594e-05 0 0.014242176467526693 9.1221558277562281e-05 0 0.014475034807721318 0.00056441812711956543 0 0.014497522674225799 0.00039495085841486917 0 0.014242176467526693 9.1221558277562281e-05 0 0.014627409071791371 -0.00085657522377591299 0 0.017108677383876572 0.00050980167958698808 0 0.018077099673676173 4.3710844024408899e-07 0 0.016802064712174748 -0.0021481031476465861 0 0.014627409071791371 -0.00085657522377591299 0 0.015821730989975403 -0.00032691163072744693 0 0.014242176467526693 9.1221558277562281e-05 0 0.014627409071791371 -0.00085657522377591299 0 0.015821730989975403 -0.00032691163072744693 0 0.014242176467526693 9.1221558277562281e-05 0 0.015821730989975403 -0.00032691163072744693 0 0.014475034807721318 0.00056441812711956543 0 0.014475034807721318 0.00056441812711956543 0 0.013942174345944604 3.4176506870584289e-05 0 0.01358361030806156 6.0710424974500679e-05 0 0.014340435397308424 0.00052866638981571975 0 0.015314336086329507 0.0018322465578663378 0 0.014101337405899051 -7.1526074681742594e-05 0 0.014475034807721318 0.00056441812711956543 0 0.013942174345944604 3.4176506870584289e-05 0 0.014101337405899051 -7.1526074681742594e-05 0 0.013942174345944604 3.4176506870584289e-05 0 0.013493190975531729 -0.00014684823924206777 0 0.013942174345944604 3.4176506870584289e-05 0 0.013493190975531729 -0.00014684823924206777 0 0.013594216975613469 -0.00010169213162398907 0 0.013942174345944604 3.4176506870584289e-05 0 0.013594216975613469 -0.00010169213162398907 0 0.01358361030806156 6.0710424974500679e-05 0 0.013594216975613469 -0.00010169213162398907 0 0.013509327824187295 -8.8914206063177355e-05 0 0.01358361030806156 6.0710424974500679e-05 0 0.013976759017066636 0.00075447790703775256 0 0.015314336086329507 0.0018322465578663378 0 0.018014630875039937 0.0048602758990321411 0 0.018304050537495526 0.002766704558036447 0 0.019618446870230882 0.0034464913606587167 0 0.016111286501195195 -0.00033889346022427476 0 0.016321160021950699 -0.00051468027815707246 0 0.016385625338726863 -0.00031624872541256789 0 0.013976759017066636 0.00075447790703775256 0 0.018065100840169931 0.0013937237974116304 0 0.018304050537495526 0.002766704558036447 0 0.019618446870230882 0.0034464913606587167 0 0.019952054016018714 0.0015369594011269961 0 0.018304050537495526 0.002766704558036447 0 0.017636551621399307 0.0010590961461907869 0 0.019952054016018714 0.0015369594011269961 0 0.018014630875039937 0.0048602758990321411 0 0.018304050537495526 0.002766704558036447 0 0.016310274071262787 0.0029525339095821212 0 0.014475034807721318 0.00056441812711956543 0 0.016310274071262787 0.0029525339095821212 0 0.017636551621399307 0.0010590961461907869 0 0.018304050537495526 0.002766704558036447 0 0.016310274071262787 0.0029525339095821212 0 0.017636551621399307 0.0010590961461907869 0 0.015821730989975403 -0.00032691163072744693 0 0.017636551621399307 0.0010590961461907869 0 0.018291079264544735 -0.00061202211647882999 0 0.015821730989975403 -0.00032691163072744693 0 0.014475034807721318 0.00056441812711956543 0 0.017636551621399307 0.0010590961461907869 0 0.016802064712174748 -0.0021481031476465861 0 0.015821730989975403 -0.00032691163072744693 0 0.018291079264544735 -0.00061202211647882999 0 0.019230716728006629 -0.0017299902843374276 0 0.016802064712174748 -0.0021481031476465861 0 0.018291079264544735 -0.00061202211647882999 0 0.019230716728006629 -0.0017299902843374276 0 0.018291079264544735 -0.00061202211647882999 0 0.020114304389910038 -0.00094313773847418743 0 0.018291079264544735 -0.00061202211647882999 0 0.019640011777431531 0.0002226477915861544 0 0.020114304389910038 -0.00094313773847418743 0 0.017636551621399307 0.0010590961461907869 0 0.019640011777431531 0.0002226477915861544 0 0.019952054016018714 0.0015369594011269961 0 0.017636551621399307 0.0010590961461907869 0 0.018291079264544735 -0.00061202211647882999 0 0.019640011777431531 0.0002226477915861544 0 0.019952054016018714 0.0015369594011269961 0 0.020670420166952572 0.00073822554882725666 0 0.021150337779162566 0.0019075601100800022 0 0.021513405692639043 0.00036744295271668944 0 0.020670420166952572 0.00073822554882725666 0 0.021150337779162566 0.0019075601100800022 0 0.021513405692639043 0.00036744295271668944 0 0.020670420166952572 0.00073822554882725666 0 0.021046793795785911 -0.00029283401267118751 0 0.019640011777431531 0.0002226477915861544 0 0.019952054016018714 0.0015369594011269961 0 0.020670420166952572 0.00073822554882725666 0 0.019640011777431531 0.0002226477915861544 0 0.020670420166952572 0.00073822554882725666 0 0.021046793795785911 -0.00029283401267118751 0 0.019640011777431531 0.0002226477915861544 0 0.021046793795785911 -0.00029283401267118751 0 0.020114304389910038 -0.00094313773847418743 0 0.021046793795785911 -0.00029283401267118751 0 0.021348881470226982 -0.0012858615576279047 0 0.021997436780101822 -0.00053287236387076662 0 0.021513405692639043 0.00036744295271668944 0 0.021046793795785911 -0.00029283401267118751 0 0.021997436780101822 -0.00053287236387076662 0 0.020870390755436379 -0.0019970978377489143 0 0.021348881470226982 -0.0012858615576279047 0 0.020114304389910038 -0.00094313773847418743 0 0.021046793795785911 -0.00029283401267118751 0 0.021348881470226982 -0.0012858615576279047 0 0.020114304389910038 -0.00094313773847418743 0 0.022121414197158212 -0.0014709349402539807 0 0.022670714784026335 -0.00092033788651669113 0 0.021997436780101822 -0.00053287236387076662 0 0.022121414197158212 -0.0014709349402539807 0 0.022531861662776508 -0.001626147946714224 0 0.022670714784026335 -0.00092033788651669113 0 0.022121414197158212 -0.0014709349402539807 0 0.021348881470226982 -0.0012858615576279047 0 0.021997436780101822 -0.00053287236387076662 0 0.022670714784026335 -0.00092033788651669113 0 0.021997436780101822 -0.00053287236387076662 0 0.022627692455385501 0.00021083158549087196 0 0.024943217348612677 -0.0020562244344199863 0 0.023439696633233136 -0.0018863637755276331 0 0.023140679666411475 -0.0004470470015787018 0 0.023121863375084074 -0.00099991573732778746 0 0.01971438274712832 0.0007791290887715134 0 0.021513405692639043 0.00036744295271668944 0 0.022627692455385501 0.00021083158549087196 0 0.021150337779162566 0.0019075601100800022 0 0.023439696633233136 -0.0018863637755276331 0 0.023140679666411475 -0.0004470470015787018 0 0.021424705320943482 -8.5873081011205254e-05 0 0.021513405692639043 0.00036744295271668944 0 0.021997436780101822 -0.00053287236387076662 0 0.022627692455385501 0.00021083158549087196 0 0.016853159340484578 -0.00056511104815288931 0 0.016537101319501257 -0.00068971437486513179 0 0.016571054650867025 -0.00043841304654107115 0 0.020320308766077884 -0.00013250964366649305 0 0.01971438274712832 0.0007791290887715134 0 0.023983120692985211 0.00094140142931791468 0 0.023140679666411475 -0.0004470470015787018 0 0.021424705320943482 -8.5873081011205254e-05 0 0.019618446870230882 0.0034464913606587167 0 0.019952054016018714 0.0015369594011269961 0 0.021183553788350084 0.00203904478409387 0 0.016321160021950699 -0.00051468027815707246 0 0.016537101319501257 -0.00068971437486513179 0 0.016571054650867025 -0.00043841304654107115 0 0.020555109422152721 0.0015695208627539976 0 0.01971438274712832 0.0007791290887715134 0 0.018065100840169931 0.0013937237974116304 0 0.01971438274712832 0.0007791290887715134 0 0.016321160021950699 -0.00051468027815707246 0 0.016571054650867025 -0.00043841304654107115 0 0.016385625338726863 -0.00031624872541256789 0 0.016571054650867025 -0.00043841304654107115 0 0.016385625338726863 -0.00031624872541256789 0 0.016686912258853874 -0.00021080993432370199 0 0.016853159340484578 -0.00056511104815288931 0 0.016571054650867025 -0.00043841304654107115 0 0.016686912258853874 -0.00021080993432370199 0 0.020320308766077884 -0.00013250964366649305 0 0.017095524181944936 -0.0010466032585991756 0 0.016385625338726863 -0.00031624872541256789 0 0.016686912258853874 -0.00021080993432370199 0 0.016336069514390546 -0.00010674357122235692 0 0.016686912258853874 -0.00021080993432370199 0 0.016336069514390546 -0.00010674357122235692 0 0.016533293023105709 0.00011652122160566094 0 0.0093558739152941883 5.2736473465960493e-05 0 0.0093432936850863617 3.7452810626819454e-05 0 0.0093560787828165445 3.1631777218210061e-05 0 0.0093558739152941883 5.2736473465960493e-05 0 0.0093432936850863617 3.7452810626819454e-05 0 0.0093191817342163173 4.465168177175883e-05 0 0.01257044569449246 -0.0001388980945921057 0 0.013683517905085492 -0.00083099462801376517 0 0.017095524181944936 -0.0010466032585991756 0 0.013683517905085492 -0.00083099462801376517 0 0.017027488529458484 -0.0024009992670804212 0 0.017430262634064192 -0.0015494988386285892 0 0.01762337611235746 -0.0023433172938893028 0 0.013117952800351136 -0.0015616900852797229 0 0.013683517905085492 -0.00083099462801376517 0 0.0093965229341812784 1.4043280666884373e-05 0 0.0093409182489441814 3.5523863671558613e-05 0 0.0093549592543793834 2.3836958256906371e-05 0 0.017027488529458484 -0.0024009992670804212 0 0.017016730455376012 -0.0030140770326714068 0 0.01762337611235746 -0.0023433172938893028 0 0.0093965229341812784 1.4043280666884373e-05 0 0.0093687149084209775 1.3859188785779219e-05 0 0.0093549592543793834 2.3836958256906371e-05 0 0.013683517905085492 -0.00083099462801376517 0 0.011884703013229312 0.00041481250595769368 0 0.0093965229341812784 1.4043280666884373e-05 0 0.0093409182489441814 3.5523863671558613e-05 0 0.0093365449056424226 5.8450267648704853e-05 0 0.0093409182489441814 3.5523863671558613e-05 0 0.0093069241461940025 5.2750372146107802e-05 0 0.0093365449056424226 5.8450267648704853e-05 0 0.0093409182489441814 3.5523863671558613e-05 0 0.0093063813774117779 4.1481931878714993e-05 0 0.0093069241461940025 5.2750372146107802e-05 0 0.0093409182489441814 3.5523863671558613e-05 0 0.0093063813774117779 4.1481931878714993e-05 0 0.0093313454019845182 3.4518861771440643e-05 0 0.0093063813774117779 4.1481931878714993e-05 0 0.0093313454019845182 3.4518861771440643e-05 0 0.0093191817342163173 4.465168177175883e-05 0 0.0093409182489441814 3.5523863671558613e-05 0 0.0093313454019845182 3.4518861771440643e-05 0 0.0093549592543793834 2.3836958256906371e-05 0 0.0093432936850863617 3.7452810626819454e-05 0 0.0093313454019845182 3.4518861771440643e-05 0 0.0093549592543793834 2.3836958256906371e-05 0 0.0093432936850863617 3.7452810626819454e-05 0 0.0093560787828165445 3.1631777218210061e-05 0 0.0093549592543793834 2.3836958256906371e-05 0 0.0093432936850863617 3.7452810626819454e-05 0 0.0093313454019845182 3.4518861771440643e-05 0 0.0093191817342163173 4.465168177175883e-05 0 0.0093063813774117779 4.1481931878714993e-05 0 0.0093191817342163173 4.465168177175883e-05 0 0.0092704007298113761 5.058829731854138e-05 0 0.0093191817342163173 4.465168177175883e-05 0 0.0092704007298113761 5.058829731854138e-05 0 0.0093180193179627918 6.8613040032581974e-05 0 0.0093063813774117779 4.1481931878714993e-05 0 0.0092718156618105518 4.2611028286257955e-05 0 0.0092704007298113761 5.058829731854138e-05 0 0.0093063813774117779 4.1481931878714993e-05 0 0.0092718156618105518 4.2611028286257955e-05 0 0.0093069241461940025 5.2750372146107802e-05 0 0.0092718156618105518 4.2611028286257955e-05 0 0.0092704007298113761 5.058829731854138e-05 0 0.0092274238980421114 2.1241168814679987e-05 0 0.0092704007298113761 5.058829731854138e-05 0 0.009226460147147092 3.5021029181768007e-05 0 0.0092274238980421114 2.1241168814679987e-05 0 0.0092704007298113761 5.058829731854138e-05 0 0.0093180193179627918 6.8613040032581974e-05 0 0.00927261208672602 0.00010188007140817448 0 0.0092704007298113761 5.058829731854138e-05 0 0.00927261208672602 0.00010188007140817448 0 0.009226460147147092 3.5021029181768007e-05 0 0.0093180193179627918 6.8613040032581974e-05 0 0.0092989099140443378 7.6678233290788732e-05 0 0.00927261208672602 0.00010188007140817448 0 0.0093558739152941883 5.2736473465960493e-05 0 0.0093191817342163173 4.465168177175883e-05 0 0.0093180193179627918 6.8613040032581974e-05 0 0.016111286501195195 -0.00033889346022427476 0 0.016385625338726863 -0.00031624872541256789 0 0.016336069514390546 -0.00010674357122235692 0 0.013976759017066636 0.00075447790703775256 0 0.01257044569449246 -0.0001388980945921057 0 0.0093653161276897462 4.1902515932227204e-05 0 0.0093558739152941883 5.2736473465960493e-05 0 0.0093180193179627918 6.8613040032581974e-05 0 0.0093653161276897462 4.1902515932227204e-05 0 0.0093180193179627918 6.8613040032581974e-05 0 0.0092989099140443378 7.6678233290788732e-05 0 0.013594216975613469 -0.00010169213162398907 0 0.013509327824187295 -8.8914206063177355e-05 0 0.013440259416258111 -9.2856697548203288e-05 0 0.013976759017066636 0.00075447790703775256 0 0.010951301597490658 -1.0902283033404236e-05 0 0.013493190975531729 -0.00014684823924206777 0 0.013594216975613469 -0.00010169213162398907 0 0.013440259416258111 -9.2856697548203288e-05 0 0.013493190975531729 -0.00014684823924206777 0 0.013440259416258111 -9.2856697548203288e-05 0 0.012759414772273226 -0.00015833116896262113 0 0.013440259416258111 -9.2856697548203288e-05 0 0.012759414772273226 -0.00015833116896262113 0 0.012557708238758574 0.0001978587307360743 0 0.010951301597490658 -1.0902283033404236e-05 0 0.011011863040528636 0.0001086482678889426 0 0.0092989099140443378 7.6678233290788732e-05 0 0.00927261208672602 0.00010188007140817448 0 0.0093195766042340859 0.00022894178878263733 0 0.00927261208672602 0.00010188007140817448 0 0.009226460147147092 3.5021029181768007e-05 0 0.0093195766042340859 0.00022894178878263733 0 0.009226460147147092 3.5021029181768007e-05 0 0.0092442461721848005 -4.1798614017267974e-05 0 0.0091781214784111484 -1.5496409018433413e-05 0 0.009226460147147092 3.5021029181768007e-05 0 0.0091781214784111484 -1.5496409018433413e-05 0 0.0092274238980421114 2.1241168814679987e-05 0 0.0092442461721848005 -4.1798614017267974e-05 0 0.0093195766042340859 0.00022894178878263733 0 0.010027783573414585 0.00011635081584576796 0 0.009226460147147092 3.5021029181768007e-05 0 0.0092442461721848005 -4.1798614017267974e-05 0 0.0093195766042340859 0.00022894178878263733 0 0.012557708238758574 0.0001978587307360743 0 0.010027783573414585 0.00011635081584576796 0 0.011495487254170007 -2.5375771314148124e-05 0 0.011011863040528636 0.0001086482678889426 0 0.010199013449972198 0.00012738217005330187 0 0.0092442461721848005 -4.1798614017267974e-05 0 0.010027783573414585 0.00011635081584576796 0 0.0091513783605214095 -8.4989927262549332e-05 0 0.010027783573414585 0.00011635081584576796 0 0.010380461695841637 4.1789569167364535e-07 0 0.0083262018010347178 -9.2179763498529509e-07 0 0.010027783573414585 0.00011635081584576796 0 0.0083262018010347178 -9.2179763498529509e-07 0 0.0091513783605214095 -8.4989927262549332e-05 0 0.010027783573414585 0.00011635081584576796 0 0.010380461695841637 4.1789569167364535e-07 0 0.011495487254170007 -2.5375771314148124e-05 0 0.013409387389205168 -0.00017734386212560593 0 0.012759414772273226 -0.00015833116896262113 0 0.012432827939425121 -3.5864335017475673e-07 0 0.012759414772273226 -0.00015833116896262113 0 0.011495487254170007 -2.5375771314148124e-05 0 0.012432827939425121 -3.5864335017475673e-07 0 0.010380461695841637 4.1789569167364535e-07 0 0.011495487254170007 -2.5375771314148124e-05 0 0.012432827939425121 -3.5864335017475673e-07 0 0.012759414772273226 -0.00015833116896262113 0 0.012557708238758574 0.0001978587307360743 0 0.011495487254170007 -2.5375771314148124e-05 0 0.0036336494299156691 0.00039511083564353067 0 0.00627100548791384 1.4064060181785715e-06 0 0.0043019588279872784 -1.5395744382612894e-07 0 0.0081167570969241272 0.0011580359968939771 0 0.0080088140327309598 0.00034328791300377014 0 0.0086525717540515395 0.00036752264062243852 0 0.0057939699536842882 0.00061951631616014144 0 0.0062726580258334287 -2.1840778540913366e-08 0 0.0081167570969241272 0.0011580359968939771 0 0.0080088140327309598 0.00034328791300377014 0 0.0062773929643695813 2.0277587287505712e-06 0 0.0062773929643695813 2.0277587287505712e-06 0 0.0083262018010347178 -9.2179763498529509e-07 0 0.0084117048787622339 -4.2981231669204668e-05 0 0.0080088140327309598 0.00034328791300377014 0 0.0062773929643695813 2.0277587287505712e-06 0 0.0084117048787622339 -4.2981231669204668e-05 0 0.0083262018010347178 -9.2179763498529509e-07 0 0.0091513783605214095 -8.4989927262549332e-05 0 0.0084117048787622339 -4.2981231669204668e-05 0 0.0091513783605214095 -8.4989927262549332e-05 0 0.0084117048787622339 -4.2981231669204668e-05 0 0.0089890879710052031 -6.3486945992266246e-05 0 0.0084117048787622339 -4.2981231669204668e-05 0 0.0089890879710052031 -6.3486945992266246e-05 0 0.0086525717540515395 0.00036752264062243852 0 0.0080088140327309598 0.00034328791300377014 0 0.0084117048787622339 -4.2981231669204668e-05 0 0.0086525717540515395 0.00036752264062243852 0 0.0089890879710052031 -6.3486945992266246e-05 0 0.0091296781728083826 7.5647857590044147e-05 0 0.0086525717540515395 0.00036752264062243852 0 0.0092442461721848005 -4.1798614017267974e-05 0 0.0091513783605214095 -8.4989927262549332e-05 0 0.0089890879710052031 -6.3486945992266246e-05 0 0.0092442461721848005 -4.1798614017267974e-05 0 0.0089890879710052031 -6.3486945992266246e-05 0 0.0091781214784111484 -1.5496409018433413e-05 0 0.0089890879710052031 -6.3486945992266246e-05 0 0.0091781214784111484 -1.5496409018433413e-05 0 0.0091296781728083826 7.5647857590044147e-05 0 0.0091183178088709085 7.3639612405167529e-05 0 0.0093396724219814292 0.00038299106332057232 0 0.0091781214784111484 -1.5496409018433413e-05 0 0.0091296781728083826 7.5647857590044147e-05 0 0.0092427863131678591 7.6731477289978625e-05 0 0.0091296781728083826 7.5647857590044147e-05 0 0.009195126583277792 0.00013379622870128398 0 0.0092427863131678591 7.6731477289978625e-05 0 0.0091296781728083826 7.5647857590044147e-05 0 0.0093356728483663578 0.00055805165056735698 0 0.0086525717540515395 0.00036752264062243852 0 0.0093356728483663578 0.00055805165056735698 0 0.0086525717540515395 0.00036752264062243852 0 0.0085928350850962686 0.0010191505712776982 0 0.0081167570969241272 0.0011580359968939771 0 0.0086525717540515395 0.00036752264062243852 0 0.0085928350850962686 0.0010191505712776982 0 0.0081167570969241272 0.0011580359968939771 0 0.0085928350850962686 0.0010191505712776982 0 0.0085303344305734576 0.00071333666716032922 0 0.0085928350850962686 0.0010191505712776982 0 0.0074073926101658602 0.0011308193116199689 0 0.0078035041192466206 0.00051669170648996538 0 0.0093356728483663578 0.00055805165056735698 0 0.0085928350850962686 0.0010191505712776982 0 0.0096964341649509924 0.00120285491044823 0 0.008624610536296597 0.0011341776610328475 0 0.0084467705200636078 0.00083823079355996354 0 0.0093396724219814292 0.00038299106332057232 0 0.0084467705200636078 0.00083823079355996354 0 0.0084467705200636078 0.00083823079355996354 0 0.0078878724478125117 0.00048252180006449981 0 0.0092255129884723699 0.00016201146835204461 0 0.0092707595800835853 0.00012136974699412119 0 0.0092852375753723886 0.00013689497214017384 0 0.009195126583277792 0.00013379622870128398 0 0.0092255129884723699 0.00016201146835204461 0 0.0092707595800835853 0.00012136974699412119 0 0.009195126583277792 0.00013379622870128398 0 0.0092707595800835853 0.00012136974699412119 0 0.0092427863131678591 7.6731477289978625e-05 0 0.0092427863131678591 7.6731477289978625e-05 0 0.0092274238980421114 2.1241168814679987e-05 0 0.0092580705840378027 5.058849849921427e-05 0 0.0091781214784111484 -1.5496409018433413e-05 0 0.0092427863131678591 7.6731477289978625e-05 0 0.0092274238980421114 2.1241168814679987e-05 0 0.0092718156618105518 4.2611028286257955e-05 0 0.0092274238980421114 2.1241168814679987e-05 0 0.0092580705840378027 5.058849849921427e-05 0 0.0092427863131678591 7.6731477289978625e-05 0 0.0092580705840378027 5.058849849921427e-05 0 0.0092830044382400181 6.4590208703081784e-05 0 0.0092718156618105518 4.2611028286257955e-05 0 0.0092830044382400181 6.4590208703081784e-05 0 0.0093069241461940025 5.2750372146107802e-05 0 0.0092718156618105518 4.2611028286257955e-05 0 0.0092580705840378027 5.058849849921427e-05 0 0.0092830044382400181 6.4590208703081784e-05 0 0.0092427863131678591 7.6731477289978625e-05 0 0.0092830044382400181 6.4590208703081784e-05 0 0.0092826700403495811 9.2695221651263715e-05 0 0.0092707595800835853 0.00012136974699412119 0 0.0092427863131678591 7.6731477289978625e-05 0 0.0092826700403495811 9.2695221651263715e-05 0 0.0092707595800835853 0.00012136974699412119 0 0.0092826700403495811 9.2695221651263715e-05 0 0.0093062796638392654 0.00010477355048610809 0 0.0092826700403495811 9.2695221651263715e-05 0 0.0093062796638392654 0.00010477355048610809 0 0.0093020532561001231 7.4715082366985511e-05 0 0.0092830044382400181 6.4590208703081784e-05 0 0.0093020532561001231 7.4715082366985511e-05 0 0.0093069241461940025 5.2750372146107802e-05 0 0.0092830044382400181 6.4590208703081784e-05 0 0.0092826700403495811 9.2695221651263715e-05 0 0.0093020532561001231 7.4715082366985511e-05 0 0.0093062796638392654 0.00010477355048610809 0 0.0093020532561001231 7.4715082366985511e-05 0 0.0093365449056424226 5.8450267648704853e-05 0 0.0093020532561001231 7.4715082366985511e-05 0 0.0093069241461940025 5.2750372146107802e-05 0 0.0093365449056424226 5.8450267648704853e-05 0 0.0093062796638392654 0.00010477355048610809 0 0.0093365449056424226 5.8450267648704853e-05 0 0.0093704509545906329 7.4017013326434038e-05 0 0.0093965229341812784 1.4043280666884373e-05 0 0.0093365449056424226 5.8450267648704853e-05 0 0.0093704509545906329 7.4017013326434038e-05 0 0.0093062796638392654 0.00010477355048610809 0 0.0093704509545906329 7.4017013326434038e-05 0 0.0093227904675723446 0.00014082483346846648 0 0.0093062796638392654 0.00010477355048610809 0 0.0093017079351550101 0.00012621359056737662 0 0.0093227904675723446 0.00014082483346846648 0 0.0093017079351550101 0.00012621359056737662 0 0.0093227904675723446 0.00014082483346846648 0 0.0092740268462400601 0.0001060997130596714 0 0.0092707595800835853 0.00012136974699412119 0 0.0093062796638392654 0.00010477355048610809 0 0.0093017079351550101 0.00012621359056737662 0 0.0092707595800835853 0.00012136974699412119 0 0.0093017079351550101 0.00012621359056737662 0 0.0092852375753723886 0.00013689497214017384 0 0.0093017079351550101 0.00012621359056737662 0 0.0092852375753723886 0.00013689497214017384 0 0.0092632664337402373 7.2015677603938001e-05 0 0.0093017079351550101 0.00012621359056737662 0 0.0092740268462400601 0.0001060997130596714 0 0.0092632664337402373 7.2015677603938001e-05 0 0.0078878724478125117 0.00048252180006449981 0 0.0067906180117950259 0.00036973586567465945 0 0.0063405903362116827 0.00088282475740593706 0 0.0054060215228827159 0.00064866855647927231 0 0.0048365602871074855 0.00062179351504715872 0 0.0057356433044462255 7.3558947786186383e-05 0 0.0051556630418558387 9.5206356668461146e-05 0 0.0054060215228827159 0.00064866855647927231 0 0.0057356433044462255 7.3558947786186383e-05 0 0.0054060215228827159 0.00064866855647927231 0 0.0060285039905440341 0.00035182762969403723 0 0.0049829788553697836 0.0005258299599439233 0 0.0067906180117950259 0.00036973586567465945 0 0.0051556630418558387 9.5206356668461146e-05 0 0.0054060215228827159 0.00064866855647927231 0 0.0048162195397961696 0.00062566755701332554 0 0.0063405903362116827 0.00088282475740593706 0 0.0054060215228827159 0.00064866855647927231 0 0.0060285039905440341 0.00035182762969403723 0 0.0063405903362116827 0.00088282475740593706 0 0.0063568130151273978 -5.4328522335783617e-06 0 0.0072316971802032677 2.0931001900981817e-05 0 0.0063405903362116827 0.00088282475740593706 0 0.0063568130151273978 -5.4328522335783617e-06 0 0.0060285039905440341 0.00035182762969403723 0 0.0063568130151273978 -5.4328522335783617e-06 0 0.0060285039905440341 0.00035182762969403723 0 0.006064304964255556 5.8208185664371338e-05 0 0.0057356433044462255 7.3558947786186383e-05 0 0.006064304964255556 5.8208185664371338e-05 0 0.0059334270057598386 -0.00017035457394936287 0 0.0057356433044462255 7.3558947786186383e-05 0 0.0060285039905440341 0.00035182762969403723 0 0.006064304964255556 5.8208185664371338e-05 0 0.0063568130151273978 -5.4328522335783617e-06 0 0.0059334270057598386 -0.00017035457394936287 0 0.0059726469382164055 -0.00055327904383732543 0 0.0063568130151273978 -5.4328522335783617e-06 0 0.0059726469382164055 -0.00055327904383732543 0 0.006030485522212684 -0.0006851847493932518 0 0.0063568130151273978 -5.4328522335783617e-06 0 0.006030485522212684 -0.0006851847493932518 0 0.0072316971802032677 2.0931001900981817e-05 0 0.0043374204605059336 -0.00023838288734922257 0 0.0070390046265112168 0.00030571984895891801 0 0.0063568130151273978 -5.4328522335783617e-06 0 0.006064304964255556 5.8208185664371338e-05 0 0.0059334270057598386 -0.00017035457394936287 0 0.0059726469382164055 -0.00055327904383732543 0 0.0060280911660881174 -0.00068344669234096341 0 0.0055218082091552613 -0.00042347444432649836 0 0.0045285960784568098 -0.00042730358127744569 0 0.0043374204605059336 -0.00023838288734922257 0 0.0055218082091552613 -0.00042347444432649836 0 0.0048945325550601463 -0.00039246399704400076 0 0.0048485376199002223 -0.0013736610501947166 0 0.0060280911660881174 -0.00068344669234096341 0 0.0055218082091552613 -0.00042347444432649836 0 0.0048485376199002223 -0.0013736610501947166 0 0.0057356433044462255 7.3558947786186383e-05 0 0.0051556630418558387 9.5206356668461146e-05 0 0.0055218082091552613 -0.00042347444432649836 0 0.0057356433044462255 7.3558947786186383e-05 0 0.0059334270057598386 -0.00017035457394936287 0 0.0055218082091552613 -0.00042347444432649836 0 0.0059334270057598386 -0.00017035457394936287 0 0.0059726469382164055 -0.00055327904383732543 0 0.0055218082091552613 -0.00042347444432649836 0 0.0051556630418558387 9.5206356668461146e-05 0 0.0055218082091552613 -0.00042347444432649836 0 0.0048945325550601463 -0.00039246399704400076 0 0.0010683872861827007 -0.00049705377783689994 0 0.00092776965984783159 -0.00089315703995069011 0 0.0006127048681792629 -0.00076013049318774881 0 0.0043374204605059336 -0.00023838288734922257 0 0.0020080700443479986 -0.00092666597527529912 0 0.00075562297476573185 -0.00097768280843370811 0 0.00081749399722770913 -0.0011311916645223288 0 0.00038277952875976869 -0.00085699116895566671 0 0.00075562297476573185 -0.00097768280843370811 0 0.00092776965984783159 -0.00089315703995069011 0 0.0006127048681792629 -0.00076013049318774881 0 0.00071545112946464666 -0.00064348693226170595 0 0.0020080700443479986 -0.00092666597527529912 0 0.00075562297476573185 -0.00097768280843370811 0 0.00092776965984783159 -0.00089315703995069011 0 0.00081749399722770913 -0.0011311916645223288 0 0.00092776965984783159 -0.00089315703995069011 0 0.00081749399722770913 -0.0011311916645223288 0 0.0011072990788542592 -0.0011245922851770029 0 0.0013469902236805551 -0.0012424899323818113 0 0.0011072990788542592 -0.0011245922851770029 0 0.0012103002301806715 -0.00087194101234628046 0 0.00092776965984783159 -0.00089315703995069011 0 0.0011072990788542592 -0.0011245922851770029 0 0.0012103002301806715 -0.00087194101234628046 0 0.0010683872861827007 -0.00049705377783689994 0 0.00092776965984783159 -0.00089315703995069011 0 0.0012103002301806715 -0.00087194101234628046 0 0.0043374204605059336 -0.00023838288734922257 0 0.0036709835121328531 -0.00094661433049530043 0 0.0055881754210759492 -0.00019944424605487391 0 0.0059797263491212505 -0.0011069509586437752 0 0.0062179245727155049 -0.00037295665411166839 0 0.0062179245727155049 -0.00037295665411166839 0 0.0065814502742875536 -0.0009696492493461203 0 0.0071312309778262311 -0.00025676087564751015 0 0.0059797263491212505 -0.0011069509586437752 0 0.0062179245727155049 -0.00037295665411166839 0 0.0065814502742875536 -0.0009696492493461203 0 0.0013370869599561084 -0.0024584521480483915 0 0.0036709835121328531 -0.00094661433049530043 0 0.0013370869599561084 -0.0024584521480483915 0 0.0028300243133262968 -0.0018225237099023124 0 0.0063422195349607793 -0.0020215256487855849 0 0.0065814502742875536 -0.0009696492493461203 0 0.0072323584411505114 -0.0011068671533634692 0 0.0063422195349607793 -0.0020215256487855849 0 0.0059797263491212505 -0.0011069509586437752 0 0.0065814502742875536 -0.0009696492493461203 0 -0.0029323041389609969 -0.0038209894535339746 0 -0.0018576185254989431 -0.0038089227479179959 0 -0.0016558183894645332 -0.002407346412482528 0 -0.0018576185254989431 -0.0038089227479179959 0 -0.00057528209139089939 -0.0036623129977885961 0 -0.0016558183894645332 -0.002407346412482528 0 0.0072323584411505114 -0.0011068671533634692 0 0.0071312309778262311 -0.00025676087564751015 0 0.0080160877931001791 -0.00017690433534450333 0 0.0065814502742875536 -0.0009696492493461203 0 0.0072323584411505114 -0.0011068671533634692 0 0.0071312309778262311 -0.00025676087564751015 0 0.0071312309778262311 -0.00025676087564751015 0 0.0067787136412919193 0.00037527772823017292 0 0.0078035041192466206 0.00051669170648996538 0 0.0055881754210759492 -0.00019944424605487391 0 0.0062179245727155049 -0.00037295665411166839 0 0.0067021047902845682 0.00046389876275460028 0 0.0062179245727155049 -0.00037295665411166839 0 0.0071312309778262311 -0.00025676087564751015 0 0.0067787136412919193 0.00037527772823017292 0 0.006237784376279914 -0.00031998544938580668 0 0.0070390046265112168 0.00030571984895891801 0 0.0078885639556633431 0.0011363250343007316 0 0.0063405903362116827 0.00088282475740593706 0 0.0072316971802032677 2.0931001900981817e-05 0 0.0084467705200636078 0.00083823079355996354 0 0.0070390046265112168 0.00030571984895891801 0 0.0074073926101658602 0.0011308193116199689 0 0.0067787136412919193 0.00037527772823017292 0 0.0078035041192466206 0.00051669170648996538 0 0.0085928350850962686 0.0010191505712776982 0 0.0078035041192466206 0.00051669170648996538 0 0.0085303344305734576 0.00071333666716032922 0 0.0050941796525817169 0.00034543455381200481 0 0.0039886149101915911 -0.00061520256091320425 0 0.0017336639129815461 8.4948255000499937e-05 0 2.7528046307508458e-06 -0.0010279282295925039 0 0.0018607916695864057 -0.001408627573815635 0 0.0078035041192466206 0.00051669170648996538 0 0.0085303344305734576 0.00071333666716032922 0 0.0080160877931001791 -0.00017690433534450333 0 0.0071312309778262311 -0.00025676087564751015 0 0.0078035041192466206 0.00051669170648996538 0 0.0080160877931001791 -0.00017690433534450333 0 0.0028300243133262968 -0.0018225237099023124 0 0.0039886149101915911 -0.00061520256091320425 0 -0.0016558183894645332 -0.002407346412482528 0 2.7528046307508458e-06 -0.0010279282295925039 0 -0.00015768723886461848 -0.0023661338446793272 0 -0.00057528209139089939 -0.0036623129977885961 0 -0.00015768723886461848 -0.0023661338446793272 0 0.00095122819559240591 -0.0031292675348181453 0 -0.00057528209139089939 -0.0036623129977885961 0 -0.0016558183894645332 -0.002407346412482528 0 -0.00015768723886461848 -0.0023661338446793272 0 2.7528046307508458e-06 -0.0010279282295925039 0 -0.00015768723886461848 -0.0023661338446793272 0 0.0018607916695864057 -0.001408627573815635 0 -0.00015768723886461848 -0.0023661338446793272 0 0.00095122819559240591 -0.0031292675348181453 0 0.0018607916695864057 -0.001408627573815635 0 0.0013056050949771197 -0.0016235632836088111 0 0.0017594270859772156 -0.00086459099007898694 0 0.0016241499390876938 -0.00023841749461384 0 0.0012858833774812373 -0.00024979246314663415 0 0.0023106076303979718 -0.0001355755517880476 0 0.0012119619190671814 -0.00026507670681909955 0 0.0016241499390876938 -0.00023841749461384 0 0.0012858833774812373 -0.00024979246314663415 0 0.00053375760375108227 -0.00010997727254699757 0 0.0012119619190671814 -0.00026507670681909955 0 0.0012858833774812373 -0.00024979246314663415 0 0.00053375760375108227 -0.00010997727254699757 0 0.0012858833774812373 -0.00024979246314663415 0 0.00036080376807395425 -1.1058342667411761e-06 0 0.0012858833774812373 -0.00024979246314663415 0 0.00036080376807395425 -1.1058342667411761e-06 0 0.0023316293230111972 -3.1492438258727614e-07 0 0.0012858833774812373 -0.00024979246314663415 0 0.0023316293230111972 -3.1492438258727614e-07 0 0.0023106076303979718 -0.0001355755517880476 0 0.0023316293230111972 -3.1492438258727614e-07 0 0.0023106076303979718 -0.0001355755517880476 0 0.0043019588279872784 -1.5395744382612894e-07 0 0.0016241499390876938 -0.00023841749461384 0 0.0023106076303979718 -0.0001355755517880476 0 0.0027800717254659762 7.2089436935078366e-06 0 0.0017594270859772156 -0.00086459099007898694 0 0.0026189158010364601 -3.2129722443867828e-05 0 0.0017336639129815461 8.4948255000499937e-05 0 0.0018607916695864057 -0.001408627573815635 0 0.0027800717254659762 7.2089436935078366e-06 0 0.0057939699536842882 0.00061951631616014144 0 0.0050941796525817169 0.00034543455381200481 0 0.0036336494299156691 0.00039511083564353067 0 0.0017336639129815461 8.4948255000499937e-05 0 0.0027800717254659762 7.2089436935078366e-06 0 0.0023106076303979718 -0.0001355755517880476 0 0.0027800717254659762 7.2089436935078366e-06 0 0.0043019588279872784 -1.5395744382612894e-07 0 0.0036336494299156691 0.00039511083564353067 0 0.0027800717254659762 7.2089436935078366e-06 0 0.0043019588279872784 -1.5395744382612894e-07 0 0.0067121565665990302 -0.0019101228617146809 0 0.0068421508836489769 -0.0020603189551608599 0 0.0065917929848175469 -0.0020666741826695519 0 0.0067121565665990302 -0.0019101228617146809 0 0.0064803657854298966 -0.0019135835453136035 0 0.0065917929848175469 -0.0020666741826695519 0 0.0067121565665990302 -0.0019101228617146809 0 0.0064803657854298966 -0.0019135835453136035 0 0.0066816604307519045 -0.0016439066059232984 0 0.0069079158504373019 -0.0018550882334974355 0 0.0066816604307519045 -0.0016439066059232984 0 0.0070570234685250919 -0.0016598713313240607 0 0.0067121565665990302 -0.0019101228617146809 0 0.0069079158504373019 -0.0018550882334974355 0 0.0066816604307519045 -0.0016439066059232984 0 0.0069079158504373019 -0.0018550882334974355 0 0.0070570234685250919 -0.0016598713313240607 0 0.0070771827299976695 -0.0018216928679221449 0 0.0069079158504373019 -0.0018550882334974355 0 0.0069331706244983226 -0.0020173162831579965 0 0.0070552747666196899 -0.0019605712118400905 0 0.0069079158504373019 -0.0018550882334974355 0 0.0070552747666196899 -0.0019605712118400905 0 0.0070771827299976695 -0.0018216928679221449 0 0.0069079158504373019 -0.0018550882334974355 0 0.0068421508836489769 -0.0020603189551608599 0 0.0069331706244983226 -0.0020173162831579965 0 0.0067121565665990302 -0.0019101228617146809 0 0.0069079158504373019 -0.0018550882334974355 0 0.0068421508836489769 -0.0020603189551608599 0 0.0074309191159837393 -0.002245788990362129 0 0.0043296279355595395 -0.0015689599859145193 0 0.0068421508836489769 -0.0020603189551608599 0 0.0068826821776681495 -0.002090400837321441 0 0.0068264242765435721 -0.002090023519371988 0 0.0068421508836489769 -0.0020603189551608599 0 0.0069331706244983226 -0.0020173162831579965 0 0.0069077846192219855 -0.0020822094906881305 0 0.0069331706244983226 -0.0020173162831579965 0 0.0069077846192219855 -0.0020822094906881305 0 0.0070552747666196899 -0.0019605712118400905 0 0.0068421508836489769 -0.0020603189551608599 0 0.0069077846192219855 -0.0020822094906881305 0 0.0068826821776681495 -0.002090400837321441 0 0.0068421508836489769 -0.0020603189551608599 0 0.0065699182991033264 -0.0022775553025500546 0 0.0066389076626221198 -0.0025913330661451223 0 0.0068421508836489769 -0.0020603189551608599 0 0.0065699182991033264 -0.0022775553025500546 0 0.0065917929848175469 -0.0020666741826695519 0 0.0064803657854298966 -0.0019135835453136035 0 0.0065917929848175469 -0.0020666741826695519 0 0.0063544937685307201 -0.0021760364813270512 0 0.0065699182991033264 -0.0022775553025500546 0 0.0065917929848175469 -0.0020666741826695519 0 0.0063544937685307201 -0.0021760364813270512 0 0.0065699182991033264 -0.0022775553025500546 0 0.0063544937685307201 -0.0021760364813270512 0 0.0063152239297632872 -0.0024643248580469884 0 0.0063544937685307201 -0.0021760364813270512 0 0.0059819761863826463 -0.002342895512135971 0 0.0061273402641993466 -0.0019736371649977089 0 0.0063544937685307201 -0.0021760364813270512 0 0.0059819761863826463 -0.002342895512135971 0 0.0063152239297632872 -0.0024643248580469884 0 0.0028056657187820887 -0.003014121900913721 0 0.0042750322489960068 -0.0031976574954987974 0 0.0027080886836273878 -0.0041798488092363887 0 0.0027447590950786011 -0.0043123290157281169 0 0.0026671084897346765 -0.0043807781867522388 0 0.0027080886836273878 -0.0041798488092363887 0 0.0028047498037504473 -0.0042961231974082102 0 0.0028353655294495028 -0.0042017183479697096 0 0.0028056657187820887 -0.003014121900913721 0 0.0027645603877477034 -0.0042416501709173623 0 0.0020443540246723362 -0.0038465420854759676 0 0.0021619526168081852 -0.0034685144933609825 0 0.0028353655294495028 -0.0042017183479697096 0 0.0027080886836273878 -0.0041798488092363887 0 0.0027447590950786011 -0.0043123290157281169 0 0.0028047498037504473 -0.0042961231974082102 0 0.0027730596541834357 -0.0044525035015683286 0 0.0028887344514560019 -0.0044430945504194304 0 0.0028933087094280977 -0.0046769609510858559 0 0.0027447590950786011 -0.0043123290157281169 0 0.0028047498037504473 -0.0042961231974082102 0 0.0027730596541834357 -0.0044525035015683286 0 0.0028047498037504473 -0.0042961231974082102 0 0.0027730596541834357 -0.0044525035015683286 0 0.0028887344514560019 -0.0044430945504194304 0 0.0027447590950786011 -0.0043123290157281169 0 0.0027730596541834357 -0.0044525035015683286 0 0.0026671084897346765 -0.0043807781867522388 0 0.0027730596541834357 -0.0044525035015683286 0 0.0026671084897346765 -0.0043807781867522388 0 0.0026563344298460704 -0.0045882325150726098 0 0.0064803657854298966 -0.0019135835453136035 0 0.0061273402641993466 -0.0019736371649977089 0 0.0062773067744415359 -0.0016167705156600368 0 0.0042750322489960068 -0.0031976574954987974 0 0.0092740927577712687 -0.0040332902925535258 0 0.0064803657854298966 -0.0019135835453136035 0 0.0063544937685307201 -0.0021760364813270512 0 0.0061273402641993466 -0.0019736371649977089 0 0.014102895787615746 -0.0065190005640430784 0 0.013249831930812131 -0.0056069813757579955 0 0.013987480509422553 -0.0057478998915469724 0 0.014134305338594893 -0.0040865883314945024 0 0.014308434217874503 -0.00368066491372118 0 0.014387758307813971 -0.0039171759281123927 0 0.014102895787615746 -0.0065190005640430784 0 0.014469521055913591 -0.0051658994483002891 0 0.013987480509422553 -0.0057478998915469724 0 0.0092740927577712687 -0.0040332902925535258 0 0.014217886681505964 -0.0043347859465708276 0 0.0027730596541834357 -0.0044525035015683286 0 0.0026563344298460704 -0.0045882325150726098 0 0.0028933087094280977 -0.0046769609510858559 0 0.0092740927577712687 -0.0040332902925535258 0 0.0073962822752441735 -0.0057084559267940125 0 0.014102895787615746 -0.0065190005640430784 0 0.013249831930812131 -0.0056069813757579955 0 0.01226436798719417 -0.0063887220744333981 0 0.0133524550976129 -0.0047197426017974702 0 0.013249831930812131 -0.0056069813757579955 0 0.011970058119592831 -0.0052215636078171267 0 0.013249831930812131 -0.0056069813757579955 0 0.011970058119592831 -0.0052215636078171267 0 0.01226436798719417 -0.0063887220744333981 0 0.0133524550976129 -0.0047197426017974702 0 0.013249831930812131 -0.0056069813757579955 0 0.013923687542760797 -0.0050815839114233602 0 0.014785933669956791 -0.0043528559277759768 0 0.013987480509422553 -0.0057478998915469724 0 0.013923687542760797 -0.0050815839114233602 0 0.014560664498818368 -0.0038247896366669018 0 0.014022516862869079 -0.0055561703998095492 0 0.014358542835074322 -0.0033122587279574905 0 0.014469521055913591 -0.0051658994483002891 0 0.013987480509422553 -0.0057478998915469724 0 0.013249831930812131 -0.0056069813757579955 0 0.013987480509422553 -0.0057478998915469724 0 0.013923687542760797 -0.0050815839114233602 0 0.014498121357027735 -0.0035980149371810637 0 0.014217886681505964 -0.0043347859465708276 0 0.014497189581163453 -0.00338367023694968 0 0.014308434217874503 -0.00368066491372118 0 0.014489451405809898 -0.0035053118795721179 0 0.014308434217874503 -0.00368066491372118 0 0.014489451405809898 -0.0035053118795721179 0 0.014574165206290471 -0.0035614125394798535 0 0.014582541688586087 -0.0033948372448226985 0 0.014489451405809898 -0.0035053118795721179 0 0.014574165206290471 -0.0035614125394798535 0 0.014733456557666846 -0.0033729734064721676 0 0.014574165206290471 -0.0035614125394798535 0 0.014797261018409502 -0.0036471760920990847 0 0.014574165206290471 -0.0035614125394798535 0 0.014797261018409502 -0.0036471760920990847 0 0.014535823641292411 -0.0037830454104589104 0 0.014308434217874503 -0.00368066491372118 0 0.014535823641292411 -0.0037830454104589104 0 0.014387758307813971 -0.0039171759281123927 0 0.014308434217874503 -0.00368066491372118 0 0.014574165206290471 -0.0035614125394798535 0 0.014535823641292411 -0.0037830454104589104 0 0.014797261018409502 -0.0036471760920990847 0 0.014535823641292411 -0.0037830454104589104 0 0.014683541241536249 -0.0041288759049870191 0 0.0064803657854298966 -0.0019135835453136035 0 0.0062773067744415359 -0.0016167705156600368 0 0.0066816604307519045 -0.0016439066059232984 0 0.0092740927577712687 -0.0040332902925535258 0 0.010810278416282149 -0.0028324349201181058 0 0.014535823641292411 -0.0037830454104589104 0 0.014387758307813971 -0.0039171759281123927 0 0.014683541241536249 -0.0041288759049870191 0 0.014134305338594893 -0.0040865883314945024 0 0.014387758307813971 -0.0039171759281123927 0 0.014683541241536249 -0.0041288759049870191 0 0.014797261018409502 -0.0036471760920990847 0 0.014683541241536249 -0.0041288759049870191 0 0.015117161440719572 -0.0038161167633330847 0 0.014683541241536249 -0.0041288759049870191 0 0.015117161440719572 -0.0038161167633330847 0 0.015223211392215873 -0.0041823103267676501 0 0.010810278416282149 -0.0028324349201181058 0 0.011301625403140126 -0.0030274615249642422 0 0.015020926618369772 -0.0034086085313763115 0 0.015117161440719572 -0.0038161167633330847 0 0.015463363560213878 -0.0035452290796919401 0 0.015020926618369772 -0.0034086085313763115 0 0.014733456557666846 -0.0033729734064721676 0 0.014797261018409502 -0.0036471760920990847 0 0.015020926618369772 -0.0034086085313763115 0 0.014797261018409502 -0.0036471760920990847 0 0.015117161440719572 -0.0038161167633330847 0 0.015117161440719572 -0.0038161167633330847 0 0.015463363560213878 -0.0035452290796919401 0 0.01548129187397722 -0.0039050602404451006 0 0.015463363560213878 -0.0035452290796919401 0 0.015824750791444121 -0.003736433442277714 0 0.01548129187397722 -0.0039050602404451006 0 0.015783601678643247 -0.0032656105933545946 0 0.015824750791444121 -0.003736433442277714 0 0.016392916411833307 -0.0036579309068950198 0 0.015783601678643247 -0.0032656105933545946 0 0.015463363560213878 -0.0035452290796919401 0 0.015824750791444121 -0.003736433442277714 0 0.010815195620340973 -0.0010151567855324005 0 0.013223189210162448 -0.0018920072003542057 0 0.015824750791444121 -0.003736433442277714 0 0.015788645175799112 -0.0042408078788342702 0 0.016392916411833307 -0.0036579309068950198 0 0.015824750791444121 -0.003736433442277714 0 0.015788645175799112 -0.0042408078788342702 0 0.01548129187397722 -0.0039050602404451006 0 0.010815195620340973 -0.0010151567855324005 0 0.011301625403140126 -0.0030274615249642422 0 0.015788645175799112 -0.0042408078788342702 0 0.015223211392215873 -0.0041823103267676501 0 0.01548129187397722 -0.0039050602404451006 0 0.015117161440719572 -0.0038161167633330847 0 0.015223211392215873 -0.0041823103267676501 0 0.01548129187397722 -0.0039050602404451006 0 0.0093965229341812784 1.4043280666884373e-05 0 0.0093704509545906329 7.4017013326434038e-05 0 0.0094721970136332264 4.0453246442488169e-05 0 0.0095901145492220483 0.0001306975959641448 0 0.0094721970136332264 4.0453246442488169e-05 0 0.0094580891151062937 0.00014898507397829181 0 0.0093704509545906329 7.4017013326434038e-05 0 0.0094721970136332264 4.0453246442488169e-05 0 0.0094580891151062937 0.00014898507397829181 0 0.0093704509545906329 7.4017013326434038e-05 0 0.0093227904675723446 0.00014082483346846648 0 0.0094580891151062937 0.00014898507397829181 0 0.0093227904675723446 0.00014082483346846648 0 0.0092199806477780023 0.00015472386934223175 0 0.0092740268462400601 0.0001060997130596714 0 0.0094424564787360336 0.00012808073819632975 0 0.0090324497245921568 0.0002306058229753761 0 0.0092199806477780023 0.00015472386934223175 0 0.0092099155847361024 9.3556461939245749e-05 0 0.0091739650544254408 0.00011871249701310568 0 0.0092199806477780023 0.00015472386934223175 0 0.0092099155847361024 9.3556461939245749e-05 0 0.0092740268462400601 0.0001060997130596714 0 0.0092099155847361024 9.3556461939245749e-05 0 0.009142385085300405 7.5092987939916146e-05 0 0.0091678938059093617 3.5822566138579468e-05 0 0.0092099155847361024 9.3556461939245749e-05 0 0.0092632664337402373 7.2015677603938001e-05 0 0.0091678938059093617 3.5822566138579468e-05 0 0.0092099155847361024 9.3556461939245749e-05 0 0.0092740268462400601 0.0001060997130596714 0 0.0092632664337402373 7.2015677603938001e-05 0 0.0069077846192219855 -0.0020822094906881305 0 0.007291101129451508 -0.0018963178636159758 0 0.0070552747666196899 -0.0019605712118400905 0 0.0075192872932272198 -0.0016656219441643534 0 0.0070570234685250919 -0.0016598713313240607 0 0.0072625964425236285 -0.0018304237651534348 0 0.0070552747666196899 -0.0019605712118400905 0 0.0071702579743666934 -0.0018786010299960531 0 0.0070771827299976695 -0.0018216928679221449 0 0.007291101129451508 -0.0018963178636159758 0 0.0070552747666196899 -0.0019605712118400905 0 0.0071702579743666934 -0.0018786010299960531 0 0.0071702579743666934 -0.0018786010299960531 0 0.0070771827299976695 -0.0018216928679221449 0 0.0072625964425236285 -0.0018304237651534348 0 0.0070570234685250919 -0.0016598713313240607 0 0.0070771827299976695 -0.0018216928679221449 0 0.0072625964425236285 -0.0018304237651534348 0 0.0075192872932272198 -0.0016656219441643534 0 0.0073094769792573918 -0.0018914770039602663 0 0.0072625964425236285 -0.0018304237651534348 0 0.007291101129451508 -0.0018963178636159758 0 0.0071702579743666934 -0.0018786010299960531 0 0.0072625964425236285 -0.0018304237651534348 0 0.0075574517158418265 -0.0013448368238544559 0 0.0075614197201659119 -0.0014329743925145294 0 0.0091103712267074088 0.00011437990375982536 0 0.0091739650544254408 0.00011871249701310568 0 0.009142385085300405 7.5092987939916146e-05 0 0.0091462006787069103 0.00015138797619409754 0 0.0091103712267074088 0.00011437990375982536 0 0.0091739650544254408 0.00011871249701310568 0 0.010815195620340973 -0.0010151567855324005 0 0.0090324497245921568 0.0002306058229753761 0 0.0091462006787069103 0.00015138797619409754 0 0.0092199806477780023 0.00015472386934223175 0 0.0091739650544254408 0.00011871249701310568 0 0.010815195620340973 -0.0010151567855324005 0 0.0075574517158418265 -0.0013448368238544559 0 0.0075574517158418265 -0.0013448368238544559 0 0.0081040027435293569 -0.0010773413265216122 0 0.0092099155847361024 9.3556461939245749e-05 0 0.0091739650544254408 0.00011871249701310568 0 0.009142385085300405 7.5092987939916146e-05 0 0.0081040027435293569 -0.0010773413265216122 0 0.0067332729552873043 -0.0013179940938436478 0 0.0070121397212880568 -0.002053674972751916 0 0.0069961937417516301 -0.0020903187577809481 0 0.0070531370868133604 -0.0021094092180879965 0 0.0070121397212880568 -0.002053674972751916 0 0.0069961937417516301 -0.0020903187577809481 0 0.0069572078889778999 -0.0020717976530678825 0 0.0069572078889778999 -0.0020717976530678825 0 0.0069234563773831132 -0.002089346880944289 0 0.006959584247708068 -0.002124646414554295 0 0.0069961937417516301 -0.0020903187577809481 0 0.0069572078889778999 -0.0020717976530678825 0 0.006959584247708068 -0.002124646414554295 0 0.0069077846192219855 -0.0020822094906881305 0 0.0069676531934764066 -0.001991917194572802 0 0.0069572078889778999 -0.0020717976530678825 0 0.0067633973595730024 -0.0022864502177940508 0 0.0075574517158418265 -0.0013448368238544559 0 0.0069676531934764066 -0.001991917194572802 0 0.0070121397212880568 -0.002053674972751916 0 0.0069572078889778999 -0.0020717976530678825 0 0.0069077846192219855 -0.0020822094906881305 0 0.0069572078889778999 -0.0020717976530678825 0 0.0069234563773831132 -0.002089346880944289 0 0.0069077846192219855 -0.0020822094906881305 0 0.0068826821776681495 -0.002090400837321441 0 0.0069234563773831132 -0.002089346880944289 0 0.0065838628956359059 -0.0021583588144112684 0 0.006843351663537567 -0.002090611411899691 0 0.0063710392312343817 -0.0019537108196052894 0 0.0063510793808855739 -0.0021101613939115667 0 0.0068264242765435721 -0.002090023519371988 0 0.0068826821776681495 -0.002090400837321441 0 0.006959584247708068 -0.002124646414554295 0 0.0068264242765435721 -0.002090023519371988 0 0.0068826821776681495 -0.002090400837321441 0 0.0069234563773831132 -0.002089346880944289 0 0.006959584247708068 -0.002124646414554295 0 0.0063710392312343817 -0.0019537108196052894 0 0.0063510793808855739 -0.0021101613939115667 0 0.0057482814498582523 -0.0021062344434757295 0 0.0069961937417516301 -0.0020903187577809481 0 0.006959584247708068 -0.002124646414554295 0 0.0070531370868133604 -0.0021094092180879965 0 0.0065838628956359059 -0.0021583588144112684 0 0.0067332729552873043 -0.0013179940938436478 0 0.0063710392312343817 -0.0019537108196052894 0 0.0057482814498582523 -0.0021062344434757295 0 0.0056815866114885904 -0.0020156175383142395 0 0.0014276730590822761 -0.001074927403132038 0 0.00097533689404191866 -0.00082695777145615061 0 0.00084460935215349632 -0.0011120019050615787 0 0.0040372682488157815 -0.0016561757523319588 0 0.0038536466478974497 -0.00040321193888525096 0 0.00097533689404191866 -0.00082695777145615061 0 0.0014149042562938169 -0.0006998754506528606 0 0.00075691185419007531 -0.00055528445576662265 0 0.00054502412983308804 -0.00043216465599835261 0 0.00094500594012492177 -0.00060405776608768664 0 0.0014276730590822761 -0.001074927403132038 0 0.00097533689404191866 -0.00082695777145615061 0 0.0014149042562938169 -0.0006998754506528606 0 0.0014276730590822761 -0.001074927403132038 0 0.0014149042562938169 -0.0006998754506528606 0 0.0021442998057142225 -0.00097298609598790286 0 0.00049953202518396083 -0.00039906380662885503 0 0.00040235631054492889 -0.0004936039790400075 0 0.00030005936081300673 -0.00039303336706444139 0 0.0048162195397961696 0.00062566755701332554 0 0.0045254795513422199 5.2431001411725283e-05 0 0.0035604477516412965 0.00041013767005951659 0 0.0051556630418558387 9.5206356668461146e-05 0 0.0048162195397961696 0.00062566755701332554 0 0.0045254795513422199 5.2431001411725283e-05 0 0.0067906180117950259 0.00036973586567465945 0 0.0067332729552873043 -0.0013179940938436478 0 0.0067906180117950259 0.00036973586567465945 0 0.0038536466478974497 -0.00040321193888525096 0 0.0068083714165949058 -0.00012390766557213588 0 0.0050748697861636239 -0.00022178262603693791 0 0.0052183288562968324 -0.00041583422220426103 0 0.0045254795513422199 5.2431001411725283e-05 0 0.0035604477516412965 0.00041013767005951659 0 0.0042079291270476701 -0.00047665664141276844 0 0.0038536466478974497 -0.00040321193888525096 0 0.0023161748177290883 -0.00054476758399785163 0 0.0067332729552873043 -0.0013179940938436478 0 0.0038536466478974497 -0.00040321193888525096 0 0.00097533689404191866 -0.00082695777145615061 0 0.00084460935215349632 -0.0011120019050615787 0 0.00062047193685469532 -0.00071083838607368191 0 0.00097533689404191866 -0.00082695777145615061 0 0.00062047193685469532 -0.00071083838607368191 0 0.00075691185419007531 -0.00055528445576662265 0 0.00062047193685469532 -0.00071083838607368191 0 0.00067743214063794633 -0.00059513400345975916 0 0.00075691185419007531 -0.00055528445576662265 0 0.0042079291270476701 -0.00047665664141276844 0 0.0048945325550601463 -0.00039246399704400076 0 0.0048485376199002223 -0.0013736610501947166 0 0.0045254795513422199 5.2431001411725283e-05 0 0.0042079291270476701 -0.00047665664141276844 0 0.0048945325550601463 -0.00039246399704400076 0 0.0051556630418558387 9.5206356668461146e-05 0 0.0045254795513422199 5.2431001411725283e-05 0 0.0048945325550601463 -0.00039246399704400076 0 0.0023161748177290883 -0.00054476758399785163 0 0.0020080700443479986 -0.00092666597527529912 0 0.00062047193685469532 -0.00071083838607368191 0 0.00059120277386427147 -0.00056534232313593406 0 0.00067743214063794633 -0.00059513400345975916 0 0.0020080700443479986 -0.00092666597527529912 0 -0.0010881471624652177 -0.00080339757917563916 0 0.00059120277386427147 -0.00056534232313593406 0 0.00064352958549837027 -0.00054899209064297012 0 0.00067646168237199588 -0.00057646825436921049 0 0.00059120277386427147 -0.00056534232313593406 0 0.00067646168237199588 -0.00057646825436921049 0 0.00067743214063794633 -0.00059513400345975916 0 -0.0010881471624652177 -0.00080339757917563916 0 -7.6955254030885856e-05 -0.0010649473247978205 0 0.00067646168237199588 -0.00057646825436921049 0 0.00067743214063794633 -0.00059513400345975916 0 0.00069881104746992852 -0.00058880430466493093 0 0.00067743214063794633 -0.00059513400345975916 0 0.00075691185419007531 -0.00055528445576662265 0 0.00069881104746992852 -0.00058880430466493093 0 0.00069881104746992852 -0.00058880430466493093 0 0.00068882299875157847 -0.00064237754334429834 0 0.00061155594518313983 -0.00061179042576617532 0 0.00067646168237199588 -0.00057646825436921049 0 0.00069881104746992852 -0.00058880430466493093 0 0.00068882299875157847 -0.00064237754334429834 0 0.00068230472863840016 -0.00058440247012565491 0 0.00067646168237199588 -0.00057646825436921049 0 0.00068882299875157847 -0.00064237754334429834 0 -0.0010881471624652177 -0.00080339757917563916 0 -0.001589254878592544 -0.00065488368077703239 0 -0.0040831951807056097 -0.00063581871857571425 0 -0.0040380670091513344 -0.00077894834919516173 0 -0.0039184994404892698 -0.00071099470139094061 0 -0.0040831951807056097 -0.00063581871857571425 0 -0.004214868035076513 -0.00065153081172882293 0 -0.0040380670091513344 -0.00077894834919516173 0 0.00075562297476573185 -0.00097768280843370811 0 0.00057868677242682836 -0.00074038907223729052 0 0.00038277952875976869 -0.00085699116895566671 0 -0.0017603405003028222 -0.00085293142541230382 0 -0.0010881471624652177 -0.00080339757917563916 0 0.00053490082162482183 -0.00054147014154203108 0 0.00061155594518313983 -0.00061179042576617532 0 0.00040743492093000405 -0.0006476236898452887 0 0.00040235631054492889 -0.0004936039790400075 0 0.00053490082162482183 -0.00054147014154203108 0 0.00040743492093000405 -0.0006476236898452887 0 0.00049953202518396083 -0.00039906380662885503 0 0.00040235631054492889 -0.0004936039790400075 0 0.00053490082162482183 -0.00054147014154203108 0 0.00049953202518396083 -0.00039906380662885503 0 0.00075691185419007531 -0.00055528445576662265 0 0.00053490082162482183 -0.00054147014154203108 0 0.00075691185419007531 -0.00055528445576662265 0 0.00053490082162482183 -0.00054147014154203108 0 0.00061155594518313983 -0.00061179042576617532 0 0.00075691185419007531 -0.00055528445576662265 0 0.00069881104746992852 -0.00058880430466493093 0 0.00061155594518313983 -0.00061179042576617532 0 0.00059015684102272487 -0.00073062745539711463 0 0.00061155594518313983 -0.00061179042576617532 0 0.00040743492093000405 -0.0006476236898452887 0 0.00059015684102272487 -0.00073062745539711463 0 0.00068882299875157847 -0.00064237754334429834 0 0.00061155594518313983 -0.00061179042576617532 0 -0.0024609207197767557 -0.00057638679396504748 0 -0.001589254878592544 -0.00065488368077703239 0 -0.0024609207197767557 -0.00057638679396504748 0 -0.0015085239356921922 -0.00071597822566758925 0 -0.0038574908538450323 -0.00051556276613723385 0 -0.0038451082305118183 -0.0005180990260141773 0 -0.0038286873302181799 -0.00052843110174925398 0 -0.0038451082305118183 -0.0005180990260141773 0 -0.0038286873302181799 -0.00052843110174925398 0 -0.0038297538516843511 -0.00051713117377022466 0 -0.0084462624282322513 -0.00025818295853455341 0 -0.0082042287737185225 -0.00013072085051542845 0 -0.008390697106164793 -5.6480622908339962e-05 0 -0.0082042287737185225 -0.00013072085051542845 0 -0.008390697106164793 -5.6480622908339962e-05 0 -0.0084183072309896075 0.00014665644962218866 0 -0.0038286873302181799 -0.00052843110174925398 0 -0.0038297538516843511 -0.00051713117377022466 0 -0.0038016998059924095 -0.00052804408363927083 0 -0.006202807482312475 -0.00031866048111121149 0 -0.0049986149783823007 0.00013541823916450534 0 -0.012492668893450314 0.00029643226620307815 0 -0.012633482109019187 0.00088413099739045268 0 -0.012732138573951477 0.00077287046714852542 0 -0.0084462624282322513 -0.00025818295853455341 0 -0.008390697106164793 -5.6480622908339962e-05 0 -0.0085099700991654731 4.4343967171758628e-05 0 -0.010706150844227099 4.5526369048945223e-05 0 -0.0082213008562450791 0.00074453447956614519 0 -0.008390697106164793 -5.6480622908339962e-05 0 -0.0085099700991654731 4.4343967171758628e-05 0 -0.0084183072309896075 0.00014665644962218866 0 -0.0082213008562450791 0.00074453447956614519 0 -0.0083769283725287618 0.0013815218517657811 0 -0.006807882369679245 0.0010668190254271078 0 -0.0083769283725287618 0.0013815218517657811 0 -0.0076115814111983099 0.0010193360060986344 0 -0.0076288429679971575 0.0010740736124756054 0 -0.0076773482468905224 0.00093949507420938521 0 -0.0082213008562450791 0.00074453447956614519 0 -0.0049986149783823007 0.00013541823916450534 0 -0.006807882369679245 0.0010668190254271078 0 -0.0033613106161421926 0.00067369496380687249 0 -0.0057663214634584847 0.00039013297994678936 0 -0.005803675513555916 0.00050952995411928347 0 -0.0054971544418502463 0.00071516472181674495 0 -0.005803675513555916 0.00050952995411928347 0 -0.0054971544418502463 0.00071516472181674495 0 -0.0056577859309096161 0.00090822075091266446 0 -0.0082213008562450791 0.00074453447956614519 0 -0.006807882369679245 0.0010668190254271078 0 -0.0019572222072365537 5.9647365841673104e-05 0 -0.00083120299215869056 -0.0001479546101637322 0 -0.0019572222072365537 5.9647365841673104e-05 0 -0.0019100711635269573 0.00020309637800807872 0 -0.0032992234258845139 0.00033174981583505131 0 -0.0035561946133536456 0.00034037858447642284 0 -0.0031421785652203612 8.0584030081481481e-05 0 -0.0016378072000834951 0.00038752287604383357 0 -0.0012804457433359311 0.00016323269744205582 0 -0.0013126746142362842 6.5956807287989838e-05 0 -0.0049986149783823007 0.00013541823916450534 0 -0.0019572222072365537 5.9647365841673104e-05 0 -0.003364360083983167 0.00058634953912965249 0 -0.0032992234258845139 0.00033174981583505131 0 -0.0035561946133536456 0.00034037858447642284 0 -0.00255114423211979 0.0017807864108373953 0 -0.0025527231985303018 0.0020311220455491445 0 -0.0028089664285499511 0.0019967225886937516 0 -0.0049986149783823007 0.00013541823916450534 0 -0.0033613106161421926 0.00067369496380687249 0 -0.003364360083983167 0.00058634953912965249 0 -0.0032992234258845139 0.00033174981583505131 0 -0.00308301188213368 0.00026078968558797017 0 -0.0032992234258845139 0.00033174981583505131 0 -0.00308301188213368 0.00026078968558797017 0 -0.0031421785652203612 8.0584030081481481e-05 0 -0.0019100711635269573 0.00020309637800807872 0 -0.00083120299215869056 -0.0001479546101637322 0 -0.0033613106161421926 0.00067369496380687249 0 -0.0019100711635269573 0.00020309637800807872 0 -0.0033613106161421926 0.00067369496380687249 0 -0.0021011615826357077 0.00079105638075109563 0 -0.0026574212138204497 0.00049806510087627338 0 -0.0026804095698888179 0.00042731812638520497 0 -0.0024982494406364316 0.00031397016372228459 0 -0.0038286873302181799 -0.00052843110174925398 0 -0.0038016998059924095 -0.00052804408363927083 0 -0.0038011156050270578 -0.00053164460797267238 0 0.00040743492093000405 -0.0006476236898452887 0 0.00017783439284813069 -0.0005175622479897102 0 0.00032190574160654705 -0.00051298680275997796 0 -0.0015085239356921922 -0.00071597822566758925 0 -0.0019572222072365537 5.9647365841673104e-05 0 0.00040235631054492889 -0.0004936039790400075 0 0.00040743492093000405 -0.0006476236898452887 0 0.00032190574160654705 -0.00051298680275997796 0 0.00017783439284813069 -0.0005175622479897102 0 0.00032190574160654705 -0.00051298680275997796 0 0.00030005936081300673 -0.00039303336706444139 0 0.00049953202518396083 -0.00039906380662885503 0 0.00030005936081300673 -0.00039303336706444139 0 0.0002763982629367143 -0.00031055216615423541 0 0.00054502412983308804 -0.00043216465599835261 0 0.0030606186548500685 -0.001041691790154495 0 0.00040235631054492889 -0.0004936039790400075 0 0.00032190574160654705 -0.00051298680275997796 0 0.00030005936081300673 -0.00039303336706444139 0 0.00025280089851377512 -0.00035851620246166681 0 0.00030005936081300673 -0.00039303336706444139 0 0.00022275415466785426 -0.00040734362685960416 0 0.00025280089851377512 -0.00035851620246166681 0 0.00030005936081300673 -0.00039303336706444139 0 0.0002763982629367143 -0.00031055216615423541 0 -0.0019572222072365537 5.9647365841673104e-05 0 0.00038198116513586287 -0.00013148585128441577 0 0.00019770798689022656 -0.00050204480456752674 0 0.00030005936081300673 -0.00039303336706444139 0 0.00022275415466785426 -0.00040734362685960416 0 0.00022275415466785426 -0.00040734362685960416 0 0.00015366089129873541 -0.00045564721045326088 0 0.00021390319464817026 -0.00032350026682612755 0 0.00019770798689022656 -0.00050204480456752674 0 0.00022275415466785426 -0.00040734362685960416 0 0.00015366089129873541 -0.00045564721045326088 0 -0.0019100711635269573 0.00020309637800807872 0 -0.0021011615826357077 0.00079105638075109563 0 -0.0015578038073174136 0.00051001503846631927 0 -0.0016079344762117912 0.00035935129057732278 0 -0.0009402960177653535 0.00012124766790477143 0 0.0024431649999884109 -0.0013913986121731438 0 0.0016042533364575983 -0.0012675731808121835 0 0.0016978776845063329 -0.0010745503890154295 0 0.0016608266671068496 -0.001197927516431586 0 0.0017681724692193786 -0.0011797666702651536 0 -0.00083120299215869056 -0.0001479546101637322 0 0.0024431649999884109 -0.0013913986121731438 0 0.00025280089851377512 -0.00035851620246166681 0 0.00022275415466785426 -0.00040734362685960416 0 0.00021390319464817026 -0.00032350026682612755 0 0.00025280089851377512 -0.00035851620246166681 0 0.00021390319464817026 -0.00032350026682612755 0 0.0002763982629367143 -0.00031055216615423541 0 0.0033883579472199893 -0.00095942679887890962 0 0.0033727205849969025 -0.0010094060509033735 0 0.0032872926708163675 -0.00097362731789500884 0 0.0065699182991033264 -0.0022775553025500546 0 0.0066389076626221198 -0.0025913330661451223 0 0.0063152239297632872 -0.0024643248580469884 0 0.0024431649999884109 -0.0013913986121731438 0 0.0030606186548500685 -0.001041691790154495 0 0.0017547607342098441 -0.001202776947941211 0 0.0017905806996648987 -0.0012311104461587786 0 0.0017681724692193786 -0.0011797666702651536 0 0.0043296279355595395 -0.0015689599859145193 0 0.0030606186548500685 -0.001041691790154495 0 0.0043296279355595395 -0.0015689599859145193 0 0.004142917152546232 -0.0018863868404240252 0 0.0024431649999884109 -0.0013913986121731438 0 0.0043296279355595395 -0.0015689599859145193 0 0.0017559050754652396 -0.0011956648799903281 0 0.0017547607342098441 -0.001202776947941211 0 0.0017681724692193786 -0.0011797666702651536 0 0.0040372682488157815 -0.0016561757523319588 0 0.0030606186548500685 -0.001041691790154495 0 0.0063710392312343817 -0.0019537108196052894 0 0.0068264242765435721 -0.002090023519371988 0 0.0068477401978642759 -0.0019831251551738508 0 0.0068421508836489769 -0.0020603189551608599 0 0.0068557268790286749 -0.0020556791295342691 0 0.0068264242765435721 -0.002090023519371988 0 0.0068557268790286749 -0.0020556791295342691 0 0.0068264242765435721 -0.002090023519371988 0 0.0068477401978642759 -0.0019831251551738508 0 -0.004708042000241091 0.0017694661693536374 0 -0.0049606410155581451 0.00096393938396997455 0 -0.0029059800324874149 0.00063945783389701455 0 -0.00037794733278127905 -0.00061443492773596712 0 0.00054392714706761062 -0.0008643813799075258 0 -0.0010422941757812889 0.00017714466075866432 0 -0.0010906160769810558 8.5238902701313997e-06 0 -0.0013703056414219469 0.00024780365627927084 0 -0.0027718872965921261 0.0010091215594131373 0 -0.00037794733278127905 -0.00061443492773596712 0 -0.0027718872965921261 0.0010091215594131373 0 -0.0034777628353320198 0.0010179519558311575 0 0.0028056657187820887 -0.003014121900913721 0 -0.00037794733278127905 -0.00061443492773596712 0 0.0018573065294794199 -0.0012681710461181709 0 0.0018639354185314237 -0.0012277361495625649 0 0.0018270927285679668 -0.0011964852566676372 0 0.0018573065294794199 -0.0012681710461181709 0 0.0017905806996648987 -0.0012311104461587786 0 0.0018034524998142344 -0.001209760773950862 0 0.0028056657187820887 -0.003014121900913721 0 0.004142917152546232 -0.0018863868404240252 0 0.0017905806996648987 -0.0012311104461587786 0 0.0018034524998142344 -0.001209760773950862 0 0.0017681724692193786 -0.0011797666702651536 0 0.0018034524998142344 -0.001209760773950862 0 0.0018234606072516776 -0.0011871970471961728 0 0.0017681724692193786 -0.0011797666702651536 0 0.0018573065294794199 -0.0012681710461181709 0 0.0018034524998142344 -0.001209760773950862 0 0.0018270927285679668 -0.0011964852566676372 0 0.0018639354185314237 -0.0012277361495625649 0 0.0018270927285679668 -0.0011964852566676372 0 0.0018160817698237961 -0.0011822603673225436 0 0.0018034524998142344 -0.001209760773950862 0 0.0018270927285679668 -0.0011964852566676372 0 0.0018234606072516776 -0.0011871970471961728 0 0.00090254384432399257 -0.0011351603206499069 0 0.00054392714706761062 -0.0008643813799075258 0 0.0016978776845063329 -0.0010745503890154295 0 0.0018234606072516776 -0.0011871970471961728 0 0.0017681724692193786 -0.0011797666702651536 0 -0.0027718872965921261 0.0010091215594131373 0 -0.0021011615826357077 0.00079105638075109563 0 -0.00083120299215869056 -0.0001479546101637322 0 0.00054392714706761062 -0.0008643813799075258 0 -0.0016079344762117912 0.00035935129057732278 0 1.0665413471785842e-06 -0.00098056139974391486 0 -0.0009402960177653535 0.00012124766790477143 0 -0.0034236935973805485 0.0024096484591789322 0 -0.0027500879224520479 0.0021870630233271119 0 -0.0030792159114776544 0.0021134765807217198 0 -0.0010422941757812889 0.00017714466075866432 0 -0.0013703056414219469 0.00024780365627927084 0 -0.0016281807110382757 0.00055753929086373166 0 0.00054392714706761062 -0.0008643813799075258 0 -0.0021011615826357077 0.00079105638075109563 0 -0.0034236935973805485 0.0024096484591789322 0 -0.0033462878508958745 0.0020526030019333381 0 -0.0035046605769749588 0.0019885995933566904 0 -0.0034236935973805485 0.0024096484591789322 0 -0.0030792159114776544 0.0021134765807217198 0 -0.0033462878508958745 0.0020526030019333381 0 -0.0038209722684622439 0.0013009956911924122 0 -0.0035046605769749588 0.0019885995933566904 0 -0.0031715080917361009 0.0016011781702366173 0 -0.0027718872965921261 0.0010091215594131373 0 -0.0033453251954303665 0.002055839284896192 0 -0.0033462878508958745 0.0020526030019333381 0 -0.0035046605769749588 0.0019885995933566904 0 -0.0035184370344472416 0.0019836799845481526 0 -0.0035184370344472416 0.0019836799845481526 0 -0.0041233089117444482 0.0019349367717160055 0 -0.0034995770998814419 0.0019264817131677487 0 -0.0035046605769749588 0.0019885995933566904 0 -0.0035184370344472416 0.0019836799845481526 0 -0.0034995770998814419 0.0019264817131677487 0 -0.0033462878508958745 0.0020526030019333381 0 -0.0035184370344472416 0.0019836799845481526 0 -0.0031628664816033257 0.0019723718854442979 0 -0.0035184370344472416 0.0019836799845481526 0 -0.0031628664816033257 0.0019723718854442979 0 -0.0031835554784895178 0.0017300456791057464 0 -0.0027500879224520479 0.0021870630233271119 0 -0.0030792159114776544 0.0021134765807217198 0 -0.0028089664285499511 0.0019967225886937516 0 -0.0025527231985303018 0.0020311220455491445 0 -0.0027500879224520479 0.0021870630233271119 0 -0.0028089664285499511 0.0019967225886937516 0 -0.0030792159114776544 0.0021134765807217198 0 -0.0033462878508958745 0.0020526030019333381 0 -0.0031628664816033257 0.0019723718854442979 0 -0.0030792159114776544 0.0021134765807217198 0 -0.0028089664285499511 0.0019967225886937516 0 -0.0031628664816033257 0.0019723718854442979 0 -0.0028089664285499511 0.0019967225886937516 0 -0.0031628664816033257 0.0019723718854442979 0 -0.0027975652522149773 0.0018186840080937218 0 -0.0031628664816033257 0.0019723718854442979 0 -0.0027975652522149773 0.0018186840080937218 0 -0.0031835554784895178 0.0017300456791057464 0 -0.00255114423211979 0.0017807864108373953 0 -0.0028089664285499511 0.0019967225886937516 0 -0.0027975652522149773 0.0018186840080937218 0 -0.0029420677496386329 -0.00021101582545647159 0 -0.0024433668472878213 0.0015184132545863699 0 -0.0031835554784895178 0.0017300456791057464 0 -0.0070656198430364215 0.0005847821204347512 0 -0.0083769283725287618 0.0013815218517657811 0 -0.0027975652522149773 0.0018186840080937218 0 -0.0024433668472878213 0.0015184132545863699 0 -0.0031835554784895178 0.0017300456791057464 0 -0.00255114423211979 0.0017807864108373953 0 -0.0027975652522149773 0.0018186840080937218 0 -0.0024433668472878213 0.0015184132545863699 0 -0.0029420677496386329 -0.00021101582545647159 0 -0.0031835554784895178 0.0017300456791057464 0 -0.0041233089117444482 0.0019349367717160055 0 -0.0035184370344472416 0.0019836799845481526 0 -0.0031835554784895178 0.0017300456791057464 0 -0.0041233089117444482 0.0019349367717160055 0 -0.0041233089117444482 0.0019349367717160055 0 -0.0028762094275649832 0.0024883258736656672 0 -0.0032362195956016256 0.0020978073628614004 0 -0.0063687139173103143 0.00044714178674825077 0 -0.0041233089117444482 0.0019349367717160055 0 -0.0087049773339024951 0.0022342623217250536 0 -0.0042239285942406654 0.002031684373863907 0 -0.005750545624876504 0.0022934782017275646 0 -0.0063687139173103143 0.00044714178674825077 0 -0.0085720923097923687 0.00025354355068557565 0 -0.0087049773339024951 0.0022342623217250536 0 -0.0028762094275649832 0.0024883258736656672 0 -0.0032362195956016256 0.0020978073628614004 0 -0.0026513210446149193 0.0019607994816966709 0 -0.0028762094275649832 0.0024883258736656672 0 -0.0026513210446149193 0.0019607994816966709 0 -0.0021688906760201736 0.0022299450909616771 0 -0.0032362195956016256 0.0020978073628614004 0 -0.0026513210446149193 0.0019607994816966709 0 -0.0032255182838024157 0.0019186221631255149 0 -0.0026513210446149193 0.0019607994816966709 0 -0.0027108988223458266 0.0016933083123983562 0 -0.0023295370753814806 0.001801051759730104 0 -0.0026513210446149193 0.0019607994816966709 0 -0.0027108988223458266 0.0016933083123983562 0 -0.0032255182838024157 0.0019186221631255149 0 -0.0027108988223458266 0.0016933083123983562 0 -0.0032255182838024157 0.0019186221631255149 0 -0.0030969869178755403 0.0017198609339040525 0 -0.0041233089117444482 0.0019349367717160055 0 -0.0032362195956016256 0.0020978073628614004 0 -0.0032255182838024157 0.0019186221631255149 0 -0.0034995770998814419 0.0019264817131677487 0 -0.0032255182838024157 0.0019186221631255149 0 -0.0030969869178755403 0.0017198609339040525 0 -0.0041233089117444482 0.0019349367717160055 0 -0.0034995770998814419 0.0019264817131677487 0 -0.0032255182838024157 0.0019186221631255149 0 -0.005750545624876504 0.0022934782017275646 0 -0.0067001861979140587 0.0021027387681765669 0 -0.01082758104913417 -1.9736993960185143e-05 0 -0.0087049773339024951 0.0022342623217250536 0 -0.013080980356948647 0.0017050632922472882 0 -0.0028762094275649832 0.0024883258736656672 0 -0.00037675826480220955 0.002522967057388136 0 -0.0021688906760201736 0.0022299450909616771 0 -0.00037675826480220955 0.002522967057388136 0 -0.0021688906760201736 0.0022299450909616771 0 -0.00089891422769577413 -0.00025265900097255387 0 -0.0021688906760201736 0.0022299450909616771 0 -0.0023295370753814806 0.001801051759730104 0 -0.0018367461864423516 0.0017228950826374883 0 -0.0021190233800136072 0.0021163051598742971 0 -0.0014194601787183186 0.00068728800081507249 0 -0.0026513210446149193 0.0019607994816966709 0 -0.0021688906760201736 0.0022299450909616771 0 -0.0023295370753814806 0.001801051759730104 0 -0.00037675826480220955 0.002522967057388136 0 -0.00089891422769577413 -0.00025265900097255387 0 0.0012095219455154178 0.00048864392392030667 0 -0.00089891422769577413 -0.00025265900097255387 0 0.001153044883168527 -0.001018832658730928 0 0.0012095219455154178 0.00048864392392030667 0 -0.0014194601787183186 0.00068728800081507249 0 0.00056091739407505543 -0.00025939274728505941 0 -0.0018367461864423516 0.0017228950826374883 0 -0.0017731909131288714 0.0012753531198990233 0 -0.0011692607563439882 0.0010467301621046566 0 -0.00089891422769577413 -0.00025265900097255387 0 0.00069289220729937392 -0.0027298955254892636 0 0.001153044883168527 -0.001018832658730928 0 -0.0017731909131288714 0.0012753531198990233 0 -0.0022778790465582594 0.0014697960799802963 0 -0.0024150024957699883 0.00091026985638327398 0 -0.0023295370753814806 0.001801051759730104 0 -0.0018367461864423516 0.0017228950826374883 0 -0.0022778790465582594 0.0014697960799802963 0 -0.0018367461864423516 0.0017228950826374883 0 -0.0017731909131288714 0.0012753531198990233 0 -0.0022778790465582594 0.0014697960799802963 0 -0.0027108988223458266 0.0016933083123983562 0 -0.0023295370753814806 0.001801051759730104 0 -0.0022778790465582594 0.0014697960799802963 0 -0.00061778145966168391 0.00088166610777186275 0 0.0011861978856975669 0.00026984897311682372 0 -0.0017731909131288714 0.0012753531198990233 0 -0.0024150024957699883 0.00091026985638327398 0 -0.0013928228495190085 0.0008758103562153377 0 -0.0024150024957699883 0.00091026985638327398 0 -0.0013928228495190085 0.0008758103562153377 0 -0.0014336768095939859 0.00029692308884034544 0 -0.0013928228495190085 0.0008758103562153377 0 -0.0014336768095939859 0.00029692308884034544 0 -0.00096014044869906202 0.0011561039759790546 0 -0.0017731909131288714 0.0012753531198990233 0 -0.0013928228495190085 0.0008758103562153377 0 -0.0011692607563439882 0.0010467301621046566 0 -0.00055031259815540201 -5.6842243558290683e-06 0 0.00056091739407505543 -0.00025939274728505941 0 -0.0030969869178755403 0.0017198609339040525 0 -0.0026416762933326446 0.001403616758914643 0 -0.0027020495786636177 0.0014189685863792542 0 -0.0031715080917361009 0.0016011781702366173 0 -0.0030969869178755403 0.0017198609339040525 0 -0.0027020495786636177 0.0014189685863792542 0 -0.0035046605769749588 0.0019885995933566904 0 -0.0031715080917361009 0.0016011781702366173 0 -0.0030969869178755403 0.0017198609339040525 0 -0.0035046605769749588 0.0019885995933566904 0 -0.0034995770998814419 0.0019264817131677487 0 -0.0030969869178755403 0.0017198609339040525 0 -0.0027108988223458266 0.0016933083123983562 0 -0.0030969869178755403 0.0017198609339040525 0 -0.0026416762933326446 0.001403616758914643 0 -0.0022778790465582594 0.0014697960799802963 0 -0.0024150024957699883 0.00091026985638327398 0 -0.0026416762933326446 0.001403616758914643 0 -0.0027108988223458266 0.0016933083123983562 0 -0.0022778790465582594 0.0014697960799802963 0 -0.0026416762933326446 0.001403616758914643 0 -0.00061778145966168391 0.00088166610777186275 0 -0.002507773219466138 0.0014113751609118002 0 0.0010259154341016627 0.0010037316620919387 0 -0.0010475035257358504 0.00012842049124019581 0 -0.0027020495786636177 0.0014189685863792542 0 -0.0024150024957699883 0.00091026985638327398 0 -0.0026416762933326446 0.001403616758914643 0 -0.0027020495786636177 0.0014189685863792542 0 -0.0049606410155581451 0.00096393938396997455 0 -0.0029059800324874149 0.00063945783389701455 0 -0.0025201657356334049 -0.0011036244571054408 0 -0.0027020495786636177 0.0014189685863792542 0 -0.0029059800324874149 0.00063945783389701455 0 -0.0021537516647058327 -8.0850991666818649e-05 0 -0.0010475035257358504 0.00012842049124019581 0 -0.0027020495786636177 0.0014189685863792542 0 -0.0021537516647058327 -8.0850991666818649e-05 0 -0.0038209722684622439 0.0013009956911924122 0 -0.0031715080917361009 0.0016011781702366173 0 -0.0029059800324874149 0.00063945783389701455 0 -0.0031715080917361009 0.0016011781702366173 0 -0.0027020495786636177 0.0014189685863792542 0 -0.0029059800324874149 0.00063945783389701455 0 0.0021619526168081852 -0.0034685144933609825 0 0.0028353655294495028 -0.0042017183479697096 0 0.002987214245061055 -0.0042370583102960086 0 -0.00037794733278127905 -0.00061443492773596712 0 9.0317290518779548e-05 -0.0026862338681292106 0 -0.0029059800324874149 0.00063945783389701455 0 -0.0021537516647058327 -8.0850991666818649e-05 0 -0.0025201657356334049 -0.0011036244571054408 0 -0.0021537516647058327 -8.0850991666818649e-05 0 -0.0025201657356334049 -0.0011036244571054408 0 -0.001566645019168298 -0.00062933772936734148 0 0.0028353655294495028 -0.0042017183479697096 0 0.002987214245061055 -0.0042370583102960086 0 0.0029120361463965804 -0.0043455188446000605 0 0.0028047498037504473 -0.0042961231974082102 0 0.0028353655294495028 -0.0042017183479697096 0 0.0029120361463965804 -0.0043455188446000605 0 0.0028887344514560019 -0.0044430945504194304 0 0.0030317597143153939 -0.0044561751297212083 0 0.0028933087094280977 -0.0046769609510858559 0 0.0028047498037504473 -0.0042961231974082102 0 0.0029120361463965804 -0.0043455188446000605 0 0.0028887344514560019 -0.0044430945504194304 0 0.0029120361463965804 -0.0043455188446000605 0 0.0028887344514560019 -0.0044430945504194304 0 0.0030317597143153939 -0.0044561751297212083 0 0.002987214245061055 -0.0042370583102960086 0 0.0029120361463965804 -0.0043455188446000605 0 0.0030317597143153939 -0.0044561751297212083 0 9.0317290518779548e-05 -0.0026862338681292106 0 0.0019620354395978958 -0.0038483703799686558 0 0.0032200848893146629 -0.0044576005988901934 0 0.0030317597143153939 -0.0044561751297212083 0 0.0031873871918377318 -0.0048873228894992047 0 0.002987214245061055 -0.0042370583102960086 0 0.0032200848893146629 -0.0044576005988901934 0 0.0030317597143153939 -0.0044561751297212083 0 -0.0025201657356334049 -0.0011036244571054408 0 0.00060382968794404608 -0.0032800752262798741 0 -0.00055648575707507668 -0.0014899441028132455 0 0.00060382968794404608 -0.0032800752262798741 0 -0.00055648575707507668 -0.0014899441028132455 0 0.0010602353879358487 -0.0012737297451982849 0 0.0010259154341016627 0.0010037316620919387 0 -0.0010475035257358504 0.00012842049124019581 0 0.0010602353879358487 -0.0012737297451982849 0 -0.0025201657356334049 -0.0011036244571054408 0 -0.00055648575707507668 -0.0014899441028132455 0 -0.001566645019168298 -0.00062933772936734148 0 -0.0010475035257358504 0.00012842049124019581 0 -0.00055648575707507668 -0.0014899441028132455 0 -0.001566645019168298 -0.00062933772936734148 0 -0.0010475035257358504 0.00012842049124019581 0 -0.0021537516647058327 -8.0850991666818649e-05 0 -0.001566645019168298 -0.00062933772936734148 0 -0.0010475035257358504 0.00012842049124019581 0 -0.00055648575707507668 -0.0014899441028132455 0 0.0010602353879358487 -0.0012737297451982849 0 0.0010259154341016627 0.0010037316620919387 0 0.0027784907717881505 -0.0009319206765209052 0 0.0043930930913150899 -0.00010568122227484615 0 0.0010259154341016627 0.0010037316620919387 0 0.0027784907717881505 -0.0009319206765209052 0 0.0010602353879358487 -0.0012737297451982849 0 0.0027784907717881505 -0.0009319206765209052 0 0.0010602353879358487 -0.0012737297451982849 0 0.0027955443523062715 -0.0022439017010533022 0 0.0027784907717881505 -0.0009319206765209052 0 0.0043930930913150899 -0.00010568122227484615 0 0.0042406365502963709 -0.0016189692629910066 0 0.0027784907717881505 -0.0009319206765209052 0 0.0042406365502963709 -0.0016189692629910066 0 0.0027955443523062715 -0.0022439017010533022 0 0.0043930930913150899 -0.00010568122227484615 0 0.0042406365502963709 -0.0016189692629910066 0 0.0056611347693062749 -0.0017333639725782598 0 0.0042406365502963709 -0.0016189692629910066 0 0.0053942974614739443 -0.0028354447660707657 0 0.0041468311956307262 -0.002822976534837172 0 0.0042406365502963709 -0.0016189692629910066 0 0.0053942974614739443 -0.0028354447660707657 0 0.0056611347693062749 -0.0017333639725782598 0 0.0041468311956307262 -0.002822976534837172 0 0.0027955443523062715 -0.0022439017010533022 0 0.0032747182082869257 -0.003470353210527083 0 0.0042406365502963709 -0.0016189692629910066 0 0.0041468311956307262 -0.002822976534837172 0 0.0027955443523062715 -0.0022439017010533022 0 0.0041468311956307262 -0.002822976534837172 0 0.0032747182082869257 -0.003470353210527083 0 0.0045739274932894286 -0.0039792718168534082 0 0.0053942974614739443 -0.0028354447660707657 0 0.0041468311956307262 -0.002822976534837172 0 0.0045739274932894286 -0.0039792718168534082 0 0.00060382968794404608 -0.0032800752262798741 0 0.0032747182082869257 -0.003470353210527083 0 0.0038926419187196074 -0.0049557944946192296 0 0.00060382968794404608 -0.0032800752262798741 0 0.0027955443523062715 -0.0022439017010533022 0 0.0032747182082869257 -0.003470353210527083 0 0.00060382968794404608 -0.0032800752262798741 0 0.0010602353879358487 -0.0012737297451982849 0 0.0027955443523062715 -0.0022439017010533022 0 0.0019620354395978958 -0.0038483703799686558 0 0.0036845455014040914 -0.0049052930249038375 0 0.0032200848893146629 -0.0044576005988901934 0 0.0038926419187196074 -0.0049557944946192296 0 0.0031873871918377318 -0.0048873228894992047 0 0.0038926419187196074 -0.0049557944946192296 0 0.0043356473487358655 -0.0052447196197135861 0 0.0031873871918377318 -0.0048873228894992047 0 0.0065376153184011094 -0.0054179380421760142 0 0.0068012790228535016 -0.0055334017062694226 0 0.0045739274932894286 -0.0039792718168534082 0 0.0043356473487358655 -0.0052447196197135861 0 0.0064538492927216362 -0.0039650828389945292 0 0.0045739274932894286 -0.0039792718168534082 0 0.0038926419187196074 -0.0049557944946192296 0 0.0043356473487358655 -0.0052447196197135861 0 0.0032747182082869257 -0.003470353210527083 0 0.0045739274932894286 -0.0039792718168534082 0 0.0038926419187196074 -0.0049557944946192296 0 0.0085767341743960522 -0.0057022557603147884 0 0.0094929997318010974 -0.0052752330980255901 0 0.0086542165842263957 -0.0047487719123968184 0 0.0085767341743960522 -0.0057022557603147884 0 0.0082192046727016087 -0.0050516881562504773 0 0.0086542165842263957 -0.0047487719123968184 0 0.0085767341743960522 -0.0057022557603147884 0 0.0094929997318010974 -0.0052752330980255901 0 0.010289864768176463 -0.0062262604133766376 0 0.0094929997318010974 -0.0052752330980255901 0 0.010289864768176463 -0.0062262604133766376 0 0.010748598863425718 -0.0045807212910348059 0 0.011970058119592831 -0.0052215636078171267 0 0.010289864768176463 -0.0062262604133766376 0 0.010748598863425718 -0.0045807212910348059 0 0.011970058119592831 -0.0052215636078171267 0 0.01226436798719417 -0.0063887220744333981 0 0.010289864768176463 -0.0062262604133766376 0 0.0073962822752441735 -0.0057084559267940125 0 0.0068012790228535016 -0.0055334017062694226 0 0.0030317597143153939 -0.0044561751297212083 0 0.0028933087094280977 -0.0046769609510858559 0 0.0031873871918377318 -0.0048873228894992047 0 0.0083826622201778177 -0.0040248848077532335 0 0.0086560073303423978 -0.0045105912523907598 0 0.0078887364672184414 -0.0039321188902242928 0 0.008507909257601148 -0.0043214897314797869 0 0.0084051956667649287 -0.0038649323456046813 0 0.0083826622201778177 -0.0040248848077532335 0 0.0086560073303423978 -0.0045105912523907598 0 0.0089890701881203076 -0.0044086625484132625 0 0.0083826622201778177 -0.0040248848077532335 0 0.0089890701881203076 -0.0044086625484132625 0 0.0087363604818723514 -0.003877062192042579 0 0.010212690670923071 -0.0033689459213438835 0 0.010683370515871631 -0.0044156725655720144 0 0.0092336636685423443 -0.0047280780951784746 0 0.0086560073303423978 -0.0045105912523907598 0 0.0089890701881203076 -0.0044086625484132625 0 0.0092336636685423443 -0.0047280780951784746 0 0.009611269640279951 -0.0039230666028571715 0 0.0092190418751444368 -0.0046798260422248545 0 0.0086560073303423978 -0.0045105912523907598 0 0.008416479094818647 -0.0049938585829888233 0 0.0092336636685423443 -0.0047280780951784746 0 0.0082192046727016087 -0.0050516881562504773 0 0.0079062321515364423 -0.0049719482789639538 0 0.008416479094818647 -0.0049938585829888233 0 0.0086560073303423978 -0.0045105912523907598 0 0.0079062321515364423 -0.0049719482789639538 0 0.008416479094818647 -0.0049938585829888233 0 0.0085767341743960522 -0.0057022557603147884 0 0.0082192046727016087 -0.0050516881562504773 0 0.0079062321515364423 -0.0049719482789639538 0 0.0065376153184011094 -0.0054179380421760142 0 0.0077961000651141045 -0.0050899087378191476 0 0.0043356473487358655 -0.0052447196197135861 0 0.0064538492927216362 -0.0039650828389945292 0 0.0079062321515364423 -0.0049719482789639538 0 0.0064538492927216362 -0.0039650828389945292 0 0.0079062321515364423 -0.0049719482789639538 0 0.008353568902004194 -0.0034581523773750855 0 0.0086560073303423978 -0.0045105912523907598 0 0.0079062321515364423 -0.0049719482789639538 0 0.008353568902004194 -0.0034581523773750855 0 0.008353568902004194 -0.0034581523773750855 0 0.0070132534808287289 -0.0028653835036179772 0 0.0071287879565243304 -0.0012398126235139272 0 0.0084051956667649287 -0.0038649323456046813 0 0.004889741653201515 -0.0019829838513744993 0 0.0064538492927216362 -0.0039650828389945292 0 0.008353568902004194 -0.0034581523773750855 0 0.0070132534808287289 -0.0028653835036179772 0 0.0078887364672184414 -0.0039321188902242928 0 0.0074440882379908247 -0.0033472882772362387 0 0.0080128554046184405 -0.0035552976886269318 0 0.0053942974614739443 -0.0028354447660707657 0 0.0045739274932894286 -0.0039792718168534082 0 0.0064538492927216362 -0.0039650828389945292 0 0.0053942974614739443 -0.0028354447660707657 0 0.0064538492927216362 -0.0039650828389945292 0 0.0070132534808287289 -0.0028653835036179772 0 0.0070132534808287289 -0.0028653835036179772 0 0.0056611347693062749 -0.0017333639725782598 0 0.0071287879565243304 -0.0012398126235139272 0 0.0053942974614739443 -0.0028354447660707657 0 0.0070132534808287289 -0.0028653835036179772 0 0.0056611347693062749 -0.0017333639725782598 0 0.0011861978856975669 0.00026984897311682372 0 0.004889741653201515 -0.0019829838513744993 0 0.0043930930913150899 -0.00010568122227484615 0 0.0056611347693062749 -0.0017333639725782598 0 0.0071287879565243304 -0.0012398126235139272 0 0.004889741653201515 -0.0019829838513744993 0 0.0075791886998214366 -0.0035404635955968867 0 0.0052234802669977624 -0.0028667615255700452 0 0.0065308348304762166 -0.0033291182706470914 0 0.0063283259045317976 -0.0019089852792075889 0 0.0065308348304762166 -0.0033291182706470914 0 0.0073951609158553972 -0.0026302811679794372 0 0.0082375648857107905 -0.003706025155272707 0 0.0065308348304762166 -0.0033291182706470914 0 0.0073951609158553972 -0.0026302811679794372 0 0.0063283259045317976 -0.0019089852792075889 0 0.0083826622201778177 -0.0040248848077532335 0 0.0078887364672184414 -0.0039321188902242928 0 0.0080128554046184405 -0.0035552976886269318 0 0.0083826622201778177 -0.0040248848077532335 0 0.0080128554046184405 -0.0035552976886269318 0 0.0082375648857107905 -0.003706025155272707 0 0.0075791886998214366 -0.0035404635955968867 0 0.0080014442687413 -0.0036474111741730307 0 0.0083826622201778177 -0.0040248848077532335 0 0.0087363604818723514 -0.003877062192042579 0 0.0082375648857107905 -0.003706025155272707 0 0.0087363604818723514 -0.003877062192042579 0 0.0082375648857107905 -0.003706025155272707 0 0.0088154350152009186 -0.0032980555429073517 0 0.0088154350152009186 -0.0032980555429073517 0 0.0082829954282806831 -0.0026030845149753457 0 0.0090225778092534008 -0.0023287147942101212 0 0.0082375648857107905 -0.003706025155272707 0 0.0088154350152009186 -0.0032980555429073517 0 0.0082829954282806831 -0.0026030845149753457 0 0.0073951609158553972 -0.0026302811679794372 0 0.0082375648857107905 -0.003706025155272707 0 0.0082829954282806831 -0.0026030845149753457 0 0.0073951609158553972 -0.0026302811679794372 0 0.0082829954282806831 -0.0026030845149753457 0 0.0075049077499290051 -0.0017387494987313032 0 0.0082829954282806831 -0.0026030845149753457 0 0.0084048409580006062 -0.0015510792597113166 0 0.0090225778092534008 -0.0023287147942101212 0 0.0084048409580006062 -0.0015510792597113166 0 0.0075049077499290051 -0.0017387494987313032 0 0.0076119238032129975 -0.00066509367033059047 0 0.0082829954282806831 -0.0026030845149753457 0 0.0084048409580006062 -0.0015510792597113166 0 0.0075049077499290051 -0.0017387494987313032 0 0.0075049077499290051 -0.0017387494987313032 0 0.0067851304613166415 -0.00087004597273964779 0 0.0063283259045317976 -0.0019089852792075889 0 0.0073951609158553972 -0.0026302811679794372 0 0.0075049077499290051 -0.0017387494987313032 0 0.0063283259045317976 -0.0019089852792075889 0 0.0075049077499290051 -0.0017387494987313032 0 0.0067851304613166415 -0.00087004597273964779 0 0.0076119238032129975 -0.00066509367033059047 0 0.0067851304613166415 -0.00087004597273964779 0 0.0076119238032129975 -0.00066509367033059047 0 0.0068344860355071318 0.00044503457882924953 0 0.0067851304613166415 -0.00087004597273964779 0 0.0055971561604176287 -0.00038672717942605448 0 0.0068344860355071318 0.00044503457882924953 0 0.0076119238032129975 -0.00066509367033059047 0 0.0078202019150644033 0.00018352741730020053 0 0.0068344860355071318 0.00044503457882924953 0 0.0076119238032129975 -0.00066509367033059047 0 0.0078202019150644033 0.00018352741730020053 0 0.0084360541232846274 -0.00058717963641603365 0 0.0084048409580006062 -0.0015510792597113166 0 0.0076119238032129975 -0.00066509367033059047 0 0.0084360541232846274 -0.00058717963641603365 0 0.005277263612299259 -0.0016453615845634234 0 0.0041489158992415592 -0.0012784402339200522 0 0.0055971561604176287 -0.00038672717942605448 0 0.0052234802669977624 -0.0028667615255700452 0 0.005277263612299259 -0.0016453615845634234 0 0.0041489158992415592 -0.0012784402339200522 0 0.004889741653201515 -0.0019829838513744993 0 0.00056091739407505543 -0.00025939274728505941 0 -0.0014336768095939859 0.00029692308884034544 0 0.00012792482407830049 -0.0002803119622802384 0 -0.00096014044869906202 0.0011561039759790546 0 0.0052234802669977624 -0.0028667615255700452 0 0.005277263612299259 -0.0016453615845634234 0 0.0063283259045317976 -0.0019089852792075889 0 0.005277263612299259 -0.0016453615845634234 0 0.0063283259045317976 -0.0019089852792075889 0 0.0055971561604176287 -0.00038672717942605448 0 0.0067851304613166415 -0.00087004597273964779 0 0.0063283259045317976 -0.0019089852792075889 0 0.0055971561604176287 -0.00038672717942605448 0 0.004566859819186293 -0.0009503008526184813 0 0.0061746234769954854 0.0003460222748355697 0 0.00056091739407505543 -0.00025939274728505941 0 0.004566859819186293 -0.0009503008526184813 0 0.003076125032851974 -0.0012689436414217209 0 0.001153044883168527 -0.001018832658730928 0 0.0012095219455154178 0.00048864392392030667 0 0.00069289220729937392 -0.0027298955254892636 0 0.003076125032851974 -0.0012689436414217209 0 0.001153044883168527 -0.001018832658730928 0 0.003076125032851974 -0.0012689436414217209 0 0.0012095219455154178 0.00048864392392030667 0 0.003004281396296484 0.0025794443486766181 0 0.003076125032851974 -0.0012689436414217209 0 0.003004281396296484 0.0025794443486766181 0 0.0055579229322958871 0.00015090123510999568 0 -0.00037675826480220955 0.002522967057388136 0 0.0012095219455154178 0.00048864392392030667 0 0.003004281396296484 0.0025794443486766181 0 -0.0067001861979140587 0.0021027387681765669 0 -0.0067276410596552967 0.0015893275641803656 0 0.0078202019150644033 0.00018352741730020053 0 0.0068344860355071318 0.00044503457882924953 0 0.007686461658857926 0.0014865527445406311 0 0.0061746234769954854 0.0003460222748355697 0 0.0076368859507871742 0.0013981375117937574 0 0.0078202019150644033 0.00018352741730020053 0 0.007686461658857926 0.0014865527445406311 0 0.0085891548251328005 0.00046889371324205522 0 -0.017745787943221319 -0.00090940178363148588 0 -0.016611537075425512 0.00064174005580639501 0 -0.01802880708228664 -0.00073763122599798485 0 0.003004281396296484 0.0025794443486766181 0 0.0055579229322958871 0.00015090123510999568 0 0.0065625194397565595 0.00242066945856315 0 -0.0067276410596552967 0.0015893275641803656 0 -0.0057232876936741872 0.00084228965860244653 0 -0.01813018266606866 -0.0014507572173321501 0 -0.01802880708228664 -0.00073763122599798485 0 -0.018169445041788912 -0.0018363214420982637 0 0.0065625194397565595 0.00242066945856315 0 0.007686461658857926 0.0014865527445406311 0 0.0080198199143932756 0.0019523493907136777 0 -0.0057232876936741872 0.00084228965860244653 0 -0.0048135402561628633 0.00010136023804410684 0 0.0055579229322958871 0.00015090123510999568 0 0.0065625194397565595 0.00242066945856315 0 0.007686461658857926 0.0014865527445406311 0 0.0080198199143932756 0.0019523493907136777 0 0.008378653842203999 0.0019741990509510332 0 0.0079202677199672264 0.0024756965208619984 0 0.0080198199143932756 0.0019523493907136777 0 0.0084084756731465423 0.0012455442038674996 0 0.0098484817211138276 0.0010689157209501823 0 0.0082778898979932944 0.0018728835244310211 0 0.0084661170852783473 0.0020790174788539954 0 0.0065625194397565595 0.00242066945856315 0 0.0080198199143932756 0.0019523493907136777 0 0.008378653842203999 0.0019741990509510332 0 0.007686461658857926 0.0014865527445406311 0 0.0080198199143932756 0.0019523493907136777 0 0.0084084756731465423 0.0012455442038674996 0 0.0084084756731465423 0.0012455442038674996 0 0.0085891548251328005 0.00046889371324205522 0 0.0098484817211138276 0.0010689157209501823 0 0.007686461658857926 0.0014865527445406311 0 0.0084084756731465423 0.0012455442038674996 0 0.0085891548251328005 0.00046889371324205522 0 0.0085891548251328005 0.00046889371324205522 0 0.0094579344251393711 3.7380715405023095e-05 0 0.0098484817211138276 0.0010689157209501823 0 0.0085891548251328005 0.00046889371324205522 0 0.0094579344251393711 3.7380715405023095e-05 0 0.0090333487937649115 -0.00029009514919191076 0 0.0084661170852783473 0.0020790174788539954 0 0.010290133927494304 -0.00015885974647112313 0 0.0098484817211138276 0.0010689157209501823 0 0.011246545867313076 0.00010991819285001328 0 0.010223047187060977 -8.0050671945329803e-05 0 0.0094579344251393711 3.7380715405023095e-05 0 0.0098484817211138276 0.0010689157209501823 0 0.010223047187060977 -8.0050671945329803e-05 0 0.0079202677199672264 0.0024756965208619984 0 0.007527576486559477 0.0019811810771845489 0 0.0071440666817668246 0.0021147526731527203 0 0.008378653842203999 0.0019741990509510332 0 0.007527576486559477 0.0019811810771845489 0 0.0066045359530121136 0.0012719195797440232 0 -0.017288872640808136 -0.0015767180852818067 0 -0.018169445041788912 -0.0018363214420982637 0 -0.014235195655585963 -0.0020632190042360011 0 -0.0048135402561628633 0.00010136023804410684 0 -0.0041282039448667009 -0.00044260682152739154 0 0.008378653842203999 0.0019741990509510332 0 0.0079202677199672264 0.0024756965208619984 0 0.007527576486559477 0.0019811810771845489 0 0.007527576486559477 0.0019811810771845489 0 0.0066045359530121136 0.0012719195797440232 0 0.0071440666817668246 0.0021147526731527203 0 0.0066045359530121136 0.0012719195797440232 0 0.0063950954751976251 0.0019604440675516813 0 0.0071440666817668246 0.0021147526731527203 0 0.0066045359530121136 0.0012719195797440232 0 0.0063950954751976251 0.0019604440675516813 0 0.0054939987215032252 0.0015535527612439174 0 0.0063950954751976251 0.0019604440675516813 0 0.0051197161757659485 0.0019599181337768821 0 0.006403585209673603 0.0026548918590998975 0 0.0063950954751976251 0.0019604440675516813 0 0.0071440666817668246 0.0021147526731527203 0 0.006403585209673603 0.0026548918590998975 0 -0.0015265724582922745 -2.0559753694126645e-05 0 -0.0041282039448667009 -0.00044260682152739154 0 0.0038135378283824565 0.00095319190045723475 0 0.0054939987215032252 0.0015535527612439174 0 0.0051197161757659485 0.0019599181337768821 0 0.0038135378283824565 0.00095319190045723475 0 0.0066045359530121136 0.0012719195797440232 0 0.0054939987215032252 0.0015535527612439174 0 -0.0015265724582922745 -2.0559753694126645e-05 0 0.0059508131862825841 0.0025034722513809443 0 0.0063950954751976251 0.0019604440675516813 0 0.0054939987215032252 0.0015535527612439174 0 0.0051197161757659485 0.0019599181337768821 0 0.0055618224394800436 0.0019402763686280195 0 0.0053742072288649953 0.0023660483499584372 0 0.006403585209673603 0.0026548918590998975 0 0.0059508131862825841 0.0025034722513809443 0 0.006027000652976921 0.0024153810583680724 0 0.0046019339721703441 0.0011742094809360165 0 0.0055618224394800436 0.0019402763686280195 0 0.0053742072288649953 0.0023660483499584372 0 0.015571247910776142 -0.0029840244707219766 0 0.015537506590593921 -0.003071536876653938 0 0.015347458270255304 -0.0030909892876039317 0 0.011024666164437249 -9.3095089628924415e-05 0 0.010290133927494304 -0.00015885974647112313 0 0.015571247910776142 -0.0029840244707219766 0 0.015537506590593921 -0.003071536876653938 0 0.015648299862313572 -0.0030654778379362365 0 0.015526910261259417 -0.0031212249482390438 0 0.015537506590593921 -0.003071536876653938 0 0.015347458270255304 -0.0030909892876039317 0 0.015537506590593921 -0.003071536876653938 0 0.015593638012823836 -0.0031121009399882383 0 0.015648299862313572 -0.0030654778379362365 0 0.015526910261259417 -0.0031212249482390438 0 0.015537506590593921 -0.003071536876653938 0 0.015593638012823836 -0.0031121009399882383 0 0.0053742072288649953 0.0023660483499584372 0 0.006403585209673603 0.0026548918590998975 0 0.0066023237622207676 0.0034755071341159298 0 0.0079202677199672264 0.0024756965208619984 0 0.0071440666817668246 0.0021147526731527203 0 0.006403585209673603 0.0026548918590998975 0 0.0079202677199672264 0.0024756965208619984 0 0.006403585209673603 0.0026548918590998975 0 0.0066023237622207676 0.0034755071341159298 0 0.013963099477856657 -0.0013385185532542123 0 0.01413541532859461 -0.0020330229434802564 0 0.013560888668223576 -0.0019268475196993322 0 0.011211233100102422 7.3138937468265468e-05 0 0.010665932690234529 -0.00039153784144541521 0 0.011187253992241561 -0.00051627346157899154 0 0.011246545867313076 0.00010991819285001328 0 0.010665932690234529 -0.00039153784144541521 0 0.010223047187060977 -8.0050671945329803e-05 0 0.010665932690234529 -0.00039153784144541521 0 0.011187253992241561 -0.00051627346157899154 0 0.010859522167996632 -0.00077097153334699977 0 0.010290133927494304 -0.00015885974647112313 0 0.010768487981649743 -8.0609745731615497e-05 0 0.015347458270255304 -0.0030909892876039317 0 0.015465456793596051 -0.0031503554598101211 0 0.015449795752983558 -0.0031684841682470951 0 0.011211233100102422 7.3138937468265468e-05 0 0.011187253992241561 -0.00051627346157899154 0 0.01176853678963447 -0.00031306611480863984 0 0.010290133927494304 -0.00015885974647112313 0 0.014082120218929685 -0.0017776399368333124 0 0.011187253992241561 -0.00051627346157899154 0 0.01176853678963447 -0.00031306611480863984 0 0.0110401013285501 -0.0013704864969530277 0 0.014082120218929685 -0.0017776399368333124 0 0.012296973839460643 -0.0016339470449212952 0 0.010859522167996632 -0.00077097153334699977 0 0.0110401013285501 -0.0013704864969530277 0 0.010433618810555994 -0.00071783045174785497 0 0.011187253992241561 -0.00051627346157899154 0 0.010859522167996632 -0.00077097153334699977 0 0.0110401013285501 -0.0013704864969530277 0 0.010665932690234529 -0.00039153784144541521 0 0.010859522167996632 -0.00077097153334699977 0 0.010433618810555994 -0.00071783045174785497 0 0.015570820088169249 -0.0031623889067326572 0 0.015453360028749115 -0.0031710199751807007 0 0.015705438826277843 -0.0032722458401043971 0 0.014082120218929685 -0.0017776399368333124 0 0.015336354550851751 -0.0026567263981673982 0 0.013963099477856657 -0.0013385185532542123 0 0.01413541532859461 -0.0020330229434802564 0 0.014714614201048934 -0.0018586720804207183 0 0.015593638012823836 -0.0031121009399882383 0 0.015570820088169249 -0.0031623889067326572 0 0.015679352573672686 -0.0031429006273896495 0 0.015526910261259417 -0.0031212249482390438 0 0.015593638012823836 -0.0031121009399882383 0 0.015570820088169249 -0.0031623889067326572 0 0.015570820088169249 -0.0031623889067326572 0 0.015465456793596051 -0.0031503554598101211 0 0.015453360028749115 -0.0031710199751807007 0 0.015526910261259417 -0.0031212249482390438 0 0.015347458270255304 -0.0030909892876039317 0 0.015465456793596051 -0.0031503554598101211 0 0.015526910261259417 -0.0031212249482390438 0 0.015570820088169249 -0.0031623889067326572 0 0.015465456793596051 -0.0031503554598101211 0 0.014111053772034239 -0.0018555123691996668 0 0.014082120218929685 -0.0017776399368333124 0 0.01413541532859461 -0.0020330229434802564 0 0.014616304012325462 -0.0025336865086962581 0 0.013892205061308751 -0.0025367528752434716 0 0.01413541532859461 -0.0020330229434802564 0 0.014714614201048934 -0.0018586720804207183 0 0.014616304012325462 -0.0025336865086962581 0 0.01413541532859461 -0.0020330229434802564 0 0.013560888668223576 -0.0019268475196993322 0 0.013892205061308751 -0.0025367528752434716 0 0.013560888668223576 -0.0019268475196993322 0 0.013165875870795913 -0.0024920297601739626 0 0.013892205061308751 -0.0025367528752434716 0 0.012296973839460643 -0.0016339470449212952 0 0.011324536540078024 -0.0021086390154840978 0 0.0110401013285501 -0.0013704864969530277 0 0.010433618810555994 -0.00071783045174785497 0 0.010338834372694013 -0.002423729395338426 0 0.0094596242168589525 -0.0013665548791267511 0 0.010433618810555994 -0.00071783045174785497 0 0.010357751276997838 -0.0023760149858696377 0 0.010240196544128978 -0.00095534861853205626 0 0.011324536540078024 -0.0021086390154840978 0 0.0094596242168589525 -0.0013665548791267511 0 0.0095966564900235116 -0.002248031454145399 0 0.010357751276997838 -0.0023760149858696377 0 0.0094596242168589525 -0.0013665548791267511 0 0.0090225778092534008 -0.0023287147942101212 0 0.0095966564900235116 -0.002248031454145399 0 0.0084048409580006062 -0.0015510792597113166 0 0.0094596242168589525 -0.0013665548791267511 0 0.0090225778092534008 -0.0023287147942101212 0 0.0084048409580006062 -0.0015510792597113166 0 0.0094596242168589525 -0.0013665548791267511 0 0.0084360541232846274 -0.00058717963641603365 0 0.0094596242168589525 -0.0013665548791267511 0 0.0084360541232846274 -0.00058717963641603365 0 0.0090333487937649115 -0.00029009514919191076 0 0.0094596242168589525 -0.0013665548791267511 0 0.0090333487937649115 -0.00029009514919191076 0 0.0097095768375492376 -0.00052790310974183284 0 0.0085891548251328005 0.00046889371324205522 0 0.0084360541232846274 -0.00058717963641603365 0 0.0090333487937649115 -0.00029009514919191076 0 0.0078202019150644033 0.00018352741730020053 0 0.0085891548251328005 0.00046889371324205522 0 0.0084360541232846274 -0.00058717963641603365 0 0.0094579344251393711 3.7380715405023095e-05 0 0.0090333487937649115 -0.00029009514919191076 0 0.0097095768375492376 -0.00052790310974183284 0 0.0094579344251393711 3.7380715405023095e-05 0 0.0097095768375492376 -0.00052790310974183284 0 0.010223047187060977 -8.0050671945329803e-05 0 0.0097095768375492376 -0.00052790310974183284 0 0.010223047187060977 -8.0050671945329803e-05 0 0.010433618810555994 -0.00071783045174785497 0 0.010665932690234529 -0.00039153784144541521 0 0.010223047187060977 -8.0050671945329803e-05 0 0.010433618810555994 -0.00071783045174785497 0 0.0094596242168589525 -0.0013665548791267511 0 0.0097095768375492376 -0.00052790310974183284 0 0.010433618810555994 -0.00071783045174785497 0 0.016061588427825443 -0.0031968053452261524 0 0.015958598441573615 -0.0031125347275308113 0 0.016101522496947258 -0.0031935365368319247 0 0.015933831044891354 -0.003040565249048843 0 0.016002704677351189 -0.0031923109412031097 0 0.016061588427825443 -0.0031968053452261524 0 0.015933831044891354 -0.003040565249048843 0 0.016061588427825443 -0.0031968053452261524 0 0.015958598441573615 -0.0031125347275308113 0 0.015933831044891354 -0.003040565249048843 0 0.015958598441573615 -0.0031125347275308113 0 0.015763286996710368 -0.0030328305280451317 0 0.015958598441573615 -0.0031125347275308113 0 0.015845838099842257 -0.0031222209274079458 0 0.015974667300657087 -0.003188141457963973 0 0.015958598441573615 -0.0031125347275308113 0 0.015845838099842257 -0.0031222209274079458 0 0.015763286996710368 -0.0030328305280451317 0 0.015845838099842257 -0.0031222209274079458 0 0.015753318686479729 -0.0031091364586371775 0 0.015821249477360987 -0.0031893703531535931 0 0.015933831044891354 -0.003040565249048843 0 0.015700614117177179 -0.0029332856435813934 0 0.015763286996710368 -0.0030328305280451317 0 0.015700614117177179 -0.0029332856435813934 0 0.015571247910776142 -0.0029840244707219766 0 0.015763286996710368 -0.0030328305280451317 0 0.0069235110974595893 -0.00066411420703577605 0 0.011024666164437249 -9.3095089628924415e-05 0 0.0040084861612264683 0.001129083368274436 0 0.0046019339721703441 0.0011742094809360165 0 0.0053742072288649953 0.0023660483499584372 0 0.015571247910776142 -0.0029840244707219766 0 0.015763286996710368 -0.0030328305280451317 0 0.015648299862313572 -0.0030654778379362365 0 0.015845838099842257 -0.0031222209274079458 0 0.015763286996710368 -0.0030328305280451317 0 0.015753318686479729 -0.0031091364586371775 0 0.015763286996710368 -0.0030328305280451317 0 0.015648299862313572 -0.0030654778379362365 0 0.015753318686479729 -0.0031091364586371775 0 0.015593638012823836 -0.0031121009399882383 0 0.015648299862313572 -0.0030654778379362365 0 0.015679352573672686 -0.0031429006273896495 0 0.015648299862313572 -0.0030654778379362365 0 0.015753318686479729 -0.0031091364586371775 0 0.015679352573672686 -0.0031429006273896495 0 0.015570820088169249 -0.0031623889067326572 0 0.015679352573672686 -0.0031429006273896495 0 0.015705438826277843 -0.0032722458401043971 0 0.015753318686479729 -0.0031091364586371775 0 0.015679352573672686 -0.0031429006273896495 0 0.015821249477360987 -0.0031893703531535931 0 0.015679352573672686 -0.0031429006273896495 0 0.015821249477360987 -0.0031893703531535931 0 0.015705438826277843 -0.0032722458401043971 0 0.015821249477360987 -0.0031893703531535931 0 0.015705438826277843 -0.0032722458401043971 0 0.015943731211967814 -0.0032987250132722932 0 0.014714614201048934 -0.0018586720804207183 0 0.015474503087173883 -0.0024657188209381738 0 0.014616304012325462 -0.0025336865086962581 0 0.015336354550851751 -0.0026567263981673982 0 0.015667785982607676 -0.0028620184501490305 0 0.015821249477360987 -0.0031893703531535931 0 0.015943731211967814 -0.0032987250132722932 0 0.015974667300657087 -0.003188141457963973 0 0.015845838099842257 -0.0031222209274079458 0 0.015821249477360987 -0.0031893703531535931 0 0.015974667300657087 -0.003188141457963973 0 0.015974667300657087 -0.003188141457963973 0 0.016121962736396572 -0.0032343976193619684 0 0.016101522496947258 -0.0031935365368319247 0 0.015958598441573615 -0.0031125347275308113 0 0.015974667300657087 -0.003188141457963973 0 0.016101522496947258 -0.0031935365368319247 0 0.015943731211967814 -0.0032987250132722932 0 0.015974667300657087 -0.003188141457963973 0 0.016121962736396572 -0.0032343976193619684 0 0.016260857874001708 -0.0032288710851890493 0 0.016121962736396572 -0.0032343976193619684 0 0.016309902940293535 -0.0032804838167035783 0 0.016260857874001708 -0.0032288710851890493 0 0.016121962736396572 -0.0032343976193619684 0 0.016101522496947258 -0.0031935365368319247 0 0.016493727623027605 -0.003702861855932211 0 0.0164356232664974 -0.0034241886324337936 0 0.016135615095789639 -0.0032181886555493712 0 0.016577760699815463 -0.0035499275735338329 0 0.016669442536978378 -0.0037644321347047849 0 0.016493727623027605 -0.003702861855932211 0 0.016577760699815463 -0.0035499275735338329 0 0.016493727623027605 -0.003702861855932211 0 0.0164356232664974 -0.0034241886324337936 0 0.016488468035632534 -0.0033899404503951701 0 0.0164356232664974 -0.0034241886324337936 0 0.016309902940293535 -0.0032804838167035783 0 0.0164356232664974 -0.0034241886324337936 0 0.016309902940293535 -0.0032804838167035783 0 0.016135615095789639 -0.0032181886555493712 0 0.016121962736396572 -0.0032343976193619684 0 0.016309902940293535 -0.0032804838167035783 0 0.016135615095789639 -0.0032181886555493712 0 0.015943731211967814 -0.0032987250132722932 0 0.016121962736396572 -0.0032343976193619684 0 0.016135615095789639 -0.0032181886555493712 0 0.016493727623027605 -0.003702861855932211 0 0.016135615095789639 -0.0032181886555493712 0 0.016305875136469323 -0.003918005277529021 0 0.016135615095789639 -0.0032181886555493712 0 0.01576691262541902 -0.0037894283534394449 0 0.016305875136469323 -0.003918005277529021 0 0.01522356873925188 -0.0031655342168062737 0 0.014873165020925717 -0.0037458358256315153 0 0.01576691262541902 -0.0037894283534394449 0 0.016135615095789639 -0.0032181886555493712 0 0.01522356873925188 -0.0031655342168062737 0 0.01576691262541902 -0.0037894283534394449 0 0.015667785982607676 -0.0028620184501490305 0 0.016098161305788387 -0.0031817344496007345 0 0.015474503087173883 -0.0024657188209381738 0 0.016135615095789639 -0.0032181886555493712 0 0.01522356873925188 -0.0031655342168062737 0 0.014616304012325462 -0.0025336865086962581 0 0.01522356873925188 -0.0031655342168062737 0 0.01427999513400951 -0.0031358595907497811 0 0.015474503087173883 -0.0024657188209381738 0 0.014616304012325462 -0.0025336865086962581 0 0.01522356873925188 -0.0031655342168062737 0 0.01522356873925188 -0.0031655342168062737 0 0.014873165020925717 -0.0037458358256315153 0 0.01427999513400951 -0.0031358595907497811 0 0.014873165020925717 -0.0037458358256315153 0 0.015397795639880136 -0.0042150374493863819 0 0.014503619726731845 -0.0044991949621350997 0 0.015397795639880136 -0.0042150374493863819 0 0.014503619726731845 -0.0044991949621350997 0 0.015575818687798103 -0.004869328407529616 0 0.01443971487549264 -0.0042443495927334228 0 0.015689712555404908 -0.0046356553281259429 0 0.015397795639880136 -0.0042150374493863819 0 0.016276739565172067 -0.0044849081124023133 0 0.015575818687798103 -0.004869328407529616 0 0.015397795639880136 -0.0042150374493863819 0 0.01576691262541902 -0.0037894283534394449 0 0.016276739565172067 -0.0044849081124023133 0 0.014873165020925717 -0.0037458358256315153 0 0.015397795639880136 -0.0042150374493863819 0 0.01576691262541902 -0.0037894283534394449 0 0.01576691262541902 -0.0037894283534394449 0 0.016305875136469323 -0.003918005277529021 0 0.016276739565172067 -0.0044849081124023133 0 0.016305875136469323 -0.003918005277529021 0 0.016276739565172067 -0.0044849081124023133 0 0.01662495427113752 -0.004317203525906187 0 0.016276739565172067 -0.0044849081124023133 0 0.01662495427113752 -0.004317203525906187 0 0.016848793421689615 -0.00470770125902455 0 0.01662495427113752 -0.004317203525906187 0 0.016879432830310535 -0.0044511286627612343 0 0.016848793421689615 -0.00470770125902455 0 0.016879432830310535 -0.0044511286627612343 0 0.017118291678545155 -0.0048385843843670052 0 0.016848793421689615 -0.00470770125902455 0 0.01662495427113752 -0.004317203525906187 0 0.016879432830310535 -0.0044511286627612343 0 0.01670059478432831 -0.0040455060555148852 0 0.016493727623027605 -0.003702861855932211 0 0.016305875136469323 -0.003918005277529021 0 0.01670059478432831 -0.0040455060555148852 0 0.016305875136469323 -0.003918005277529021 0 0.01662495427113752 -0.004317203525906187 0 0.01670059478432831 -0.0040455060555148852 0 0.016669442536978378 -0.0037644321347047849 0 0.016493727623027605 -0.003702861855932211 0 0.01670059478432831 -0.0040455060555148852 0 0.011637216733331989 -0.002513876620831774 0 0.011017590660973969 -0.0023180405904047992 0 0.011710165285421636 -0.0013225601083324482 0 0.011637216733331989 -0.002513876620831774 0 0.011017590660973969 -0.0023180405904047992 0 0.011097196015448188 -0.0031285388199949783 0 0.0089890701881203076 -0.0044086625484132625 0 0.0087363604818723514 -0.003877062192042579 0 0.0095001882828802571 -0.0036211656635962903 0 0.0087363604818723514 -0.003877062192042579 0 0.0088154350152009186 -0.0032980555429073517 0 0.0095001882828802571 -0.0036211656635962903 0 0.0088154350152009186 -0.0032980555429073517 0 0.0095001882828802571 -0.0036211656635962903 0 0.009435688021654759 -0.0027844791484535184 0 0.0088154350152009186 -0.0032980555429073517 0 0.009435688021654759 -0.0027844791484535184 0 0.0090225778092534008 -0.0023287147942101212 0 0.009435688021654759 -0.0027844791484535184 0 0.0090225778092534008 -0.0023287147942101212 0 0.0095966564900235116 -0.002248031454145399 0 0.013081118721668887 -0.0033394026830222603 0 0.013165875870795913 -0.0024920297601739626 0 0.01350266325201837 -0.0030127305739746173 0 0.01246270265993287 -0.0028808539941674528 0 0.011324536540078024 -0.0021086390154840978 0 0.009435688021654759 -0.0027844791484535184 0 0.0095966564900235116 -0.002248031454145399 0 0.010357751276997838 -0.0023760149858696377 0 0.010234247642378205 -0.002930468290496101 0 0.011324536540078024 -0.0021086390154840978 0 0.0095001882828802571 -0.0036211656635962903 0 0.009435688021654759 -0.0027844791484535184 0 0.010357751276997838 -0.0023760149858696377 0 0.013165875870795913 -0.0024920297601739626 0 0.013892205061308751 -0.0025367528752434716 0 0.01350266325201837 -0.0030127305739746173 0 0.013892205061308751 -0.0025367528752434716 0 0.01427999513400951 -0.0031358595907497811 0 0.01350266325201837 -0.0030127305739746173 0 0.014616304012325462 -0.0025336865086962581 0 0.013892205061308751 -0.0025367528752434716 0 0.01427999513400951 -0.0031358595907497811 0 0.014873165020925717 -0.0037458358256315153 0 0.01427999513400951 -0.0031358595907497811 0 0.014148339567615032 -0.0037039137895941701 0 0.01427999513400951 -0.0031358595907497811 0 0.013733757320637804 -0.003369973569199324 0 0.014148339567615032 -0.0037039137895941701 0 0.013081118721668887 -0.0033394026830222603 0 0.01350266325201837 -0.0030127305739746173 0 0.013348392547197907 -0.0035464480775774772 0 0.01427999513400951 -0.0031358595907497811 0 0.01350266325201837 -0.0030127305739746173 0 0.013733757320637804 -0.003369973569199324 0 0.01350266325201837 -0.0030127305739746173 0 0.013733757320637804 -0.003369973569199324 0 0.013348392547197907 -0.0035464480775774772 0 0.013733757320637804 -0.003369973569199324 0 0.013382002303154101 -0.0038728820628498454 0 0.013348392547197907 -0.0035464480775774772 0 0.013733757320637804 -0.003369973569199324 0 0.013382002303154101 -0.0038728820628498454 0 0.014148339567615032 -0.0037039137895941701 0 0.014873165020925717 -0.0037458358256315153 0 0.014148339567615032 -0.0037039137895941701 0 0.014503619726731845 -0.0044991949621350997 0 0.013382002303154101 -0.0038728820628498454 0 0.014148339567615032 -0.0037039137895941701 0 0.014503619726731845 -0.0044991949621350997 0 0.01346958594502877 -0.0038944509338385306 0 0.01443971487549264 -0.0042443495927334228 0 0.013382002303154101 -0.0038728820628498454 0 0.014368958568897991 -0.0039933056073865334 0 0.013397729090298497 -0.0045116605777585968 0 0.013382002303154101 -0.0038728820628498454 0 0.012849340558507382 -0.0040704606573005635 0 0.013397729090298497 -0.0045116605777585968 0 0.012198817543773789 -0.0039753454765979745 0 0.011990624628277135 -0.005098834478555068 0 0.01159179978678279 -0.0038279492340255053 0 0.010683370515871631 -0.0044156725655720144 0 0.011573525500456389 -0.0051098592119877282 0 0.01246270265993287 -0.0028808539941674528 0 0.012198817543773789 -0.0039753454765979745 0 0.013081118721668887 -0.0033394026830222603 0 0.013348392547197907 -0.0035464480775774772 0 0.012849340558507382 -0.0040704606573005635 0 0.011637216733331989 -0.002513876620831774 0 0.01159179978678279 -0.0038279492340255053 0 0.011097196015448188 -0.0031285388199949783 0 0.013382002303154101 -0.0038728820628498454 0 0.013348392547197907 -0.0035464480775774772 0 0.012849340558507382 -0.0040704606573005635 0 0.01159179978678279 -0.0038279492340255053 0 0.011097196015448188 -0.0031285388199949783 0 0.010901104586921912 -0.0036835653088269677 0 0.010212690670923071 -0.0033689459213438835 0 0.011017590660973969 -0.0023180405904047992 0 0.011097196015448188 -0.0031285388199949783 0 0.009611269640279951 -0.0039230666028571715 0 0.010234247642378205 -0.002930468290496101 0 0.010212690670923071 -0.0033689459213438835 0 0.011097196015448188 -0.0031285388199949783 0 0.010901104586921912 -0.0036835653088269677 0 0.01159179978678279 -0.0038279492340255053 0 0.010683370515871631 -0.0044156725655720144 0 0.010901104586921912 -0.0036835653088269677 0 0.010212690670923071 -0.0033689459213438835 0 0.010683370515871631 -0.0044156725655720144 0 0.010901104586921912 -0.0036835653088269677 0 0.010683370515871631 -0.0044156725655720144 0 0.010387437202687365 -0.0054746695746738195 0 0.011573525500456389 -0.0051098592119877282 0 0.010387437202687365 -0.0054746695746738195 0 0.011573525500456389 -0.0051098592119877282 0 0.01182293403555373 -0.00628991252069727 0 0.010387437202687365 -0.0054746695746738195 0 0.010605737701636121 -0.0063853410691635396 0 0.01182293403555373 -0.00628991252069727 0 0.011990624628277135 -0.005098834478555068 0 0.011838770446071914 -0.0062521419249734608 0 0.012396924638721565 -0.0049801431654831058 0 0.013417996921459462 -0.005692729645216282 0 0.01182293403555373 -0.00628991252069727 0 0.012849340558507382 -0.0040704606573005635 0 0.012396924638721565 -0.0049801431654831058 0 0.013397729090298497 -0.0045116605777585968 0 0.012396924638721565 -0.0049801431654831058 0 0.013397729090298497 -0.0045116605777585968 0 0.013417996921459462 -0.005692729645216282 0 0.013397729090298497 -0.0045116605777585968 0 0.014288129011270868 -0.00487824861797402 0 0.013417996921459462 -0.005692729645216282 0 0.014368958568897991 -0.0039933056073865334 0 0.013397729090298497 -0.0045116605777585968 0 0.014288129011270868 -0.00487824861797402 0 0.013417996921459462 -0.005692729645216282 0 0.014558026110256679 -0.0067434102798125204 0 0.015010065724493281 -0.0055688661262128852 0 0.014288129011270868 -0.00487824861797402 0 0.013417996921459462 -0.005692729645216282 0 0.015010065724493281 -0.0055688661262128852 0 0.013417996921459462 -0.005692729645216282 0 0.014558026110256679 -0.0067434102798125204 0 0.012853874626366862 -0.0071941569635092725 0 0.013417996921459462 -0.005692729645216282 0 0.012853874626366862 -0.0071941569635092725 0 0.01182293403555373 -0.00628991252069727 0 0.019054388286115907 -0.0052822153019866994 0 0.018172332002303945 -0.0053312273269452417 0 0.023585527890797178 -0.0037700102870763157 0 0.02351969983178159 -0.0034642093453546735 0 0.023597337524946218 -0.0034721077770812872 0 0.018172332002303945 -0.0053312273269452417 0 0.017154239867094308 -0.005346916516803444 0 0.02351969983178159 -0.0034642093453546735 0 0.023245349602325754 -0.0033673919692913286 0 0.023376714449687051 -0.0034964771316548628 0 0.012853874626366862 -0.0071941569635092725 0 0.011011297771671572 -0.007423240575584837 0 0.01182293403555373 -0.00628991252069727 0 0.011011297771671572 -0.007423240575584837 0 0.010605737701636121 -0.0063853410691635396 0 0.010032093457971573 -0.0068078390373284663 0 0.011011297771671572 -0.007423240575584837 0 0.010605737701636121 -0.0063853410691635396 0 0.01182293403555373 -0.00628991252069727 0 0.017422310182672363 -0.0051938032092213975 0 0.018046467276691753 -0.0055106502434945298 0 0.016936561233060188 -0.0049981110209117103 0 0.01726337072934352 -0.0048759687575603596 0 0.017422310182672363 -0.0051938032092213975 0 0.018046467276691753 -0.0055106502434945298 0 0.017422310182672363 -0.0051938032092213975 0 0.016848793421689615 -0.00470770125902455 0 0.016936561233060188 -0.0049981110209117103 0 0.017422310182672363 -0.0051938032092213975 0 0.017118291678545155 -0.0048385843843670052 0 0.016848793421689615 -0.00470770125902455 0 0.016276739565172067 -0.0044849081124023133 0 0.016936561233060188 -0.0049981110209117103 0 0.015575818687798103 -0.004869328407529616 0 0.016821425842771427 -0.0049863642646155205 0 0.015689712555404908 -0.0046356553281259429 0 0.016276739565172067 -0.0044849081124023133 0 0.016848793421689615 -0.00470770125902455 0 0.016936561233060188 -0.0049981110209117103 0 0.018046467276691753 -0.0055106502434945298 0 0.016936561233060188 -0.0049981110209117103 0 0.016831717597783295 -0.0054457545443966316 0 0.018046467276691753 -0.0055106502434945298 0 0.016831717597783295 -0.0054457545443966316 0 0.016059022689055447 -0.0063369508215824089 0 0.016936561233060188 -0.0049981110209117103 0 0.016831717597783295 -0.0054457545443966316 0 0.01618754063141975 -0.0052395861345067504 0 0.01618754063141975 -0.0052395861345067504 0 0.015010065724493281 -0.0055688661262128852 0 0.016059022689055447 -0.0063369508215824089 0 0.016831717597783295 -0.0054457545443966316 0 0.01618754063141975 -0.0052395861345067504 0 0.016059022689055447 -0.0063369508215824089 0 0.016936561233060188 -0.0049981110209117103 0 0.01618754063141975 -0.0052395861345067504 0 0.015782906129953065 -0.0044080029793599849 0 0.01618754063141975 -0.0052395861345067504 0 0.015782906129953065 -0.0044080029793599849 0 0.015010065724493281 -0.0055688661262128852 0 0.014368958568897991 -0.0039933056073865334 0 0.014288129011270868 -0.00487824861797402 0 0.015782906129953065 -0.0044080029793599849 0 0.014288129011270868 -0.00487824861797402 0 0.015782906129953065 -0.0044080029793599849 0 0.015010065724493281 -0.0055688661262128852 0 0.019054388286115907 -0.0052822153019866994 0 0.019396826275925174 -0.0054180488141855245 0 0.014558026110256679 -0.0067434102798125204 0 0.015010065724493281 -0.0055688661262128852 0 0.016059022689055447 -0.0063369508215824089 0 0.023585527890797178 -0.0037700102870763157 0 0.023279559585582324 -0.0035972333646523361 0 0.022917355185607276 -0.0045806549774915972 0 0.023585527890797178 -0.0037700102870763157 0 0.023279559585582324 -0.0035972333646523361 0 0.023597337524946218 -0.0034721077770812872 0 0.023279559585582324 -0.0035972333646523361 0 0.022785507358090457 -0.0035296504766553962 0 0.022008542813018599 -0.0037237489366839698 0 0.023279559585582324 -0.0035972333646523361 0 0.022917355185607276 -0.0045806549774915972 0 0.022008542813018599 -0.0037237489366839698 0 0.018164109032561486 -0.0055505388655399928 0 0.019396826275925174 -0.0054180488141855245 0 0.018046467276691753 -0.0055106502434945298 0 0.022008542813018599 -0.0037237489366839698 0 0.018797692422769789 -0.0041484928594652786 0 0.018046467276691753 -0.0055106502434945298 0 0.022917355185607276 -0.0045806549774915972 0 0.022008542813018599 -0.0037237489366839698 0 0.022016438501052473 -0.0038004136903151699 0 0.020054593768924895 -0.0030589726406512635 0 0.022785507358090457 -0.0035296504766553962 0 0.022008542813018599 -0.0037237489366839698 0 0.022793241282966146 -0.0034619226557012894 0 0.022008542813018599 -0.0037237489366839698 0 0.022430398042930028 -0.003650462719125112 0 0.022793241282966146 -0.0034619226557012894 0 0.022008542813018599 -0.0037237489366839698 0 0.017896532334101288 -0.0028073168860469869 0 0.018797692422769789 -0.0041484928594652786 0 0.01726337072934352 -0.0048759687575603596 0 0.018046467276691753 -0.0055106502434945298 0 0.017655759274163279 -0.0043979411330074521 0 0.01721771188332577 -0.0036126999388351897 0 0.017896532334101288 -0.0028073168860469869 0 0.017655759274163279 -0.0043979411330074521 0 0.017896532334101288 -0.0028073168860469869 0 0.017655759274163279 -0.0043979411330074521 0 0.018797692422769789 -0.0041484928594652786 0 0.018046467276691753 -0.0055106502434945298 0 0.017655759274163279 -0.0043979411330074521 0 0.018797692422769789 -0.0041484928594652786 0 0.022470690508940527 -0.00232456590503923 0 0.022429952578524925 -0.0031306179636315635 0 0.023274490047888861 -0.0026225658236196233 0 0.022430398042930028 -0.003650462719125112 0 0.022429952578524925 -0.0031306179636315635 0 0.022793241282966146 -0.0034619226557012894 0 0.022429952578524925 -0.0031306179636315635 0 0.022793241282966146 -0.0034619226557012894 0 0.023274490047888861 -0.0026225658236196233 0 0.022793241282966146 -0.0034619226557012894 0 0.023719540228495442 -0.0032765791778681112 0 0.023274490047888861 -0.0026225658236196233 0 0.023279559585582324 -0.0035972333646523361 0 0.022785507358090457 -0.0035296504766553962 0 0.023719540228495442 -0.0032765791778681112 0 0.022785507358090457 -0.0035296504766553962 0 0.022793241282966146 -0.0034619226557012894 0 0.023719540228495442 -0.0032765791778681112 0 0.023279559585582324 -0.0035972333646523361 0 0.023719540228495442 -0.0032765791778681112 0 0.023597337524946218 -0.0034721077770812872 0 0.023719540228495442 -0.0032765791778681112 0 0.02459998259972147 -0.002272812217399126 0 0.025463403728463296 -0.0030102733645232978 0 0.023877196181894402 -0.0032995760320767391 0 0.024271911648097867 -0.0032228969821682693 0 0.023719540228495442 -0.0032765791778681112 0 0.023597337524946218 -0.0034721077770812872 0 0.023603780376055448 -0.0035225129168758905 0 0.025461591446285042 -0.001284162015393158 0 0.02459998259972147 -0.002272812217399126 0 0.025735877144009118 -0.0018999509838308363 0 0.025461591446285042 -0.001284162015393158 0 0.02459998259972147 -0.002272812217399126 0 0.024124381852375504 -0.0017054063803321831 0 0.023719540228495442 -0.0032765791778681112 0 0.02459998259972147 -0.002272812217399126 0 0.023274490047888861 -0.0026225658236196233 0 0.02459998259972147 -0.002272812217399126 0 0.024124381852375504 -0.0017054063803321831 0 0.023274490047888861 -0.0026225658236196233 0 0.023136409541785582 -0.0014722563317427458 0 0.024124381852375504 -0.0017054063803321831 0 0.023274490047888861 -0.0026225658236196233 0 0.022470690508940527 -0.00232456590503923 0 0.02235290376166281 -0.0011937332565983042 0 0.023136409541785582 -0.0014722563317427458 0 0.022470690508940527 -0.00232456590503923 0 0.023136409541785582 -0.0014722563317427458 0 0.023274490047888861 -0.0026225658236196233 0 0.023361472318549226 -0.0036076781040827637 0 0.023376714449687051 -0.0034964771316548628 0 0.02350605181455212 -0.0035152940542450273 0 0.023361472318549226 -0.0036076781040827637 0 0.02350605181455212 -0.0035152940542450273 0 0.023469254547352925 -0.0036443931974732124 0 0.023240054398588152 -0.0034406351342395696 0 0.026172938801306004 -0.0035942021059556443 0 0.023361472318549226 -0.0036076781040827637 0 0.023218110806159663 -0.003547839285623708 0 0.023376714449687051 -0.0034964771316548628 0 0.023543554554470918 -0.003713281156867301 0 0.023266031120836202 -0.0037807491765804624 0 0.023218110806159663 -0.003547839285623708 0 0.023240054398588152 -0.0034406351342395696 0 0.023333717083216302 -0.0036103939301034898 0 0.023245349602325754 -0.0033673919692913286 0 0.023218110806159663 -0.003547839285623708 0 0.023376714449687051 -0.0034964771316548628 0 0.02351969983178159 -0.0034642093453546735 0 0.023376714449687051 -0.0034964771316548628 0 0.02350605181455212 -0.0035152940542450273 0 0.02351969983178159 -0.0034642093453546735 0 0.02350605181455212 -0.0035152940542450273 0 0.023597337524946218 -0.0034721077770812872 0 0.02350605181455212 -0.0035152940542450273 0 0.023597337524946218 -0.0034721077770812872 0 0.023603780376055448 -0.0035225129168758905 0 0.02350605181455212 -0.0035152940542450273 0 0.023603780376055448 -0.0035225129168758905 0 0.023469254547352925 -0.0036443931974732124 0 0.024271911648097867 -0.0032228969821682693 0 0.026172938801306004 -0.0035942021059556443 0 0.027210589621356081 -0.0023340729350303461 0 0.026172938801306004 -0.0035942021059556443 0 0.025463403728463296 -0.0030102733645232978 0 0.025735877144009118 -0.0018999509838308363 0 0.026634502478832131 -0.0026578436937886606 0 0.02459998259972147 -0.002272812217399126 0 0.025463403728463296 -0.0030102733645232978 0 0.025735877144009118 -0.0018999509838308363 0 0.02536639449665818 -0.0012517178074052597 0 0.027210589621356081 -0.0023340729350303461 0 0.029083748379323808 -0.0015387729771165215 0 0.027999562854391074 -0.0027017882594726835 0 0.030255082768709047 -0.0025519798007541993 0 0.027999562854391074 -0.0027017882594726835 0 0.030255082768709047 -0.0025519798007541993 0 0.029725070542475671 -0.0039666249538429822 0 0.02902268417657371 -0.0014627782631496087 0 0.030452492821210382 -0.0023639034321035431 0 0.026172938801306004 -0.0035942021059556443 0 0.027052515975925121 -0.0033164615266750488 0 0.023543554554470918 -0.003713281156867301 0 0.023866007318214547 -0.0039441065138063275 0 0.02335555387260857 -0.0040907437773531029 0 0.030255082768709047 -0.0025519798007541993 0 0.029725070542475671 -0.0039666249538429822 0 0.031348830204471025 -0.0034095269697587095 0 0.023543554554470918 -0.003713281156867301 0 0.023266031120836202 -0.0037807491765804624 0 0.02335555387260857 -0.0040907437773531029 0 0.029830605899793163 -0.0017123727727564083 0 0.030420215073934186 -0.0020082225262077168 0 0.0306679419063761 -0.0014021005338367635 0 0.030260463134494642 -0.00094576452809331786 0 0.029830605899793163 -0.0017123727727564083 0 0.0306679419063761 -0.0014021005338367635 0 0.030452492821210382 -0.0023639034321035431 0 0.027052515975925121 -0.0033164615266750488 0 0.030420215073934186 -0.0020082225262077168 0 0.0306679419063761 -0.0014021005338367635 0 0.031150399275414971 -0.0016435035855840133 0 0.0306679419063761 -0.0014021005338367635 0 0.031137576629383733 -0.001189299448531364 0 0.031150399275414971 -0.0016435035855840133 0 0.027196296497231279 -0.0027028840015941146 0 0.026825966155398707 -0.002874997363887698 0 0.023108770671060722 -0.003869670256034294 0 0.022844858005523563 -0.0037926956369522024 0 0.022733274604817354 -0.003994848936928491 0 0.031150399275414971 -0.0016435035855840133 0 0.03144386563115216 -0.0011894041671399467 0 0.031749065483902765 -0.0012841773231691289 0 0.031671779529777365 -0.00099193995487903918 0 0.03144386563115216 -0.0011894041671399467 0 0.031749065483902765 -0.0012841773231691289 0 0.031137576629383733 -0.001189299448531364 0 0.031150399275414971 -0.0016435035855840133 0 0.03144386563115216 -0.0011894041671399467 0 0.022844858005523563 -0.0037926956369522024 0 0.022877993607220773 -0.0036548593268624844 0 0.022698181133170171 -0.0036160046155645741 0 0.022844858005523563 -0.0037926956369522024 0 0.022979469049258863 -0.0037275920592406927 0 0.022877993607220773 -0.0036548593268624844 0 0.023108770671060722 -0.003869670256034294 0 0.022844858005523563 -0.0037926956369522024 0 0.022979469049258863 -0.0037275920592406927 0 0.022979469049258863 -0.0037275920592406927 0 0.022877993607220773 -0.0036548593268624844 0 0.023112383708188841 -0.0035810586370964635 0 0.027052515975925121 -0.0033164615266750488 0 0.027196296497231279 -0.0027028840015941146 0 0.023108770671060722 -0.003869670256034294 0 0.022979469049258863 -0.0037275920592406927 0 0.023112383708188841 -0.0035810586370964635 0 0.023469839960163438 -0.0037757808397745488 0 0.023108770671060722 -0.003869670256034294 0 0.023112383708188841 -0.0035810586370964635 0 0.027052515975925121 -0.0033164615266750488 0 0.022537020734941637 -0.0035107160378760908 0 0.023266031120836202 -0.0037807491765804624 0 0.02335555387260857 -0.0040907437773531029 0 0.022997062051012339 -0.0037900289363647557 0 0.023218110806159663 -0.003547839285623708 0 0.022955048806365071 -0.0035521514500630297 0 0.022997062051012339 -0.0037900289363647557 0 0.023266031120836202 -0.0037807491765804624 0 0.023218110806159663 -0.003547839285623708 0 0.022997062051012339 -0.0037900289363647557 0 0.022537020734941637 -0.0035107160378760908 0 0.022986576932702698 -0.0036467833700131362 0 0.022877993607220773 -0.0036548593268624844 0 0.023112383708188841 -0.0035810586370964635 0 0.02277234532655064 -0.0035263179110127715 0 0.022955048806365071 -0.0035521514500630297 0 0.022997062051012339 -0.0037900289363647557 0 0.02277234532655064 -0.0035263179110127715 0 0.022877993607220773 -0.0036548593268624844 0 0.02277234532655064 -0.0035263179110127715 0 0.022698181133170171 -0.0036160046155645741 0 0.02277234532655064 -0.0035263179110127715 0 0.022865614880947512 -0.0033684035175296739 0 0.022521917554997443 -0.0034179310964314175 0 0.022955048806365071 -0.0035521514500630297 0 0.02277234532655064 -0.0035263179110127715 0 0.022865614880947512 -0.0033684035175296739 0 0.023245349602325754 -0.0033673919692913286 0 0.023218110806159663 -0.003547839285623708 0 0.022865614880947512 -0.0033684035175296739 0 0.023218110806159663 -0.003547839285623708 0 0.022955048806365071 -0.0035521514500630297 0 0.022865614880947512 -0.0033684035175296739 0 0.0081179157682407903 0.00070981640447875382 0 0.0070228147400784972 0.00037332146191312973 0 0.0085549726834838694 -0.00030678848558725249 0 0.021726935776984122 -0.0025156681217465724 0 0.022247810196463387 -0.0023841907212014267 0 0.022098949558609943 -0.0028416250477117512 0 0.014394411133881339 -0.0011619276155315286 0 0.015351191766573864 -0.0031189789242707495 0 0.016248704624379978 -0.0057007987183096505 0 0.015351191766573864 -0.0031189789242707495 0 0.0096379348740905039 -0.0074007381038334059 0 0.0085329415996243645 -0.0075178060553535604 0 0.0088109871760971032 -0.0069720423054709813 0 0.015351191766573864 -0.0031189789242707495 0 0.023186483559831814 -0.0036943129340122642 0 0.02277234532655064 -0.0035263179110127715 0 0.022521917554997443 -0.0034179310964314175 0 0.022698181133170171 -0.0036160046155645741 0 0.022247810196463387 -0.0023841907212014267 0 0.022592516888018239 -0.0030844042254496162 0 0.022098949558609943 -0.0028416250477117512 0 0.022592516888018239 -0.0030844042254496162 0 0.02212803573655428 -0.003196703643212266 0 0.022098949558609943 -0.0028416250477117512 0 0.02212803573655428 -0.003196703643212266 0 0.022098949558609943 -0.0028416250477117512 0 0.021789212615746463 -0.0029407187324557763 0 0.021726935776984122 -0.0025156681217465724 0 0.022098949558609943 -0.0028416250477117512 0 0.021789212615746463 -0.0029407187324557763 0 0.02212803573655428 -0.003196703643212266 0 0.022255190459716797 -0.0035739968250646579 0 0.021659262797638957 -0.0034684133553043082 0 0.02212803573655428 -0.003196703643212266 0 0.021789212615746463 -0.0029407187324557763 0 0.021659262797638957 -0.0034684133553043082 0 0.022844858005523563 -0.0037926956369522024 0 0.022592516888018239 -0.0030844042254496162 0 0.022545137515032055 -0.0037558374368729039 0 0.02270712888024131 -0.0035801737700209735 0 0.023186483559831814 -0.0036943129340122642 0 0.022592516888018239 -0.0030844042254496162 0 0.022255190459716797 -0.0035739968250646579 0 0.022545137515032055 -0.0037558374368729039 0 0.022592516888018239 -0.0030844042254496162 0 0.02212803573655428 -0.003196703643212266 0 0.022255190459716797 -0.0035739968250646579 0 0.022545137515032055 -0.0037558374368729039 0 0.022733274604817354 -0.003994848936928491 0 0.022110559815975147 -0.0042047560748072034 0 0.03188018424396246 -0.00073820528233827561 0 0.031749065483902765 -0.0012841773231691289 0 0.032380617640428475 -0.0010278205928332914 0 0.022255190459716797 -0.0035739968250646579 0 0.022545137515032055 -0.0037558374368729039 0 0.022110559815975147 -0.0042047560748072034 0 0.026825966155398707 -0.002874997363887698 0 0.028960378254314287 -0.00042191008718357769 0 0.022844858005523563 -0.0037926956369522024 0 0.022545137515032055 -0.0037558374368729039 0 0.022733274604817354 -0.003994848936928491 0 0.028960378254314287 -0.00042191008718357769 0 0.027003204405801697 -0.0014063919149415848 0 0.022255190459716797 -0.0035739968250646579 0 0.022110559815975147 -0.0042047560748072034 0 0.021659262797638957 -0.0034684133553043082 0 0.031018257073452741 0.0005794575767591576 0 0.031471825244865075 0.00074544660762214106 0 0.03089321199393286 0.0010162598371842885 0 0.031471825244865075 0.00074544660762214106 0 0.03089321199393286 0.0010162598371842885 0 0.031106480184985345 0.0014458631009546285 0 0.031018257073452741 0.0005794575767591576 0 0.03089321199393286 0.0010162598371842885 0 0.030533177582394735 0.00079828478168472142 0 0.030533177582394735 0.00079828478168472142 0 0.030427499999587396 0.0011797065470279839 0 0.030144455519120102 0.0010386769969889193 0 0.03089321199393286 0.0010162598371842885 0 0.030533177582394735 0.00079828478168472142 0 0.030427499999587396 0.0011797065470279839 0 0.03089321199393286 0.0010162598371842885 0 0.030427499999587396 0.0011797065470279839 0 0.030694669320728708 0.0014263257056429232 0 0.030427499999587396 0.0011797065470279839 0 0.030694669320728708 0.0014263257056429232 0 0.030377263511137093 0.0017352439193917511 0 0.030427499999587396 0.0011797065470279839 0 0.029969908559123459 0.0014395855363856487 0 0.030377263511137093 0.0017352439193917511 0 0.031106480184985345 0.0014458631009546285 0 0.030694669320728708 0.0014263257056429232 0 0.030662237655396163 0.0021604496466917159 0 0.03089321199393286 0.0010162598371842885 0 0.031106480184985345 0.0014458631009546285 0 0.030694669320728708 0.0014263257056429232 0 0.029022602499418786 0.0012817730684072052 0 0.029347713489547227 0.0010579656374542972 0 0.029619406906034797 0.0011379064618117808 0 0.030074174858793039 0.00069400513814349462 0 0.029440949355004468 0.00098980929027392178 0 0.029619406906034797 0.0011379064618117808 0 0.029022602499418786 0.0012817730684072052 0 0.029619406906034797 0.0011379064618117808 0 0.029330122887217553 0.0013688922392425986 0 0.031037870368377126 0.0015651064225237579 0 0.029702730900245802 0.00094424740569423835 0 0.029619406906034797 0.0011379064618117808 0 0.030144455519120102 0.0010386769969889193 0 0.029969908559123459 0.0014395855363856487 0 0.030074174858793039 0.00069400513814349462 0 0.029619406906034797 0.0011379064618117808 0 0.030144455519120102 0.0010386769969889193 0 0.030074174858793039 0.00069400513814349462 0 0.030533177582394735 0.00079828478168472142 0 0.030144455519120102 0.0010386769969889193 0 0.030427499999587396 0.0011797065470279839 0 0.030144455519120102 0.0010386769969889193 0 0.029969908559123459 0.0014395855363856487 0 0.029969908559123459 0.0014395855363856487 0 0.029489878957695267 0.0015861689041689225 0 0.029820975192316437 0.0019652902140625986 0 0.029969908559123459 0.0014395855363856487 0 0.029820975192316437 0.0019652902140625986 0 0.030377263511137093 0.0017352439193917511 0 0.029619406906034797 0.0011379064618117808 0 0.029969908559123459 0.0014395855363856487 0 0.029489878957695267 0.0015861689041689225 0 0.028945692696183044 0.0017125992078922817 0 0.029489878957695267 0.0015861689041689225 0 0.029330122887217553 0.0013688922392425986 0 0.029619406906034797 0.0011379064618117808 0 0.029489878957695267 0.0015861689041689225 0 0.029330122887217553 0.0013688922392425986 0 0.014011578273245338 0.0024155829811723091 0 0.013973418693453152 0.0012243090902958839 0 0.011795723692328884 0.0018896962340523157 0 0.028945692696183044 0.0017125992078922817 0 0.029489878957695267 0.0015861689041689225 0 0.029820975192316437 0.0019652902140625986 0 0.021489282006338341 0.0020287014262847028 0 0.021032624636510927 0.0022380745672751128 0 0.011795723692328884 0.0018896962340523157 0 0.011971527130697837 2.036799415190477e-05 0 0.010552961148788953 0.00060596808754452157 0 0.013105905708564713 0.0010763843219812022 0 0.011182133630446799 -9.6053103832454702e-05 0 0.012107662575559387 -0.00078133283837064703 0 0.013563549835661852 0.001156165374432497 0 0.011549645842329023 -3.8787209607307761e-05 0 0.013973418693453152 0.0012243090902958839 0 0.011795723692328884 0.0018896962340523157 0 0.011971527130697837 2.036799415190477e-05 0 0.027003204405801697 -0.0014063919149415848 0 0.019084669437434101 -0.00042335960019423876 0 0.021789212615746463 -0.0029407187324557763 0 0.021659262797638957 -0.0034684133553043082 0 0.02119305324967679 -0.0026405027473173212 0 0.021726935776984122 -0.0025156681217465724 0 0.021789212615746463 -0.0029407187324557763 0 0.02119305324967679 -0.0026405027473173212 0 0.021032624636510927 0.0022380745672751128 0 0.019084669437434101 -0.00042335960019423876 0 0.030694669320728708 0.0014263257056429232 0 0.030662237655396163 0.0021604496466917159 0 0.030377263511137093 0.0017352439193917511 0 0.011795723692328884 0.0018896962340523157 0 0.0092692212962516545 0.0011973954014013685 0 0.010552961148788953 0.00060596808754452157 0 0.029820975192316437 0.0019652902140625986 0 0.030662237655396163 0.0021604496466917159 0 0.030377263511137093 0.0017352439193917511 0 0.011971527130697837 2.036799415190477e-05 0 0.010552961148788953 0.00060596808754452157 0 0.0095750910192305121 -0.0010967115767961516 0 0.010552961148788953 0.00060596808754452157 0 0.0094976653923994521 0.00062948249358773698 0 0.0095750910192305121 -0.0010967115767961516 0 0.0092692212962516545 0.0011973954014013685 0 0.010552961148788953 0.00060596808754452157 0 0.0094976653923994521 0.00062948249358773698 0 0.0094976653923994521 0.00062948249358773698 0 0.0087792400742825825 0.00053408978686157759 0 0.0085549726834838694 -0.00030678848558725249 0 0.0092895065135570245 0.0010777243039481652 0 0.0094976653923994521 0.00062948249358773698 0 0.0087792400742825825 0.00053408978686157759 0 0.019084669437434101 -0.00042335960019423876 0 0.014606634099917904 0.0022497748286882426 0 0.0081179157682407903 0.00070981640447875382 0 0.0092895065135570245 0.0010777243039481652 0 0.0087792400742825825 0.00053408978686157759 0 0.014394411133881339 -0.0011619276155315286 0 0.019084669437434101 -0.00042335960019423876 0 0.0081179157682407903 0.00070981640447875382 0 0.0087792400742825825 0.00053408978686157759 0 0.0085549726834838694 -0.00030678848558725249 0 0.0094976653923994521 0.00062948249358773698 0 0.0085549726834838694 -0.00030678848558725249 0 0.0095750910192305121 -0.0010967115767961516 0 0.0085549726834838694 -0.00030678848558725249 0 0.0095750910192305121 -0.0010967115767961516 0 0.0076504039802127973 -0.0013146474855880122 0 0.011549645842329023 -3.8787209607307761e-05 0 0.0096939033124856123 -0.0010353194561383994 0 0.0095750910192305121 -0.0010967115767961516 0 0.0094056918039828567 -0.0023692987107719232 0 0.010856905575191896 -0.0016199627812416809 0 0.0094056918039828567 -0.0023692987107719232 0 0.010856905575191896 -0.0016199627812416809 0 0.010450132311759995 -0.0030128512695795705 0 0.0094056918039828567 -0.0023692987107719232 0 0.0082065890673721411 -0.0029528000526406334 0 0.0076504039802127973 -0.0013146474855880122 0 0.0095750910192305121 -0.0010967115767961516 0 0.0094056918039828567 -0.0023692987107719232 0 0.0076504039802127973 -0.0013146474855880122 0 0.013325720898336548 -0.00067712723008135081 0 0.012107662575559387 -0.00078133283837064703 0 0.012330020442807531 -0.0018924339537371377 0 0.011182133630446799 -9.6053103832454702e-05 0 0.012107662575559387 -0.00078133283837064703 0 0.010856905575191896 -0.0016199627812416809 0 0.011182133630446799 -9.6053103832454702e-05 0 0.0095750910192305121 -0.0010967115767961516 0 0.010856905575191896 -0.0016199627812416809 0 0.010856905575191896 -0.0016199627812416809 0 0.011691007651094177 -0.0030457324540841078 0 0.010450132311759995 -0.0030128512695795705 0 0.010856905575191896 -0.0016199627812416809 0 0.012330020442807531 -0.0018924339537371377 0 0.011691007651094177 -0.0030457324540841078 0 0.012107662575559387 -0.00078133283837064703 0 0.010856905575191896 -0.0016199627812416809 0 0.012330020442807531 -0.0018924339537371377 0 0.013305993301260758 -0.0028288115991960093 0 0.011691007651094177 -0.0030457324540841078 0 0.01251173911682772 -0.004052205529455644 0 0.013305993301260758 -0.0028288115991960093 0 0.012330020442807531 -0.0018924339537371377 0 0.011691007651094177 -0.0030457324540841078 0 0.011691007651094177 -0.0030457324540841078 0 0.010450132311759995 -0.0030128512695795705 0 0.010748598863425718 -0.0045807212910348059 0 0.011970058119592831 -0.0052215636078171267 0 0.010748598863425718 -0.0045807212910348059 0 0.01251173911682772 -0.004052205529455644 0 0.011691007651094177 -0.0030457324540841078 0 0.010748598863425718 -0.0045807212910348059 0 0.01251173911682772 -0.004052205529455644 0 0.0094056918039828567 -0.0023692987107719232 0 0.0082065890673721411 -0.0029528000526406334 0 0.009496194475259255 -0.0038541637035594276 0 0.0094056918039828567 -0.0023692987107719232 0 0.010450132311759995 -0.0030128512695795705 0 0.009496194475259255 -0.0038541637035594276 0 0.0094929997318010974 -0.0052752330980255901 0 0.009496194475259255 -0.0038541637035594276 0 0.0086542165842263957 -0.0047487719123968184 0 0.0094929997318010974 -0.0052752330980255901 0 0.010748598863425718 -0.0045807212910348059 0 0.009496194475259255 -0.0038541637035594276 0 0.010450132311759995 -0.0030128512695795705 0 0.010748598863425718 -0.0045807212910348059 0 0.009496194475259255 -0.0038541637035594276 0 0.0082065890673721411 -0.0029528000526406334 0 0.009496194475259255 -0.0038541637035594276 0 0.0086542165842263957 -0.0047487719123968184 0 0.0080427430400728129 -0.0054501566117853024 0 0.0086542165842263957 -0.0047487719123968184 0 0.0082810819972950409 -0.0051137506930482683 0 0.0082843558331102633 -0.0043387060787658284 0 0.008572627057307533 -0.0047431095495441417 0 0.0082192046727016087 -0.0050516881562504773 0 0.0086542165842263957 -0.0047487719123968184 0 0.0082810819972950409 -0.0051137506930482683 0 0.0082192046727016087 -0.0050516881562504773 0 0.0082810819972950409 -0.0051137506930482683 0 0.008416479094818647 -0.0049938585829888233 0 0.0080427430400728129 -0.0054501566117853024 0 0.0082810819972950409 -0.0051137506930482683 0 0.008483856343342637 -0.0058370510675346161 0 0.0082810819972950409 -0.0051137506930482683 0 0.0086481336579400502 -0.0053894105403831712 0 0.008483856343342637 -0.0058370510675346161 0 0.0086481336579400502 -0.0053894105403831712 0 0.0089850072470707854 -0.0058183365994050537 0 0.008483856343342637 -0.0058370510675346161 0 0.0082810819972950409 -0.0051137506930482683 0 0.0086481336579400502 -0.0053894105403831712 0 0.008416479094818647 -0.0049938585829888233 0 0.008416479094818647 -0.0049938585829888233 0 0.0092336636685423443 -0.0047280780951784746 0 0.0091804531739897045 -0.0053801653070565461 0 0.0086481336579400502 -0.0053894105403831712 0 0.008416479094818647 -0.0049938585829888233 0 0.0091804531739897045 -0.0053801653070565461 0 0.010387437202687365 -0.0054746695746738195 0 0.0092336636685423443 -0.0047280780951784746 0 0.0091804531739897045 -0.0053801653070565461 0 0.010683370515871631 -0.0044156725655720144 0 0.010387437202687365 -0.0054746695746738195 0 0.0092336636685423443 -0.0047280780951784746 0 0.010387437202687365 -0.0054746695746738195 0 0.0091804531739897045 -0.0053801653070565461 0 0.0097557807160998395 -0.0060646592996959183 0 0.010387437202687365 -0.0054746695746738195 0 0.010605737701636121 -0.0063853410691635396 0 0.0097557807160998395 -0.0060646592996959183 0 0.0091804531739897045 -0.0053801653070565461 0 0.0089850072470707854 -0.0058183365994050537 0 0.0097557807160998395 -0.0060646592996959183 0 0.0086481336579400502 -0.0053894105403831712 0 0.0091804531739897045 -0.0053801653070565461 0 0.0089850072470707854 -0.0058183365994050537 0 0.0089850072470707854 -0.0058183365994050537 0 0.0097557807160998395 -0.0060646592996959183 0 0.0089974535685515625 -0.0064874987481111524 0 0.0097557807160998395 -0.0060646592996959183 0 0.010032093457971573 -0.0068078390373284663 0 0.0089974535685515625 -0.0064874987481111524 0 0.010605737701636121 -0.0063853410691635396 0 0.0097557807160998395 -0.0060646592996959183 0 0.010032093457971573 -0.0068078390373284663 0 0.011011297771671572 -0.007423240575584837 0 0.0096379348740905039 -0.0074007381038334059 0 0.010032093457971573 -0.0068078390373284663 0 0.017154239867094308 -0.005346916516803444 0 0.016248704624379978 -0.0057007987183096505 0 0.0096379348740905039 -0.0074007381038334059 0 0.010032093457971573 -0.0068078390373284663 0 0.0089974535685515625 -0.0064874987481111524 0 0.0096379348740905039 -0.0074007381038334059 0 0.0088109871760971032 -0.0069720423054709813 0 0.0089974535685515625 -0.0064874987481111524 0 0.0085329415996243645 -0.0075178060553535604 0 0.0088109871760971032 -0.0069720423054709813 0 0.0081260550176745616 -0.0065068696243126851 0 0.0088109871760971032 -0.0069720423054709813 0 0.0081260550176745616 -0.0065068696243126851 0 0.0089974535685515625 -0.0064874987481111524 0 0.0070228147400784972 0.00037332146191312973 0 0.0085549726834838694 -0.00030678848558725249 0 0.0076504039802127973 -0.0013146474855880122 0 0.015351191766573864 -0.0031189789242707495 0 0.0070332810272996623 -0.0036836892165089887 0 0.0082843558331102633 -0.0043387060787658284 0 0.0070332810272996623 -0.0036836892165089887 0 0.0080427430400728129 -0.0054501566117853024 0 0.0081260550176745616 -0.0065068696243126851 0 0.008483856343342637 -0.0058370510675346161 0 0.0081260550176745616 -0.0065068696243126851 0 0.008483856343342637 -0.0058370510675346161 0 0.0089974535685515625 -0.0064874987481111524 0 0.0089850072470707854 -0.0058183365994050537 0 0.008483856343342637 -0.0058370510675346161 0 0.0089974535685515625 -0.0064874987481111524 0 
</DataArray>
</PointData>
<CellData Scalars="region_id,cross_section_updated," Vectors="" Tensors="stress,">
<DataArray type="Float64" Name="region_id" format="ascii">
5 5 5 5 6 5 5 6 5 6 5 5 5 6 5 5 5 6 6 5 6 6 5 5 5 5 5 5 5 5 5 5 5 5 5 6 5 5 5 5 5 5 5 5 5 5 6 5 5 5 5 5 5 5 5 5 5 5 5 5 5 5 5 5 5 5 5 5 5 5 5 5 6 5 6 5 5 5 5 6 5 5 5 5 5 6 5 5 5 6 5 5 5 5 5 5 5 5 5 5 5 5 6 6 5 5 5 6 5 5 5 5 5 5 5 5 5 5 5 5 5 5 5 6 5 5 5 5 5 5 5 6 5 5 5 5 5 5 5 5 5 5 5 5 5 5 5 5 5 5 5 5 5 5 5 6 5 5 6 5 5 6 5 5 5 5 5 5 5 5 5 5 5 5 5 5 5 5 5 5 5 5 5 5 6 5 5 5 6 5 5 6 6 5 5 5 5 5 5 5 5 6 5 5 5 5 5 5 5 6 5 5 5 5 5 5 5 5 5 5 5 5 5 6 6 5 5 5 5 5 6 5 5 5 5 5 6 5 5 5 5 5 5 5 5 6 5 5 5 5 6 5 5 5 5 5 5 5 5 5 5 5 5 5 5 6 5 5 5 6 5 6 5 5 6 5 5 5 6 6 6 6 5 6 5 5 5 5 5 5 5 5 5 5 5 5 5 5 6 5 5 5 5 6 6 5 5 5 6 5 5 5 5 6 6 5 5 5 5 5 5 5 5 5 5 5 5 5 6 5 5 5 5 6 5 6 5 5 5 5 5 5 6 5 5 5 5 5 6 5 5 5 5 5 5 6 5 5 6 6 5 5 6 5 5 5 6 5 5 5 5 5 6 5 6 5 6 6 5 5 6 5 6 5 5 6 6 5 6 5 5 6 5 5 5 5 5 6 5 5 5 5 6 5 5 5 5 5 5 6 5 5 5 5 5 5 5 5 5 5 5 5 5 5 6 5 5 5 5 5 6 5 5 5 6 5 5 6 5 5 5 6 5 5 5 5 5 5 5 5 5 5 5 5 5 5 5 5 6 5 5 5 5 5 5 5 5 5 5 5 6 5 5 5 5 5 5 5 5 5 5 5 5 5 5 5 5 5 5 5 5 5 5 5 5 6 6 5 5 5 5 5 5 6 5 5 5 5 5 5 5 5 5 5 6 5 5 5 5 5 5 5 5 6 5 5 6 5 5 5 5 5 5 5 5 5 5 5 5 5 5 5 5 5 6 5 5 5 6 5 6 5 5 5 5 5 5 5 5 5 5 6 5 5 5 5 5 5 6 5 5 5 5 6 5 5 6 6 5 5 5 5 6 5 5 5 5 5 5 6 5 5 5 5 5 6 5 5 5 6 5 5 5 5 5 6 5 5 5 5 6 6 5 5 6 5 5 5 5 5 5 5 5 5 5 5 5 6 5 5 5 5 5 5 5 5 5 5 5 5 5 5 5 5 5 5 5 5 5 5 5 6 5 6 5 5 5 5 5 5 5 5 5 5 6 5 5 5 5 5 5 5 5 5 6 5 6 5 5 5 5 5 5 5 5 6 6 5 5 6 5 5 5 5 6 5 5 5 6 5 5 5 5 6 5 5 5 5 6 5 5 5 5 5 5 5 5 5 5 5 5 5 5 5 5 5 5 5 5 5 5 5 5 5 5 5 5 5 6 5 5 5 5 5 5 5 6 5 5 5 5 5 6 5 6 5 5 6 5 5 5 5 5 5 5 5 5 5 5 5 5 5 5 5 5 5 6 5 5 5 5 5 5 5 5 5 5 5 6 6 5 5 5 5 6 5 5 5 5 5 5 5 6 5 5 5 5 5 5 5 5 5 5 5 5 5 5 5 5 6 5 5 5 5 5 6 5 5 5 5 5 5 5 5 6 5 5 5 5 5 5 5 5 5 5 5 5 5 5 5 5 5 5 5 5 5 6 5 6 5 5 5 5 5 5 5 5 5 5 5 5 5 6 5 5 5 5 5 5 5 5 5 6 5 5 5 6 5 5 5 5 5 5 5 5 5 5 5 6 5 5 5 6 5 6 5 5 6 6 5 5 5 5 5 5 5 5 5 5 5 6 5 5 5 5 6 5 5 5 6 5 5 6 5 5 6 5 5 5 6 5 5 5 5 5 5 6 6 5 5 6 5 5 5 5 5 5 5 5 5 5 5 6 5 6 5 6 5 5 5 6 5 5 5 5 5 5 5 6 5 5 5 5 5 5 6 5 5 5 5 5 5 6 5 5 5 5 6 5 5 5 5 6 5 6 5 5 5 5 5 5 5 5 6 5 5 5 6 5 5 5 5 5 6 6 5 5 5 5 5 6 5 5 6 5 5 6 5 5 6 5 5 6 5 5 5 5 5 6 5 5 5 6 5 5 5 6 5 5 5 6 5 5 5 5 5 5 6 5 5 6 5 5 5 5 5 5 5 5 6 5 5 5 6 5 5 5 5 5 5 5 5 5 5 5 5 5 6 5 5 6 5 5 5 5 5 5 5 5 5 5 5 5 5 5 5 5 5 5 5 5 5 5 5 5 5 5 6 5 5 5 5 5 5 5 5 6 5 5 6 5 6 5 5 6 5 5 5 5 6 5 6 5 5 6 5 5 5 6 6 5 6 5 5 5 5 6 6 5 5 5 5 5 5 5 5 5 5 5 5 5 5 6 5 5 5 5 5 5 5 5 5 5 5 5 5 5 5 5 5 5 5 5 5 5 5 5 5 5 5 5 5 5 5 5 5 5 5 5 5 5 5 5 5 5 5 5 5 5 5 5 5 5 5 5 6 5 5 5 5 5 5 5 5 5 5 5 5 6 6 6 5 5 5 5 6 6 6 5 5 6 6 5 5 5 6 5 6 5 5 5 5 5 6 5 6 5 5 5 6 5 5 5 5 6 5 5 5 6 5 5 6 5 6 5 6 5 5 6 5 5 6 5 5 5 5 5 5 5 5 5 5 5 5 5 5 5 5 5 5 5 5 5 5 5 5 5 5 5 5 5 5 5 5 5 5 5 5 5 5 5 5 5 5 5 5 5 5 5 5 5 5 6 5 5 5 6 5 5 5 5 5 5 5 5 5 5 5 5 5 5 5 5 5 5 5 5 5 5 5 5 5 5 6 5 5 5 5 5 5 5 5 5 5 5 6 5 6 6 5 6 5 5 6 5 6 5 6 5 5 6 6 5 5 5 5 5 5 6 5 5 5 5 5 5 6 5 6 6 5 6 5 6 5 6 6 5 5 5 5 6 5 5 6 5 5 5 5 5 5 5 6 5 5 5 5 5 5 5 5 5 5 5 5 5 5 5 5 5 5 5 5 5 5 5 5 5 5 5 5 5 5 5 5 5 5 5 5 5 5 5 5 5 5 5 5 5 5 5 5 5 5 5 5 5 5 5 5 5 5 5 5 5 5 5 5 5 5 5 5 5 5 5 5 5 5 5 5 5 5 5 5 5 5 6 5 5 5 5 5 5 6 5 6 6 5 5 5 5 5 5 5 5 5 5 5 5 5 5 5 5 5 5 5 5 5 5 5 5 5 5 5 5 5 5 5 5 6 5 6 5 5 6 5 6 5 5 5 5 5 5 6 5 5 5 5 5 5 5 5 5 5 6 6 5 5 6 6 6 5 5 5 5 5 5 5 5 5 5 5 5 5 5 5 5 5 5 5 5 5 5 5 5 5 5 5 5 6 5 6 5 5 5 5 5 5 5 5 5 5 5 5 5 5 5 5 5 5 5 6 5 5 5 5 5 5 5 5 5 6 5 5 6 5 6 5 5 5 5 5 5 5 5 5 5 5 5 5 5 5 5 5 5 5 5 5 5 5 5 5 5 5 6 6 5 5 5 5 5 5 5 5 5 5 5 5 5 5 5 5 5 5 5 5 5 5 5 6 5 5 5 5 5 6 6 5 5 5 5 5 5 5 5 5 5 5 5 5 6 5 5 5 5 5 5 5 5 5 5 5 5 5 5 5 5 5 5 5 5 5 5 5 5 5 5 5 5 5 5 5 5 5 5 5 5 5 5 6 5 5 5 5 5 5 5 6 5 5 5 6 5 5 5 5 5 5 6 5 5 5 5 5 5 6 6 5 5 6 6 5 5 6 6 5 5 5 5 5 5 5 5 5 6 5 5 5 5 5 5 6 5 5 5 5 5 5 5 5 5 5 5 5 5 5 5 5 5 6 5 5 5 5 5 5 5 5 5 5 5 5 5 5 5 5 5 5 5 6 5 5 5 6 5 5 5 6 5 5 5 5 5 6 5 5 5 5 5 5 5 5 5 5 6 5 5 5 5 5 5 5 5 5 5 5 5 5 5 5 5 5 5 5 5 5 5 5 6 5 5 5 5 5 6 5 5 6 5 5 5 6 5 6 5 5 6 5 6 5 5 5 5 5 5 6 5 5 6 5 5 5 5 6 5 5 6 5 5 5 5 5 5 5 5 5 5 6 5 5 5 5 5 6 5 5 5 5 5 5 5 5 5 5 5 5 5 5 6 5 6 5 5 5 5 5 5 5 5 5 5 5 5 5 5 5 5 5 5 5 5 5 5 5 5 5 5 5 6 5 6 5 5 5 5 5 6 5 5 5 5 5 5 5 5 6 5 5 5 5 5 5 5 5 5 5 5 5 5 5 5 5 5 5 5 5 5 5 5 5 6 5 5 5 5 5 5 5 5 5 5 5 5 5 6 5 5 5 5 5 5 5 5 6 5 5 5 5 5 6 5 5 5 5 5 5 5 5 5 5 5 5 5 5 5 5 6 5 6 5 5 5 5 6 5 5 5 5 5 5 5 6 5 5 5 5 5 5 5 5 5 5 5 5 5 6 5 5 5 5 5 5 5 5 5 5 5 5 5 5 5 5 5 5 5 5 5 5 5 6 5 6 5 5 5 5 5 5 5 5 5 5 5 5 5 5 5 6 5 5 5 5 5 5 5 5 5 5 5 5 5 5 5 5 5 5 5 5 5 5 5 5 6 5 5 5 5 5 5 5 5 5 5 5 5 5 5 5 5 5 5 6 5 5 5 5 5 5 5 5 5 5 5 5 5 5 5 5 5 5 5 5 5 6 5 6 5 5 5 5 5 5 5 5 5 5 5 5 6 5 5 5 6 5 5 5 5 5 5 5 5 5 5 5 5 6 5 6 6 5 5 5 5 5 5 5 5 6 5 5 5 5 5 5 5 5 5 5 6 5 5 5 5 5 5 5 5 5 5 5 5 5 6 5 5 5 5 5 5 6 5 5 6 5 5 5 5 5 5 5 5 6 6 5 5 5 5 5 5 5 6 5 5 5 6 6 5 5 5 6 5 5 5 5 5 5 5 5 6 6 5 5 5 5 5 5 5 5 5 5 5 5 5 5 5 5 5 6 6 5 5 5 5 5 5 5 5 6 5 5 5 6 6 5 5 6 5 5 6 5 6 5 5 5 5 5 6 5 5 6 5 5 5 5 5 5 5 5 5 5 5 5 6 5 6 5 5 5 5 5 5 5 5 5 5 5 5 5 6 5 5 5 6 5 5 5 5 5 5 5 5 6 5 5 5 5 5 5 5 5 5 5 6 5 5 6 5 5 6 5 5 5 5 5 5 5 5 6 5 5 5 6 5 5 5 5 5 5 5 6 6 5 5 6 6 5 5 5 5 5 5 6 5 5 6 6 6 5 5 5 6 6 5 5 5 5 5 5 5 5 5 5 6 5 5 5 5 5 6 5 5 6 5 6 5 6 5 5 5 5 5 6 5 5 5 6 5 5 5 6 6 5 6 5 5 6 6 5 5 5 5 5 5 6 5 6 5 5 5 5 5 5 5 5 6 5 5 5 5 5 5 5 5 5 5 5 5 5 5 5 5 5 5 5 5 5 5 5 5 6 5 5 5 6 6 5 5 5 6 5 5 6 6 6 5 5 5 5 6 5 5 5 5 5 5 6 5 5 6 5 5 6 5 5 5 5 5 5 6 6 5 6 6 5 6 5 5 5 5 6 6 5 5 5 5 6 5 5 6 5 5 5 5 5 5 5 5 6 5 5 5 5 5 5 5 5 5 5 5 5 5 5 5 5 5 6 6 5 5 5 5 5 5 5 6 5 5 5 5 5 5 5 5 5 5 5 5 5 5 5 5 5 5 5 5 6 5 6 5 5 5 5 5 5 5 5 5 5 5 5 5 5 5 5 5 6 6 5 6 5 5 5 5 5 5 5 5 5 6 5 5 5 5 5 5 5 5 5 5 6 6 5 5 5 5 5 5 6 5 5 5 5 5 6 5 5 5 5 5 5 6 5 5 5 5 5 5 5 5 5 6 5 5 5 5 5 6 5 5 5 6 5 5 5 5 5 5 5 5 5 5 5 5 5 5 5 6 5 5 5 5 6 5 5 5 5 5 5 5 5 5 5 5 5 5 5 5 5 5 5 5 5 6 5 5 5 5 5 5 5 5 5 5 5 5 5 6 5 5 5 5 6 5 5 5 6 5 6 5 6 5 5 5 6 5 5 5 5 5 5 5 5 5 5 5 5 5 5 6 6 5 5 5 5 5 5 5 5 5 5 5 5 5 5 5 6 5 5 5 5 5 5 5 5 5 5 5 5 5 5 5 5 5 5 5 5 5 5 5 5 6 5 5 5 5 5 5 5 5 5 6 5 5 5 5 5 5 6 6 5 5 5 6 6 5 5 5 6 5 5 5 6 5 5 6 5 5 6 6 5 5 5 6 5 5 5 5 5 5 6 5 6 6 5 6 5 6 5 5 5 5 5 5 5 5 5 5 5 5 5 5 5 5 5 5 5 5 5 5 5 5 5 5 5 5 5 5 6 5 5 5 5 5 5 5 5 5 5 6 5 5 5 5 5 5 5 5 6 5 5 5 5 5 5 5 5 5 5 5 5 5 5 5 5 5 5 5 5 5 5 5 5 5 5 6 5 6 5 5 5 5 5 5 6 5 5 5 5 5 5 5 5 5 5 5 5 5 5 5 5 5 5 6 5 5 6 5 5 5 5 6 5 5 5 5 5 5 5 5 5 5 5 5 5 5 6 5 5 5 5 5 5 5 5 5 5 5 5 5 6 6 5 5 5 5 5 6 5 5 5 5 5 5 5 5 5 5 5 5 5 6 5 5 5 5 5 5 5 5 5 5 5 5 5 5 5 6 5 5 6 5 5 5 5 5 5 5 5 6 5 5 5 5 5 6 5 5 5 6 5 5 5 5 6 5 5 5 5 5 5 5 5 5 6 5 5 5 5 5 5 5 5 5 5 5 5 6 5 5 5 5 5 6 5 5 5 5 5 5 5 5 5 5 5 5 6 5 5 6 5 5 5 5 5 5 5 5 5 5 6 5 5 5 5 5 5 5 5 5 5 5 6 5 5 5 5 6 5 5 5 5 5 5 5 5 5 5 5 5 5 5 5 5 5 5 5 5 5 5 5 6 5 5 5 5 5 5 5 5 5 5 5 5 5 5 5 5 5 5 5 5 5 5 5 5 5 5 5 5 5 5 5 5 5 5 5 5 5 6 5 5 5 6 5 5 5 5 5 5 5 5 5 5 6 5 5 6 6 5 5 6 5 5 6 6 5 5 6 6 6 5 5 6 5 5 6 5 5 5 5 5 5 5 5 6 5 6 6 5 5 6 5 5 6 5 6 5 6 5 5 5 5 5 6 5 5 5 6 6 5 6 5 6 6 5 5 5 5 5 5 6 6 5 5 5 6 5 5 6 5 6 6 5 6 5 6 5 6 6 5 5 6 5 5 5 5 5 5 5 5 6 6 5 6 6 5 6 6 5 6 6 5 5 5 6 5 6 5 6 6 5 5 5 5 5 5 5 5 5 5 5 5 5 5 5 5 5 5 6 5 6 5 5 6 5 5 5 5 5 6 5 5 5 5 6 6 5 6 5 5 6 5 5 5 5 6 6 5 5 6 5 5 5 5 5 5 5 5 5 5 5 5 6 5 5 5 5 5 5 5 5 6 5 5 5 5 5 5 5 5 5 5 5 5 5 5 5 5 5 5 5 5 5 5 5 5 5 5 6 5 5 5 5 5 5 5 5 5 6 5 6 5 5 5 6 5 5 5 5 5 5 5 5 5 5 6 6 5 5 5 6 6 5 6 5 5 5 6 6 5 5 5 5 5 5 6 5 5 5 6 5 5 5 5 5 5 5 5 5 5 5 5 6 5 5 5 5 5 5 5 5 5 5 6 6 5 5 5 5 5 6 5 5 5 6 5 5 5 5 5 5 5 5 5 5 5 5 5 5 5 5 5 5 6 6 5 5 5 5 5 5 5 5 5 6 5 6 5 5 5 5 6 5 6 5 5 5 5 6 5 5 6 5 5 5 5 5 5 6 5 5 5 5 5 5 5 5 5 5 5 5 5 5 5 5 5 5 5 5 5 5 6 5 5 5 5 5 5 5 5 5 5 5 6 5 6 5 5 6 5 6 5 6 5 5 6 6 5 6 6 6 6 5 5 5 6 6 5 5 5 6 5 5 5 5 5 5 5 5 5 5 5 5 6 5 6 5 5 5 5 5 5 5 5 5 5 5 5 5 6 5 5 5 5 5 6 5 5 6 5 5 5 5 6 5 5 5 5 6 5 5 6 5 5 5 6 5 6 5 5 6 6 5 5 5 5 5 5 5 5 5 5 5 5 5 5 5 5 5 5 6 5 5 5 5 5 5 5 5 6 5 5 5 5 5 5 5 5 5 5 5 6 6 6 5 5 5 5 5 6 5 5 5 5 6 6 6 6 5 5 6 5 5 5 6 6 5 5 5 5 5 5 5 5 5 5 5 6 5 5 5 5 5 5 5 5 5 5 5 5 5 5 5 5 5 5 5 6 5 5 5 5 5 5 5 6 5 5 5 5 6 5 5 5 5 6 5 5 5 6 5 5 5 5 5 5 6 5 5 6 5 5 5 5 5 5 5 5 6 5 5 6 5 5 5 5 5 5 5 5 6 6 6 5 5 5 5 5 6 5 5 5 6 5 5 5 6 5 5 6 5 5 5 6 5 5 5 5 5 5 5 5 6 5 5 5 6 5 5 5 5 5 5 6 5 5 5 5 5 5 6 5 6 5 6 5 5 5 5 6 5 5 5 6 5 5 5 5 5 5 5 5 6 5 5 5 5 5 5 5 6 5 6 5 6 5 5 5 5 5 5 6 5 5 6 5 5 5 6 5 5 5 5 6 5 5 5 5 5 5 5 5 5 6 5 5 5 5 5 5 5 5 5 6 5 5 5 5 5 5 5 5 5 5 6 5 5 5 5 5 5 5 5 5 5 5 5 5 5 5 5 5 6 5 5 5 5 5 5 5 5 5 5 6 5 5 5 5 5 5 5 6 6 5 5 5 5 5 6 5 5 5 5 5 5 5 6 5 5 5 5 5 5 5 5 5 5 5 5 5 5 5 5 5 5 5 5 5 5 5 5 5 5 5 5 5 5 5 5 5 5 6 5 5 5 5 6 5 5 5 5 5 5 5 6 5 5 5 6 5 5 6 5 5 5 6 5 5 5 5 5 5 5 5 6 5 5 6 5 6 5 5 6 5 5 5 6 5 5 6 6 5 5 5 5 5 6 5 5 5 5 5 5 5 6 5 6 5 5 5 6 5 5 5 6 5 5 5 5 5 5 5 5 5 5 6 5 5 6 6 5 5 6 5 5 6 5 6 5 5 5 6 5 5 5 6 6 5 5 5 5 6 6 5 6 5 5 5 5 5 5 6 5 5 6 5 5 5 5 5 6 6 5 5 5 5 5 5 5 6 5 5 5 5 5 5 5 5 5 5 5 5 6 5 5 5 5 5 6 5 5 5 5 5 5 5 5 5 5 5 5 5 5 5 5 5 5 5 6 5 5 5 5 5 5 5 6 5 5 5 5 5 6 5 5 5 5 5 5 5 5 5 5 5 5 5 5 5 5 5 5 5 5 6 5 5 5 5 5 6 5 5 5 5 5 5 5 5 5 5 6 5 5 5 6 6 5 6 5 5 6 5 5 5 5 5 6 6 6 5 5 5 6 5 5 5 6 5 5 5 5 5 5 5 5 5 5 5 5 5 5 5 5 5 5 5 5 5 5 5 5 5 5 5 5 5 5 6 5 5 5 6 5 5 5 5 5 6 5 5 5 5 6 5 5 5 5 5 5 5 5 5 5 5 5 5 6 5 5 5 5 5 6 5 5 5 5 5 5 5 6 5 5 5 5 5 6 5 5 5 5 6 5 5 5 5 5 5 5 5 5 5 6 5 5 5 6 5 5 5 5 5 5 5 5 5 5 6 5 5 5 5 5 5 6 5 5 5 5 5 6 6 5 5 5 6 5 5 5 5 5 6 5 5 5 5 5 5 5 5 6 5 5 5 6 5 5 5 5 5 5 5 5 5 5 5 5 5 5 5 5 5 5 5 5 5 5 5 5 5 5 5 5 5 5 5 5 5 5 5 5 5 5 6 5 5 5 5 5 5 5 5 5 6 5 5 6 5 5 6 5 5 6 5 5 5 5 6 5 5 6 5 5 5 5 5 5 5 6 5 5 5 5 6 6 6 5 5 5 5 5 5 5 5 5 5 6 5 6 5 5 5 5 5 5 6 5 5 5 6 5 5 5 5 6 5 5 6 5 5 5 5 5 5 5 5 5 5 5 5 5 5 5 5 5 5 5 5 6 5 5 5 5 5 5 5 5 5 5 5 5 5 5 6 5 6 5 5 5 5 5 5 6 5 5 5 5 5 6 5 5 5 6 5 5 5 6 5 5 5 5 5 5 6 5 5 5 6 5 5 5 5 5 5 5 5 5 5 5 5 5 5 5 6 5 5 5 5 5 5 5 5 6 5 5 5 5 5 5 5 5 5 5 5 5 5 5 5 5 5 5 5 5 5 5 5 5 5 5 5 5 5 6 5 5 5 5 5 5 5 5 5 5 5 6 5 5 5 5 5 6 5 6 5 5 5 5 5 5 5 5 6 5 5 5 6 5 6 5 5 5 5 5 5 5 6 6 5 5 5 5 5 5 5 5 5 5 5 5 6 5 5 5 5 5 5 5 5 5 5 5 5 5 5 5 5 5 5 5 5 5 5 5 5 5 5 5 6 5 5 5 6 5 5 5 5 5 5 5 6 5 5 5 5 5 5 5 5 5 5 6 5 5 5 5 5 5 6 5 5 5 6 5 5 6 5 5 5 5 5 5 5 5 5 5 5 5 5 6 5 5 6 5 5 5 5 5 5 6 5 6 5 5 5 5 5 5 5 5 5 5 5 5 5 5 5 5 5 6 5 5 5 5 5 5 5 5 5 5 5 5 5 5 5 5 6 5 5 5 5 5 5 6 5 5 5 6 6 5 5 5 5 5 5 6 5 5 5 5 5 6 5 5 5 5 5 5 5 6 5 5 5 5 5 5 5 5 5 5 5 5 5 6 5 5 6 5 5 6 5 5 5 5 5 5 5 5 5 6 5 5 5 5 5 5 6 5 6 5 5 5 5 5 6 6 5 5 5 5 5 5 6 5 5 5 5 5 5 5 5 5 5 6 5 5 6 5 6 6 5 5 6 5 5 5 5 6 6 5 5 5 5 5 6 5 5 5 5 5 6 6 5 5 5 6 5 5 5 5 5 5 5 5 5 6 5 5 5 5 5 5 6 5 5 5 5 5 5 5 5 5 5 5 5 5 5 5 5 5 5 5 5 5 5 5 5 5 5 5 5 5 5 5 6 6 5 5 5 5 5 5 5 5 5 5 5 5 5 5 5 5 5 5 5 5 6 5 5 5 5 6 5 5 5 5 5 5 5 5 5 5 5 5 6 5 5 5 5 5 5 5 6 6 5 5 5 5 5 6 5 5 5 5 5 6 5 5 5 5 5 5 5 5 5 5 5 5 5 5 5 5 5 5 5 5 5 6 5 5 5 5 5 5 5 5 5 6 5 5 5 5 5 6 5 5 5 5 5 5 5 5 5 5 5 5 5 5 5 5 5 5 6 5 5 5 5 5 5 5 5 5 6 5 6 6 5 6 5 6 5 5 5 5 5 5 5 5 5 5 5 5 5 5 5 5 5 5 5 5 5 5 5 6 5 5 5 5 5 5 5 5 6 5 6 5 5 5 5 5 5 6 6 5 6 5 5 5 5 6 5 6 5 5 5 5 5 5 5 5 5 6 6 5 5 5 5 5 5 5 5 5 5 5 5 5 5 5 5 6 5 5 5 5 5 5 5 5 5 5 6 6 5 5 5 5 5 5 5 5 5 5 5 5 5 5 5 5 5 5 5 5 5 5 5 5 5 5 5 5 5 5 5 5 5 5 5 5 5 5 5 5 5 5 5 5 6 5 5 5 5 5 5 6 5 5 5 5 5 5 5 5 5 5 5 5 5 5 5 5 5 5 5 5 5 5 6 5 5 5 6 6 5 5 5 5 5 5 5 5 5 5 5 5 5 5 5 6 5 5 5 5 5 5 5 5 6 5 5 5 5 5 5 5 5 5 5 5 5 5 6 5 5 5 5 6 5 5 5 5 5 6 5 5 5 6 5 5 5 6 5 5 5 5 5 6 5 5 6 5 6 5 5 5 5 5 5 6 5 5 5 5 5 5 5 5 5 5 5 5 6 5 5 5 6 5 5 5 5 5 5 5 5 6 5 5 5 5 5 5 6 5 5 5 5 5 5 5 5 5 5 5 5 5 5 5 5 6 5 5 5 5 5 5 5 5 5 5 5 5 5 6 5 6 5 6 5 5 5 6 5 5 5 6 6 6 6 5 6 5 5 5 5 5 6 5 5 5 5 5 6 5 5 5 5 5 5 5 5 5 5 5 5 5 5 5 5 6 5 5 5 5 5 5 5 5 5 5 5 5 5 5 5 5 5 6 5 5 5 6 5 5 5 5 5 5 6 5 5 5 5 5 5 5 5 6 5 5 5 5 5 5 5 5 5 5 5 5 5 5 5 5 5 5 5 5 5 5 5 5 6 6 5 5 5 5 5 6 5 5 5 5 5 5 5 5 6 5 5 6 5 5 5 5 5 5 5 5 5 5 5 5 5 5 6 5 5 5 5 5 5 6 5 5 5 5 5 5 5 5 5 5 5 6 5 5 6 5 5 5 5 5 5 5 5 5 5 5 5 5 5 5 5 5 5 5 5 5 5 5 5 5 5 5 5 5 5 5 5 5 6 5 5 5 5 5 5 5 5 5 5 5 5 5 5 5 6 6 5 5 5 5 6 5 5 5 5 5 5 6 5 5 5 5 5 5 5 5 5 5 6 5 5 5 5 5 6 5 5 5 5 6 6 5 5 5 6 5 5 5 5 5 5 5 5 6 5 5 5 5 6 6 6 5 6 5 6 5 5 5 6 5 5 5 6 6 5 5 5 5 6 5 5 6 5 5 5 6 5 5 5 5 5 6 5 5 5 5 5 5 5 6 5 5 5 6 5 5 5 5 6 5 5 5 5 5 5 6 5 5 5 5 5 5 5 6 5 5 5 5 5 5 5 5 5 6 5 6 5 5 5 5 5 5 5 5 5 6 6 6 5 5 6 5 5 5 5 5 5 5 5 5 5 5 5 5 5 5 5 6 5 6 5 5 5 5 5 5 5 5 5 5 5 6 5 5 5 6 5 5 5 5 5 5 5 5 5 6 5 5 5 5 5 5 5 5 5 5 5 6 5 6 5 5 5 5 6 5 5 5 6 5 5 5 5 5 5 5 5 6 5 5 6 5 5 5 5 5 6 5 5 5 6 5 5 5 5 5 5 5 5 5 6 6 5 5 5 5 6 5 5 6 5 5 5 6 5 5 5 5 6 6 5 5 5 5 5 5 5 5 5 5 5 5 5 6 5 5 5 5 5 6 5 5 5 5 5 5 5 5 5 5 5 5 5 5 5 5 5 5 5 5 5 5 5 5 5 5 5 5 5 5 5 5 5 5 6 5 5 5 6 5 5 5 5 5 6 5 5 5 5 5 5 5 5 5 5 5 6 5 5 6 5 5 5 5 6 6 5 5 5 5 5 5 5 5 5 5 6 5 6 5 5 5 6 5 5 6 5 5 5 5 5 5 5 6 5 5 6 6 5 5 6 6 5 5 5 5 6 5 5 6 5 5 5 5 5 5 5 5 5 5 5 5 5 5 5 5 5 5 5 5 5 5 5 5 5 5 5 5 5 5 5 5 5 5 5 6 6 5 5 5 5 5 5 5 5 5 5 5 5 5 5 5 5 5 5 5 5 5 5 5 5 5 5 5 5 5 5 5 5 6 5 5 5 5 5 5 5 5 5 5 5 5 5 5 5 5 6 5 5 6 5 5 5 5 5 5 5 5 5 5 5 5 5 5 5 5 5 5 5 5 5 5 5 5 6 5 5 5 5 5 5 5 6 5 5 5 5 5 6 5 5 6 5 5 5 5 6 5 6 5 5 6 6 5 5 5 5 5 5 5 5 5 5 5 5 5 5 5 5 5 5 5 5 5 6 6 5 5 6 5 6 5 5 5 5 5 5 5 5 5 5 5 5 6 5 5 5 5 5 5 5 5 5 5 5 5 5 6 5 5 6 5 5 5 5 6 5 5 5 5 5 5 5 5 5 5 6 5 5 5 5 5 5 5 5 5 5 5 5 5 5 5 6 5 5 6 5 5 5 5 5 5 5 6 5 5 5 5 5 6 6 6 5 5 5 5 5 6 5 6 5 5 6 5 5 5 5 5 5 5 6 5 5 5 5 5 5 5 5 5 5 5 5 5 5 5 5 5 5 6 5 5 6 5 5 6 5 5 5 5 5 5 5 5 5 6 5 6 5 5 5 6 5 5 5 5 6 5 5 6 5 5 5 5 6 5 5 6 6 5 5 5 5 5 5 5 5 5 5 6 5 5 5 5 5 5 5 5 5 5 5 5 5 5 5 5 6 5 5 5 6 5 5 6 5 5 5 5 6 5 5 5 5 5 6 5 5 5 5 5 5 5 6 5 5 5 6 6 5 5 5 5 5 6 5 5 5 5 5 5 6 5 5 5 5 5 5 5 5 6 5 5 6 5 5 5 5 5 5 5 5 6 6 5 5 5 5 5 5 5 5 5 5 6 5 5 5 5 6 5 5 5 5 5 5 5 5 5 5 5 5 6 5 5 5 5 6 5 5 5 5 5 5 5 5 5 5 5 5 5 5 6 6 5 5 6 5 5 6 5 5 5 5 5 5 5 5 6 5 5 5 5 5 5 5 5 5 5 5 5 5 5 5 5 5 5 5 5 5 5 5 5 5 5 5 5 5 5 6 5 5 5 5 5 5 5 5 5 5 5 5 5 5 5 5 6 5 5 6 5 5 5 5 5 6 5 5 6 5 6 5 5 5 5 5 5 5 6 5 5 6 6 5 6 5 6 5 5 5 5 5 5 6 5 5 5 5 5 5 6 5 5 5 6 5 5 5 5 5 5 5 5 5 5 5 5 5 5 6 5 5 5 5 5 5 5 5 5 6 5 5 5 5 5 5 6 5 5 5 5 5 6 5 5 5 5 5 5 5 6 5 6 5 5 5 5 5 5 5 5 5 5 5 5 5 5 5 5 5 5 5 5 5 5 6 5 5 5 5 5 5 5 5 5 5 5 5 5 5 5 5 5 5 5 5 5 5 5 5 5 5 5 6 5 5 5 5 5 5 5 5 5 5 5 5 5 5 5 5 5 5 5 5 5 5 5 5 5 5 5 5 5 5 5 5 5 5 5 5 5 5 5 5 5 5 5 5 6 5 5 5 5 5 5 6 5 6 5 6 5 5 5 5 6 5 5 5 5 5 5 5 5 5 5 5 5 6 6 5 5 5 5 5 5 5 5 5 5 5 5 5 5 5 5 5 5 5 6 5 5 5 6 5 5 5 5 5 5 5 5 5 5 5 5 5 5 5 5 6 5 5 5 5 5 5 5 5 6 5 5 5 5 5 6 5 5 5 5 5 5 5 5 5 6 5 5 5 5 5 5 5 5 6 5 5 6 5 5 5 5 5 5 5 5 5 5 5 5 6 5 5 5 5 5 5 5 5 5 5 5 5 5 5 5 5 5 5 5 5 5 5 5 5 5 5 6 5 5 5 5 5 5 5 5 5 5 6 6 5 5 5 5 5 5 5 5 5 5 5 5 5 5 5 5 5 6 5 5 5 5 6 5 5 5 5 5 5 5 6 6 5 6 5 5 5 5 5 6 5 6 5 5 6 5 5 5 6 5 5 5 5 5 5 5 5 5 5 5 5 5 5 5 5 5 5 5 5 5 5 5 5 5 5 5 5 5 6 6 5 5 6 5 5 5 5 5 5 5 5 6 6 5 5 5 5 5 5 5 5 5 5 5 5 5 6 5 5 5 5 5 6 6 5 5 6 5 5 5 5 5 5 5 5 5 5 5 5 5 6 5 5 5 5 5 5 5 5 5 5 5 5 5 5 5 5 5 5 5 5 6 5 6 5 5 6 5 6 5 5 6 5 5 5 5 6 5 5 5 5 5 5 6 5 5 5 6 5 5 5 5 5 5 6 5 5 5 5 5 5 6 5 5 5 5 5 5 5 5 5 5 5 5 5 5 5 5 5 5 5 6 5 5 5 5 5 5 5 6 5 5 5 5 5 5 5 5 5 6 5 5 5 5 6 5 5 6 5 5 6 5 5 6 5 5 6 5 5 5 5 5 5 5 6 5 5 5 5 5 5 5 5 5 5 5 5 5 5 5 5 5 5 5 5 5 5 5 5 5 5 5 5 5 5 5 6 5 6 5 5 5 5 5 5 5 6 5 5 5 5 6 5 5 5 5 5 5 5 5 5 5 5 5 5 5 5 6 5 5 5 5 5 5 5 5 5 5 5 5 5 5 5 5 6 5 5 5 5 5 6 5 5 5 5 5 5 5 5 5 5 5 5 6 5 5 5 5 5 5 5 6 5 6 5 5 5 5 5 5 5 5 5 5 6 5 5 5 5 5 5 5 5 5 5 5 5 5 5 5 5 5 5 6 5 5 5 5 5 5 5 5 5 5 5 5 5 5 5 5 5 5 5 5 5 5 6 5 5 5 5 6 5 5 6 5 5 5 6 5 5 5 5 5 5 5 5 6 5 5 5 5 5 6 5 5 5 5 5 5 5 5 5 5 5 5 5 6 5 5 5 5 5 5 5 5 6 5 6 5 5 5 5 5 6 5 6 6 5 5 6 5 6 5 5 5 5 5 5 5 5 5 5 5 5 6 5 5 5 5 5 5 5 5 5 5 5 5 5 5 5 5 5 5 5 5 5 5 5 5 5 5 5 5 5 5 5 5 6 5 5 5 5 5 5 6 5 5 5 6 5 6 5 5 5 5 5 5 5 5 5 5 5 5 5 5 6 5 5 6 5 5 5 6 5 5 5 5 5 5 5 5 6 5 5 5 5 6 5 5 5 5 5 6 5 5 6 6 5 6 5 5 5 6 5 6 6 5 5 6 5 6 5 6 6 5 5 6 5 5 5 5 5 6 5 5 5 5 5 6 6 5 5 5 5 5 5 5 6 5 5 5 5 5 5 5 5 5 5 5 6 5 6 5 5 5 5 5 5 5 5 5 5 5 5 5 5 5 5 5 5 6 5 6 5 5 6 5 6 5 5 5 5 5 5 5 6 5 5 5 5 5 5 5 5 5 5 5 5 5 5 5 5 5 5 6 5 5 5 5 5 5 5 6 5 5 5 5 5 5 5 5 5 5 5 5 5 5 5 6 5 5 5 5 5 5 5 5 6 5 5 5 5 5 5 5 5 5 5 5 5 5 5 6 5 5 5 5 6 5 5 5 5 5 5 5 5 6 5 5 5 5 5 6 5 5 5 5 6 5 6 5 5 5 5 5 5 5 5 5 5 5 5 5 5 5 5 5 5 5 5 5 6 6 5 6 6 5 5 5 6 6 5 5 6 5 5 6 5 5 5 5 5 5 6 5 5 5 5 5 6 5 6 5 6 5 5 6 5 5 5 5 5 6 5 5 5 5 5 5 5 5 5 5 6 5 5 5 5 5 5 6 5 5 5 5 5 5 5 6 5 5 5 5 5 5 5 5 5 5 5 5 5 5 6 5 5 5 6 5 5 5 5 5 5 5 5 5 5 5 5 5 5 5 5 5 5 5 5 5 5 5 5 5 5 5 5 5 6 5 5 5 5 6 6 5 5 5 5 5 5 6 6 5 5 5 5 5 5 5 5 5 6 5 5 5 5 5 5 5 6 6 5 5 6 5 6 5 5 5 5 5 5 5 5 5 5 5 5 5 5 5 6 5 5 5 5 6 5 5 5 5 5 5 5 6 5 5 5 5 5 5 5 5 6 5 5 5 5 5 5 5 6 6 5 5 5 5 6 5 5 6 5 5 5 6 5 5 5 6 5 5 5 5 5 5 5 5 5 5 6 5 5 5 5 5 5 5 5 5 6 5 5 5 5 5 5 5 5 5 5 5 6 5 5 5 6 5 5 5 5 5 6 5 6 5 5 5 6 5 5 6 6 5 5 5 5 5 5 5 5 6 5 5 5 5 5 5 6 5 5 5 6 5 5 5 5 5 6 5 5 5 5 5 5 5 5 5 5 5 5 5 5 5 5 5 5 5 5 5 5 6 5 5 5 5 5 5 5 5 5 5 5 5 6 5 5 5 5 5 5 5 5 5 5 5 5 5 5 5 5 6 5 5 5 5 5 5 5 5 5 5 5 5 5 5 5 5 5 5 5 5 5 5 5 5 5 5 5 5 5 5 5 5 5 5 5 5 5 5 6 5 5 5 6 5 5 5 5 5 5 5 6 5 5 5 5 5 5 6 5 5 5 5 5 5 5 5 5 5 5 5 5 5 6 5 5 5 5 6 5 5 5 5 5 5 5 5 6 6 5 5 5 5 5 5 5 5 5 5 5 5 5 5 5 5 5 5 5 5 5 5 6 5 5 6 5 5 5 5 5 5 5 5 5 5 5 5 5 5 5 5 5 5 5 5 5 5 5 5 5 5 5 5 5 6 5 5 6 5 5 5 6 5 5 5 6 5 5 6 5 5 5 5 5 5 5 5 5 5 5 5 5 6 5 5 5 5 5 5 5 5 5 5 5 5 5 6 5 5 5 6 5 5 5 5 5 5 6 5 6 5 5 5 5 6 5 5 5 5 6 5 5 6 5 5 5 5 5 5 5 5 5 5 5 5 5 5 5 5 5 5 5 5 5 5 5 5 5 5 5 5 5 5 5 5 5 5 5 5 5 5 5 6 5 5 5 6 5 6 5 6 5 5 6 5 6 6 5 5 5 5 6 5 5 5 5 5 5 5 6 5 5 6 5 5 5 5 5 6 5 5 5 5 5 5 5 5 5 5 5 5 6 5 5 5 6 5 5 6 5 5 6 5 6 5 5 5 5 5 6 5 5 6 5 5 5 5 5 5 5 5 5 5 6 5 5 5 5 5 5 5 5 5 5 6 5 5 5 5 5 5 5 6 5 5 5 5 5 6 6 5 5 5 5 5 5 5 6 6 5 5 6 5 5 5 5 5 5 5 5 5 5 5 6 5 5 5 5 5 5 5 5 5 5 5 5 5 5 6 5 5 5 5 5 5 5 5 5 5 5 5 5 5 5 5 5 5 5 5 5 5 5 6 5 5 5 5 5 5 5 5 5 5 5 5 5 5 5 5 5 5 5 5 5 5 5 5 5 5 5 5 5 5 5 5 5 5 5 5 5 5 5 5 5 5 5 5 5 5 5 5 5 5 5 5 5 5 5 5 5 5 5 5 5 5 5 5 5 5 5 5 6 5 5 5 5 5 5 5 6 5 5 5 5 5 5 5 5 5 5 5 5 5 5 5 5 5 5 5 5 5 5 5 5 5 6 5 5 5 5 5 5 5 5 5 5 5 5 5 5 5 5 5 5 5 5 5 5 5 5 5 5 5 5 5 5 5 5 5 5 5 5 5 5 5 5 5 6 5 6 5 5 5 5 5 5 5 5 5 5 5 6 5 5 6 5 5 5 5 6 5 5 5 5 5 5 5 5 5 5 5 5 5 5 5 5 5 5 5 5 5 5 5 6 5 5 5 6 5 5 5 5 5 5 5 5 5 5 6 5 5 5 5 5 5 5 6 5 6 5 5 5 6 5 5 5 6 5 5 5 5 5 5 6 6 6 5 5 6 5 5 5 5 6 5 5 5 6 5 5 5 5 5 5 5 5 6 5 5 5 5 5 5 5 5 5 5 5 5 5 5 6 5 5 5 5 5 6 5 5 5 5 5 5 5 6 5 6 5 5 5 6 5 5 5 5 5 5 5 5 5 5 5 5 5 5 5 5 5 5 5 5 5 5 5 5 5 5 5 5 5 5 5 5 5 5 5 5 5 5 5 5 5 6 5 5 5 5 5 5 5 5 5 6 5 5 5 5 6 5 5 5 5 5 5 5 5 5 5 5 5 5 5 5 5 5 5 5 5 6 5 6 5 5 5 5 5 5 5 5 5 5 5 5 5 5 5 5 5 5 5 5 5 5 5 5 5 5 5 5 6 5 5 5 5 5 5 5 5 5 5 5 5 5 5 5 6 6 5 6 6 5 5 5 5 5 5 5 5 5 5 6 5 6 5 5 5 5 5 5 5 6 5 5 6 5 5 5 5 5 5 5 6 5 5 5 5 5 5 5 5 5 5 5 5 5 5 5 5 5 6 5 5 5 5 5 5 5 6 5 5 5 5 5 5 5 5 5 5 5 5 5 5 5 5 5 5 5 5 5 5 5 5 5 5 5 5 5 6 5 5 5 5 5 5 5 5 5 5 5 5 5 5 5 5 5 5 5 5 5 5 5 5 5 5 5 6 5 5 5 6 5 5 5 5 5 5 5 5 5 5 5 6 5 6 5 5 5 5 5 5 6 5 5 5 5 6 5 5 6 5 5 5 5 5 5 5 5 5 5 6 5 5 6 5 5 5 5 5 5 5 5 5 5 5 5 5 5 5 5 5 5 6 5 5 5 5 6 5 6 5 5 5 5 5 5 5 5 5 5 5 6 5 5 5 5 6 5 5 5 5 5 5 5 5 5 5 5 5 5 5 5 6 5 5 5 6 5 5 5 6 5 5 5 5 5 5 5 6 5 5 5 5 5 5 5 6 5 5 5 5 5 5 5 5 5 5 5 5 5 5 5 6 5 5 6 5 5 5 5 5 5 5 5 5 5 6 5 5 5 5 5 5 5 5 5 5 5 5 5 5 5 5 5 5 5 5 5 5 5 5 5 5 5 5 5 5 5 5 6 5 5 5 6 5 5 5 5 5 5 6 6 5 5 5 5 5 6 5 5 5 5 6 5 5 5 5 5 5 5 5 6 6 5 5 5 5 5 5 5 5 5 5 5 5 5 5 5 5 5 5 5 5 6 6 5 5 5 5 5 6 5 5 5 5 6 5 6 5 6 6 5 5 6 5 5 5 5 5 5 5 5 5 5 5 6 5 5 5 5 5 5 5 5 5 5 5 5 5 6 6 5 5 5 5 5 5 5 5 5 5 5 5 5 5 5 5 5 5 5 5 5 5 5 5 5 5 5 5 5 5 5 5 5 5 5 5 5 6 6 5 5 6 6 5 5 6 6 5 5 5 5 5 6 5 5 5 5 5 6 5 5 5 5 6 5 5 5 5 5 6 5 5 6 5 5 5 5 5 5 5 5 5 5 5 5 5 5 5 5 5 5 5 5 5 5 5 5 5 5 5 5 6 5 5 5 5 6 5 5 5 6 6 5 5 5 6 5 5 5 5 6 6 5 6 5 5 5 6 5 5 5 5 5 5 5 5 5 5 5 5 5 5 5 5 5 5 5 5 6 5 5 5 6 5 5 5 6 5 5 5 5 5 5 5 6 5 5 5 5 5 5 5 5 5 5 6 5 5 5 5 5 5 5 5 5 5 5 6 5 5 5 5 5 5 5 5 6 6 6 5 5 5 5 5 5 5 5 5 5 5 5 5 5 5 5 5 5 5 5 5 5 5 5 5 5 6 5 5 5 6 5 5 5 5 5 5 5 5 5 5 6 5 5 6 5 5 5 5 5 5 5 6 5 5 6 5 5 5 5 5 6 5 5 5 6 6 5 5 5 5 5 5 5 5 5 6 5 6 5 5 6 5 5 5 6 5 5 5 5 5 6 5 5 5 5 5 5 5 5 6 5 6 5 5 5 5 5 5 5 5 5 5 5 5 5 6 5 5 5 5 5 5 5 5 5 5 5 6 5 5 6 5 5 5 5 5 5 5 5 6 5 5 5 5 6 5 6 5 5 5 5 5 6 5 5 6 5 5 5 5 5 5 5 5 5 6 5 5 5 5 6 5 5 5 5 5 5 5 6 5 5 6 5 5 5 5 5 5 5 6 5 5 5 5 5 5 5 5 5 5 5 5 5 6 5 5 6 5 6 6 5 6 5 5 5 5 5 6 5 5 5 6 5 5 5 5 5 6 5 5 6 5 6 5 5 5 5 5 6 6 5 5 6 6 5 5 5 5 5 5 6 5 6 5 5 6 5 5 5 5 5 6 5 5 5 6 5 5 5 5 5 5 5 5 6 6 5 5 5 5 5 6 5 5 6 5 6 6 5 6 6 5 5 6 6 6 5 5 6 5 5 6 5 5 6 6 6 5 5 5 6 5 5 5 6 5 5 5 6 5 5 5 6 5 6 5 6 5 5 5 5 6 5 6 6 6 5 6 5 5 5 5 6 5 6 6 6 5 5 6 5 5 5 5 5 6 5 6 6 5 5 5 6 5 5 5 6 5 5 5 5 5 5 5 5 5 5 5 5 5 6 5 5 5 5 5 5 6 5 5 5 5 5 5 5 5 5 5 6 5 5 5 5 6 5 5 5 6 5 5 5 5 5 5 6 5 5 5 5 6 5 5 5 5 5 5 5 6 5 5 5 5 5 5 5 5 6 5 5 5 5 5 5 5 5 6 5 5 5 5 5 5 5 5 5 5 5 5 5 5 5 5 5 5 5 5 5 5 5 5 6 5 5 6 5 5 5 5 5 5 5 5 5 6 5 5 6 5 5 5 5 6 5 5 5 5 6 5 5 5 5 6 5 5 5 5 5 5 6 5 6 5 5 5 5 5 6 5 5 5 5 5 5 5 5 5 5 5 5 5 5 5 5 5 5 5 6 5 5 5 5 6 6 5 5 5 5 5 6 5 6 5 5 5 6 5 5 6 5 5 5 6 5 5 5 5 5 5 6 5 5 5 5 5 6 5 5 5 5 5 5 6 5 5 6 5 5 6 5 5 6 5 5 5 5 5 5 5 5 5 5 5 6 5 5 6 5 6 5 5 5 5 6 5 5 5 5 5 5 6 5 5 5 5 6 5 5 6 5 5 5 5 5 5 5 5 5 5 5 5 5 5 5 5 5 5 5 5 5 5 6 5 5 5 5 5 5 5 5 5 5 5 6 5 5 5 5 5 5 5 5 5 5 5 5 5 5 5 5 5 5 6 5 5 5 5 5 5 6 5 5 5 5 5 5 5 5 5 5 5 5 5 5 5 5 5 5 5 5 6 5 6 5 5 5 5 5 5 5 5 5 5 5 5 5 6 5 5 6 5 6 5 5 5 5 5 6 5 5 5 5 5 5 6 5 5 5 5 5 5 5 5 5 6 5 6 5 5 5 5 5 5 5 5 5 6 5 5 5 5 5 5 5 5 5 5 6 5 5 5 5 5 6 5 5 6 5 5 5 5 5 5 5 5 5 5 5 5 5 5 5 6 5 5 5 5 5 5 5 5 5 5 6 5 5 6 5 5 5 5 5 6 6 5 5 6 5 5 6 6 5 5 5 5 5 6 5 5 6 5 5 5 5 5 5 5 5 6 5 5 6 5 5 5 6 5 5 5 5 5 5 5 5 5 6 6 5 6 5 5 5 5 5 5 5 5 6 5 5 5 5 5 6 5 6 5 5 5 5 5 5 5 5 5 5 5 5 5 5 6 5 5 5 5 5 5 5 5 5 5 5 6 5 5 6 5 6 5 5 6 5 5 5 5 5 5 5 5 6 5 6 5 5 5 6 5 5 5 5 5 5 5 5 5 5 5 5 5 5 5 5 5 5 5 5 5 5 6 5 5 5 5 5 5 5 5 5 5 5 5 5 5 5 5 5 5 6 5 5 5 5 5 6 6 5 5 5 
</DataArray>
<DataArray type="Float64" Name="stress" NumberOfComponents="9" format="ascii">
3483.5747800473764 -1096.0702456990164 0 -1096.0702456990164 -174.71967687503926 0 0 0 0 844.4345513139051 -105.6575058381251 0 -105.6575058381251 0.4540580387541342 0 0 0 0 440.3300741282219 166.17572795513573 0 166.17572795513573 -299.87311502874417 0 0 0 0 -202.4701449709537 -944.58530199533084 0 -944.58530199533084 113.55973490015569 0 0 0 0 8.4310420283516692 -4.7123162444484734 0 -4.7123162444484734 2.2223993066688212 0 0 0 0 3487.8710053191753 345.80693747570871 0 345.80693747570871 -347.20486296743132 0 0 0 0 35.050224299979163 -215.12861183348721 0 -215.12861183348721 -524.78259404652817 0 0 0 0 18.685155841430827 -8.248107000220017 0 -8.248107000220017 2.8487699615903281 0 0 0 0 -199.2082738570316 -139.41447031023282 0 -139.41447031023282 -9.8889906209685741 0 0 0 0 18.147415127983209 -5.9718141872919954 0 -5.9718141872919954 0.78525214508124497 0 0 0 0 446.56215112803329 -41.914231204863086 0 -41.914231204863086 3.8536030368675256 0 0 0 0 361.41602107869403 -745.07230423345118 0 -745.07230423345118 752.85399262501414 0 0 0 0 1612.5565652591467 1039.1923896366397 0 1039.1923896366397 -14.447784115023889 0 0 0 0 7.8247538652215667 0.33915522429128231 0 0.33915522429128231 0.63740958303991901 0 0 0 0 446.64447393087903 72.598348754814197 0 72.598348754814197 -56.480509047628857 0 0 0 0 141.94343391843722 43.432307126510523 0 43.432307126510523 -2.4272441833552421 0 0 0 0 -697.65417412930401 -403.04739739741524 0 -403.04739739741524 204.74306716234395 0 0 0 0 3.9626121005974824 -0.44368948877501069 0 -0.44368948877501069 -0.25575133668275929 0 0 0 0 59.385218210032178 2.9866709226527135 0 2.9866709226527135 -5.5275321616323714 0 0 0 0 17.792560931615299 -46.469198983691967 0 -46.469198983691967 23.47685810704948 0 0 0 0 12.438645322690945 -5.5469381425894468 0 -5.5469381425894468 -1.1804235680431292 0 0 0 0 34.021439003803465 -5.6368367144210936 0 -5.6368367144210936 1.0228026864438409 0 0 0 0 168.57264992459386 -3.5211167480151602 0 -3.5211167480151602 -425.38116330543511 0 0 0 0 12.529318034870812 67.982688513785661 0 67.982688513785661 -177.15242253181441 0 0 0 0 63.586311766703147 146.07205787144326 0 146.07205787144326 -311.6574640334934 0 0 0 0 148.22431395223248 136.30653276560236 0 136.30653276560236 -386.31031547961055 0 0 0 0 139.44203306692725 -26.790999766372657 0 -26.790999766372657 -254.29823031164551 0 0 0 0 152.79970795839472 -95.211305120959338 0 -95.211305120959338 -148.71424834287612 0 0 0 0 43.582412992866011 -121.61200460630471 0 -121.61200460630471 268.35529689228923 0 0 0 0 83.369434626307338 5.5032196162549525 0 5.5032196162549525 -225.64299883125656 0 0 0 0 20.343572947094799 -187.45663614842357 0 -187.45663614842357 0.21658289042760073 0 0 0 0 970.53866747464053 -0.051705910905297969 0 -0.051705910905297969 -519.30272717200216 0 0 0 0 -328.93070245893614 -6.2829962383261773 0 -6.2829962383261773 -496.59811887699919 0 0 0 0 398.87279250445317 -347.05424176890295 0 -347.05424176890295 786.23370955637722 0 0 0 0 321.58412218995363 -605.28533038762168 0 -605.28533038762168 1032.7688338059188 0 0 0 0 33.850679213232013 1.75529332373236 0 1.75529332373236 -3.2973630691816975 0 0 0 0 93.832628567237407 136.69594869717912 0 136.69594869717912 -811.91802681803199 0 0 0 0 136.87992109956394 -362.35214807236639 0 -362.35214807236639 883.61427348271582 0 0 0 0 253.53097874173545 -414.92226388823639 0 -414.92226388823639 782.12520764274655 0 0 0 0 405.86915522714844 -469.10109714809226 0 -469.10109714809226 525.12642097474054 0 0 0 0 215.85548887529876 77.74163635086434 0 77.74163635086434 -339.49707115588797 0 0 0 0 119.77464714318921 89.922401673577113 0 89.922401673577113 -264.21613100639644 0 0 0 0 -70.493595050560543 -74.114467597121205 0 -74.114467597121205 -263.34895451756893 0 0 0 0 165.84129669537651 -41.560521756814602 0 -41.560521756814602 -432.41514210060899 0 0 0 0 349.87327581439604 -460.21471716646806 0 -460.21471716646806 532.99585368921748 0 0 0 0 219.95081419445341 -525.3452433028051 0 -525.3452433028051 570.56338218224118 0 0 0 0 49.609553942082243 3.4947177167154706 0 3.4947177167154706 -4.8293368172944433 0 0 0 0 644.00173905672273 405.67072222451247 0 405.67072222451247 -251.29703430702648 0 0 0 0 300.57193764529075 -546.89683686676403 0 -546.89683686676403 467.87263891411703 0 0 0 0 180.43412787312991 -458.56907889568856 0 -458.56907889568856 553.82997917401826 0 0 0 0 101.6070174080196 -55.810715263324468 0 -55.810715263324468 159.32737358963232 0 0 0 0 64.091601138265105 -364.09651983179515 0 -364.09651983179515 479.87723804890584 0 0 0 0 392.70931736589409 -485.68595437056717 0 -485.68595437056717 301.23573534440698 0 0 0 0 316.4360078049649 -434.93148793724163 0 -434.93148793724163 267.5339973375801 0 0 0 0 740.75655863335123 -619.82532268644081 0 -619.82532268644081 283.62999699862576 0 0 0 0 448.96213720784544 -519.67652618329646 0 -519.67652618329646 258.57581619061114 0 0 0 0 426.58894390607566 -680.510256591092 0 -680.510256591092 445.26764158141322 0 0 0 0 246.99961947242264 -601.57810177480917 0 -601.57810177480917 413.32756052919592 0 0 0 0 205.57530425263394 -508.30580646422015 0 -508.30580646422015 577.99935103909081 0 0 0 0 147.20040142216021 -685.42049135691104 0 -685.42049135691104 494.91886456951215 0 0 0 0 183.17847621057626 -537.94947955868179 0 -537.94947955868179 353.86545910793734 0 0 0 0 -229.39508585751173 -161.82629551474793 0 -161.82629551474793 382.94106705831047 0 0 0 0 -47.451542299895664 -535.2306505415786 0 -535.2306505415786 792.09171955300394 0 0 0 0 256.93587500895956 -827.66864735113541 0 -827.66864735113541 1052.4603710678498 0 0 0 0 1227.7601769345347 -804.14722152428385 0 -804.14722152428385 533.23524738442597 0 0 0 0 839.60695090622175 -969.26066840943031 0 -969.26066840943031 484.00755537906252 0 0 0 0 586.58225675006906 -682.98260648970165 0 -682.98260648970165 257.7607148136201 0 0 0 0 531.97168916487135 -879.83727506365085 0 -879.83727506365085 593.1516148016251 0 0 0 0 67.623126791790128 -264.22070574262455 0 -264.22070574262455 437.49978011809998 0 0 0 0 122.16254496606416 -618.70186922813809 0 -618.70186922813809 478.59698098614535 0 0 0 0 -153.20500571656885 -108.65793869678134 0 -108.65793869678134 -38.296862736972344 0 0 0 0 360.74543424521835 -403.15941784148072 0 -403.15941784148072 79.01029610761384 0 0 0 0 2.2645113092498832 -3.365206899960647 0 -3.365206899960647 0.88655154628335175 0 0 0 0 347.90347416718942 -81.687890204342921 0 -81.687890204342921 -513.35496876507545 0 0 0 0 1.446440564707359 -4.2285622907357734 0 -4.2285622907357734 0.95905106765499815 0 0 0 0 160.69496677967254 -342.81786831932163 0 -342.81786831932163 -486.46054549517839 0 0 0 0 118.47959319242364 -508.63649550163404 0 -508.63649550163404 123.74214163191891 0 0 0 0 -154.11419304025912 -340.38618513561596 0 -340.38618513561596 324.13681700126472 0 0 0 0 -145.31849814273301 139.60342866937776 0 139.60342866937776 -116.85088806161184 0 0 0 0 -11.271156419758768 0.17672724236827975 0 0.17672724236827975 1.9810296993642402 0 0 0 0 10.65374351158971 74.898211985274884 0 74.898211985274884 -281.9645039615923 0 0 0 0 107.1603522473597 158.27045132714829 0 158.27045132714829 -220.82242060208409 0 0 0 0 24.16155658835487 47.334201221338162 0 47.334201221338162 15.518525583101109 0 0 0 0 -25.063851385959424 233.38609209742231 0 233.38609209742231 -57.2084689186986 0 0 0 0 1008.0767900289793 -445.29835812988671 0 -445.29835812988671 324.5268109747401 0 0 0 0 -6.2972526923497867 -12.816423775103118 0 -12.816423775103118 16.476965509413702 0 0 0 0 1336.9503931636573 -238.50026361584872 0 -238.50026361584872 331.134165874975 0 0 0 0 1190.4653824635243 -809.45821666380698 0 -809.45821666380698 703.62825784922325 0 0 0 0 1461.3782978106974 -1225.9543603883014 0 -1225.9543603883014 836.03012543193108 0 0 0 0 -4.6280093390094947 -9.881157540970321 0 -9.881157540970321 10.262148393410317 0 0 0 0 650.2823918054346 -1070.5751044095775 0 -1070.5751044095775 1606.7051171668445 0 0 0 0 514.75954594461655 58.631285534573635 0 58.631285534573635 651.07434475000423 0 0 0 0 581.01447060910868 -533.08924303874926 0 -533.08924303874926 778.17276577410894 0 0 0 0 3500.1935132910512 -14.66071945974444 0 -14.66071945974444 -212.80306900044823 0 0 0 0 1527.4127784065058 189.37604429228296 0 189.37604429228296 -179.19441762396087 0 0 0 0 3492.5642468397054 916.58896363778911 0 916.58896363778911 -96.922162821246815 0 0 0 0 1599.4553511790509 -63.871820993353168 0 -63.871820993353168 543.9862658458627 0 0 0 0 272.47789463613572 -350.36695965839135 0 -350.36695965839135 405.91507887732831 0 0 0 0 500.83806134371844 1336.3146541765082 0 1336.3146541765082 741.85145717982073 0 0 0 0 2095.6209248485029 -628.60131344985507 0 -628.60131344985507 216.34916030534393 0 0 0 0 -120.32663162468089 -359.63607100538599 0 -359.63607100538599 590.34105107741948 0 0 0 0 3486.124748199898 265.86153533320373 0 265.86153533320373 -591.48651364378952 0 0 0 0 11.854192906137484 4.2484644737568118 0 4.2484644737568118 2.0332102826463014 0 0 0 0 27.013844777113121 5.1654498796447825 0 5.1654498796447825 0.30910795725432882 0 0 0 0 4.670792512173648 362.48096270393347 0 362.48096270393347 -553.38622315605221 0 0 0 0 -30.445880090359424 25.54929015741763 0 25.54929015741763 -12.153545717441158 0 0 0 0 828.4525954798446 -159.06823487834129 0 -159.06823487834129 10.705764177454512 0 0 0 0 6.702337649114753 5.0522455600605696 0 5.0522455600605696 -2.252046579534968 0 0 0 0 44.968918097002643 -606.64786728013473 0 -606.64786728013473 -53.432580960654604 0 0 0 0 558.76423869730206 -31.02953203005336 0 -31.02953203005336 -49.767886917901812 0 0 0 0 703.43961064436007 -256.93868263563718 0 -256.93868263563718 128.66689612459584 0 0 0 0 747.65157550672302 -572.27445210028873 0 -572.27445210028873 -102.73797112696423 0 0 0 0 859.67496527123149 -85.3658496175766 0 -85.3658496175766 386.15288751571597 0 0 0 0 487.00502262239752 -401.5838205133748 0 -401.5838205133748 805.01471918983407 0 0 0 0 644.82358232146362 -535.15345850535186 0 -535.15345850535186 1829.4774989909229 0 0 0 0 1228.5632149033481 -215.98465702359863 0 -215.98465702359863 815.98241779714431 0 0 0 0 783.07026600605604 -965.39505414418295 0 -965.39505414418295 1268.938566173957 0 0 0 0 815.22265313970274 -768.40886719926493 0 -768.40886719926493 540.18028501923106 0 0 0 0 539.69783725956222 -140.30864789126065 0 -140.30864789126065 -341.07717600565439 0 0 0 0 690.01969722408103 -464.28429938575721 0 -464.28429938575721 594.99573831438079 0 0 0 0 5.6920390721643344 -373.36089998631564 0 -373.36089998631564 630.57825919071217 0 0 0 0 -109.99256414207048 56.680584307180453 0 56.680584307180453 38.222126116797227 0 0 0 0 48.933905505120492 -113.59996852163206 0 -113.59996852163206 198.7653277228959 0 0 0 0 -1.2360700955850632 0.47137369568520171 0 0.47137369568520171 -5.6239859616471231 0 0 0 0 -284.47335984229721 -167.97399375460486 0 -167.97399375460486 19.618594752479794 0 0 0 0 85.959914215116441 52.830539664937149 0 52.830539664937149 -15.688431417349761 0 0 0 0 39.832080818363465 -91.200562222985653 0 -91.200562222985653 -99.26310736697927 0 0 0 0 130.75192101008724 -39.689802861782738 0 -39.689802861782738 -76.310965333705042 0 0 0 0 100.90919682327331 40.032360692820063 0 40.032360692820063 107.48056108646389 0 0 0 0 135.06044571372331 -78.066078090601906 0 -78.066078090601906 23.239309853129853 0 0 0 0 306.13109484876622 -38.435591221493702 0 -38.435591221493702 0.15989270442524231 0 0 0 0 0.50553689773533961 -0.27038416860116854 0 -0.27038416860116854 -0.94908448765306552 0 0 0 0 -251.4347522440803 -85.394467820328245 0 -85.394467820328245 66.053359934911484 0 0 0 0 550.35458501221729 -194.31887476488444 0 -194.31887476488444 16.127187316955769 0 0 0 0 685.14959696504229 -49.992860513263309 0 -49.992860513263309 59.674228680526689 0 0 0 0 483.14266330379905 -275.99905958911836 0 -275.99905958911836 3.0685290170260373 0 0 0 0 815.37066818156018 -40.343701434323975 0 -40.343701434323975 0.046445217836764419 0 0 0 0 927.48271401882812 43.373875594680769 0 43.373875594680769 156.82662059857506 0 0 0 0 837.9956285843291 -132.78399802364669 0 -132.78399802364669 7.256186271342699 0 0 0 0 741.67165718963952 62.211154675160685 0 62.211154675160685 167.36413254656458 0 0 0 0 740.47999462057487 16.740329447429531 0 16.740329447429531 -138.88376348681297 0 0 0 0 1036.9713980023371 47.324105259518888 0 47.324105259518888 -74.66983887931292 0 0 0 0 1963.330376016529 514.99556444275186 0 514.99556444275186 78.961733203086169 0 0 0 0 1031.1664832811584 498.51566970666914 0 498.51566970666914 547.66764446730406 0 0 0 0 694.45682408196444 153.69766947581491 0 153.69766947581491 537.56344594278971 0 0 0 0 1032.6168236961821 77.099759314911097 0 77.099759314911097 836.55587645860112 0 0 0 0 1316.7378421268804 291.23379652574266 0 291.23379652574266 557.97999114512891 0 0 0 0 1248.1958403350072 419.73098500966631 0 419.73098500966631 379.14455255870428 0 0 0 0 1029.1074919445673 -14.587210342314265 0 -14.587210342314265 167.55885845374607 0 0 0 0 1087.6927364566072 -193.12445894257363 0 -193.12445894257363 9.6291726428422137 0 0 0 0 1114.7217113261686 -80.624083326033883 0 -80.624083326033883 48.37757352925864 0 0 0 0 1209.8631514578447 -71.54505086919832 0 -71.54505086919832 -0.34859384579136943 0 0 0 0 1381.4352039219521 -306.44121739647392 0 -306.44121739647392 209.42541011911368 0 0 0 0 190.0103373278107 -861.68488454525868 0 -861.68488454525868 1550.6188361720688 0 0 0 0 1545.6965005426264 210.78576844931342 0 210.78576844931342 -9.0553239220099613 0 0 0 0 4.8925724603013236 -2.6468392306210831 0 -2.6468392306210831 2.0186286518237839 0 0 0 0 700.21689699113631 300.03748202873129 0 300.03748202873129 22.069505367588789 0 0 0 0 233.70692072914972 -85.335145849329052 0 -85.335145849329052 0.30343021649320429 0 0 0 0 6.2200020728951415 -2.5046890382147637 0 -2.5046890382147637 0.9352596660888759 0 0 0 0 882.12282060769394 881.63104684840607 0 881.63104684840607 -682.19348085624654 0 0 0 0 508.25156696530757 920.41427280826292 0 920.41427280826292 -665.6502917160999 0 0 0 0 12.536933774600755 0.82030202700218524 0 0.82030202700218524 -0.71705140481708929 0 0 0 0 625.6301002807304 879.52379958553934 0 879.52379958553934 -651.98380536215768 0 0 0 0 447.7751089106896 -534.64420449684121 0 -534.64420449684121 1070.3506771728448 0 0 0 0 1106.0022086913377 -915.14162411544487 0 -915.14162411544487 1173.4259263303727 0 0 0 0 984.5745220722165 -211.50567091270662 0 -211.50567091270662 595.71313075860576 0 0 0 0 858.22029443853535 -161.7734612893727 0 -161.7734612893727 666.54684315052384 0 0 0 0 876.37830061651766 -269.6771324596408 0 -269.6771324596408 628.52100870732386 0 0 0 0 421.13611146734911 -213.83152505020018 0 -213.83152505020018 596.99454693009397 0 0 0 0 823.6484993410777 117.27394530372737 0 117.27394530372737 413.58800638546541 0 0 0 0 580.49820156452188 -378.59383807837963 0 -378.59383807837963 323.38009767120411 0 0 0 0 251.03911643999163 -233.12153053273073 0 -233.12153053273073 303.66055248637952 0 0 0 0 133.47053933423012 -93.844195131766156 0 -93.844195131766156 352.62271666949357 0 0 0 0 429.23866102920874 -331.02032482802861 0 -331.02032482802861 -343.35762419288585 0 0 0 0 626.03644342330517 -237.58814807090016 0 -237.58814807090016 -348.72922755998047 0 0 0 0 532.54094907722902 -54.850733110708234 0 -54.850733110708234 -698.40286815870331 0 0 0 0 488.46168393306289 -386.12817168006859 0 -386.12817168006859 140.80946158844699 0 0 0 0 186.55661918708938 125.85211517301559 0 125.85211517301559 -112.26386083562056 0 0 0 0 160.25807210805942 -23.186296482885609 0 -23.186296482885609 13.99999679205348 0 0 0 0 266.2646522942523 -148.1081787435287 0 -148.1081787435287 75.577219290028552 0 0 0 0 421.29830717886944 -8.0866945560119348 0 -8.0866945560119348 -164.7387119660898 0 0 0 0 584.72900257229048 -176.38092398555 0 -176.38092398555 31.067452077392772 0 0 0 0 454.08367756152438 145.59927720054213 0 145.59927720054213 161.94993226584211 0 0 0 0 -747.67731689248467 -711.12956562224599 0 -711.12956562224599 -236.0262002960423 0 0 0 0 -1.4266009181432651 1.4825584042068272 0 1.4825584042068272 -3.6248837668722027 0 0 0 0 -158.57262736046687 -72.102598836676407 0 -72.102598836676407 150.42883400833961 0 0 0 0 143.18562172121892 51.85427460665619 0 51.85427460665619 -243.02311379404819 0 0 0 0 53.625181911789696 53.140772422500959 0 53.140772422500959 -45.279739742277798 0 0 0 0 10.826536141118794 5.9762814188129028 0 5.9762814188129028 -2.6107731625264936 0 0 0 0 75.044351921038469 72.009887653764963 0 72.009887653764963 -2.1696850439257105 0 0 0 0 47.67316689985455 -638.63840466860347 0 -638.63840466860347 -460.46971581031738 0 0 0 0 2.761597461490453 9.0459938161308173 0 9.0459938161308173 -15.095517040398912 0 0 0 0 32.305615716028001 -0.72658846284732803 0 -0.72658846284732803 -17.450264706124525 0 0 0 0 240.63883144102874 -172.33407183523548 0 -172.33407183523548 -131.71358912780966 0 0 0 0 285.52672748264013 -17.714624563834708 0 -17.714624563834708 -650.19487031109247 0 0 0 0 676.74283745020693 491.8654736076565 0 491.8654736076565 -121.31797576028521 0 0 0 0 1411.6868595927954 -203.28907314273761 0 -203.28907314273761 498.70763093089136 0 0 0 0 342.06922205805313 -544.82027880244982 0 -544.82027880244982 -419.95363196529706 0 0 0 0 570.33628421253525 305.18185124220429 0 305.18185124220429 243.24481866532835 0 0 0 0 956.17978406856855 852.98827138235254 0 852.98827138235254 1180.7149650274987 0 0 0 0 551.30740692098334 232.25316514509819 0 232.25316514509819 434.05595586407344 0 0 0 0 17.707536323884369 0.010448394659384519 0 0.010448394659384519 0.74491720464612721 0 0 0 0 715.51628630256164 -467.7083529678132 0 -467.7083529678132 7.1257922523504931 0 0 0 0 300.63505714960775 382.70878271497594 0 382.70878271497594 273.65282627528177 0 0 0 0 1040.1319475956407 1257.6118624694986 0 1257.6118624694986 1253.0940620677229 0 0 0 0 1971.736866425068 951.46653109005047 0 951.46653109005047 -96.250191787152971 0 0 0 0 1310.6230384173905 492.22852121786451 0 492.22852121786451 -218.4505190118588 0 0 0 0 1208.095348009163 584.31338807891711 0 584.31338807891711 -293.12414300501786 0 0 0 0 43.862782869194717 362.07655614530296 0 362.07655614530296 -39.646394110345909 0 0 0 0 6.1158673533638535 3.0947301401979175 0 3.0947301401979175 -3.8645854625977889 0 0 0 0 786.67249206000997 273.69131710972368 0 273.69131710972368 63.445706260140696 0 0 0 0 1166.7868061135814 651.20116284251594 0 651.20116284251594 88.323111896260272 0 0 0 0 1310.3174227508375 576.10000672201488 0 576.10000672201488 48.745322105436117 0 0 0 0 768.79554920948067 328.09968802441688 0 328.09968802441688 7.7073443637859782 0 0 0 0 404.5246248679905 86.118141433344022 0 86.118141433344022 -6.4905312804541282 0 0 0 0 672.38456940636388 318.6266553379071 0 318.6266553379071 17.079988145481224 0 0 0 0 68.026794362958753 9.5999117311087048 0 9.5999117311087048 55.817917447714052 0 0 0 0 130.54459527718427 -1.1981343749071129 0 -1.1981343749071129 -165.11216394141138 0 0 0 0 253.24496839797939 186.15177411537161 0 186.15177411537161 -36.573621227943022 0 0 0 0 425.9509593922412 15.069127011993714 0 15.069127011993714 -133.03294765598048 0 0 0 0 110.91473625481012 -59.277948019047699 0 -59.277948019047699 10.763992474740917 0 0 0 0 295.18346822661988 221.95897226186096 0 221.95897226186096 93.945058485293771 0 0 0 0 218.94423403793917 -76.738039066395572 0 -76.738039066395572 48.106828383939046 0 0 0 0 14.697663464690535 2.1256118088849973 0 2.1256118088849973 -0.60370035424492485 0 0 0 0 46.40294167438833 -2.3092947944708868 0 -2.3092947944708868 -2.6616757463955283 0 0 0 0 409.66738531142255 179.52179491272756 0 179.52179491272756 62.495364247289672 0 0 0 0 200.28538825327996 154.9607482673814 0 154.9607482673814 190.35196210965944 0 0 0 0 124.96059774716559 155.18250853012478 0 155.18250853012478 69.889401976834165 0 0 0 0 57.422816998674534 53.231576202386577 0 53.231576202386577 -76.575275706919456 0 0 0 0 -124.34934389455884 -158.60564764179617 0 -158.60564764179617 -74.016193271281509 0 0 0 0 12.110891411096844 7.3132916156782244 0 7.3132916156782244 -14.241568593095668 0 0 0 0 -57.333223924524646 1.9883184303538428 0 1.9883184303538428 199.98634594900818 0 0 0 0 2528.6839809680023 976.45818361313354 0 976.45818361313354 -229.59476346428528 0 0 0 0 2441.7638048726076 312.05611530220767 0 312.05611530220767 197.04326037739884 0 0 0 0 914.00634622079087 376.96182572163707 0 376.96182572163707 978.75857066157459 0 0 0 0 13.802261254895711 -75.3884382965025 0 -75.3884382965025 -62.398657502852075 0 0 0 0 14.547039804284083 -8.0848620412946559 0 -8.0848620412946559 1.2891623292383834 0 0 0 0 1754.1364073901495 -480.18421480939469 0 -480.18421480939469 -158.33661056302844 0 0 0 0 516.35859343525954 202.82825701793308 0 202.82825701793308 -299.80925505800224 0 0 0 0 61.909678776952205 -147.44174867101174 0 -147.44174867101174 188.20510410992574 0 0 0 0 -45.001041725568939 60.074945040850253 0 60.074945040850253 90.014150643444736 0 0 0 0 313.62676023245149 -227.74130625207636 0 -227.74130625207636 14.44956877629329 0 0 0 0 2231.6346977183712 898.47565380205469 0 898.47565380205469 340.4204361580687 0 0 0 0 2712.5890805785602 1454.2601853811702 0 1454.2601853811702 252.55725391144279 0 0 0 0 2448.3721000141813 346.19163886380011 0 346.19163886380011 -119.19035127539246 0 0 0 0 7.0767463875066028 -1.1729434409973436 0 -1.1729434409973436 -2.0617664906859918 0 0 0 0 2574.5127914015902 1054.2258767937765 0 1054.2258767937765 -270.43999936625573 0 0 0 0 174.10637773387134 -33.176400088546643 0 -33.176400088546643 102.17536390592727 0 0 0 0 1193.7696256065174 1258.4689295502417 0 1258.4689295502417 518.58735290065761 0 0 0 0 944.6057007307536 659.78009084154382 0 659.78009084154382 547.08452221193966 0 0 0 0 9.4982705649980517 4.5191909561518031 0 4.5191909561518031 1.8003418920587801 0 0 0 0 64.577552443421155 -141.64042044024114 0 -141.64042044024114 93.185296677947917 0 0 0 0 -8.9793718466316932 223.81423548173896 0 223.81423548173896 23.903232266200575 0 0 0 0 891.43158501843573 -152.55515841849137 0 -152.55515841849137 -110.51572750638115 0 0 0 0 298.26103870398947 169.67876712598286 0 169.67876712598286 -78.141640607046611 0 0 0 0 182.20175624736294 16.027296924732809 0 16.027296924732809 -41.851308670540675 0 0 0 0 988.49100118079514 215.52608093058871 0 215.52608093058871 -264.64609510097625 0 0 0 0 1025.0306123827977 256.49194627314358 0 256.49194627314358 -227.56033312214004 0 0 0 0 1915.6639937048021 1597.0363080916159 0 1597.0363080916159 572.06533767153542 0 0 0 0 2129.7763947716157 312.82018917273945 0 312.82018917273945 -392.62371832255894 0 0 0 0 1361.0850675488491 1069.9563810239536 0 1069.9563810239536 1657.9331452276438 0 0 0 0 1281.2943109264452 -476.59109892417268 0 -476.59109892417268 -58.428317076123676 0 0 0 0 365.98958560415122 492.52397010080722 0 492.52397010080722 718.81724829928044 0 0 0 0 1401.6322228741838 666.20825456397858 0 666.20825456397858 0.035312896436607843 0 0 0 0 31.653444432013202 11.877862521047064 0 11.877862521047064 -13.734926448081751 0 0 0 0 17.776713272570674 -2.7841035636554921 0 -2.7841035636554921 -12.04782442541773 0 0 0 0 1095.6669910932105 710.20770849689313 0 710.20770849689313 60.32979234013419 0 0 0 0 37.323449164978229 10.5575700255431 0 10.5575700255431 -1.4192778815249767 0 0 0 0 658.74743176365882 -159.68247009218362 0 -159.68247009218362 18.433943649271896 0 0 0 0 16.519752759698463 2.5041830206465931 0 2.5041830206465931 -15.952852533964991 0 0 0 0 27.026368951715995 12.277963078967105 0 12.277963078967105 -1.3970251358983035 0 0 0 0 16.423534770796039 -0.99229034830084117 0 -0.99229034830084117 -18.914171099827001 0 0 0 0 31.183132922335062 14.242823362390482 0 14.242823362390482 -8.0554646289001539 0 0 0 0 -25.61047737134777 -32.23692047774685 0 -32.23692047774685 -41.121990465031558 0 0 0 0 3.2501818124024453 4.6859076725973239 0 4.6859076725973239 -1.7596292183444877 0 0 0 0 27.676160545786843 9.4037836621846509 0 9.4037836621846509 -10.696801142124968 0 0 0 0 4.6019584447676607 14.649135057837839 0 14.649135057837839 -26.103771903908637 0 0 0 0 21.508393086900469 -2.5611763267115748 0 -2.5611763267115748 -6.3995576748939129 0 0 0 0 22.452546003123928 -3.6325058629186913 0 -3.6325058629186913 -15.46155477856459 0 0 0 0 12.132744695888334 -8.6308881308799812 0 -8.6308881308799812 -18.014275910656025 0 0 0 0 8.0289506617699544 -0.66689999139586575 0 -0.66689999139586575 -8.9547765564088593 0 0 0 0 4.5881082790416912 -5.1154291544622481 0 -5.1154291544622481 -19.645600223934885 0 0 0 0 23.112056924277567 -6.3185030482715092 0 -6.3185030482715092 -15.17391038910182 0 0 0 0 8.4467123334952134 0.27452822589941661 0 0.27452822589941661 -20.993674377051835 0 0 0 0 1.5738479659776203 -22.031613038378055 0 -22.031613038378055 -47.036215622421878 0 0 0 0 -7.4177469302376267 25.327389974501813 0 25.327389974501813 -0.46667145954779699 0 0 0 0 -7.9800926890748087 35.306948490224386 0 35.306948490224386 -135.08186821033996 0 0 0 0 -14.835359010117827 2.8704908460492788 0 2.8704908460492788 -37.278418114194665 0 0 0 0 -32.701117938377138 -0.31900798412391396 0 -0.31900798412391396 -2.741589345628654 0 0 0 0 -15.829331803761306 3.6015909639415895 0 3.6015909639415895 -0.35259478803550337 0 0 0 0 16.058172097391434 -40.701863170221642 0 -40.701863170221642 60.661649703275998 0 0 0 0 7.065022498005419 20.017701723004393 0 20.017701723004393 24.224384955562755 0 0 0 0 144.78133530962805 -55.79424832487814 0 -55.79424832487814 9.807781424527775 0 0 0 0 -27.065494149929691 -22.38269248398916 0 -22.38269248398916 27.591572652259856 0 0 0 0 22.384701370858238 -0.4873236472010376 0 -0.4873236472010376 -20.160916172140332 0 0 0 0 27.595735683884413 -25.957020486640431 0 -25.957020486640431 -65.770291260363592 0 0 0 0 89.14990569591464 -69.941901931722441 0 -69.941901931722441 -56.020906219034941 0 0 0 0 96.322364917970845 -105.66266398863149 0 -105.66266398863149 -316.89117184101633 0 0 0 0 28.683685418075015 -2.4041404251386069 0 -2.4041404251386069 -12.04584642003949 0 0 0 0 34.846061426127562 13.43968146734278 0 13.43968146734278 -3.0646039863186161 0 0 0 0 72.710196383020957 -109.06974488538788 0 -109.06974488538788 -31.898505031978857 0 0 0 0 93.930061818107788 28.793657640666197 0 28.793657640666197 -170.55745110539101 0 0 0 0 -26.939538429825916 -74.28535873877172 0 -74.28535873877172 -205.73654823528341 0 0 0 0 -0.85229270069179108 -1.2898371105450082 0 -1.2898371105450082 -0.11348879345927188 0 0 0 0 53.267067383837514 8.1788334349280483 0 8.1788334349280483 -2.0779473056670472 0 0 0 0 32.958787150288117 -56.467725937049693 0 -56.467725937049693 56.188512426877423 0 0 0 0 29.129496212561207 15.772345193205865 0 15.772345193205865 2.2038054945287513 0 0 0 0 216.5334525325743 -340.16081562982026 0 -340.16081562982026 153.96946872452509 0 0 0 0 34.28447794742425 4.5108765267468875 0 4.5108765267468875 0.62207266542229167 0 0 0 0 119.12022415821411 73.12554104957826 0 73.12554104957826 -170.98112859441426 0 0 0 0 107.47885444705571 91.721761319299873 0 91.721761319299873 -15.94636392627126 0 0 0 0 128.76085051427071 -6.2681350613511313 0 -6.2681350613511313 23.458294747238142 0 0 0 0 184.29206283045642 -11.953462441336114 0 -11.953462441336114 -25.001216193994878 0 0 0 0 -0.85962276940394133 -1.7953545214660522 0 -1.7953545214660522 -1.0337548475238094 0 0 0 0 -0.59656634284495169 -1.4203825365529923 0 -1.4203825365529923 -0.085323594849467277 0 0 0 0 346.84035698944353 -113.68892557411698 0 -113.68892557411698 -88.669215613709071 0 0 0 0 190.86610391820432 -52.805281831632328 0 -52.805281831632328 35.184018292372457 0 0 0 0 236.82693876701524 122.21694801149602 0 122.21694801149602 -138.90220963300476 0 0 0 0 264.75177885089943 54.947710428589517 0 54.947710428589517 -44.689779692393131 0 0 0 0 1004.809906969007 -87.044162521446339 0 -87.044162521446339 -266.28525369464046 0 0 0 0 480.38551266520517 90.048683276687598 0 90.048683276687598 -199.39488780376678 0 0 0 0 372.85287263253849 -74.636294258733244 0 -74.636294258733244 -266.52631776874432 0 0 0 0 -232.65245818822586 -55.859032475233789 0 -55.859032475233789 96.175981730997819 0 0 0 0 184.22838775292985 -145.27759861669199 0 -145.27759861669199 51.141112348589786 0 0 0 0 -319.5637349465178 262.26894444599708 0 262.26894444599708 -122.77765343911227 0 0 0 0 213.3649634928297 -818.50197266347959 0 -818.50197266347959 803.20891856149183 0 0 0 0 -370.4422480003559 14.765591927724984 0 14.765591927724984 59.984099492934661 0 0 0 0 1.7516770579386503 -521.57744721549739 0 -521.57744721549739 724.22365401715945 0 0 0 0 13.586608682859605 -5.2662882407585343 0 -5.2662882407585343 2.2970466794586648 0 0 0 0 514.45050602682022 235.51426387029096 0 235.51426387029096 -116.3238352118392 0 0 0 0 1304.6824896512699 520.10322920188764 0 520.10322920188764 -248.25035369701061 0 0 0 0 893.62117674687033 -656.49801859483819 0 -656.49801859483819 49.951025548417192 0 0 0 0 645.17033423703833 242.84289990869138 0 242.84289990869138 -592.0944072610539 0 0 0 0 55.471936355827665 -7.0783868483759846 0 -7.0783868483759846 -13.59731853047019 0 0 0 0 -99.009893031063257 -9.2549925534794966 0 -9.2549925534794966 -126.31267835806523 0 0 0 0 44.235920003077851 -33.108971998005565 0 -33.108971998005565 11.509198452180897 0 0 0 0 57.16228564359335 -24.206572938312547 0 -24.206572938312547 3.4597474627498741 0 0 0 0 57.978758241841888 -5.2007572005053362 0 -5.2007572005053362 -8.6780885780726749 0 0 0 0 62.954651117848698 -12.600597319009012 0 -12.600597319009012 13.914385147157191 0 0 0 0 58.851680983889764 -18.578441299532727 0 -18.578441299532727 7.9419008376244165 0 0 0 0 65.792506802506978 -14.105517603750741 0 -14.105517603750741 -4.9158374326918874 0 0 0 0 -379.00406054363702 165.80711407224362 0 165.80711407224362 -204.49663927696042 0 0 0 0 54.953841303215626 -0.44137543997354811 0 -0.44137543997354811 -11.434683426202081 0 0 0 0 63.464365253414144 -6.2903382889708155 0 -6.2903382889708155 -6.326640917413215 0 0 0 0 56.253812592563918 -8.5551735239841946 0 -8.5551735239841946 3.9366345260841626 0 0 0 0 61.72197670731839 -11.037107193794782 0 -11.037107193794782 0.47494490674580447 0 0 0 0 59.158317344215902 -18.237890520128758 0 -18.237890520128758 16.498570159003066 0 0 0 0 63.573815888012177 -17.431637710112227 0 -17.431637710112227 8.7810665518536553 0 0 0 0 16.569454887906559 10.02572719449239 0 10.02572719449239 -3.5485415201227148 0 0 0 0 68.947561375072837 -25.082643497096569 0 -25.082643497096569 10.829450566550804 0 0 0 0 72.229367055246257 -17.081601726283679 0 -17.081601726283679 6.7302332596491397 0 0 0 0 21.984909577236976 8.8324160315351037 0 8.8324160315351037 -25.088551312246636 0 0 0 0 40.988550415582722 -11.811736898120216 0 -11.811736898120216 -15.348383050863049 0 0 0 0 67.43890312394069 5.0763262586642668 0 5.0763262586642668 -28.532725509255897 0 0 0 0 51.838075500127161 -27.382645376285382 0 -27.382645376285382 -9.3417297515443352 0 0 0 0 19.439190218905566 -6.462448026869442 0 -6.462448026869442 2.5152987035490586 0 0 0 0 22.185620715001278 -5.0559821655813266 0 -5.0559821655813266 0.23027853082203364 0 0 0 0 48.939717225934146 -6.9136624093530372 0 -6.9136624093530372 4.8294035154822268 0 0 0 0 11.9106930615376 -1.763664935441966 0 -1.763664935441966 1.0332444034993458 0 0 0 0 17.149913993827482 -0.66319276121710402 0 -0.66319276121710402 -6.3382411942920909 0 0 0 0 14.458932432862639 44.583341982429317 0 44.583341982429317 -66.139760740355655 0 0 0 0 56.232792213661014 -9.7011945083331739 0 -9.7011945083331739 0.065151010372574092 0 0 0 0 25.911567010874364 0.18711117665186894 0 0.18711117665186894 -7.7768507895007755 0 0 0 0 15.431138862593798 5.1537860700302645 0 5.1537860700302645 -15.205142327424113 0 0 0 0 -135.93248965370003 133.79791295407409 0 133.79791295407409 -184.59665292347739 0 0 0 0 22.94722752700909 29.926924956815355 0 29.926924956815355 -118.50686519011742 0 0 0 0 -4.9326571500739078 7.5619523359416725 0 7.5619523359416725 -4.6817079512626956 0 0 0 0 5.9969007320978562 48.385096932894925 0 48.385096932894925 -22.402439459149491 0 0 0 0 14.61627765839512 5.1849480481844239 0 5.1849480481844239 -11.766631743726293 0 0 0 0 7.3768964505616168 27.637143211097538 0 27.637143211097538 -24.937539182122691 0 0 0 0 -13.253282858029706 12.375371111938193 0 12.375371111938193 -36.217136193835131 0 0 0 0 12.950670333717426 -10.345847821455322 0 -10.345847821455322 -5.5858403269621704 0 0 0 0 6.4431161475633303 -2.6712249942915918 0 -2.6712249942915918 -14.585213801729346 0 0 0 0 -20.596290081593907 26.122865059727019 0 26.122865059727019 -29.827738376260641 0 0 0 0 11.034575835028818 1.2471352399782774 0 1.2471352399782774 -16.222797390403876 0 0 0 0 37.548735900956672 32.507252553059971 0 32.507252553059971 -36.107192600263261 0 0 0 0 -2.165694125033383 -2.1925533311605676 0 -2.1925533311605676 -2.5739999690501918 0 0 0 0 4.773025168860606 -5.2144705556656277 0 -5.2144705556656277 -10.896819079566306 0 0 0 0 -0.24570295153898769 -2.6342324884625441 0 -2.6342324884625441 -53.901835062563805 0 0 0 0 42.04315353021957 -105.43371107973053 0 -105.43371107973053 -140.75158517290492 0 0 0 0 29.321168857900119 0.22101523512621135 0 0.22101523512621135 -1.643352549339915 0 0 0 0 -50.881848229517345 -24.617103985905942 0 -24.617103985905942 33.187131728331678 0 0 0 0 6.1363520759730292 -8.5115401285721646 0 -8.5115401285721646 -7.0542963983786535 0 0 0 0 20.246843122105929 -7.5511031603518859 0 -7.5511031603518859 -5.6585771193590517 0 0 0 0 20.386672068612825 -8.2403857679398698 0 -8.2403857679398698 -3.3193562756778192 0 0 0 0 15.558529419731201 -6.460795053929246 0 -6.460795053929246 -3.6334763042818743 0 0 0 0 17.776764502711103 -5.4854667716599073 0 -5.4854667716599073 -1.4837639222447883 0 0 0 0 13.448758931575867 2.6388123538811215 0 2.6388123538811215 15.349977462865354 0 0 0 0 10.808250926049737 0.31526481305304799 0 0.31526481305304799 1.1715618950234088 0 0 0 0 23.824091125046834 -6.6448209476920965 0 -6.6448209476920965 -0.24357798667919894 0 0 0 0 4.8016544434940442 -30.180254613947 0 -30.180254613947 -24.541129674007607 0 0 0 0 5.5192315635788347 -1.0014313406314699 0 -1.0014313406314699 0.016553857498692537 0 0 0 0 12.275288025237387 -73.10988759248994 0 -73.10988759248994 49.877886682292228 0 0 0 0 22.16972544764576 -5.0274534191185012 0 -5.0274534191185012 -38.07685473514357 0 0 0 0 50.682881979635567 -19.801018300705437 0 -19.801018300705437 -28.028102847385526 0 0 0 0 37.108943362123682 -10.852647888828869 0 -10.852647888828869 -8.9442982355558343 0 0 0 0 -98.583555457502371 -46.019842716501898 0 -46.019842716501898 -5.5804796384472866 0 0 0 0 16.668328617851273 -8.0164058916986676 0 -8.0164058916986676 3.7833707037553523 0 0 0 0 27.404147520446713 -34.970925314130454 0 -34.970925314130454 68.834910554012822 0 0 0 0 -41.164866557279311 78.900531842020428 0 78.900531842020428 -82.192774933887449 0 0 0 0 -118.11407145422709 157.74703515204328 0 157.74703515204328 202.63110918197003 0 0 0 0 322.1097398657439 -177.93427815320183 0 -177.93427815320183 -156.56172637420877 0 0 0 0 15.644495208813538 -6.8544772565407861 0 -6.8544772565407861 3.2125761928917944 0 0 0 0 -103.6796493687707 -75.092864957910137 0 -75.092864957910137 249.52182526383922 0 0 0 0 170.04604519652639 212.69080719216004 0 212.69080719216004 361.84865382106682 0 0 0 0 1206.487435995572 899.28608239776804 0 899.28608239776804 279.84397667694702 0 0 0 0 1723.0942224560276 152.27908435687732 0 152.27908435687732 -42.462696543437687 0 0 0 0 705.62739260000671 -213.2418136578035 0 -213.2418136578035 -179.16884928689251 0 0 0 0 1994.117749617013 805.68482104829081 0 805.68482104829081 450.15076017598221 0 0 0 0 12.172938401109207 0.97138876048144063 0 0.97138876048144063 0.5423255698661722 0 0 0 0 843.37569605626049 898.28852282575644 0 898.28852282575644 834.96102685000301 0 0 0 0 1816.9252716564515 573.1522242748033 0 573.1522242748033 -304.71683642550579 0 0 0 0 2259.1495934503328 879.54614858791274 0 879.54614858791274 -103.97299844264853 0 0 0 0 1827.104184421536 1106.8778131555382 0 1106.8778131555382 283.18972936571663 0 0 0 0 1395.4301585490466 875.27720412252529 0 875.27720412252529 220.12754760571397 0 0 0 0 -14.336584194868919 -156.43017781373374 0 -156.43017781373374 102.05436968487265 0 0 0 0 252.19958732221858 529.06568550877546 0 529.06568550877546 611.31920590383652 0 0 0 0 1012.7475064394239 436.43663106645454 0 436.43663106645454 -148.64445694212918 0 0 0 0 1470.8560034422117 539.78808731505342 0 539.78808731505342 -139.70497132856508 0 0 0 0 140.78272740567627 220.68568701741697 0 220.68568701741697 291.89228918940398 0 0 0 0 726.81194776157645 -299.89996906606621 0 -299.89996906606621 -197.45905639651392 0 0 0 0 1493.5871682543075 580.6801079128627 0 580.6801079128627 -302.10424123802181 0 0 0 0 1442.7030142702533 560.94163265673421 0 560.94163265673421 -261.26384200908615 0 0 0 0 -182.83969603232254 41.510459211610112 0 41.510459211610112 287.32350560764121 0 0 0 0 -1.2819276156603507 -19.057815002253747 0 -19.057815002253747 6.4466648200808425 0 0 0 0 -100.45228871390282 -114.41356143769531 0 -114.41356143769531 -44.923581017055312 0 0 0 0 -168.12649795334437 -84.532196623320488 0 -84.532196623320488 12.902911521653095 0 0 0 0 -101.55792657122947 -184.98874098316787 0 -184.98874098316787 -51.82255564523166 0 0 0 0 -96.632289229397429 -156.94897989100537 0 -156.94897989100537 50.556751806378543 0 0 0 0 -53.332848762795038 -156.66443602665561 0 -156.66443602665561 -105.28455648233376 0 0 0 0 48.377872020976838 -12.667533623621807 0 -12.667533623621807 0.89860096425487157 0 0 0 0 4.5623894249438308 -136.43505733566235 0 -136.43505733566235 -103.37220644988622 0 0 0 0 778.13684516595094 90.432394658708631 0 90.432394658708631 379.87370429326972 0 0 0 0 20.433086168995942 -20.020305049107833 0 -20.020305049107833 7.2540071282255667 0 0 0 0 7.2155573127581221 -10.982310555028022 0 -10.982310555028022 3.7205428519423496 0 0 0 0 279.78972843945667 -41.121884942814177 0 -41.121884942814177 -293.64808894971554 0 0 0 0 26.426744001633779 -21.93664440689713 0 -21.93664440689713 3.8026763110369757 0 0 0 0 10.179457677493446 -14.482459490056215 0 -14.482459490056215 7.6643692025638472 0 0 0 0 3502.2114669822404 -376.9867881468611 0 -376.9867881468611 2740.9063673357477 0 0 0 0 3806.4881177266579 237.33566593919684 0 237.33566593919684 -486.88338665808629 0 0 0 0 2467.3689895121133 1530.3549796192285 0 1530.3549796192285 441.63190253640084 0 0 0 0 14.781321596192925 -6.0027939511185053 0 -6.0027939511185053 0.18932534058324357 0 0 0 0 1821.4322746416146 -1259.5651337953234 0 -1259.5651337953234 681.59121639000102 0 0 0 0 4716.7139433820266 -1805.722722385671 0 -1805.722722385671 782.09997168771747 0 0 0 0 518.52844593281043 -1550.573760773116 0 -1550.573760773116 2513.2597206847468 0 0 0 0 1539.1602638224431 -2348.2122757877787 0 -2348.2122757877787 2114.662581121524 0 0 0 0 1057.7947796420194 -1175.7691390706218 0 -1175.7691390706218 1103.8193911140665 0 0 0 0 476.89731254780781 -129.61745841773018 0 -129.61745841773018 49.988385556215789 0 0 0 0 27.490278792829486 393.18325422099656 0 393.18325422099656 555.69793002954248 0 0 0 0 -637.39332786282466 -449.58451119516292 0 -449.58451119516292 1821.9947873620331 0 0 0 0 1018.5506002809852 -1504.1501239190975 0 -1504.1501239190975 1324.6111981846209 0 0 0 0 1093.6940737550322 -761.70586148957818 0 -761.70586148957818 452.22791833949549 0 0 0 0 1828.2805133078509 -697.52012501091178 0 -697.52012501091178 -135.81236665695269 0 0 0 0 1722.6981783969022 -610.95931641489278 0 -610.95931641489278 -127.87860980102928 0 0 0 0 3498.8748520508307 -1537.2689083298756 0 -1537.2689083298756 106.88345979900879 0 0 0 0 665.60624215642747 -514.69576199997243 0 -514.69576199997243 332.38107484950899 0 0 0 0 1142.1316121237833 -925.15261231945431 0 -925.15261231945431 400.23074989331798 0 0 0 0 323.74874448707124 -84.38872722476583 0 -84.38872722476583 202.65973599960469 0 0 0 0 -8.574049623449099 -14.984354983512333 0 -14.984354983512333 15.563413006917308 0 0 0 0 -293.24669271849416 -164.03651580059022 0 -164.03651580059022 269.17725528495976 0 0 0 0 -463.74632812011987 12.435291515959307 0 12.435291515959307 173.13537963444514 0 0 0 0 -303.56441120085401 225.43871367398503 0 225.43871367398503 76.171426928190158 0 0 0 0 -81.038813166931504 28.464575317311301 0 28.464575317311301 92.369586644335641 0 0 0 0 103.41272143587048 328.18805582927382 0 328.18805582927382 487.20147862747899 0 0 0 0 813.61959225367173 -42.155343216394158 0 -42.155343216394158 25.313268872544086 0 0 0 0 239.93335050049063 -475.53303421562578 0 -475.53303421562578 720.82346056143035 0 0 0 0 -32.348061536176829 -158.54454243714963 0 -158.54454243714963 93.008676574748733 0 0 0 0 -38.162635695800418 -104.86991744578143 0 -104.86991744578143 241.45457350123888 0 0 0 0 214.88790439044533 -245.78075899850865 0 -245.78075899850865 346.92654444581171 0 0 0 0 374.74190410922165 -663.53450187736371 0 -663.53450187736371 873.73828520031338 0 0 0 0 11.922745672154065 1.1103466805642732 0 1.1103466805642732 0.58551981268215858 0 0 0 0 308.08622341779119 337.25402007865478 0 337.25402007865478 104.16517064617244 0 0 0 0 865.16987025841809 -134.94441493141085 0 -134.94441493141085 -95.805734699107234 0 0 0 0 25.661299383406003 77.260481346971346 0 77.260481346971346 9.0348713999987922 0 0 0 0 150.71177363223978 138.30664527307431 0 138.30664527307431 28.817805500262239 0 0 0 0 234.22552418012231 -55.567478454108077 0 -55.567478454108077 -212.31989611096333 0 0 0 0 0.061016740510240197 1.6652817944955132 0 1.6652817944955132 -218.30184860178497 0 0 0 0 228.95288323599436 189.60964284057584 0 189.60964284057584 -87.621920752645565 0 0 0 0 221.58488481226959 82.349737429092102 0 82.349737429092102 -208.1373117024566 0 0 0 0 54.419842255520052 -204.50390157349784 0 -204.50390157349784 -111.13313335437124 0 0 0 0 -34.183897410635836 -291.9801950034539 0 -291.9801950034539 105.58069141994929 0 0 0 0 -157.21209012446343 -155.65580949919899 0 -155.65580949919899 151.92648299363645 0 0 0 0 353.77904675829632 32.45124775085992 0 32.45124775085992 -149.10784955838926 0 0 0 0 221.460502165457 -409.0628084356058 0 -409.0628084356058 139.36809067929596 0 0 0 0 152.14056018048723 -288.76957286782431 0 -288.76957286782431 -340.88636627303526 0 0 0 0 -53.269346165310708 -151.0351946993851 0 -151.0351946993851 -129.16902497153478 0 0 0 0 -23.50426698049705 -197.54382766269487 0 -197.54382766269487 -50.472377044265158 0 0 0 0 21.972694734489778 -224.07618616237096 0 -224.07618616237096 -149.98557190243832 0 0 0 0 -80.978290964965709 -142.96896441319223 0 -142.96896441319223 -182.4816490567473 0 0 0 0 51.156311393366195 -119.744399820117 0 -119.744399820117 -290.06763611510723 0 0 0 0 -149.3854329911992 -176.52928319572857 0 -176.52928319572857 -192.6620129963726 0 0 0 0 55.596865620056633 -318.50313790221753 0 -318.50313790221753 -675.74995213196235 0 0 0 0 0.68663946856395341 -194.88484452221689 0 -194.88484452221689 -465.81221380986585 0 0 0 0 120.13953282760485 -179.43143766631704 0 -179.43143766631704 -494.42833064588899 0 0 0 0 68.274798194077448 -21.950652384362286 0 -21.950652384362286 -27.639842137724315 0 0 0 0 9.5968507483700591 -4.4040886231335605 0 -4.4040886231335605 -4.4453079885123064 0 0 0 0 58.232638703578203 -21.281181863943644 0 -21.281181863943644 4.028628306542271 0 0 0 0 20.538894169985724 -70.88521737286635 0 -70.88521737286635 116.78747260122998 0 0 0 0 53.555859518171928 0.52838634147934727 0 0.52838634147934727 5.1843989840347149 0 0 0 0 -32.836655805222108 0.58746472322923182 0 0.58746472322923182 -112.90416555597938 0 0 0 0 119.79688239832467 175.31415972601019 0 175.31415972601019 -108.63404943785986 0 0 0 0 152.28173459907703 -101.91328819737794 0 -101.91328819737794 -87.521784088488857 0 0 0 0 130.34583140586619 -124.74478581206267 0 -124.74478581206267 -452.11569865183276 0 0 0 0 38.237511871130891 -14.27422154888842 0 -14.27422154888842 4.9116614309456796 0 0 0 0 102.08861648068864 -40.573375058745455 0 -40.573375058745455 100.40056948337065 0 0 0 0 100.14360983818187 -181.61611026438004 0 -181.61611026438004 278.46190134066683 0 0 0 0 348.69376679911511 -216.27822804439018 0 -216.27822804439018 122.52068870217408 0 0 0 0 116.98065263326862 107.93906898719467 0 107.93906898719467 76.0633560794695 0 0 0 0 -92.675860268675024 -168.86802269696796 0 -168.86802269696796 783.33971712706796 0 0 0 0 -22.45725237437 -14.462896130272256 0 -14.462896130272256 250.17049444049513 0 0 0 0 55.687171600409783 -406.16080267802954 0 -406.16080267802954 167.40772149618999 0 0 0 0 -235.26509758386237 -365.20745628428995 0 -365.20745628428995 189.16599887194729 0 0 0 0 338.9900888441407 15.759490066524904 0 15.759490066524904 -31.542950023266712 0 0 0 0 440.20453025828192 -21.235887935191215 0 -21.235887935191215 -34.320025625817834 0 0 0 0 17.387045309809011 -1.0047261039593565 0 -1.0047261039593565 -2.8004295590145301 0 0 0 0 195.10499671797152 -51.852687407711528 0 -51.852687407711528 12.285700572942687 0 0 0 0 329.28764275531285 -66.290016252232363 0 -66.290016252232363 13.681034463916035 0 0 0 0 427.15659348191002 -154.8026670817811 0 -154.8026670817811 44.944699911134194 0 0 0 0 222.70779034971201 -184.86948522383631 0 -184.86948522383631 115.57611616119357 0 0 0 0 155.18157165899902 -130.11439463265469 0 -130.11439463265469 75.542982937616898 0 0 0 0 158.33004080763203 -116.16545120204455 0 -116.16545120204455 70.842233985496932 0 0 0 0 202.13932764195488 -120.19763393286121 0 -120.19763393286121 11.422235403919331 0 0 0 0 187.37459468108864 -95.991719309088921 0 -95.991719309088921 7.9300668986816163 0 0 0 0 14.89270979729768 -13.99108426737034 0 -13.99108426737034 3.2300179116563683 0 0 0 0 169.38598083128454 -39.486100619269564 0 -39.486100619269564 -130.54962249196251 0 0 0 0 213.46791101500276 -124.06739119679241 0 -124.06739119679241 12.470128877655952 0 0 0 0 108.75537643051439 -10.08385782199634 0 -10.08385782199634 -18.512156189802479 0 0 0 0 155.36281617972418 50.508790980406729 0 50.508790980406729 -37.985059947424361 0 0 0 0 126.85657640499994 -10.154421394816211 0 -10.154421394816211 -75.781449495408197 0 0 0 0 138.65178571221622 -31.574863846599328 0 -31.574863846599328 23.098838361312119 0 0 0 0 74.876050347826094 -59.311171849026096 0 -59.311171849026096 68.226594014213106 0 0 0 0 104.24388580846426 -88.582475140416591 0 -88.582475140416591 43.574174701517222 0 0 0 0 104.03555900589708 -67.28985926272037 0 -67.28985926272037 30.418130439481047 0 0 0 0 138.0311893235048 -62.76297905722231 0 -62.76297905722231 -7.1242957091083099 0 0 0 0 99.845282062327897 -44.744644691553731 0 -44.744644691553731 49.535939265002071 0 0 0 0 129.34956197692372 -67.394411604388097 0 -67.394411604388097 29.846759132439047 0 0 0 0 87.337721739480912 -55.273461511163987 0 -55.273461511163987 40.870494243394205 0 0 0 0 83.554410200253187 -8.7626745269012645 0 -8.7626745269012645 1.0058310697149864 0 0 0 0 63.567873757805501 -0.24756186118520418 0 -0.24756186118520418 8.9807531761343853 0 0 0 0 45.536109685746396 9.0775765596053972 0 9.0775765596053972 -4.2406394327556427 0 0 0 0 59.13304108587181 -17.359440253473565 0 -17.359440253473565 6.480621218699298 0 0 0 0 72.325773488747245 -20.377590708368665 0 -20.377590708368665 11.798813344432801 0 0 0 0 52.376686299634457 -32.723883391241657 0 -32.723883391241657 6.0048599171493606 0 0 0 0 31.08465459614672 -29.238914687686247 0 -29.238914687686247 24.661674334477766 0 0 0 0 28.764145145321464 3.4228589722243186 0 3.4228589722243186 -10.719029853858521 0 0 0 0 12.920284488987818 -21.684316643223326 0 -21.684316643223326 8.244636335668929 0 0 0 0 54.499376711421064 -9.7073778132105417 0 -9.7073778132105417 -9.1089842239448444 0 0 0 0 38.53023066597234 -9.8048303790253613 0 -9.8048303790253613 -4.3142772754786165 0 0 0 0 12.167361154019815 -2.7726951303154124 0 -2.7726951303154124 0.39191936744659017 0 0 0 0 68.849175041302487 -5.4455547353685638 0 -5.4455547353685638 -6.0335729637934037 0 0 0 0 31.08796560618913 -3.7920269748335755 0 -3.7920269748335755 -10.839629243974215 0 0 0 0 52.560378166977898 -20.227711407354946 0 -20.227711407354946 -5.0204132333158213 0 0 0 0 46.941293856172706 -16.875207898100825 0 -16.875207898100825 -3.5152014492948638 0 0 0 0 3375.3779843190059 -127.34693527634759 0 -127.34693527634759 -841.45996339727299 0 0 0 0 1382.56990536183 242.88020042586527 0 242.88020042586527 -665.31807661443111 0 0 0 0 2235.6211630128055 201.89328973035552 0 201.89328973035552 -403.53813952262044 0 0 0 0 2155.3772038491907 -337.24464991546245 0 -337.24464991546245 -528.55655852046038 0 0 0 0 19.446331707826175 -26.060705806767942 0 -26.060705806767942 4.6500746893693758 0 0 0 0 512.21693164957105 -385.47280548336801 0 -385.47280548336801 204.14442030702548 0 0 0 0 55.008043030167755 -8.0009623406695027 0 -8.0009623406695027 2.2474270121040547 0 0 0 0 -60.638020937993133 -51.296757693403833 0 -51.296757693403833 518.37969426699829 0 0 0 0 7.7202505723076484 -12.598272473505162 0 -12.598272473505162 10.919688627111316 0 0 0 0 364.46794535568915 -696.60759734196654 0 -696.60759734196654 661.18302132038889 0 0 0 0 3498.9183338582516 -521.98894757174116 0 -521.98894757174116 176.92546750933499 0 0 0 0 188.33988031925401 -729.06379111821707 0 -729.06379111821707 721.22315766103611 0 0 0 0 2662.4682939156774 -1088.2621550658325 0 -1088.2621550658325 -46.498706277283546 0 0 0 0 3501.4520609555984 819.76377408658743 0 819.76377408658743 380.21071954568583 0 0 0 0 -86.291988772180048 -204.93514772573099 0 -204.93514772573099 128.48413742139473 0 0 0 0 7.1618635937163475 -5.719040603005368 0 -5.719040603005368 6.6693264637093757 0 0 0 0 4476.3483076823068 -1.6066955626128419 0 -1.6066955626128419 229.37479371294813 0 0 0 0 3763.7829811822594 550.83703989252513 0 550.83703989252513 188.79965106387681 0 0 0 0 -24.214449935587254 157.87102335938192 0 157.87102335938192 -222.79908526122699 0 0 0 0 86.588958828062459 24.814506999839352 0 24.814506999839352 -166.33360945150889 0 0 0 0 18.843778935804238 -4.8991894096488693 0 -4.8991894096488693 -1.9108017487348161 0 0 0 0 30.87240233761986 0.46537255219573126 0 0.46537255219573126 -10.550185649088235 0 0 0 0 42.171649761767185 -11.609324670954265 0 -11.609324670954265 15.194923764268424 0 0 0 0 9.8104695050003414 -11.933251572345341 0 -11.933251572345341 16.849733739440129 0 0 0 0 5.1305019732920556 1.2854946116298294 0 1.2854946116298294 3.7042582431001154 0 0 0 0 20.661501420661807 -9.2834121466476063 0 -9.2834121466476063 13.503938497165564 0 0 0 0 2248.6661246072217 497.86126615274486 0 497.86126615274486 248.65812596719485 0 0 0 0 3016.844847638793 406.68097162185524 0 406.68097162185524 40.150588445202295 0 0 0 0 2747.6983678179968 1861.7636384968755 0 1861.7636384968755 423.03156562717186 0 0 0 0 6.0765263810542081 -2.2387513028023918 0 -2.2387513028023918 -0.91928937594478921 0 0 0 0 2873.4005889077089 543.24977994281107 0 543.24977994281107 -45.041602287260275 0 0 0 0 3499.7553599902676 135.51378332933109 0 135.51378332933109 -516.76040752795302 0 0 0 0 1651.892521247566 552.81151533209595 0 552.81151533209595 -107.15298825464116 0 0 0 0 2838.1489619321692 283.96961912171736 0 283.96961912171736 -89.230249353634463 0 0 0 0 -8.0814180655070231 -2.5918912101574278 0 -2.5918912101574278 22.857042506760081 0 0 0 0 1184.0672391132102 -175.49092705081785 0 -175.49092705081785 90.077463960803684 0 0 0 0 22.586883046924022 -23.306130060347371 0 -23.306130060347371 30.889927538332632 0 0 0 0 -21.641793822775071 -58.287537106718446 0 -58.287537106718446 162.71380268945177 0 0 0 0 1643.1701691492854 -264.22622719464516 0 -264.22622719464516 -213.6083057737325 0 0 0 0 2447.540240434173 -411.12193696851796 0 -411.12193696851796 -191.39742755916075 0 0 0 0 93.648913196117064 -70.287383351629444 0 -70.287383351629444 62.11783610645125 0 0 0 0 91.884287046770623 -65.37859190287827 0 -65.37859190287827 54.913961902555457 0 0 0 0 -1.5728847351958777 2.692231594186353 0 2.692231594186353 2.2468422479471748 0 0 0 0 156.42992534395307 -37.205498054405325 0 -37.205498054405325 16.408664538447056 0 0 0 0 196.19475833871547 -56.819291349650484 0 -56.819291349650484 14.096335044179796 0 0 0 0 145.35908542359539 -88.04383532259817 0 -88.04383532259817 56.60807796314657 0 0 0 0 90.650578878837962 -10.487128667066742 0 -10.487128667066742 -31.190024619681466 0 0 0 0 144.18055742306751 39.856301701971461 0 39.856301701971461 101.48549540408112 0 0 0 0 114.87566107934072 -45.475480238645162 0 -45.475480238645162 -23.266422656730356 0 0 0 0 128.73101293788841 9.9770431026351503 0 9.9770431026351503 -58.718609458579522 0 0 0 0 135.84594462843233 -9.1736673173372765 0 -9.1736673173372765 -44.35444839726506 0 0 0 0 200.20859516943165 23.318688374699377 0 23.318688374699377 -28.313186881884576 0 0 0 0 -1.7339609095990554 4.3150062828004323 0 4.3150062828004323 -14.484246426158217 0 0 0 0 292.27237267150485 8.9039089241166494 0 8.9039089241166494 -36.35671526119927 0 0 0 0 177.48341899524803 -69.765713693135126 0 -69.765713693135126 -39.546771736352639 0 0 0 0 247.47434086757858 -36.768833821513681 0 -36.768833821513681 -25.405986079603281 0 0 0 0 3494.4477492182705 -1795.0452857056075 0 -1795.0452857056075 278.64901752063105 0 0 0 0 12.845539402356962 4.8407915480287542 0 4.8407915480287542 4.72414668470085 0 0 0 0 36.952492278970439 7.2455039710103151 0 7.2455039710103151 5.0543900763245055 0 0 0 0 125.18093492960179 80.135428314458295 0 80.135428314458295 89.216879893118858 0 0 0 0 1633.2657449858725 -311.0583305276906 0 -311.0583305276906 27.38345559353283 0 0 0 0 19.819641339682512 6.5085658791937462 0 6.5085658791937462 -32.673876570612236 0 0 0 0 705.74957106274815 -21.24479760160925 0 -21.24479760160925 -14.385587844389505 0 0 0 0 154.30008862224713 213.77793107787949 0 213.77793107787949 242.23023956069676 0 0 0 0 529.44300162469881 1613.8622827586512 0 1613.8622827586512 1887.6118099141383 0 0 0 0 3493.8056510742499 1570.9785631088614 0 1570.9785631088614 -291.74418191697168 0 0 0 0 1769.9145318646297 630.97077919619915 0 630.97077919619915 -620.27830974599306 0 0 0 0 3500.4092803240273 334.55787777192654 0 334.55787777192654 -837.54813993274115 0 0 0 0 774.52667065249989 288.25672401406564 0 288.25672401406564 -183.20706729057599 0 0 0 0 1837.3485787462359 450.10785617978593 0 450.10785617978593 -389.97330991168195 0 0 0 0 233.06863106366654 -21.0827353200159 0 -21.0827353200159 -10.392498384402643 0 0 0 0 96.144729335454031 -181.56007575154069 0 -181.56007575154069 -130.90286738587633 0 0 0 0 379.61560703637406 -80.228152458105797 0 -80.228152458105797 -96.335113899094267 0 0 0 0 526.07885696499216 93.058412976464524 0 93.058412976464524 -39.414171975163356 0 0 0 0 0.070831403368359247 0.97971118973415372 0 0.97971118973415372 -4.1854302523155802 0 0 0 0 149.03705319696746 -726.06528799225259 0 -726.06528799225259 -399.48344556111215 0 0 0 0 675.34158256674527 -237.47644684779033 0 -237.47644684779033 231.96728205216294 0 0 0 0 1110.424088610489 -491.46150835192907 0 -491.46150835192907 256.34951008303216 0 0 0 0 13.18914814260097 -394.04298593207722 0 -394.04298593207722 461.31809134818769 0 0 0 0 387.5851739979189 79.631435259793818 0 79.631435259793818 36.515389339291943 0 0 0 0 40.361344173159523 -349.77327947986771 0 -349.77327947986771 87.420939429193837 0 0 0 0 18.633907007460948 -11.240042190125223 0 -11.240042190125223 264.42763940940438 0 0 0 0 13.494976177422359 -108.77686220301865 0 -108.77686220301865 237.84163122320319 0 0 0 0 17.543964276002953 -104.51672142330003 0 -104.51672142330003 225.4373655097443 0 0 0 0 43.983822771406267 -50.578921745868229 0 -50.578921745868229 348.13965359141804 0 0 0 0 335.45631570565092 -523.47137080858579 0 -523.47137080858579 923.70856711622741 0 0 0 0 -217.79048237995448 119.12795739272178 0 119.12795739272178 469.49823874425738 0 0 0 0 24.900761327669898 -435.17908194023744 0 -435.17908194023744 953.75434264859632 0 0 0 0 1876.4697999420459 -934.42215333215859 0 -934.42215333215859 519.6542254726379 0 0 0 0 1804.5182536717039 -433.45840010368096 0 -433.45840010368096 310.69059842680178 0 0 0 0 4072.0977751201281 -589.58465920904951 0 -589.58465920904951 177.48383770096359 0 0 0 0 3961.2115469760538 815.57860353932051 0 815.57860353932051 1328.6158060366877 0 0 0 0 3499.8750595255442 -228.95485156633572 0 -228.95485156633572 72.880355486271185 0 0 0 0 2227.9170072888919 90.904459883340451 0 90.904459883340451 -524.19095864152393 0 0 0 0 3636.1382820213075 -102.75713986251452 0 -102.75713986251452 -526.2498883938282 0 0 0 0 2310.1122713619043 -112.76576468316898 0 -112.76576468316898 -684.5096765114863 0 0 0 0 14.190430162860139 -52.158328805564565 0 -52.158328805564565 49.160866295344476 0 0 0 0 121.3300551178545 -43.35461463369495 0 -43.35461463369495 -32.692186377174181 0 0 0 0 -14.804599860504787 -18.245330516552229 0 -18.245330516552229 -0.9480237010586916 0 0 0 0 40.781558640388539 -2.4901669283679553 0 -2.4901669283679553 64.771851050334647 0 0 0 0 7.3588377418622599 -3.9629581241426166 0 -3.9629581241426166 -2.0928955835657432 0 0 0 0 30.910917810855608 -56.021460786069269 0 -56.021460786069269 29.400985457536777 0 0 0 0 44.243650071526645 -35.176595654747764 0 -35.176595654747764 13.643203550822065 0 0 0 0 83.126810607995139 -10.623429058563925 0 -10.623429058563925 22.900902749433591 0 0 0 0 -16.622243067657109 -45.182409170731461 0 -45.182409170731461 30.329949531358402 0 0 0 0 88.550145138658991 -58.849862335804048 0 -58.849862335804048 10.747442485044038 0 0 0 0 25.686391916693537 0.67604488040069555 0 0.67604488040069555 92.03026630333909 0 0 0 0 12.164223332678375 -127.77506904371802 0 -127.77506904371802 129.52354218885509 0 0 0 0 93.358390468572907 -185.30675855679419 0 -185.30675855679419 30.647259324417419 0 0 0 0 45.572329666156293 -104.64672832424668 0 -104.64672832424668 39.761998235590625 0 0 0 0 -173.35055470807856 -45.641998979265509 0 -45.641998979265509 28.919817167855854 0 0 0 0 0.45085338624087257 1.1404587860962181 0 1.1404587860962181 -0.16234504223907731 0 0 0 0 99.304762228344771 -62.347799762628483 0 -62.347799762628483 -22.546017820745874 0 0 0 0 124.83708934206516 -132.081884848767 0 -132.081884848767 -2.2210895363766667 0 0 0 0 56.482533278758638 -92.228620351980226 0 -92.228620351980226 3.3972678620841634 0 0 0 0 70.093563480075318 -2.3008355485589504 0 -2.3008355485589504 3.7000597527230639 0 0 0 0 113.66027766766638 -108.1210455265616 0 -108.1210455265616 61.03151113052968 0 0 0 0 375.58732415538043 -105.49597586468325 0 -105.49597586468325 -28.00967659586081 0 0 0 0 140.72821169155213 -61.631356204394706 0 -61.631356204394706 30.692360365820605 0 0 0 0 140.36427181645831 -62.621382194820399 0 -62.621382194820399 33.274890572322875 0 0 0 0 332.37394384551953 -41.705406302698975 0 -41.705406302698975 -18.07248335029908 0 0 0 0 0.52419242154813261 -0.26469376767229846 0 -0.26469376767229846 0.73069801714200722 0 0 0 0 258.93709867533107 -64.107763599478403 0 -64.107763599478403 -9.8597561837959802 0 0 0 0 -1.9351327669899661 0.21608958252491561 0 0.21608958252491561 1.9269554535460252 0 0 0 0 67.969062241645588 -76.19426087940974 0 -76.19426087940974 18.380298799835145 0 0 0 0 87.412355181852035 -85.631315490292309 0 -85.631315490292309 7.0775273680428654 0 0 0 0 -44.155650712405986 -59.039051825840602 0 -59.039051825840602 25.701689408391758 0 0 0 0 67.213459247559513 -36.800408459002938 0 -36.800408459002938 -5.4790286207080499 0 0 0 0 78.780728118199477 -43.616009451960963 0 -43.616009451960963 -1.5073622516779324 0 0 0 0 129.75222545816723 -56.557396483910452 0 -56.557396483910452 -29.498781792002774 0 0 0 0 106.34817738213678 -43.533226697470582 0 -43.533226697470582 -21.362631348489231 0 0 0 0 110.15077826621018 -29.023324167979126 0 -29.023324167979126 5.1083157042858147 0 0 0 0 99.550797860503252 -2.4338572945321886 0 -2.4338572945321886 -31.546249082332338 0 0 0 0 96.5486030844026 -8.2280765599658281 0 -8.2280765599658281 -29.98545998764385 0 0 0 0 146.52332306011158 -23.935228883105083 0 -23.935228883105083 16.657362412917792 0 0 0 0 135.81134001129976 -63.506120254684902 0 -63.506120254684902 20.989925131724704 0 0 0 0 17.480967698906909 -6.4438727127806459 0 -6.4438727127806459 5.4533804239379862 0 0 0 0 111.95796616081498 -37.588415768630966 0 -37.588415768630966 15.255844159945354 0 0 0 0 196.59805123310889 -54.696243743161972 0 -54.696243743161972 -15.304552299536226 0 0 0 0 56.375723112942069 -13.6501292390858 0 -13.6501292390858 8.8919739670318734 0 0 0 0 126.80885136716279 -54.869345949836315 0 -54.869345949836315 7.5611452736775391 0 0 0 0 23.020092869876066 -30.455942908663289 0 -30.455942908663289 15.88988210031637 0 0 0 0 29.868409123293532 -70.393137159786761 0 -70.393137159786761 29.332572859435459 0 0 0 0 -23.549763837771025 -32.973963010314037 0 -32.973963010314037 4.8136875209711434 0 0 0 0 66.900307052943845 -60.629476631536448 0 -60.629476631536448 -11.565566653222049 0 0 0 0 23.335447118757642 9.1461835659158197 0 9.1461835659158197 0.66405885034594903 0 0 0 0 68.037112363515917 -21.239911509843296 0 -21.239911509843296 21.266721952656553 0 0 0 0 -113.51171974460158 51.431850251067658 0 51.431850251067658 89.491154569336231 0 0 0 0 2.1349505862017395 8.0332189824616762 0 8.0332189824616762 -21.249620405426867 0 0 0 0 -57.810682479001116 17.980025885583927 0 17.980025885583927 71.485757024100167 0 0 0 0 3.4144432880872699 -1.2128852958181398 0 -1.2128852958181398 0.15304942848073821 0 0 0 0 -5.6750527663971297 -6.9406215088272347 0 -6.9406215088272347 4.1140503337337577 0 0 0 0 -52.210597647179384 19.477072376919864 0 19.477072376919864 9.1962604098089287 0 0 0 0 60.526257786230417 -14.786036745598494 0 -14.786036745598494 18.851515178655518 0 0 0 0 71.488349658771767 -28.223097851352577 0 -28.223097851352577 16.356406144336972 0 0 0 0 15.89247194211319 11.723830287964802 0 11.723830287964802 -2.1106776098760918 0 0 0 0 39.352792625173606 -7.9134768321451929 0 -7.9134768321451929 -9.3585891353914121 0 0 0 0 1.6590798750257818 70.207184366028059 0 70.207184366028059 -24.598978498895121 0 0 0 0 61.175535140850116 11.457602645275074 0 11.457602645275074 -39.150862897824936 0 0 0 0 96.960781470814254 -53.501751185058311 0 -53.501751185058311 18.702918883353959 0 0 0 0 38.022951290491619 -18.072915579884466 0 -18.072915579884466 8.959554654799831 0 0 0 0 93.252050792274531 7.463242481283487 0 7.463242481283487 -11.677997706288807 0 0 0 0 84.781420074694324 -51.534911896894528 0 -51.534911896894528 31.611504605534719 0 0 0 0 84.342857271942194 -50.776519812678089 0 -50.776519812678089 32.491640880726209 0 0 0 0 164.93226825801321 -101.93841999047726 0 -101.93841999047726 57.524254665905573 0 0 0 0 112.31757063348778 -38.492573199910112 0 -38.492573199910112 14.563143081387807 0 0 0 0 141.50512146339315 -17.284394808612831 0 -17.284394808612831 29.825798537726769 0 0 0 0 148.59654010574741 -64.49790869107801 0 -64.49790869107801 83.464483157717041 0 0 0 0 72.81635229231324 35.361350490750738 0 35.361350490750738 -1.2388275749362947 0 0 0 0 79.88062368312967 -19.795239206244332 0 -19.795239206244332 26.445247226813535 0 0 0 0 170.91185228024551 29.11010095462052 0 29.11010095462052 48.359450891920915 0 0 0 0 40.232425580121344 50.592904558888677 0 50.592904558888677 68.864827605626488 0 0 0 0 37.352310439877328 -30.100320347999514 0 -30.100320347999514 66.489431392311047 0 0 0 0 48.709919600922149 8.7444407013417731 0 8.7444407013417731 171.85551362890055 0 0 0 0 145.52360777201829 -103.1975859135448 0 -103.1975859135448 99.33252341629634 0 0 0 0 109.79985207971185 -98.749388928937719 0 -98.749388928937719 413.63573961920656 0 0 0 0 24.135406739267637 -34.725967793404493 0 -34.725967793404493 174.26857610490038 0 0 0 0 221.42531167739799 -147.72661870988213 0 -147.72661870988213 111.16972463463298 0 0 0 0 209.84012831187283 -142.49029690284806 0 -142.49029690284806 127.43267572178183 0 0 0 0 289.0728528835316 -5.4995483454281384 0 -5.4995483454281384 108.12477792307345 0 0 0 0 499.26047771873709 -271.24313710693468 0 -271.24313710693468 168.09853706018657 0 0 0 0 216.6635120454157 -134.3058255266476 0 -134.3058255266476 134.80203064182842 0 0 0 0 597.09033405431001 -33.261157350060699 0 -33.261157350060699 -0.44313464857691542 0 0 0 0 471.5719908520332 -7.062585067878274 0 -7.062585067878274 21.134716765151097 0 0 0 0 -145.88015975409508 -499.56820471777689 0 -499.56820471777689 347.77368947849874 0 0 0 0 0.8426493844561378 -1.0999963412124316 0 -1.0999963412124316 1.1070615710178684 0 0 0 0 85.359398572079954 -147.75130384112151 0 -147.75130384112151 88.784792355589161 0 0 0 0 170.93620189139074 -172.74124011134433 0 -172.74124011134433 88.818657841032291 0 0 0 0 156.28480229007255 -151.18365433835743 0 -151.18365433835743 146.28477436239928 0 0 0 0 63.641647643889883 -84.174255905079121 0 -84.174255905079121 43.865887944778365 0 0 0 0 32.097918852745352 -67.068765546195721 0 -67.068765546195721 94.726573896989976 0 0 0 0 -0.93710635703610023 -16.258521069754806 0 -16.258521069754806 56.879646451481676 0 0 0 0 11.278965998404601 -59.983895200493407 0 -59.983895200493407 68.057820886227091 0 0 0 0 -8.3676937220608778 -15.299502972075558 0 -15.299502972075558 10.955051950142003 0 0 0 0 25.04556444366608 -40.353944204403888 0 -40.353944204403888 0.041942544907215051 0 0 0 0 45.676614484214952 -21.3733852344144 0 -21.3733852344144 -6.2215026844969543 0 0 0 0 49.275239506285288 -34.998895239584272 0 -34.998895239584272 41.413385619476685 0 0 0 0 21.335385900834808 -23.785974842305222 0 -23.785974842305222 0.61397139164728287 0 0 0 0 -23.65896984457504 -54.915639112246026 0 -54.915639112246026 -3.2840289580362878 0 0 0 0 12.131543014481892 -2.428409498546884 0 -2.428409498546884 -2.2222718407354769 0 0 0 0 38.348211817632546 -66.628873987036968 0 -66.628873987036968 -22.876293265151617 0 0 0 0 19.140991842070051 -16.349015066453845 0 -16.349015066453845 15.065105318061509 0 0 0 0 -16.614426419160736 59.857502562235823 0 59.857502562235823 41.383162487778918 0 0 0 0 -11.95691318622994 -108.00483752962043 0 -108.00483752962043 28.575390821279598 0 0 0 0 -4.6648016788346638 1.6056513154226764 0 1.6056513154226764 2.1944932484364967 0 0 0 0 -45.174912781363673 -63.605614052567034 0 -63.605614052567034 891.67015203130813 0 0 0 0 -13.060717949629179 -59.9154850729808 0 -59.9154850729808 295.60601385450707 0 0 0 0 -25.454242349150263 -91.884957071236386 0 -91.884957071236386 253.4422185313224 0 0 0 0 -54.017529846067191 -183.3320762269235 0 -183.3320762269235 299.6956058893926 0 0 0 0 -18.692034263760434 -199.07112105771193 0 -199.07112105771193 151.3877616308805 0 0 0 0 18.008913920813939 -133.93609095728425 0 -133.93609095728425 188.52580218674166 0 0 0 0 14.143402260437142 -166.55022265594471 0 -166.55022265594471 183.02870278321751 0 0 0 0 41.653812195901992 -75.546095070738829 0 -75.546095070738829 51.62704620174236 0 0 0 0 -12.414638699626948 -74.76385313403452 0 -74.76385313403452 118.47737926383616 0 0 0 0 64.229854513832834 -102.06220856386153 0 -102.06220856386153 78.508448360186776 0 0 0 0 37.952534946423839 -99.652066838308201 0 -99.652066838308201 87.958743977642371 0 0 0 0 31.678731529696961 -60.36141367634491 0 -60.36141367634491 57.181633703720763 0 0 0 0 32.371643646736629 -65.475829082953169 0 -65.475829082953169 50.671057950057275 0 0 0 0 130.88333654557937 -104.87049732242667 0 -104.87049732242667 62.522601784416111 0 0 0 0 142.60183157784923 -158.64079742633294 0 -158.64079742633294 116.56132962635218 0 0 0 0 45.86957505888131 -109.81459425220646 0 -109.81459425220646 100.96165677659974 0 0 0 0 34.283966621456784 -191.32973544384868 0 -191.32973544384868 169.91569060190477 0 0 0 0 114.76541796448873 -108.94286417969965 0 -108.94286417969965 99.861241227864866 0 0 0 0 2.83180627737093 -1.7076884400843539 0 -1.7076884400843539 0.86297791154756109 0 0 0 0 -7.0664018247189233 -175.46244330143827 0 -175.46244330143827 339.14743155852045 0 0 0 0 172.60636332681679 -241.91494231565582 0 -241.91494231565582 184.82259824681296 0 0 0 0 227.89543121073802 -139.68768462636376 0 -139.68768462636376 118.94129282419226 0 0 0 0 -154.88608781754738 81.862792396946247 0 81.862792396946247 175.94157992706096 0 0 0 0 -143.61853519321215 121.66079335620233 0 121.66079335620233 74.422332920801182 0 0 0 0 -15.15309290879668 82.728614872824551 0 82.728614872824551 -164.91691565126507 0 0 0 0 38.429594135959633 -52.292542400713842 0 -52.292542400713842 25.452507636764722 0 0 0 0 30.806166932656197 68.620058092590057 0 68.620058092590057 36.454270764079297 0 0 0 0 -47.220663472229717 -63.910710824041587 0 -63.910710824041587 98.739010060070768 0 0 0 0 68.845025973139855 -162.8327043615019 0 -162.8327043615019 -106.84350178673174 0 0 0 0 -8.1830464444647077 -33.674675618203366 0 -33.674675618203366 -167.23085005375538 0 0 0 0 9.5269183900960286 -3.1284661175210857 0 -3.1284661175210857 0.8939538980711399 0 0 0 0 16.383164017854341 -2.7798634379581202 0 -2.7798634379581202 -0.20077559382011112 0 0 0 0 126.0593152216461 -23.998285398393591 0 -23.998285398393591 -235.01027228508383 0 0 0 0 233.64017599118097 -47.68304829239613 0 -47.68304829239613 -487.88715861136575 0 0 0 0 219.278956299735 -340.68445599632628 0 -340.68445599632628 0.94610326237602749 0 0 0 0 89.348348216801242 -76.486538975647875 0 -76.486538975647875 -11.341843002308451 0 0 0 0 2.3710059197445332 -0.95561169321730688 0 -0.95561169321730688 -0.49978406099188177 0 0 0 0 41.939565115812002 -10.957106462835839 0 -10.957106462835839 -2.4215021707300934 0 0 0 0 18.240507060814707 70.961779679935489 0 70.961779679935489 5.4419184764185502 0 0 0 0 41.949219574833478 -8.9949203237034965 0 -8.9949203237034965 -52.719238111449158 0 0 0 0 21.541494571123621 -3.6265357139841683 0 -3.6265357139841683 -29.540079024634451 0 0 0 0 -3.4799576579534914 -44.634939581005142 0 -44.634939581005142 -53.86344606804002 0 0 0 0 -9.3883568422243115 1.1409779202653567 0 1.1409779202653567 -39.298661395812132 0 0 0 0 -102.51648886064504 -138.26288869481675 0 -138.26288869481675 -145.06107796747773 0 0 0 0 2.6377970501775536 -2.4770486646117575 0 -2.4770486646117575 0.14372852709813078 0 0 0 0 134.22353603470401 13.821707685315857 0 13.821707685315857 18.101099757082011 0 0 0 0 59.866842033639841 23.36560501894877 0 23.36560501894877 18.602994915427573 0 0 0 0 25.179284963778628 -24.251266045216369 0 -24.251266045216369 -5.4172219076513102 0 0 0 0 60.835178784680465 -4.7021566418870364 0 -4.7021566418870364 -20.684211688285473 0 0 0 0 62.55987018875021 -29.76434207405897 0 -29.76434207405897 -155.82080941968968 0 0 0 0 58.92428645696782 -6.6180623740680744 0 -6.6180623740680744 -134.04431829673075 0 0 0 0 31.845067285008554 -11.50031827863998 0 -11.50031827863998 -131.92562516972737 0 0 0 0 108.53943231479207 -16.169448197247931 0 -16.169448197247931 -153.6028727680563 0 0 0 0 110.76612000694149 16.415761510963549 0 16.415761510963549 -321.59304140587693 0 0 0 0 70.204540392790591 -65.82216410626755 0 -65.82216410626755 -173.48198540731221 0 0 0 0 70.28566899424186 -70.767576703384606 0 -70.767576703384606 -130.21057878091682 0 0 0 0 174.25974561323528 -87.600029225967745 0 -87.600029225967745 -208.68028688905628 0 0 0 0 153.52549122439814 28.425528206901895 0 28.425528206901895 -611.00628763142345 0 0 0 0 140.16806552755588 -331.6732777899399 0 -331.6732777899399 -346.98183643766987 0 0 0 0 -89.433233477429894 -53.88363408156431 0 -53.88363408156431 -24.917631956083369 0 0 0 0 77.149436848294499 64.092512296759423 0 64.092512296759423 80.357158902581276 0 0 0 0 2.8552679012447584 -1.8696718393612031 0 -1.8696718393612031 -2.4342211577201622 0 0 0 0 4.2834546320518712 -180.15818767093748 0 -180.15818767093748 186.61731008895137 0 0 0 0 6.8816146635072073 -25.472458830313144 0 -25.472458830313144 -45.03378080301809 0 0 0 0 19.133439249133517 -55.188689231478406 0 -55.188689231478406 0.27865916846485561 0 0 0 0 -2.7127904666558607 -16.756733192216188 0 -16.756733192216188 -12.431707553506385 0 0 0 0 -23.161996057409851 -70.597128398221002 0 -70.597128398221002 -17.96840754534378 0 0 0 0 3.3371152233296328 -2.248105116994509 0 -2.248105116994509 -3.3563424686894034 0 0 0 0 -170.79403641090903 134.87011156140693 0 134.87011156140693 -553.62775559529837 0 0 0 0 108.59001165622885 -49.025449882228187 0 -49.025449882228187 -24.239632484577896 0 0 0 0 109.28389797404816 -45.207384358864488 0 -45.207384358864488 -40.466241489409299 0 0 0 0 185.25861176295439 -67.895184294038245 0 -67.895184294038245 -50.548684839259522 0 0 0 0 112.11046809365507 -145.16993960101314 0 -145.16993960101314 -13.359289828374457 0 0 0 0 143.38124748345217 -129.58611652843345 0 -129.58611652843345 -7.3280005363835699 0 0 0 0 149.33780553572433 -100.67900567497838 0 -100.67900567497838 7.934541978888106 0 0 0 0 246.03359101185924 -47.602954219454261 0 -47.602954219454261 18.103451996387591 0 0 0 0 -13.381825998524796 -15.517649514463798 0 -15.517649514463798 4.8864483620463179 0 0 0 0 154.16541517113728 -112.88255676704884 0 -112.88255676704884 16.61802204734181 0 0 0 0 125.78001994200167 -115.85792818999289 0 -115.85792818999289 51.57677863229901 0 0 0 0 107.47699248717981 -137.48935512967597 0 -137.48935512967597 26.038151560836354 0 0 0 0 229.90248835187595 -60.942588981353865 0 -60.942588981353865 9.2777688976543686 0 0 0 0 188.90898816086701 -170.60897041584008 0 -170.60897041584008 48.481615422875279 0 0 0 0 105.20338723912573 -132.08333552753754 0 -132.08333552753754 33.771073034064784 0 0 0 0 129.82943751564017 11.091172316554207 0 11.091172316554207 20.358396495577026 0 0 0 0 80.871620076788531 -49.809214281462005 0 -49.809214281462005 -15.654183836675429 0 0 0 0 9.8254092382994713 -87.219440866058662 0 -87.219440866058662 1.3066259534890463 0 0 0 0 81.660181526181987 -39.949575571708124 0 -39.949575571708124 6.7368435065920949 0 0 0 0 134.46810249180271 -124.59045461232529 0 -124.59045461232529 12.511330193925573 0 0 0 0 -96.667315374692407 -80.461755646644804 0 -80.461755646644804 -32.172631281399447 0 0 0 0 92.274275760093587 -161.53886641137473 0 -161.53886641137473 -8.9295605198087173 0 0 0 0 3.634910470325849 -63.621537629316428 0 -63.621537629316428 -65.620674115998739 0 0 0 0 53.941930929955561 -20.139341450007834 0 -20.139341450007834 -43.573699482524489 0 0 0 0 50.471567057691573 -31.198152538477633 0 -31.198152538477633 -130.26684900607404 0 0 0 0 33.421008916200662 -103.80711994704725 0 -103.80711994704725 -244.56821585363994 0 0 0 0 -30.410045939701376 -78.623673541799747 0 -78.623673541799747 -109.92470053485692 0 0 0 0 64.528655669244472 -154.01875222876717 0 -154.01875222876717 -134.26322508493391 0 0 0 0 -154.61055493830645 53.752381065327242 0 53.752381065327242 123.82726429272739 0 0 0 0 20.642797659224016 1.6928208547191446 0 1.6928208547191446 -181.92930674775545 0 0 0 0 4.1988867075060341 -2.2769567420763579 0 -2.2769567420763579 0.62015243094177386 0 0 0 0 385.00999969037366 -44.94714452385908 0 -44.94714452385908 -146.33903833935943 0 0 0 0 2.3425828751427105 -1.3650938262881667 0 -1.3650938262881667 0.43235380336703089 0 0 0 0 419.41635500661505 12.001965709045688 0 12.001965709045688 -136.29472604769654 0 0 0 0 93.184505776422156 -216.41927199198648 0 -216.41927199198648 -34.978568745121365 0 0 0 0 178.11288901660009 -138.92891900918943 0 -138.92891900918943 -86.970027194633417 0 0 0 0 360.01350771912257 41.879975184815194 0 41.879975184815194 -113.81823271400393 0 0 0 0 30.668211632131715 52.586263150643049 0 52.586263150643049 -28.268174115200111 0 0 0 0 433.49361636134563 -172.36760458485378 0 -172.36760458485378 -82.597421269988686 0 0 0 0 95.63245784486935 -154.27486834045965 0 -154.27486834045965 165.93854515944903 0 0 0 0 23.32061404077831 -25.414899052273835 0 -25.414899052273835 120.56818974072499 0 0 0 0 197.73694573304965 -15.201733433857132 0 -15.201733433857132 -6.8231968004451105 0 0 0 0 160.72543099425093 -70.368006327004551 0 -70.368006327004551 54.989518943016108 0 0 0 0 395.20060217633727 -85.573684748181975 0 -85.573684748181975 -0.058342658289785021 0 0 0 0 241.92134567855101 -40.047454533934015 0 -40.047454533934015 -26.521420038684695 0 0 0 0 281.51702223982284 34.38581553987688 0 34.38581553987688 82.225442179586707 0 0 0 0 1.068542362222189 -3.6531509910020272 0 -3.6531509910020272 2.35835743564492 0 0 0 0 208.77656296460191 -25.810144989499939 0 -25.810144989499939 -87.92814267921618 0 0 0 0 173.27758155710762 27.690294054397295 0 27.690294054397295 -56.03417101276365 0 0 0 0 301.53306612389861 -92.516316552574366 0 -92.516316552574366 -58.456847018916591 0 0 0 0 59.452784925466403 -109.14036187959633 0 -109.14036187959633 122.83440026769694 0 0 0 0 244.93226124424837 -105.92325267327038 0 -105.92325267327038 2.7126438723867494 0 0 0 0 223.37658186933231 62.263517850096335 0 62.263517850096335 13.698808549604564 0 0 0 0 82.339832758312696 5.8573681655453242 0 5.8573681655453242 -2.1279440742992506 0 0 0 0 192.3129355514684 34.752118371633749 0 34.752118371633749 -10.740620604208573 0 0 0 0 153.15346037218114 -10.07412484503493 0 -10.07412484503493 68.194021676717227 0 0 0 0 1.8168961833634398 -0.57814120245886258 0 -0.57814120245886258 0.23687883389686815 0 0 0 0 316.80663638365513 -45.820344395166003 0 -45.820344395166003 7.3968255647295109 0 0 0 0 -33.710468021588895 -3.0780661309882049 0 -3.0780661309882049 26.416661737816838 0 0 0 0 65.08759480167646 82.85083641853987 0 82.85083641853987 39.156279975712579 0 0 0 0 5.9839720656195539 -1.7895317787242817 0 -1.7895317787242817 0.61791666263854061 0 0 0 0 9.0278775774786482 -18.125023211930447 0 -18.125023211930447 -31.868408215284177 0 0 0 0 -119.21298188441142 30.386631564376842 0 30.386631564376842 -14.285988713812998 0 0 0 0 8.7516315207903972 5.2755430740288034 0 5.2755430740288034 -7.6623968009618864 0 0 0 0 1.926864587374439 1.192318335645183 0 1.192318335645183 1.1927460868272988 0 0 0 0 15.069754555690452 14.52196366448868 0 14.52196366448868 11.695182299796642 0 0 0 0 13.614521446957951 39.492104835717413 0 39.492104835717413 39.007144880578124 0 0 0 0 95.48210567287606 39.064212894700034 0 39.064212894700034 -1.6603124588920366 0 0 0 0 34.995827049238869 18.982271821056749 0 18.982271821056749 -8.2645528341537329 0 0 0 0 36.002177721908083 21.206456753826501 0 21.206456753826501 -5.2246298748511322 0 0 0 0 39.828251537830511 10.573098216304828 0 10.573098216304828 -21.789154816739881 0 0 0 0 53.616076884558424 -11.783742278956652 0 -11.783742278956652 -8.9977463598042959 0 0 0 0 52.05792839168808 -2.4838605271646843 0 -2.4838605271646843 -0.7754531148669479 0 0 0 0 68.042463063327887 -6.9826953148170787 0 -6.9826953148170787 -17.882328144359349 0 0 0 0 37.901657847683964 -3.4256794119060032 0 -3.4256794119060032 1.319527860662447 0 0 0 0 56.618240620968209 -23.72154004125872 0 -23.72154004125872 -13.14761035446304 0 0 0 0 42.535155972760748 -6.2247810773431915 0 -6.2247810773431915 -3.1923573722843428 0 0 0 0 42.957731918300851 -7.8558642527577831 0 -7.8558642527577831 -21.803621523016574 0 0 0 0 46.275495585803412 -6.977724886183859 0 -6.977724886183859 -0.36490520860072673 0 0 0 0 55.295478115815058 -23.203010550924887 0 -23.203010550924887 -8.0671795453733921 0 0 0 0 64.652206223206576 -38.87333671874346 0 -38.87333671874346 -21.504414597484356 0 0 0 0 41.27154377742788 -20.196630686851687 0 -20.196630686851687 0.61374534040639617 0 0 0 0 9.7029757052973622 -41.969864007351518 0 -41.969864007351518 5.4208561226275753 0 0 0 0 45.137536598245788 -36.050129057175127 0 -36.050129057175127 -36.734661896529587 0 0 0 0 91.609609117695072 -78.348806972785226 0 -78.348806972785226 -62.005571585209623 0 0 0 0 76.867015665950021 -61.569961659369838 0 -61.569961659369838 -8.4733447983638612 0 0 0 0 134.41916187172683 23.458601571684952 0 23.458601571684952 -45.47894972220098 0 0 0 0 101.97170530891162 -10.028114365374137 0 -10.028114365374137 -78.334189025549833 0 0 0 0 147.28489178092605 -25.989839922439387 0 -25.989839922439387 -17.156855077621003 0 0 0 0 117.55474969884654 -4.0580671241640118 0 -4.0580671241640118 -41.151884306764259 0 0 0 0 148.26589973538285 -25.045002013306231 0 -25.045002013306231 -29.990690528436289 0 0 0 0 196.14904388500145 -30.977591139467677 0 -30.977591139467677 -36.641114815270612 0 0 0 0 127.04495602354291 -49.382962787872771 0 -49.382962787872771 -35.911321414723261 0 0 0 0 -143.85834553516906 -323.9291743483484 0 -323.9291743483484 91.155329065171827 0 0 0 0 3.2415799636695937 -2.7198141509238951 0 -2.7198141509238951 -1.5928690052391268 0 0 0 0 -164.92928762926203 -88.76855778285514 0 -88.76855778285514 23.693419274439293 0 0 0 0 -31.919172447785968 -100.67591214798767 0 -100.67591214798767 -20.143667996882414 0 0 0 0 58.792896659477265 -56.196709260978196 0 -56.196709260978196 -230.14440187457603 0 0 0 0 73.07360870292905 -154.23620635395878 0 -154.23620635395878 1.7125393597621041 0 0 0 0 -4.2742634932115919 -8.146774163973646 0 -8.146774163973646 -5.0451732428997103 0 0 0 0 85.483452989490615 -101.16551266881299 0 -101.16551266881299 -1.7361879816007786 0 0 0 0 61.400161170022329 -98.087451154947644 0 -98.087451154947644 171.38823004053347 0 0 0 0 -79.783373902453604 -30.147851372130162 0 -30.147851372130162 -47.34795455406811 0 0 0 0 1.4955009878477057 -1.8411219156418497 0 -1.8411219156418497 -3.3177133119143489 0 0 0 0 -87.688763017064048 -122.05362108890375 0 -122.05362108890375 258.52602942194471 0 0 0 0 -111.69270438977401 191.29720931511019 0 191.29720931511019 -229.92387071409314 0 0 0 0 0.47562895059701304 -2.1344333262527666 0 -2.1344333262527666 -1.5423640893890946 0 0 0 0 -175.90033707192561 -28.477813237941575 0 -28.477813237941575 16.34627920896537 0 0 0 0 44.112983470982726 146.08642339027651 0 146.08642339027651 -257.02882734156788 0 0 0 0 1.55266488339376 -1.2402696265092814 0 -1.2402696265092814 0.48098862394288666 0 0 0 0 20.311499428848037 -92.929212904820588 0 -92.929212904820588 -140.59129367385111 0 0 0 0 79.584430246610282 -153.14596170320243 0 -153.14596170320243 -142.76044753983143 0 0 0 0 17.277053620826337 -16.50362149655669 0 -16.50362149655669 -15.348451591894857 0 0 0 0 10.686606299152288 -4.2007194286309684 0 -4.2007194286309684 -1.0721030907832669 0 0 0 0 55.607502882252447 87.967332175381017 0 87.967332175381017 -144.06793072620763 0 0 0 0 25.378875391812471 -12.010540315619693 0 -12.010540315619693 -12.859727908609841 0 0 0 0 18.239066877053119 -4.7905236108166207 0 -4.7905236108166207 -2.3366110222081033 0 0 0 0 21.247263056195152 -2.7306079474569174 0 -2.7306079474569174 -3.3108723668860875 0 0 0 0 -1.2712198256740521 -8.8849392199600103 0 -8.8849392199600103 -4.7913220006172423 0 0 0 0 52.126718347528367 -5.393977332453602 0 -5.393977332453602 -4.7308889061978192 0 0 0 0 10.406898147913992 -10.268489286901897 0 -10.268489286901897 -4.9488729175940209 0 0 0 0 31.559186502867817 -3.0426890329593164 0 -3.0426890329593164 -5.660001136707276 0 0 0 0 73.370397850798327 1.4497303403791193 0 1.4497303403791193 -10.150748965413641 0 0 0 0 51.268963650902151 14.005948998846634 0 14.005948998846634 -18.158977505160692 0 0 0 0 74.274584617382658 -6.5331902752286419 0 -6.5331902752286419 -1.3305930125112353 0 0 0 0 90.810758038598578 -16.429662724908894 0 -16.429662724908894 -11.496759298635112 0 0 0 0 103.73510466629523 -8.5085937840613042 0 -8.5085937840613042 -37.929804362896959 0 0 0 0 88.645437866451175 -5.9697755618908843 0 -5.9697755618908843 -54.231943614951433 0 0 0 0 137.88782038801219 -29.875363058229993 0 -29.875363058229993 -47.821352160591687 0 0 0 0 101.78388805688883 -68.305662596869524 0 -68.305662596869524 28.272621353708701 0 0 0 0 105.94064585695651 -48.727816096553966 0 -48.727816096553966 -150.55032654478555 0 0 0 0 -268.85508600550384 -42.481260393207776 0 -42.481260393207776 -56.884973689595654 0 0 0 0 36.562027609825236 -89.369399160458471 0 -89.369399160458471 -134.55459603207601 0 0 0 0 16.404236559596029 -13.189199223794276 0 -13.189199223794276 -40.378605761078688 0 0 0 0 69.125736503374355 -21.755786735708853 0 -21.755786735708853 -14.769556249391286 0 0 0 0 40.291908789229637 2.3398317753528772 0 2.3398317753528772 -3.0121395812425362 0 0 0 0 69.989517509376213 -4.8796365745460122 0 -4.8796365745460122 -1.0008270038752929 0 0 0 0 115.57391022899537 7.2063458756981618 0 7.2063458756981618 -90.234648514151559 0 0 0 0 75.806767049577218 -14.033268561229638 0 -14.033268561229638 -1.0488659773778237 0 0 0 0 61.369901134239626 -111.24157166391433 0 -111.24157166391433 -145.98185404506216 0 0 0 0 22.640917721768744 -3.3728738672194396 0 -3.3728738672194396 0.40711282401604532 0 0 0 0 -115.73708372359397 -156.50812807276407 0 -156.50812807276407 -130.61540316916376 0 0 0 0 45.692374696853221 -206.79205976953699 0 -206.79205976953699 -216.14551477550594 0 0 0 0 -265.15907981171881 -337.74329000431692 0 -337.74329000431692 -155.70747792886232 0 0 0 0 1.335485528539877 -1.2485897957346168 0 -1.2485897957346168 -0.14729098473044022 0 0 0 0 509.81907298028818 83.771635416168692 0 83.771635416168692 -80.720438987863645 0 0 0 0 93.350375020756474 -35.708537742499203 0 -35.708537742499203 7.6111601543077825 0 0 0 0 86.508434870003839 -101.82498086259284 0 -101.82498086259284 24.114852612822233 0 0 0 0 80.642649762190558 -33.191298817502798 0 -33.191298817502798 31.039425530434528 0 0 0 0 83.923485026818526 -17.76422907297956 0 -17.76422907297956 102.42778088184059 0 0 0 0 123.93406306211546 35.828341537380311 0 35.828341537380311 44.809102874440214 0 0 0 0 133.27576917652186 -7.6904066249262542 0 -7.6904066249262542 -61.051928858286374 0 0 0 0 21.961301165898551 5.094696840062376 0 5.094696840062376 -11.809627410557038 0 0 0 0 75.904456035310432 9.2950406216193642 0 9.2950406216193642 -7.540515129871892 0 0 0 0 119.98549413627916 19.055987583476281 0 19.055987583476281 -8.8318747673356484 0 0 0 0 81.017978065625357 -10.259502051546406 0 -10.259502051546406 -4.0677128633287793 0 0 0 0 74.334456677188427 -9.3852191394752253 0 -9.3852191394752253 -3.4975007689181439 0 0 0 0 79.987809550075326 1.2208569737824746 0 1.2208569737824746 1.3864566599700083 0 0 0 0 71.853289269034576 -1.7464620002253923 0 -1.7464620002253923 5.7461502469650441 0 0 0 0 2.1973023716553541 10.227310983019542 0 10.227310983019542 -3.9473847140862626 0 0 0 0 91.854964599660889 -2.6454270777682041 0 -2.6454270777682041 -1.1402737279066173 0 0 0 0 101.28227149565282 5.5972571288986614 0 5.5972571288986614 3.1282685112792024 0 0 0 0 91.779498863215849 6.9315254312420507 0 6.9315254312420507 13.039800833851075 0 0 0 0 111.32701595123217 -28.365600367674233 0 -28.365600367674233 11.180590953409933 0 0 0 0 76.291193102352736 6.2818304594744632 0 6.2818304594744632 -13.941839592329416 0 0 0 0 77.423028211409473 7.084111382173802 0 7.084111382173802 17.265587885875902 0 0 0 0 3.7539207290084278 -5.0778891990620565 0 -5.0778891990620565 -0.53681918418677199 0 0 0 0 49.409661593119381 36.423512182273043 0 36.423512182273043 34.395295695665936 0 0 0 0 134.83386661157419 37.39111904548372 0 37.39111904548372 -7.9114035569846237 0 0 0 0 75.845571174751967 9.2168338343062715 0 9.2168338343062715 -17.667005305597741 0 0 0 0 75.570991727188812 -1.0369743674064011 0 -1.0369743674064011 -1.2445860338275452 0 0 0 0 14.454993923880629 5.14019366539533 0 5.14019366539533 -3.8753688335921765 0 0 0 0 81.205230820385623 -1.556612672153733 0 -1.556612672153733 -5.5822276489834621 0 0 0 0 17.602188772085356 3.8309325727777832 0 3.8309325727777832 22.567614693958603 0 0 0 0 78.718360451835906 -4.776108901122825 0 -4.776108901122825 -7.2154240414765809 0 0 0 0 101.94476059576118 -15.101416559336201 0 -15.101416559336201 6.6357292659076279 0 0 0 0 6.9868628911028452 3.1279950347832717 0 3.1279950347832717 0.23970392523804884 0 0 0 0 76.267770704065697 74.784423707103372 0 74.784423707103372 16.095243571536685 0 0 0 0 16.794121949399852 -16.475946137253871 0 -16.475946137253871 1.6581702751212104 0 0 0 0 158.2510167221626 -110.06021198328835 0 -110.06021198328835 242.0124538517739 0 0 0 0 51.457352580137012 35.872453864043194 0 35.872453864043194 -12.998708008894596 0 0 0 0 93.239532560295629 -99.260742529260483 0 -99.260742529260483 73.438595948774491 0 0 0 0 370.86985595381702 -111.00625442354294 0 -111.00625442354294 -243.97811700955845 0 0 0 0 71.574076941302337 36.707266068701415 0 36.707266068701415 -86.220799974973716 0 0 0 0 43.177672146321129 0.83744672102309892 0 0.83744672102309892 22.608839665816902 0 0 0 0 107.65203274654777 15.168939425242002 0 15.168939425242002 21.64179709109743 0 0 0 0 103.52087437222508 3.717276967148706 0 3.717276967148706 16.682227153750304 0 0 0 0 10.952825995641945 -19.143250125566119 0 -19.143250125566119 4.8179736705469667 0 0 0 0 114.97405356973468 15.364279261534406 0 15.364279261534406 3.1057680157836103 0 0 0 0 127.54008715964665 -29.020093619328691 0 -29.020093619328691 24.452108340637096 0 0 0 0 82.098657478571113 -7.2531828567246635 0 -7.2531828567246635 2.8031704641196029 0 0 0 0 2.5500390041980872 10.955040592021533 0 10.955040592021533 2.0787784176978734 0 0 0 0 105.6833028724941 -0.6859951748596167 0 -0.6859951748596167 1.4711196553956256 0 0 0 0 73.533646265350399 3.7792356649406713 0 3.7792356649406713 5.5234753487709227 0 0 0 0 108.41295330733556 10.062027621968355 0 10.062027621968355 14.962926135473936 0 0 0 0 114.53772348837811 -7.8710301635892392 0 -7.8710301635892392 34.158996356030002 0 0 0 0 91.353815120608488 -32.143390992738205 0 -32.143390992738205 33.304383930793847 0 0 0 0 19.183862540541291 10.7130302215147 0 10.7130302215147 8.6189613788565183 0 0 0 0 7.3969079786869436 3.4054291565357389 0 3.4054291565357389 -1.1473104479503817 0 0 0 0 189.34374396894418 -44.474415127687166 0 -44.474415127687166 -22.222149475059268 0 0 0 0 208.78887823905188 312.73268451025251 0 312.73268451025251 -540.52745160565348 0 0 0 0 1831.2151113028667 -519.27242886530075 0 -519.27242886530075 -225.47279237525913 0 0 0 0 115.02639483368694 -50.347061876266707 0 -50.347061876266707 -37.190101113303626 0 0 0 0 111.23377543378774 3.7842726287189663 0 3.7842726287189663 -17.33167040747685 0 0 0 0 56.696726553020994 27.666361179094373 0 27.666361179094373 -22.142613198318475 0 0 0 0 29.031275366565453 -49.203110845145368 0 -49.203110845145368 0.96782508929709365 0 0 0 0 37.411907504416376 -0.45304738818413171 0 -0.45304738818413171 -21.4604984580468 0 0 0 0 7.7532595142855243 -6.7421282735003167 0 -6.7421282735003167 -1.6034646739355534 0 0 0 0 29.407882278865145 -24.199133181561251 0 -24.199133181561251 13.1069621436435 0 0 0 0 138.13007282821309 -99.305377772425174 0 -99.305377772425174 60.808199694026484 0 0 0 0 0.0098620038604906313 1.4537982194843782 0 1.4537982194843782 1.155754906909122 0 0 0 0 91.419750687420546 -26.129926880453308 0 -26.129926880453308 -29.980204342489515 0 0 0 0 40.654181982252339 8.7304825061316933 0 8.7304825061316933 2.6269876610846836 0 0 0 0 36.890140693030283 -18.85117047177318 0 -18.85117047177318 -2.5586633968257373 0 0 0 0 54.327877388896013 -1.2447093196099104 0 -1.2447093196099104 1.0226734129896329 0 0 0 0 41.896476366437128 -18.227839422253282 0 -18.227839422253282 -1.8625376748527742 0 0 0 0 39.781663112975295 -8.5281311870415379 0 -8.5281311870415379 -1.4117806245949756 0 0 0 0 72.244098215393024 -7.0902662887056067 0 -7.0902662887056067 -7.7503576572671591 0 0 0 0 68.894198007066734 -3.2876063032417733 0 -3.2876063032417733 -1.9989230443688939 0 0 0 0 64.904288558594999 -6.3552255751465054 0 -6.3552255751465054 -2.7122270940435556 0 0 0 0 64.634014156092235 -5.1843559532758832 0 -5.1843559532758832 -5.4655029682517124 0 0 0 0 61.070616324490402 -9.0850611107148325 0 -9.0850611107148325 -1.5783316223109978 0 0 0 0 48.959131751963071 5.9598098495931531 0 5.9598098495931531 -1.4345220272194825 0 0 0 0 65.427218364769942 -4.2764375952392584 0 -4.2764375952392584 1.7465826258737707 0 0 0 0 23.125677494586853 -8.8864586909453465 0 -8.8864586909453465 82.483289216924732 0 0 0 0 23.607152826089077 -5.8439097968359874 0 -5.8439097968359874 -5.6774976843078093 0 0 0 0 19.065909514620429 -5.2685938584399992 0 -5.2685938584399992 -0.70318158693539434 0 0 0 0 41.015768074328662 1.9088083524914055 0 1.9088083524914055 -18.116968592157605 0 0 0 0 5.3570746420737123 -36.620770221729572 0 -36.620770221729572 13.4739991849803 0 0 0 0 39.641202481153982 -29.926030077544965 0 -29.926030077544965 -2.6877084802797526 0 0 0 0 27.043804775270289 -13.377947522173178 0 -13.377947522173178 -1.1148574232078956 0 0 0 0 95.889600469664401 -18.233684244711696 0 -18.233684244711696 -21.25188736615064 0 0 0 0 23.175994944271224 -15.982313054182214 0 -15.982313054182214 -5.6973725950290373 0 0 0 0 23.656253722520319 -37.24291961838582 0 -37.24291961838582 48.259705434718171 0 0 0 0 26.289452420567841 -17.088538669805146 0 -17.088538669805146 2.0695841237715307 0 0 0 0 54.405878266385116 2.1433717922674305 0 2.1433717922674305 4.5241170600577334 0 0 0 0 39.573489295962645 -23.673061262179289 0 -23.673061262179289 -16.571911957080331 0 0 0 0 71.290747627652308 -10.382834348855567 0 -10.382834348855567 0.33828544324524046 0 0 0 0 21.528472295810616 17.947630214236014 0 17.947630214236014 54.654175481356333 0 0 0 0 35.983158421434155 45.110588850026957 0 45.110588850026957 27.705837370302106 0 0 0 0 23.382085999375704 8.9412931959234356 0 8.9412931959234356 69.765227271656386 0 0 0 0 6.7893333402447951 -4.7870749268676942 0 -4.7870749268676942 -1.7692183103332537 0 0 0 0 91.15015058247991 -6.490894615663592 0 -6.490894615663592 -10.460943179801461 0 0 0 0 52.979398600431523 50.75134398346745 0 50.75134398346745 14.316859726838402 0 0 0 0 5.0313092313665351 2.9835169461743645 0 2.9835169461743645 -0.46451286126963343 0 0 0 0 62.817478985811249 -32.587827528507432 0 -32.587827528507432 11.557929759983722 0 0 0 0 31.089283749012793 -7.176537225722484 0 -7.176537225722484 57.720723851578441 0 0 0 0 43.217018123406433 72.030511802451969 0 72.030511802451969 40.06032141619221 0 0 0 0 137.26404726679721 30.59316963231197 0 30.59316963231197 39.402429843773234 0 0 0 0 59.423030493519036 -8.84641813510666 0 -8.84641813510666 38.475776866567003 0 0 0 0 73.193510151018927 8.8388022799623513 0 8.8388022799623513 -13.209296000256245 0 0 0 0 34.726935223314285 -52.859607393152032 0 -52.859607393152032 13.376261833889345 0 0 0 0 60.335427378462555 -5.6098820876527498 0 -5.6098820876527498 3.1706723266133849 0 0 0 0 44.575041094685382 -16.502668919174262 0 -16.502668919174262 4.7217906761230246 0 0 0 0 57.138591443102086 -5.4826469245115277 0 -5.4826469245115277 24.103877566623851 0 0 0 0 34.478293843651045 -15.685792096318664 0 -15.685792096318664 20.748599470495378 0 0 0 0 42.867070544431044 -23.909294335102231 0 -23.909294335102231 37.993270963032046 0 0 0 0 10.945142518285024 -6.0354239968357284 0 -6.0354239968357284 1.497330528855179 0 0 0 0 45.528110491793996 3.5531515041624289 0 3.5531515041624289 23.025349553431397 0 0 0 0 30.522077247564084 19.32558134855617 0 19.32558134855617 105.10536660323623 0 0 0 0 73.882138581252548 -53.441672275095868 0 -53.441672275095868 53.946710001829842 0 0 0 0 164.32285526770647 21.202262806358306 0 21.202262806358306 -17.162254455820175 0 0 0 0 39.696944760573388 13.354844639526561 0 13.354844639526561 9.0904255628661303 0 0 0 0 56.335447686171392 -2.115866959093637 0 -2.115866959093637 1.9187833623153665 0 0 0 0 64.145744319310324 18.772713500065038 0 18.772713500065038 9.9359575636005957 0 0 0 0 56.66309454443217 9.0238646395452804 0 9.0238646395452804 -2.7623346822679196 0 0 0 0 55.33169894369712 14.035025734048986 0 14.035025734048986 5.8730198568479182 0 0 0 0 56.64733548784352 -7.4334338250682777 0 -7.4334338250682777 58.122791181795833 0 0 0 0 56.576098810728581 14.495306977407154 0 14.495306977407154 -0.96359230952350572 0 0 0 0 77.602240662628901 11.55438358921765 0 11.55438358921765 -12.29206583918068 0 0 0 0 16.972844653952052 12.79078192695863 0 12.79078192695863 18.090575652639416 0 0 0 0 0.055468964460756887 0.062890030369977978 0 0.062890030369977978 -0.36686509267522682 0 0 0 0 91.110763673228945 3.3215604716584668 0 3.3215604716584668 -8.1211498017255508 0 0 0 0 -44.421481932748065 -300.09788855607184 0 -300.09788855607184 53.516092045842356 0 0 0 0 7.4938154400156556 -9.7461440867771003 0 -9.7461440867771003 9.9510246134502012 0 0 0 0 2207.0127626140675 132.22971415169559 0 132.22971415169559 -824.46729947892891 0 0 0 0 121.16351490926536 -129.85829366600933 0 -129.85829366600933 145.03194065044204 0 0 0 0 -48.644681031708387 -14.310601479900356 0 -14.310601479900356 69.736080928715637 0 0 0 0 2174.5852739771108 -1276.3131865845203 0 -1276.3131865845203 -746.71279650037104 0 0 0 0 1136.6218634394054 -615.17046472319623 0 -615.17046472319623 -391.00385433735482 0 0 0 0 966.80999816560143 -555.53523621243858 0 -555.53523621243858 114.81727318417961 0 0 0 0 339.18608504880831 569.90691048395593 0 569.90691048395593 -128.57462166506275 0 0 0 0 2181.5986734661637 919.0664825316245 0 919.0664825316245 -220.55443419956987 0 0 0 0 375.33309806894067 -7.8307070336064726 0 -7.8307070336064726 91.969746167584162 0 0 0 0 112.84195773190731 11.091370459616883 0 11.091370459616883 68.307740299602983 0 0 0 0 80.253664137220767 -50.253340138853332 0 -50.253340138853332 127.04472625150117 0 0 0 0 82.914947265278897 -23.371745922506648 0 -23.371745922506648 33.544913492980754 0 0 0 0 81.926034504980635 -15.974783068372744 0 -15.974783068372744 46.430100112221908 0 0 0 0 66.783260636049818 23.098504355745945 0 23.098504355745945 11.090137581859835 0 0 0 0 39.406084711641597 30.390584207702659 0 30.390584207702659 22.195244271711545 0 0 0 0 69.669736428226315 1.0313819994613596 0 1.0313819994613596 -21.648161478541851 0 0 0 0 59.268638011573785 -10.122547357646908 0 -10.122547357646908 -21.540288321734351 0 0 0 0 53.939961557669449 -2.7905646884723865 0 -2.7905646884723865 -13.313492122434127 0 0 0 0 59.614271047401417 -12.745119398937419 0 -12.745119398937419 -80.37535115408582 0 0 0 0 759.44550864504708 903.7177567985982 0 903.7177567985982 -101.42782673753936 0 0 0 0 44.31483998917065 39.437914439490669 0 39.437914439490669 -44.560692407724446 0 0 0 0 1374.3490330661152 422.9875659778445 0 422.9875659778445 -567.12066294591204 0 0 0 0 791.95532636446296 781.98488666982485 0 781.98488666982485 176.92454654892208 0 0 0 0 1070.6285103753544 637.10032997445887 0 637.10032997445887 -635.05940155978715 0 0 0 0 1166.8709970336186 382.73917296516902 0 382.73917296516902 -11.990671028092038 0 0 0 0 1973.9145468976917 -973.3724647133032 0 -973.3724647133032 112.14357984395974 0 0 0 0 13.544932443831167 -19.369510229618143 0 -19.369510229618143 32.108747810890236 0 0 0 0 1535.2839632984537 -93.449874323338918 0 -93.449874323338918 -251.1067093730635 0 0 0 0 -661.45693005560861 -226.52392121589946 0 -226.52392121589946 -5.375526196527062 0 0 0 0 233.63109560184648 -2122.431560666786 0 -2122.431560666786 2408.8814403463766 0 0 0 0 2153.723662736018 -319.04765261524517 0 -319.04765261524517 -1880.8934874465776 0 0 0 0 -2533.1514214535746 1058.0473775793507 0 1058.0473775793507 -542.65334738605088 0 0 0 0 98.509545082608383 659.54286586345006 0 659.54286586345006 -517.4502085457417 0 0 0 0 743.450659783226 -377.06131914779689 0 -377.06131914779689 1094.1959095058737 0 0 0 0 16.224312359336182 -53.368496673245318 0 -53.368496673245318 -31.354621342259748 0 0 0 0 29.320499495736762 -11.292513095281471 0 -11.292513095281471 13.874931492393248 0 0 0 0 40.060096494240042 -14.325219283032368 0 -14.325219283032368 27.067020310379348 0 0 0 0 27.575137035324587 -27.487537529073393 0 -27.487537529073393 18.754769446468117 0 0 0 0 -9.7058802258437495 0.13647513413730294 0 0.13647513413730294 12.607997634790038 0 0 0 0 39.764904978987033 0.014392346409294987 0 0.014392346409294987 13.262105456410609 0 0 0 0 12.656885344498544 6.1205905640841927 0 6.1205905640841927 20.990851822256197 0 0 0 0 124.27128116070162 17.230857526285035 0 17.230857526285035 -94.358113743428476 0 0 0 0 -630.23399388317284 -84.654548196545875 0 -84.654548196545875 401.11823469291994 0 0 0 0 37.638826524726738 -3.7553698868661485 0 -3.7553698868661485 14.440640969704035 0 0 0 0 1308.9029808652467 -251.16976840031498 0 -251.16976840031498 -102.45846066477861 0 0 0 0 771.16408947588025 601.0380970978913 0 601.0380970978913 -25.928740979892609 0 0 0 0 185.43463581551259 -162.90537923524948 0 -162.90537923524948 143.477121093817 0 0 0 0 478.81095635469717 -516.46582126126668 0 -516.46582126126668 453.7800420978474 0 0 0 0 5.5057639378018468 -10.424478975916017 0 -10.424478975916017 -39.877447838029703 0 0 0 0 115.72034087471866 124.97149852654252 0 124.97149852654252 59.875472418530364 0 0 0 0 30.514458409593431 3.859029805629326 0 3.859029805629326 -11.280601569100101 0 0 0 0 308.98758817902853 66.575517990489857 0 66.575517990489857 -574.247125427431 0 0 0 0 30.067705700549368 -2.0210562114940558 0 -2.0210562114940558 -72.902816928643688 0 0 0 0 25.269103736923 -7.2657446472660734 0 -7.2657446472660734 -11.085155122504421 0 0 0 0 255.44840710040376 -19.64906222522302 0 -19.64906222522302 -183.28377519665048 0 0 0 0 11.339444272558467 -10.790273179873111 0 -10.790273179873111 -66.24074456886683 0 0 0 0 46.666528933032168 54.267434427623812 0 54.267434427623812 35.638345251316878 0 0 0 0 9.8781665056443071 -4.0204113433209052 0 -4.0204113433209052 -12.079052069839744 0 0 0 0 20.677512062617076 4.1264114219553036 0 4.1264114219553036 -10.972095465860178 0 0 0 0 794.6024966682744 520.03122311626794 0 520.03122311626794 413.3652480420601 0 0 0 0 32.252057416393349 -9.142567921802307 0 -9.142567921802307 -35.742950206998863 0 0 0 0 3493.7393786536018 1210.3279673416428 0 1210.3279673416428 -312.3662132260601 0 0 0 0 252.83612301031053 -152.23869142017043 0 -152.23869142017043 138.8325398718174 0 0 0 0 99.512436820993116 99.805399204335515 0 99.805399204335515 315.18215842251152 0 0 0 0 27.228604419942712 6.545415349744701 0 6.545415349744701 -98.849183316447125 0 0 0 0 11.924864830094176 7.3711630213691652 0 7.3711630213691652 0.54642415941373246 0 0 0 0 12.767321081900679 -8.5975577530610483 0 -8.5975577530610483 0.8794276599293549 0 0 0 0 1336.5527673821275 1573.1899100386031 0 1573.1899100386031 1288.6590373724212 0 0 0 0 1635.7638396008188 -1747.9719350509367 0 -1747.9719350509367 1352.1148621730458 0 0 0 0 2222.7886208325117 -847.55130345044927 0 -847.55130345044927 -537.88280605017974 0 0 0 0 3493.6614105058406 -1558.7802096337521 0 -1558.7802096337521 -254.04366261629505 0 0 0 0 1853.6721010637702 -1088.3742779320517 0 -1088.3742779320517 104.98627148496826 0 0 0 0 -18.13523300293491 -427.84899759366385 0 -427.84899759366385 463.69122145345074 0 0 0 0 400.12183840382113 212.14297963261879 0 212.14297963261879 -402.07707279455326 0 0 0 0 660.61529771395908 -301.41711899612989 0 -301.41711899612989 -110.33798554651401 0 0 0 0 1568.853169626007 -491.09525814088943 0 -491.09525814088943 -191.41544515698988 0 0 0 0 1869.9459117981987 -284.53972820311179 0 -284.53972820311179 -373.98209761830128 0 0 0 0 3500.5466682234137 -516.31981018938745 0 -516.31981018938745 -846.23432307468227 0 0 0 0 2566.4148715356823 -852.44488180529015 0 -852.44488180529015 -542.24852703989347 0 0 0 0 -374.15719324387896 562.76763650263752 0 562.76763650263752 -198.32616611425328 0 0 0 0 716.47688349010605 262.76813875868129 0 262.76813875868129 121.56857318878508 0 0 0 0 3.8778403189558261 -10.999788521242976 0 -10.999788521242976 -22.710838922354718 0 0 0 0 741.2609385420019 -46.290982332438944 0 -46.290982332438944 -185.63795562561018 0 0 0 0 -384.28409540788198 220.80196466057652 0 220.80196466057652 2.8814913251499092 0 0 0 0 -15.734992320005404 -86.639312623029411 0 -86.639312623029411 -309.93963628263822 0 0 0 0 86.961144790850085 109.91053215977655 0 109.91053215977655 65.501977305358935 0 0 0 0 744.12713739909304 -211.37098076631787 0 -211.37098076631787 -119.53732122170243 0 0 0 0 342.11041799925988 230.66135780746862 0 230.66135780746862 -417.8536675725195 0 0 0 0 287.02541033143643 114.70626298045187 0 114.70626298045187 -62.606764345055353 0 0 0 0 814.68533181298517 -8.4350864606749383 0 -8.4350864606749383 -91.551969460299688 0 0 0 0 524.18056138213069 203.53279995981768 0 203.53279995981768 -175.53201622208189 0 0 0 0 662.0328570398342 -151.33336065264939 0 -151.33336065264939 -155.04139638821647 0 0 0 0 125.55121067705159 295.53883355628818 0 295.53883355628818 -206.5982807106966 0 0 0 0 170.93934677661673 -4.0093527635519877 0 -4.0093527635519877 -181.16441234668883 0 0 0 0 162.11487419959303 79.468811367850435 0 79.468811367850435 -96.479682352895452 0 0 0 0 -18.491247179270431 -33.741865578313764 0 -33.741865578313764 -912.34682263778063 0 0 0 0 -191.81310158734414 1712.6217622689931 0 1712.6217622689931 571.52888669331207 0 0 0 0 -1388.6807007099706 181.16577747863721 0 181.16577747863721 364.72239623420501 0 0 0 0 269.585930551606 697.52185979103297 0 697.52185979103297 406.49892930639049 0 0 0 0 270.69749463881635 358.64235839462822 0 358.64235839462822 82.590612902110706 0 0 0 0 267.81019592896064 352.15385679439765 0 352.15385679439765 186.54020882041732 0 0 0 0 -157.27739303907219 363.05077036781097 0 363.05077036781097 210.19241452077699 0 0 0 0 363.49106259318432 216.78493948904679 0 216.78493948904679 174.83866704508566 0 0 0 0 184.84895149154909 295.13918484480155 0 295.13918484480155 175.80211982369019 0 0 0 0 217.09672334409333 101.89106499675501 0 101.89106499675501 60.929687729123316 0 0 0 0 571.74880182950074 118.62891623052042 0 118.62891623052042 42.589942106029525 0 0 0 0 1247.8090920734412 -167.45315247813386 0 -167.45315247813386 -106.73858917655434 0 0 0 0 867.17296613891813 93.142309449359175 0 93.142309449359175 76.578344912485591 0 0 0 0 629.71929676648142 185.82097233065429 0 185.82097233065429 77.921648520598865 0 0 0 0 520.97999548206826 345.90045543876221 0 345.90045543876221 207.38728833970811 0 0 0 0 1296.9077513608026 417.42791968722958 0 417.42791968722958 63.038573703850489 0 0 0 0 1011.4033954740917 292.98613906970616 0 292.98613906970616 140.16862018014248 0 0 0 0 832.50951567803349 478.1116870752092 0 478.1116870752092 284.2783404203791 0 0 0 0 351.11793129339094 283.89431380136438 0 283.89431380136438 234.80413975926527 0 0 0 0 451.53728621397022 176.75201681607356 0 176.75201681607356 233.14475340974283 0 0 0 0 183.74234762207561 102.0673740364054 0 102.0673740364054 124.08321357744421 0 0 0 0 269.62387127254442 312.44722636792585 0 312.44722636792585 110.91319182947848 0 0 0 0 2572.3065932530535 -204.00922341862088 0 -204.00922341862088 -659.09400088996347 0 0 0 0 2317.3787936799217 -412.89758776557812 0 -412.89758776557812 -389.04696071705985 0 0 0 0 1613.0833801853587 73.988085475522212 0 73.988085475522212 -230.42657073391692 0 0 0 0 1786.1730958271401 11.828231982700402 0 11.828231982700402 -219.50914931151084 0 0 0 0 2172.5072975795883 269.884725713168 0 269.884725713168 -126.8987912537626 0 0 0 0 2392.4949234810647 445.71958847491459 0 445.71958847491459 -219.41589743630982 0 0 0 0 3499.4991070860469 246.75160493856475 0 246.75160493856475 -506.25975466869068 0 0 0 0 2890.6218623733912 -159.00394287243211 0 -159.00394287243211 -655.56952812520342 0 0 0 0 4212.5866194464179 -114.83034160918544 0 -114.83034160918544 -152.86926158850093 0 0 0 0 2994.9061899003245 62.545501998525552 0 62.545501998525552 26.129687101490731 0 0 0 0 2373.5533037961941 568.39466774311472 0 568.39466774311472 113.57982769862645 0 0 0 0 3079.9459717914688 665.03255227026386 0 665.03255227026386 -176.25744653858379 0 0 0 0 1011.9111984747615 603.15493568169722 0 603.15493568169722 333.29122126314138 0 0 0 0 1902.867331143857 741.21157456348681 0 741.21157456348681 131.66058658089622 0 0 0 0 2351.2742918092881 1179.3974053709569 0 1179.3974053709569 363.12028084457586 0 0 0 0 3913.4272003529586 1060.8934363508765 0 1060.8934363508765 23.048494480989802 0 0 0 0 1611.1957324022951 -1123.8817439768745 0 -1123.8817439768745 1025.8384336013751 0 0 0 0 28.176288302886718 -0.96914154420170462 0 -0.96914154420170462 1.4388353380437295 0 0 0 0 2067.2358780506984 1397.3294841175316 0 1397.3294841175316 927.99455061920128 0 0 0 0 3499.9514412702047 28.967278600916753 0 28.967278600916753 2064.883177680671 0 0 0 0 138.19538085284967 -30.572555565193753 0 -30.572555565193753 -24.679121014022826 0 0 0 0 335.81498045748776 252.60743363035925 0 252.60743363035925 307.35274597030354 0 0 0 0 81.977383534193905 61.691317307699983 0 61.691317307699983 295.16734527545373 0 0 0 0 326.06796520845819 248.0947168209093 0 248.0947168209093 361.01867407197676 0 0 0 0 999.30326298189175 629.08941282001774 0 629.08941282001774 356.05714189821731 0 0 0 0 -123.98413685250853 -350.73542954238428 0 -350.73542954238428 133.9881952885512 0 0 0 0 403.4688321325084 918.1988114661342 0 918.1988114661342 853.92450808403669 0 0 0 0 -344.91647146884861 306.13554643975021 0 306.13554643975021 875.915626593806 0 0 0 0 39.57516150138872 173.45381679571403 0 173.45381679571403 -147.28077626170398 0 0 0 0 184.88082787549683 -189.285213330533 0 -189.285213330533 -415.65361590037901 0 0 0 0 66.073511952972908 -7.4558890605920913 0 -7.4558890605920913 -0.30718702406229548 0 0 0 0 6.5756210269498041 4.6643602331831531 0 4.6643602331831531 -0.46736881242229256 0 0 0 0 48.658904028203565 -10.230680708735552 0 -10.230680708735552 -1.9917412983703757 0 0 0 0 -32.036410166006164 -123.51608532142765 0 -123.51608532142765 -21.462510827743472 0 0 0 0 -30.74030967975159 -47.365217802057998 0 -47.365217802057998 27.972147648696819 0 0 0 0 -67.875873975073773 -25.156956600060312 0 -25.156956600060312 20.549109830284095 0 0 0 0 79.480189509460615 -42.353517667387194 0 -42.353517667387194 -67.522299869794381 0 0 0 0 10.631946763109536 -5.3758611149601983 0 -5.3758611149601983 -1.9394332835085277 0 0 0 0 26.041329011604446 -20.914697074392905 0 -20.914697074392905 -9.185550658408145 0 0 0 0 33.367181395783675 -11.508006870277272 0 -11.508006870277272 -0.85627673400644233 0 0 0 0 40.205100984392629 -12.554766955951891 0 -12.554766955951891 -19.367595410388731 0 0 0 0 58.709104063556879 -35.737864318720085 0 -35.737864318720085 13.37619802862946 0 0 0 0 -1.627369310755526 -20.590604512108811 0 -20.590604512108811 0.30979795786189818 0 0 0 0 10.608615492017876 -12.021622843939753 0 -12.021622843939753 -8.8139822251712303 0 0 0 0 41.306329765713599 -31.048091904345824 0 -31.048091904345824 10.054167397600395 0 0 0 0 23.178463066105905 -18.003974698458478 0 -18.003974698458478 16.699943887402469 0 0 0 0 83.247737346908252 -36.152412673953904 0 -36.152412673953904 5.507023972105344 0 0 0 0 13.728958857983784 -3.3830925861321788 0 -3.3830925861321788 0.56055406706699706 0 0 0 0 37.139912347411155 -40.008500887889568 0 -40.008500887889568 7.129231773579761 0 0 0 0 27.329795238597953 -23.573337606649691 0 -23.573337606649691 -4.4475956853377516 0 0 0 0 29.272403963572287 -99.257648678335016 0 -99.257648678335016 -46.169674383556824 0 0 0 0 5.9915014058351517 2.6788615200592716 0 2.6788615200592716 -38.608629903884236 0 0 0 0 -170.158493027644 -122.69405591349019 0 -122.69405591349019 -62.247133164409703 0 0 0 0 27.534243239380885 -11.503982847048444 0 -11.503982847048444 -18.168858301725422 0 0 0 0 64.31994956737617 -24.687656230445555 0 -24.687656230445555 11.075949158916728 0 0 0 0 62.07354725370476 -23.38247665482508 0 -23.38247665482508 -3.4316718399866364 0 0 0 0 73.793384651260567 -35.574497218271866 0 -35.574497218271866 15.390968334730314 0 0 0 0 7.2523862648299771 -3.4107593610372362 0 -3.4107593610372362 -0.12298799371689957 0 0 0 0 65.99509817237049 -31.410185192757922 0 -31.410185192757922 -25.810900631657205 0 0 0 0 11.353481378078868 -58.000266534301318 0 -58.000266534301318 68.629287166813072 0 0 0 0 65.351141788687528 -32.830535136507024 0 -32.830535136507024 -5.8445916405385105 0 0 0 0 21.156913597822268 -27.314717578309995 0 -27.314717578309995 -2.4546368613993592 0 0 0 0 39.964551762808696 -37.407242888326664 0 -37.407242888326664 -4.7004881270581791 0 0 0 0 45.299566469169804 -65.394475359973057 0 -65.394475359973057 -19.454024544208778 0 0 0 0 58.568789602650213 -38.911876335157331 0 -38.911876335157331 5.7351850324928861 0 0 0 0 51.323517495045962 -26.101384593031639 0 -26.101384593031639 -16.914706379606741 0 0 0 0 52.062767540118259 -20.580569704454057 0 -20.580569704454057 0.75406577440023925 0 0 0 0 27.208011785513918 -45.935482495453712 0 -45.935482495453712 -20.221592171296152 0 0 0 0 66.621343798033195 -30.445742704688882 0 -30.445742704688882 -30.438183696464876 0 0 0 0 79.904061477905998 -127.14157871318758 0 -127.14157871318758 -20.055427091544061 0 0 0 0 52.735894078710352 -35.868684561281512 0 -35.868684561281512 6.6910508722044018 0 0 0 0 35.030683605724334 -115.08328651208888 0 -115.08328651208888 123.24130940182999 0 0 0 0 153.66129656195699 -63.196593112346648 0 -63.196593112346648 -23.952707500488998 0 0 0 0 60.232772242916226 -27.003019311160479 0 -27.003019311160479 0.18235912427788548 0 0 0 0 21.356702809745912 -46.53919704823312 0 -46.53919704823312 1.7993007410006499 0 0 0 0 51.061417261326447 -26.709248630654937 0 -26.709248630654937 -2.7151089032181122 0 0 0 0 44.25542309753655 -39.173062006420537 0 -39.173062006420537 -29.585451835723688 0 0 0 0 9.642446278680211 -1.8232397672888183 0 -1.8232397672888183 -1.180069124085926 0 0 0 0 70.59120927415097 -12.215778829391525 0 -12.215778829391525 -12.968730591079094 0 0 0 0 6.4490317819771121 -22.510954413534421 0 -22.510954413534421 28.539030249413145 0 0 0 0 58.868340614228941 -15.099043949382738 0 -15.099043949382738 -4.6023399630632698 0 0 0 0 58.630574694586812 -8.8863906967435469 0 -8.8863906967435469 -5.9273886198811852 0 0 0 0 78.845984751584183 -15.340919772894267 0 -15.340919772894267 -18.469858794693138 0 0 0 0 -0.23818976902312983 -6.6752163193008283 0 -6.6752163193008283 2.0399691362136441 0 0 0 0 90.414006733391716 -78.756790590797053 0 -78.756790590797053 90.197814637210513 0 0 0 0 53.277777878251072 -87.230480767376832 0 -87.230480767376832 99.862845072069092 0 0 0 0 60.39986798584323 -48.42297596155305 0 -48.42297596155305 104.46546243286866 0 0 0 0 187.04344105592827 -29.022414468553848 0 -29.022414468553848 95.69175094598711 0 0 0 0 197.6093514056156 -57.073352947121862 0 -57.073352947121862 117.69651545019377 0 0 0 0 479.69436490288717 411.17903260099507 0 411.17903260099507 -38.974059805878369 0 0 0 0 621.73864797588158 77.886850967266469 0 77.886850967266469 23.9164036483362 0 0 0 0 232.64468233751904 302.11698743491826 0 302.11698743491826 137.2447366489356 0 0 0 0 251.25982086526346 86.675579550460384 0 86.675579550460384 23.753699520614095 0 0 0 0 31.548779290322273 161.41385145581657 0 161.41385145581657 118.12538660239173 0 0 0 0 128.35482663467519 114.83168418937333 0 114.83168418937333 189.33527342028873 0 0 0 0 94.783187039182849 -46.308397503185468 0 -46.308397503185468 -182.42867149587909 0 0 0 0 61.516627128805339 25.619969053813548 0 25.619969053813548 -110.72431547230477 0 0 0 0 65.045705339142273 -109.59400173916714 0 -109.59400173916714 -19.042997357904881 0 0 0 0 178.41658800501318 28.311900763391122 0 28.311900763391122 121.44251588071165 0 0 0 0 201.1500224809206 -101.77358202005621 0 -101.77358202005621 132.00950382906348 0 0 0 0 109.47580030734389 -79.333851857387117 0 -79.333851857387117 72.101934427372726 0 0 0 0 164.89154852311185 -45.906327361040951 0 -45.906327361040951 87.938244797314837 0 0 0 0 112.57524087947604 9.596234693597296 0 9.596234693597296 -33.772807823624134 0 0 0 0 145.87532025594555 36.035692024506488 0 36.035692024506488 -12.801072056310886 0 0 0 0 227.5558740482229 24.226129565495739 0 24.226129565495739 71.96128702906708 0 0 0 0 199.80643736981438 -1.5132535639008893 0 -1.5132535639008893 49.221603360464997 0 0 0 0 148.75169651866599 1.1608600096124064 0 1.1608600096124064 97.555083365904466 0 0 0 0 327.13532578708509 25.180098648346529 0 25.180098648346529 113.66289692451483 0 0 0 0 229.39950986915937 -9.7313646059940311 0 -9.7313646059940311 205.15764129054378 0 0 0 0 367.17911965894746 -54.120304553194273 0 -54.120304553194273 173.48314553159071 0 0 0 0 358.32297347937674 -74.032148360536908 0 -74.032148360536908 256.433554601585 0 0 0 0 359.28032436246576 -63.625290344345103 0 -63.625290344345103 147.50522597434406 0 0 0 0 220.9952657262329 -56.182849216827663 0 -56.182849216827663 235.93432651786236 0 0 0 0 280.88983339977676 -128.10653813892247 0 -128.10653813892247 193.30615236273979 0 0 0 0 353.22627559538523 -8.6828285864546615 0 -8.6828285864546615 307.92495028285566 0 0 0 0 190.07424789561628 -146.18860939685584 0 -146.18860939685584 300.615537503967 0 0 0 0 192.39133753458009 -161.93761452031507 0 -161.93761452031507 260.12407849991996 0 0 0 0 187.68658260126176 -142.84851340699464 0 -142.84851340699464 186.24293713415639 0 0 0 0 132.98353504942497 -124.38032848341879 0 -124.38032848341879 166.82672419025687 0 0 0 0 154.71986538577767 -156.34660259502803 0 -156.34660259502803 187.10505283823454 0 0 0 0 187.21490053695015 -154.67233006778903 0 -154.67233006778903 136.82026270713845 0 0 0 0 172.58604412707064 -113.8612698452076 0 -113.8612698452076 111.48950899737684 0 0 0 0 106.82444600942836 -118.93119077364668 0 -118.93119077364668 131.35273550626687 0 0 0 0 66.491891450343246 -74.232509470825278 0 -74.232509470825278 128.17659044176838 0 0 0 0 107.83796690961753 -39.20109684735246 0 -39.20109684735246 59.781417928201677 0 0 0 0 53.379839760957111 -39.782200791690684 0 -39.782200791690684 85.167952699220677 0 0 0 0 22.524732375204621 -0.10478389509557928 0 -0.10478389509557928 52.096163332555534 0 0 0 0 109.79313034186089 -58.983797457850045 0 -58.983797457850045 88.434330203387617 0 0 0 0 47.314528860122664 -93.499691449007742 0 -93.499691449007742 71.089293891241368 0 0 0 0 424.42308372105981 247.19778536863751 0 247.19778536863751 -50.543464737309137 0 0 0 0 95.698195860684791 -41.234229707199631 0 -41.234229707199631 22.530279352900976 0 0 0 0 16.270931266488333 56.134459931013225 0 56.134459931013225 0.090122739612695568 0 0 0 0 -6.4144226620119298 78.958458195108051 0 78.958458195108051 49.619224879443436 0 0 0 0 -100.46820112772366 53.558626846315086 0 53.558626846315086 451.60831457426923 0 0 0 0 -0.072010300372106428 -0.10392352081242962 0 -0.10392352081242962 2.7561159316489356 0 0 0 0 -73.027153072827787 73.659995813093701 0 73.659995813093701 81.966885177398581 0 0 0 0 -201.39696086865297 -56.218534352734423 0 -56.218534352734423 -1.3072074432195677 0 0 0 0 290.09807752628785 175.47672897083089 0 175.47672897083089 -635.15739112104075 0 0 0 0 -0.083119468081040537 -1.1263791215565391 0 -1.1263791215565391 0.80312777951025183 0 0 0 0 -110.31681125045725 131.31539798093672 0 131.31539798093672 -305.49709386561335 0 0 0 0 -71.237064401833777 69.014341729942771 0 69.014341729942771 -220.17365976496876 0 0 0 0 93.122118595594657 -17.070989014792076 0 -17.070989014792076 -6.5415766948074179 0 0 0 0 -99.288776402965595 -59.767735609670581 0 -59.767735609670581 26.287764016368328 0 0 0 0 -39.624628809389833 -138.64042066345155 0 -138.64042066345155 -543.86535983042631 0 0 0 0 -18.715644019597676 -40.057221987821777 0 -40.057221987821777 -124.77754476968948 0 0 0 0 23.303083696278918 -13.072592099171743 0 -13.072592099171743 -107.93246919821013 0 0 0 0 97.778484285932791 55.704592302152378 0 55.704592302152378 -131.31681081159468 0 0 0 0 21.68176774912331 -53.84916659715325 0 -53.84916659715325 -23.610626102433343 0 0 0 0 108.21404977153361 114.80849571563522 0 114.80849571563522 -122.95712585459023 0 0 0 0 42.877197888788942 157.2483424168272 0 157.2483424168272 -164.64295329434572 0 0 0 0 87.095838485198328 160.51157649307561 0 160.51157649307561 -219.76040302651836 0 0 0 0 75.243946456161211 34.316238933438854 0 34.316238933438854 -151.30112264186846 0 0 0 0 75.848066155569541 31.326959313091038 0 31.326959313091038 -390.99691490103396 0 0 0 0 -53.95060557279794 309.89527264053254 0 309.89527264053254 -480.21599749241977 0 0 0 0 3.5573282620680402 184.64297056149849 0 184.64297056149849 -217.21130451957561 0 0 0 0 20.993490206150454 201.24994620407188 0 201.24994620407188 -253.11114658317274 0 0 0 0 -7.4109958371918765 179.15766692733541 0 179.15766692733541 -123.52105957846743 0 0 0 0 -74.781900521425996 242.55459498408209 0 242.55459498408209 -181.74877513645743 0 0 0 0 56.670907872961834 192.57076126356151 0 192.57076126356151 -121.88508565575785 0 0 0 0 51.197755777960992 204.93853108073199 0 204.93853108073199 -115.81360065069589 0 0 0 0 67.482736109421239 190.73092262390787 0 190.73092262390787 -121.75475034455394 0 0 0 0 59.662432563643961 187.99885456635184 0 187.99885456635184 -110.53952494347686 0 0 0 0 54.498864737208351 208.97172607575976 0 208.97172607575976 -176.81480311461326 0 0 0 0 -20.304186432796996 -28.603233676133641 0 -28.603233676133641 -460.56432728877951 0 0 0 0 91.334729398724448 -119.44893005419726 0 -119.44893005419726 -442.31752808095416 0 0 0 0 4.4922972061521875 7.5972220087803777 0 7.5972220087803777 -5.0002368543085858 0 0 0 0 -19.123629391078794 -13.668354917092074 0 -13.668354917092074 -324.76454091704727 0 0 0 0 21.032180331132622 105.34199307723395 0 105.34199307723395 -480.59901666203041 0 0 0 0 17.223275411484792 118.57146921661058 0 118.57146921661058 -431.81203241404728 0 0 0 0 -115.79142230787511 83.293365601910978 0 83.293365601910978 -10.825222671329357 0 0 0 0 -208.29364323909613 258.42950588373583 0 258.42950588373583 -146.7547912516784 0 0 0 0 -127.41670675609748 152.30486287232793 0 152.30486287232793 -43.339409862541288 0 0 0 0 -10.758425281892414 98.705937016660755 0 98.705937016660755 -80.762241910033254 0 0 0 0 -9.727594416217471 -36.690893332636733 0 -36.690893332636733 28.195040761510427 0 0 0 0 90.131009623233695 -16.368721706201541 0 -16.368721706201541 2.9195853743403859 0 0 0 0 50.882421749283822 -6.0296724635868486 0 -6.0296724635868486 -16.391866272205334 0 0 0 0 50.763349273882341 3.9004379929042443 0 3.9004379929042443 -24.975538501051233 0 0 0 0 36.942934409271359 -7.7095220345417772 0 -7.7095220345417772 -3.8428300736666543 0 0 0 0 -13.027878475666512 69.92154529094114 0 69.92154529094114 -81.428547392708424 0 0 0 0 37.422335541720514 11.622253999388327 0 11.622253999388327 -3.8000265886821953 0 0 0 0 54.059532433222529 8.7018254337074836 0 8.7018254337074836 -0.91082983204565338 0 0 0 0 70.531403128857164 -3.0143204236737802 0 -3.0143204236737802 60.934370847528953 0 0 0 0 69.712267793058857 -0.19798920815879129 0 -0.19798920815879129 -4.356326402416272 0 0 0 0 95.738270239169651 25.769815634892893 0 25.769815634892893 -5.9471108313109653 0 0 0 0 45.068448742866167 1.183876637076537 0 1.183876637076537 -9.0079052349901758 0 0 0 0 59.655127504922433 15.618910318369302 0 15.618910318369302 -8.393875231129293 0 0 0 0 89.021135072331106 -45.602860059127778 0 -45.602860059127778 26.057197626880225 0 0 0 0 -13.951224235481703 99.012037287162855 0 99.012037287162855 -2.8224504640490404 0 0 0 0 54.975079324183753 12.583925448631817 0 12.583925448631817 3.8870253599855005 0 0 0 0 60.599593859640585 16.804890319646081 0 16.804890319646081 2.9970790672088938 0 0 0 0 482.95311520910309 340.20536988174922 0 340.20536988174922 -313.23722933956833 0 0 0 0 -291.7635983349428 -288.31983913662475 0 -288.31983913662475 -110.24218575152736 0 0 0 0 86.144397364917154 0.14225983891981286 0 0.14225983891981286 -0.20791087388800689 0 0 0 0 107.18376245764703 1.0412849335207071 0 1.0412849335207071 1.2896691231185931 0 0 0 0 115.45092739035772 2.3182208030416405 0 2.3182208030416405 -65.402998072559058 0 0 0 0 -94.69331798775238 636.49169800562959 0 636.49169800562959 -166.18527951135729 0 0 0 0 115.55515843328612 111.83500961627396 0 111.83500961627396 -191.13117309078916 0 0 0 0 44.572299004590604 151.91324822662887 0 151.91324822662887 -61.978695288918971 0 0 0 0 45.93351688439725 171.65603766123218 0 171.65603766123218 -178.30251982697519 0 0 0 0 37.686952156487678 219.69326969847589 0 219.69326969847589 -75.741741367714894 0 0 0 0 -0.64547215329966434 10.557063912984326 0 10.557063912984326 -2.5079346694654445 0 0 0 0 -56.903794031371945 148.28984601049524 0 148.28984601049524 97.654850627809651 0 0 0 0 -28.546599491361121 138.6436924967652 0 138.6436924967652 -129.30257665804993 0 0 0 0 131.23711525779072 138.42060099806486 0 138.42060099806486 -204.21555510501094 0 0 0 0 105.90716759133011 -10.839372081389683 0 -10.839372081389683 -45.477409645904117 0 0 0 0 84.268068930177833 36.253684955343033 0 36.253684955343033 -5.207791655501893 0 0 0 0 88.655537578430085 31.995001473956108 0 31.995001473956108 -22.68266658968696 0 0 0 0 102.38337956639018 8.2445829803992776 0 8.2445829803992776 -8.6548452042884314 0 0 0 0 57.090818075535935 20.615492692675616 0 20.615492692675616 -285.17787018522404 0 0 0 0 88.420693242820946 22.700782361319689 0 22.700782361319689 0.41470239458969438 0 0 0 0 63.735978029775204 3.7983206234663989 0 3.7983206234663989 -8.9790534664795203 0 0 0 0 94.447935299569508 139.97864091008068 0 139.97864091008068 -204.08340824436709 0 0 0 0 80.151423418799993 4.5775317295072782 0 4.5775317295072782 -0.94103006143363821 0 0 0 0 88.045128662955904 91.965759821859137 0 91.965759821859137 -198.36205302207964 0 0 0 0 151.0781244450211 -39.982768483927444 0 -39.982768483927444 -42.358194744403498 0 0 0 0 97.797026000709593 93.143167571053709 0 93.143167571053709 -202.81998406678031 0 0 0 0 52.890180602324612 70.464612207725693 0 70.464612207725693 -6.8797255602330445 0 0 0 0 59.492967445720261 66.672556669588531 0 66.672556669588531 -4.7749514029559306 0 0 0 0 70.468788847518226 119.65329162430527 0 119.65329162430527 -192.4552837230658 0 0 0 0 73.198827818639984 101.58910771075648 0 101.58910771075648 -286.28258121009276 0 0 0 0 39.910189598580473 138.46791744418988 0 138.46791744418988 -176.17929250370617 0 0 0 0 89.917931799573125 109.5533521472621 0 109.5533521472621 -343.29557058005958 0 0 0 0 154.68572163562112 -30.591355765338136 0 -30.591355765338136 -33.322128023824462 0 0 0 0 8.188534948072629 12.434661299147592 0 12.434661299147592 -261.37891169939621 0 0 0 0 806.5494133119355 283.82063290480801 0 283.82063290480801 -304.51401792734168 0 0 0 0 61.218430697286394 17.138985857327462 0 17.138985857327462 -1.3786308987727331 0 0 0 0 58.32043855827942 193.29892979366014 0 193.29892979366014 -416.83467163552996 0 0 0 0 -125.25123137629998 239.40024081904994 0 239.40024081904994 -292.65910567465721 0 0 0 0 24.830426543630892 163.95448245691387 0 163.95448245691387 -270.12753146716022 0 0 0 0 -74.6117016247008 161.1559370876821 0 161.1559370876821 -186.08721022321697 0 0 0 0 5.0192892350969487 159.94600630605055 0 159.94600630605055 -210.03554875220107 0 0 0 0 42.429815251758555 178.61123832894737 0 178.61123832894737 -299.21496960389959 0 0 0 0 -1047.5005843991239 -346.28964647934117 0 -346.28964647934117 -437.05524900003093 0 0 0 0 21.020665913925029 1.801281113283828 0 1.801281113283828 -0.27195414576120458 0 0 0 0 629.7802719501924 -171.02546596999218 0 -171.02546596999218 -441.62676258050305 0 0 0 0 10.374133125689696 -196.016372598614 0 -196.016372598614 -320.42531639750632 0 0 0 0 -270.69123095802206 49.322361441518296 0 49.322361441518296 -191.88002855868581 0 0 0 0 34.250263234280283 13.653644474020439 0 13.653644474020439 -191.19147691574102 0 0 0 0 452.8551957430027 -92.612240904003556 0 -92.612240904003556 -335.57455940313048 0 0 0 0 284.00186416933138 -110.70366006830682 0 -110.70366006830682 -321.27764174843742 0 0 0 0 590.68789696141175 108.3228389025071 0 108.3228389025071 -326.93541329525033 0 0 0 0 131.344941613439 42.042987399086996 0 42.042987399086996 -200.6748579033283 0 0 0 0 121.63386457401793 55.333305142703011 0 55.333305142703011 -207.19079106954632 0 0 0 0 320.5545722922252 135.65399586884178 0 135.65399586884178 -329.35837392936264 0 0 0 0 279.10611432585574 131.51450694390905 0 131.51450694390905 -177.32348108229598 0 0 0 0 18.01153269130009 154.0183212997656 0 154.0183212997656 -130.87852253768688 0 0 0 0 39.992363754921826 185.13051801601523 0 185.13051801601523 -203.16409988562509 0 0 0 0 81.559919782237557 145.4387632623459 0 145.4387632623459 -145.55299515904699 0 0 0 0 28.761640427590464 110.0821044216018 0 110.0821044216018 -168.86306236892005 0 0 0 0 71.494539693245315 118.08147439401182 0 118.08147439401182 -121.79942349691646 0 0 0 0 67.567733637217316 190.0561185417323 0 190.0561185417323 -112.81902707969994 0 0 0 0 50.628201210958309 180.75992113280785 0 180.75992113280785 -94.334575035696616 0 0 0 0 102.18433758553874 164.57661690938858 0 164.57661690938858 -110.23634501866218 0 0 0 0 91.099790581814887 162.30515700245564 0 162.30515700245564 -57.100363817557991 0 0 0 0 151.94777739922574 133.86551777067507 0 133.86551777067507 -101.14188453593056 0 0 0 0 146.7036219881702 156.77972320098434 0 156.77972320098434 -106.89769758499278 0 0 0 0 242.46129749694956 162.20308053335384 0 162.20308053335384 -126.00419210730252 0 0 0 0 194.80795880869118 117.274756258038 0 117.274756258038 -167.23838348533445 0 0 0 0 166.04635574740678 167.25390424578882 0 167.25390424578882 -48.885047719199065 0 0 0 0 159.61831324944797 116.48261543952708 0 116.48261543952708 51.421293392563712 0 0 0 0 189.44900900775974 97.766617907744148 0 97.766617907744148 -45.867582883653199 0 0 0 0 204.4874291027736 126.76479231862731 0 126.76479231862731 0.92190275588109216 0 0 0 0 150.54939429416845 94.822949736294731 0 94.822949736294731 15.979528573074276 0 0 0 0 110.07713745333604 135.30181819418021 0 135.30181819418021 -72.894067296993853 0 0 0 0 152.65915194721902 115.69482629387736 0 115.69482629387736 -91.138178033790609 0 0 0 0 237.60987264508003 22.018800913936502 0 22.018800913936502 262.44922393732168 0 0 0 0 228.27040439542179 118.10599455496867 0 118.10599455496867 136.2906281817784 0 0 0 0 216.65744104656915 80.076604301314717 0 80.076604301314717 68.560697469647494 0 0 0 0 224.84251570892957 238.02107662287926 0 238.02107662287926 38.390340770962212 0 0 0 0 244.87270440148131 179.87375478114836 0 179.87375478114836 -73.629571228342684 0 0 0 0 223.03223619786149 262.75725112795749 0 262.75725112795749 -45.198144470093212 0 0 0 0 271.67099036074069 105.89941640696588 0 105.89941640696588 160.46610475347643 0 0 0 0 123.5434593015998 191.13132242226561 0 191.13132242226561 269.97921629673056 0 0 0 0 74.433209619121044 343.80876598976329 0 343.80876598976329 42.78553630546503 0 0 0 0 22.545206430438157 332.31074311997475 0 332.31074311997475 42.536127565717834 0 0 0 0 63.886557933941731 523.56468410176865 0 523.56468410176865 -145.17917977707384 0 0 0 0 480.51516665102099 590.38541337137167 0 590.38541337137167 -302.88162209495204 0 0 0 0 -80.046105003362754 514.15454584792224 0 514.15454584792224 -178.89473057303348 0 0 0 0 395.63214643896208 245.23595448255401 0 245.23595448255401 -236.38404917144817 0 0 0 0 286.49009310161637 282.355168676022 0 282.355168676022 -194.32454390022986 0 0 0 0 297.84817588159058 329.67805154237249 0 329.67805154237249 -2.8135875250327445 0 0 0 0 530.99134236798272 325.90227040276432 0 325.90227040276432 -369.46709472419479 0 0 0 0 521.06042949062248 231.91665175185858 0 231.91665175185858 -544.56280782356953 0 0 0 0 1204.3951273498824 146.09127958778845 0 146.09127958778845 -541.88859173312721 0 0 0 0 456.76745396145634 -101.14943960903122 0 -101.14943960903122 -448.96447078237543 0 0 0 0 1639.660256179581 1391.7896407628598 0 1391.7896407628598 -538.20231314343982 0 0 0 0 1644.698994002043 58.904708284997014 0 58.904708284997014 -674.50151885823561 0 0 0 0 1289.7083681385848 -61.784533228800683 0 -61.784533228800683 -486.32663281655414 0 0 0 0 -191.79989216843751 310.11633648914471 0 310.11633648914471 -289.0584611451377 0 0 0 0 -136.06219081227027 734.56452651938071 0 734.56452651938071 -329.11560158368093 0 0 0 0 4.7752129249565769 588.8130457711286 0 588.8130457711286 -374.88260289251593 0 0 0 0 -1387.8309233328473 1832.0728217060505 0 1832.0728217060505 979.2292865129748 0 0 0 0 -1427.6038091153314 -609.28475203347898 0 -609.28475203347898 -859.59236825966082 0 0 0 0 -622.75711701974069 -172.38856330796671 0 -172.38856330796671 -954.50828422357881 0 0 0 0 -178.06997905939352 470.92037519509722 0 470.92037519509722 -242.71355552475325 0 0 0 0 151.19001240088255 398.77356592732394 0 398.77356592732394 -1622.1678445095795 0 0 0 0 -87.973907781386515 584.86579101645725 0 584.86579101645725 -1138.6379088020344 0 0 0 0 -9.3898119997465983 566.67176791035945 0 566.67176791035945 -366.66426125391445 0 0 0 0 -155.83658942572947 62.971769169193976 0 62.971769169193976 -999.38878995622463 0 0 0 0 -88.371059262848576 475.22731580132449 0 475.22731580132449 -480.49945541091756 0 0 0 0 -86.119449992926889 147.96976161274821 0 147.96976161274821 -46.341241045565766 0 0 0 0 76.05858298108069 308.16086740066976 0 308.16086740066976 79.186726055067084 0 0 0 0 665.64463867045561 129.47900630713752 0 129.47900630713752 -96.394065038867211 0 0 0 0 36.140762435716169 35.32422816962071 0 35.32422816962071 851.42536083489722 0 0 0 0 -58.718784268501622 294.36157359822664 0 294.36157359822664 9.7745536388219989 0 0 0 0 201.37386880676058 157.27809505447345 0 157.27809505447345 -936.25297206337427 0 0 0 0 -278.01652382967586 172.08038410371864 0 172.08038410371864 -931.22613639137796 0 0 0 0 880.47282919147983 799.73444328795813 0 799.73444328795813 -1623.8179654261075 0 0 0 0 102.18444388368516 241.70413251359616 0 241.70413251359616 -413.75218228591723 0 0 0 0 672.69163604443747 -709.9491303136748 0 -709.9491303136748 -1681.661888339607 0 0 0 0 98.659996828504518 -167.95011161592288 0 -167.95011161592288 -395.37191083898551 0 0 0 0 -151.50571639664122 -446.78039561897322 0 -446.78039561897322 1394.5194328325322 0 0 0 0 1168.6725664561454 -1329.0428711222098 0 -1329.0428711222098 128.99288298034844 0 0 0 0 456.24914956082284 245.66040683605729 0 245.66040683605729 1803.9639531442017 0 0 0 0 1929.9860086011468 247.78138297273927 0 247.78138297273927 -466.0979876420904 0 0 0 0 1771.2669784479222 -1174.9867716868512 0 -1174.9867716868512 1116.7350166044757 0 0 0 0 2.0809592475018732 -3.2789482573615629 0 -3.2789482573615629 18.268334489191954 0 0 0 0 3030.3888032363539 -381.89769938832524 0 -381.89769938832524 112.3510013395462 0 0 0 0 1510.9663374783413 83.985830290685954 0 83.985830290685954 3.761821087928638 0 0 0 0 1709.4932845093645 -499.72512813303103 0 -499.72512813303103 99.252802645693919 0 0 0 0 23.776957955487887 345.89060207563671 0 345.89060207563671 787.90345999443616 0 0 0 0 82.271791169514472 -79.174423840258896 0 -79.174423840258896 101.54038973931529 0 0 0 0 951.76820023305481 -194.84101804138049 0 -194.84101804138049 83.512559932603835 0 0 0 0 5.7693148246074841 -18.095007527161201 0 -18.095007527161201 46.357166149660749 0 0 0 0 -34.624363996335887 -65.318296745972475 0 -65.318296745972475 109.99611964401993 0 0 0 0 -0.52070520725825986 -9.1198715565698318 0 -9.1198715565698318 12.630290742184799 0 0 0 0 23.097536234580019 -31.712310466117977 0 -31.712310466117977 14.87672184343001 0 0 0 0 54.803089390818059 -44.294318955015115 0 -44.294318955015115 5.885841858220374 0 0 0 0 1021.3487278128086 9.8171046469860812 0 9.8171046469860812 102.57724614623567 0 0 0 0 1148.2792695006756 -318.46831038333721 0 -318.46831038333721 57.883558399210415 0 0 0 0 1270.5020097928937 -136.85604839992448 0 -136.85604839992448 -18.777232353415457 0 0 0 0 921.77142236274813 -379.9295977680863 0 -379.9295977680863 294.6939005321326 0 0 0 0 958.90480906750599 -197.85224939018326 0 -197.85224939018326 52.633222268394093 0 0 0 0 609.30020989926834 -162.34255485778408 0 -162.34255485778408 179.90047933953247 0 0 0 0 606.16336497168959 -172.28481606176047 0 -172.28481606176047 255.05335332260438 0 0 0 0 246.10999056505534 -13.607702483632693 0 -13.607702483632693 324.22798312653981 0 0 0 0 416.22918774180289 -108.82332567492904 0 -108.82332567492904 336.24403606037322 0 0 0 0 -2.8690126798755955 117.67583495546188 0 117.67583495546188 482.51934730911762 0 0 0 0 740.46060335328809 -392.6733171646747 0 -392.6733171646747 459.88476937303676 0 0 0 0 401.26023049630021 -192.91361534237967 0 -192.91361534237967 411.28063969732807 0 0 0 0 736.91160546208994 -572.1261948174747 0 -572.1261948174747 805.92347111958861 0 0 0 0 705.55030238138352 -373.1887756151342 0 -373.1887756151342 -143.72991495548285 0 0 0 0 226.44298767045257 -519.17384032797736 0 -519.17384032797736 221.931769837601 0 0 0 0 78.514299072041467 -142.89980963189555 0 -142.89980963189555 -0.59162678320421946 0 0 0 0 205.47161118065924 -415.66496363639192 0 -415.66496363639192 -71.175493691505807 0 0 0 0 278.21221186132607 -200.32660063639742 0 -200.32660063639742 -205.80865042551977 0 0 0 0 -43.844972564627824 -444.05836529250581 0 -444.05836529250581 93.751445925780246 0 0 0 0 211.56581549882321 -332.8612234792754 0 -332.8612234792754 139.21125313949233 0 0 0 0 -108.71105833472393 -544.18144905376448 0 -544.18144905376448 -43.4459630921383 0 0 0 0 -113.50260911885562 -392.526491074354 0 -392.526491074354 301.58085975987524 0 0 0 0 2.9996630500645551 -335.02147021635568 0 -335.02147021635568 139.86431585259015 0 0 0 0 -24.768180965173087 -137.54110520197901 0 -137.54110520197901 450.75855342937302 0 0 0 0 80.741997000803821 41.853760742140857 0 41.853760742140857 167.68547996051348 0 0 0 0 19.620099231708082 -49.331085619730857 0 -49.331085619730857 133.19182244637341 0 0 0 0 89.659716494450549 -37.204671155253891 0 -37.204671155253891 37.071970898237396 0 0 0 0 92.517183670235681 -39.081709232412322 0 -39.081709232412322 8.9579195482292562 0 0 0 0 -21.747852520345077 -182.40017350951493 0 -182.40017350951493 59.771793080530188 0 0 0 0 164.20753532586241 -120.1529418479704 0 -120.1529418479704 58.892905532875375 0 0 0 0 41.680715200651321 -8.1733775284637886 0 -8.1733775284637886 -9.5648071022624208 0 0 0 0 56.311884255779034 -8.7288781990052158 0 -8.7288781990052158 -25.310557069169587 0 0 0 0 86.981215225190681 -43.092295541299791 0 -43.092295541299791 -23.555069350077247 0 0 0 0 28.362588634316538 -13.57957409823441 0 -13.57957409823441 -4.2029838416714149 0 0 0 0 49.401501315231144 -24.516853659486515 0 -24.516853659486515 14.879345167496922 0 0 0 0 176.02065095472062 -74.90517463691981 0 -74.90517463691981 28.306741758868725 0 0 0 0 -2.7655051547727965 5.9926231725725216 0 5.9926231725725216 -7.7156208793816514 0 0 0 0 103.27165316891478 -12.132102487368684 0 -12.132102487368684 -125.77157896716972 0 0 0 0 52.574208181301074 13.782821025534638 0 13.782821025534638 -31.574466146189444 0 0 0 0 43.272198461265361 120.22519881074936 0 120.22519881074936 -34.63772418890585 0 0 0 0 214.4309215135836 1.5174262914524661 0 1.5174262914524661 -104.23759280755348 0 0 0 0 269.85730695578241 -135.61489882745758 0 -135.61489882745758 -65.029066317963952 0 0 0 0 88.788496731154737 -19.230571500173482 0 -19.230571500173482 -52.837073177090019 0 0 0 0 217.38040439420001 -110.12183364506006 0 -110.12183364506006 -213.46949501621316 0 0 0 0 131.20986899475611 43.467093453945154 0 43.467093453945154 -170.91705038243435 0 0 0 0 61.9292923135759 -14.641115506576202 0 -14.641115506576202 -0.077668729211115783 0 0 0 0 93.530657530638564 4.2209253000917215 0 4.2209253000917215 -207.665834304898 0 0 0 0 -29.885730517831689 26.860946544691842 0 26.860946544691842 -118.65261992278329 0 0 0 0 89.923928844291368 -19.202132033828548 0 -19.202132033828548 -68.709339869110863 0 0 0 0 98.419666518922895 61.405308645087416 0 61.405308645087416 -132.46621969397256 0 0 0 0 157.91468888253439 -47.421336885051232 0 -47.421336885051232 -22.158807070413559 0 0 0 0 65.011885483007063 15.371472233875238 0 15.371472233875238 -79.588065966648401 0 0 0 0 153.45781553312554 10.736291083755304 0 10.736291083755304 -122.09200355190001 0 0 0 0 104.91767231779158 99.479323702190129 0 99.479323702190129 -207.21169222468416 0 0 0 0 -17.750228348736528 152.69265567239998 0 152.69265567239998 -149.09005778294431 0 0 0 0 86.852718852314865 -73.48560918996111 0 -73.48560918996111 29.849476208326479 0 0 0 0 8.6839456982739875 -5.1756077563171061 0 -5.1756077563171061 2.3030440803181795 0 0 0 0 47.430611658735017 -7.6153586920989831 0 -7.6153586920989831 -15.703434520638737 0 0 0 0 128.29536349354203 -11.696377267782964 0 -11.696377267782964 -21.107455754764487 0 0 0 0 29.338320891096373 -25.755650906770825 0 -25.755650906770825 17.625680135308698 0 0 0 0 37.184972279397982 -8.804634065854458 0 -8.804634065854458 -6.6386536843925619 0 0 0 0 44.113275418505268 -21.44623296565377 0 -21.44623296565377 -6.5395101416072654 0 0 0 0 4.738275327492417 -0.10481021166356186 0 -0.10481021166356186 -4.7294430960943181 0 0 0 0 -67.343165737216623 85.547099608397957 0 85.547099608397957 -69.235687528808285 0 0 0 0 68.997605093479251 -95.304817352460304 0 -95.304817352460304 -173.25122356444444 0 0 0 0 92.10174648337852 120.74390417996494 0 120.74390417996494 -242.57262753079522 0 0 0 0 100.33352138503687 16.073913766523674 0 16.073913766523674 33.233756147202293 0 0 0 0 191.54984960458387 -49.347695031862941 0 -49.347695031862941 -130.09430838275921 0 0 0 0 136.11975687715392 36.185527033349359 0 36.185527033349359 -153.15029459642301 0 0 0 0 121.60130305640632 27.220883291702648 0 27.220883291702648 -156.73083383043195 0 0 0 0 204.08617871144816 -45.10368559298638 0 -45.10368559298638 -96.191472385299221 0 0 0 0 137.14356653229663 -32.209144713161962 0 -32.209144713161962 -65.668666489912994 0 0 0 0 166.48592111035396 -62.705044459518547 0 -62.705044459518547 -40.229932121244701 0 0 0 0 245.04570129895001 -27.855381415720558 0 -27.855381415720558 -34.670398843838171 0 0 0 0 210.27040909446077 -61.51278185137221 0 -61.51278185137221 -51.882174964656599 0 0 0 0 207.27778186288015 -64.064708689378492 0 -64.064708689378492 -54.051990267817018 0 0 0 0 225.86853157551377 26.100305049227927 0 26.100305049227927 14.753953900300075 0 0 0 0 275.76182300280198 -46.290613446649559 0 -46.290613446649559 -87.475152139355259 0 0 0 0 775.82462404682155 -3.5992011239984549 0 -3.5992011239984549 316.42439312638589 0 0 0 0 623.41891072763974 -40.363452975397649 0 -40.363452975397649 230.60988646301098 0 0 0 0 699.11114545439341 -123.67317619435107 0 -123.67317619435107 191.62904824524276 0 0 0 0 376.14404870031285 -27.331065997474866 0 -27.331065997474866 247.74166266465909 0 0 0 0 589.84925707575167 -95.23469945134616 0 -95.23469945134616 188.9894073412479 0 0 0 0 945.07543164713206 -98.868763093311998 0 -98.868763093311998 11.075326178400246 0 0 0 0 918.4760151211085 -166.29964903636278 0 -166.29964903636278 151.43826888002695 0 0 0 0 1115.1537043519347 -179.20541553681778 0 -179.20541553681778 40.165798961775863 0 0 0 0 1081.9195699573465 -120.81828942125412 0 -120.81828942125412 -20.058608369324361 0 0 0 0 1045.0118003021416 -203.03408610716724 0 -203.03408610716724 -145.0982573580477 0 0 0 0 53.070457771696965 -135.19964930343235 0 -135.19964930343235 224.58751570583809 0 0 0 0 478.4954299690653 -269.92069421193446 0 -269.92069421193446 108.49112622390885 0 0 0 0 34.598457100859378 -25.314957785714796 0 -25.314957785714796 5.8404760244171712 0 0 0 0 15.887520987991451 -15.250032149709412 0 -15.250032149709412 16.466203223406072 0 0 0 0 654.22048084258859 352.80750479630206 0 352.80750479630206 -148.02247656008001 0 0 0 0 5.251404704944747 1.5525198638919306 0 1.5525198638919306 2.1829238429852573 0 0 0 0 375.96028690366802 330.69841233280829 0 330.69841233280829 100.26240765171769 0 0 0 0 1215.3017366283457 34.861645197734106 0 34.861645197734106 64.412042797047206 0 0 0 0 1016.3771783266639 -341.06606556841894 0 -341.06606556841894 117.41803394790691 0 0 0 0 1069.5920563051768 24.810523080414328 0 24.810523080414328 -198.40502271026025 0 0 0 0 -1.4784382679208647 373.72773738050944 0 373.72773738050944 16.948056978254954 0 0 0 0 58.824582127082977 -113.12949518882425 0 -113.12949518882425 -108.63405936301979 0 0 0 0 508.58788874520542 154.14069426214849 0 154.14069426214849 37.953019593635986 0 0 0 0 545.76284305187619 243.36438123121539 0 243.36438123121539 33.21238606922816 0 0 0 0 788.92305923987442 22.929915798833918 0 22.929915798833918 232.52759496598912 0 0 0 0 815.59227791881858 -17.297608732004562 0 -17.297608732004562 63.738362924341061 0 0 0 0 922.74196394230421 -138.40128032763079 0 -138.40128032763079 165.69417072354781 0 0 0 0 589.22322514068946 -20.262225371736463 0 -20.262225371736463 203.86252688647255 0 0 0 0 437.47044787257255 -61.539797949088324 0 -61.539797949088324 223.52658677729983 0 0 0 0 774.80682443485784 85.896734479286124 0 85.896734479286124 211.86168917145687 0 0 0 0 26.500464576315608 -158.64880119691577 0 -158.64880119691577 285.26200115738021 0 0 0 0 353.37671188546665 89.105585368697888 0 89.105585368697888 390.24319426208291 0 0 0 0 139.22742257623759 -9.4477607578129437 0 -9.4477607578129437 75.165231843487391 0 0 0 0 1173.2562070474287 272.96697829935027 0 272.96697829935027 15.329323398762426 0 0 0 0 552.15294354379876 145.72505810273469 0 145.72505810273469 -10.624186922293234 0 0 0 0 0.99911560800421739 1.1114873890237646 0 1.1114873890237646 4.129252409212441 0 0 0 0 606.83698420994187 368.44748632997494 0 368.44748632997494 357.57067802917481 0 0 0 0 360.13196198239893 337.05247287871703 0 337.05247287871703 113.54936270220122 0 0 0 0 529.80902148467794 224.75489219395806 0 224.75489219395806 103.5881567571239 0 0 0 0 538.00618040408153 356.43721384761858 0 356.43721384761858 93.453337963208213 0 0 0 0 484.76957136870624 234.70180175320274 0 234.70180175320274 0.069737742874622199 0 0 0 0 669.86300931264122 279.18548684113625 0 279.18548684113625 -14.389221671917312 0 0 0 0 538.25397961895214 277.46700307528624 0 277.46700307528624 46.029618599613741 0 0 0 0 443.98233364888438 274.03624608730536 0 274.03624608730536 47.802456572282608 0 0 0 0 532.90899455919134 282.37748431295341 0 282.37748431295341 43.401108041221619 0 0 0 0 0.32390847292305125 1.7202207553733686 0 1.7202207553733686 2.209395559558295 0 0 0 0 50.851451929258474 105.62603462612321 0 105.62603462612321 205.8142166457252 0 0 0 0 -30.007006980420556 40.148349680998138 0 40.148349680998138 9.3753555171479093 0 0 0 0 2.7036217956071482 6.2387783024885408 0 6.2387783024885408 13.404222691893024 0 0 0 0 71.697875618672697 -10.793360544042116 0 -10.793360544042116 7.8912452185381028 0 0 0 0 1.3382265385202956 3.5163889724804847 0 3.5163889724804847 10.646317421543049 0 0 0 0 35.555193493462866 51.99595501730164 0 51.99595501730164 -5.60125725584885 0 0 0 0 -68.538468517626825 29.074343660485624 0 29.074343660485624 107.73197378711711 0 0 0 0 513.46651553253469 181.88861563684236 0 181.88861563684236 -19.241668654855175 0 0 0 0 405.63738016604111 201.62311796950652 0 201.62311796950652 14.24425666475554 0 0 0 0 208.69863241631901 -39.832237702475723 0 -39.832237702475723 -9.4724029054141283 0 0 0 0 200.01286725290993 -72.036015626576841 0 -72.036015626576841 -45.108908994498847 0 0 0 0 196.94585806563555 -54.051711738006588 0 -54.051711738006588 -54.058853453043582 0 0 0 0 197.72127394123527 -61.041369813977269 0 -61.041369813977269 -30.536475001612871 0 0 0 0 282.65244080017146 -44.022236198572386 0 -44.022236198572386 -45.840918208376991 0 0 0 0 375.67174473976775 39.297025399762219 0 39.297025399762219 -26.661259883455045 0 0 0 0 259.86813006969896 95.367211013368774 0 95.367211013368774 29.273156529743893 0 0 0 0 201.76423674731632 -13.135407247550347 0 -13.135407247550347 -10.845220819279348 0 0 0 0 270.16369856109577 38.239074308887197 0 38.239074308887197 19.21755671662504 0 0 0 0 240.16465401941605 100.13576271999119 0 100.13576271999119 46.473894033693796 0 0 0 0 336.24648349781637 182.90508257638629 0 182.90508257638629 90.690951863123303 0 0 0 0 487.21922099561561 205.90689634469609 0 205.90689634469609 15.555777940061262 0 0 0 0 547.03104383560276 233.90568240186565 0 233.90568240186565 27.517282116306546 0 0 0 0 512.91937917336872 239.41168611483033 0 239.41168611483033 55.643605408671647 0 0 0 0 497.47259380742253 76.782058308751871 0 76.782058308751871 -20.196782728979315 0 0 0 0 379.6326453868387 75.483878650265808 0 75.483878650265808 27.049425039037033 0 0 0 0 394.46785039758834 -40.223612354504098 0 -40.223612354504098 -47.452595551426612 0 0 0 0 530.37702080144663 -69.270066014149393 0 -69.270066014149393 -25.648413186552318 0 0 0 0 536.68310974889755 131.91053970746475 0 131.91053970746475 38.322033885781934 0 0 0 0 113.46421062569061 -154.61289884776028 0 -154.61289884776028 96.468326219632218 0 0 0 0 213.98150278894173 -104.28898177507017 0 -104.28898177507017 -10.389749482840784 0 0 0 0 148.45861369863269 -18.973779803001435 0 -18.973779803001435 0.00029266957329809884 0 0 0 0 -62.003996420244221 194.24092356501768 0 194.24092356501768 -378.15459822035314 0 0 0 0 12.625014477642594 5.7951560973939138 0 5.7951560973939138 0.17826803555426984 0 0 0 0 2.8152933991685813 0.63716571524624044 0 0.63716571524624044 -0.029066399097813278 0 0 0 0 354.21406244565878 156.60453066369229 0 156.60453066369229 66.865200595546185 0 0 0 0 627.09011049518449 -152.9573822481394 0 -152.9573822481394 -1.5512497667750722 0 0 0 0 1711.0526439469322 44.143338040254093 0 44.143338040254093 -53.772810811674844 0 0 0 0 884.89887482681661 462.4220239518454 0 462.4220239518454 396.00967816308128 0 0 0 0 710.3143805674863 303.13218956201473 0 303.13218956201473 111.99361963643355 0 0 0 0 832.05364810877654 51.302074794159068 0 51.302074794159068 60.250755235083261 0 0 0 0 639.61819393660699 230.91869000345577 0 230.91869000345577 53.522849912476829 0 0 0 0 606.04464864462352 234.34252915805718 0 234.34252915805718 228.90141853769893 0 0 0 0 607.06852035916449 249.23192420240142 0 249.23192420240142 114.21595894321877 0 0 0 0 432.38226508594016 88.107472429520087 0 88.107472429520087 596.75497567248078 0 0 0 0 424.4229839703703 35.03653971096967 0 35.03653971096967 288.4600339525565 0 0 0 0 372.7971074416273 88.454468076795933 0 88.454468076795933 714.58908243305723 0 0 0 0 404.74976178682846 -190.88601573230031 0 -190.88601573230031 323.34321725693599 0 0 0 0 340.36477549981646 -123.69071092001191 0 -123.69071092001191 434.10391089646055 0 0 0 0 214.6657060689904 -214.98323055698671 0 -214.98323055698671 367.81788333789621 0 0 0 0 346.71642462868476 -121.16538170399764 0 -121.16538170399764 429.89332808480441 0 0 0 0 279.27280579433136 49.711563099936484 0 49.711563099936484 774.73772223679805 0 0 0 0 25.649956626075436 231.60025612198763 0 231.60025612198763 558.43706666281355 0 0 0 0 228.30299074645154 -188.23189528372254 0 -188.23189528372254 440.87598151983468 0 0 0 0 286.64028072539804 374.88405482519096 0 374.88405482519096 1478.9206220437259 0 0 0 0 1047.2105606071636 845.02565770137744 0 845.02565770137744 774.37411870359665 0 0 0 0 504.34475426113931 131.98798377103117 0 131.98798377103117 626.0135115197703 0 0 0 0 2003.038907854745 1276.9404559745249 0 1276.9404559745249 589.9890055435369 0 0 0 0 4.7570959624751197 4.3065572736234969 0 4.3065572736234969 1.9351502025102469 0 0 0 0 -548.200461584609 1277.5266591845764 0 1277.5266591845764 653.78824643458393 0 0 0 0 -6.7273229286511196 912.98999210999182 0 912.98999210999182 1209.6007591365715 0 0 0 0 341.65378878543561 -24.579866996817884 0 -24.579866996817884 737.33886680523642 0 0 0 0 3164.2923603148738 1558.9755591211735 0 1558.9755591211735 1145.2434692152394 0 0 0 0 -1204.5239523562632 200.18493726493756 0 200.18493726493756 900.30002791513198 0 0 0 0 0.64382383213908767 3.6525416791100156 0 3.6525416791100156 8.5794575912838216 0 0 0 0 7.6355273091566573 -2.3275249581593087 0 -2.3275249581593087 2.0699374649960962 0 0 0 0 2033.9050548179512 1022.0413301141195 0 1022.0413301141195 278.02289562832925 0 0 0 0 122.11055523013056 -226.81933650025258 0 -226.81933650025258 1040.5616765567061 0 0 0 0 2534.1145281158388 387.37160417483085 0 387.37160417483085 -96.616831650387212 0 0 0 0 1033.8565361038345 -466.59471193938657 0 -466.59471193938657 614.11888291893615 0 0 0 0 414.61583653510752 -19.794231908066649 0 -19.794231908066649 310.45049287863276 0 0 0 0 371.53785420225176 -592.87049363826077 0 -592.87049363826077 71.307704209364374 0 0 0 0 1353.222621543493 1611.2819904727742 0 1611.2819904727742 1570.1172024461184 0 0 0 0 157.78744366488536 97.140795165132658 0 97.140795165132658 -41.888590324133645 0 0 0 0 159.66760692340176 117.7920577118761 0 117.7920577118761 104.09191811402223 0 0 0 0 -0.39824485097778961 11.700122756534824 0 11.700122756534824 -72.443551182876604 0 0 0 0 -173.29081634255999 118.31698239373094 0 118.31698239373094 60.689796824103951 0 0 0 0 -212.70922923032776 163.41508316264589 0 163.41508316264589 -52.108694459218441 0 0 0 0 88.526854944229854 20.294563746199401 0 20.294563746199401 -60.087579299058234 0 0 0 0 2.3448813531321093 1.8538294420536232 0 1.8538294420536232 -1.882042118399025 0 0 0 0 244.80322257533408 83.470422078777574 0 83.470422078777574 -191.74566955630468 0 0 0 0 410.76763846045651 287.86516108448586 0 287.86516108448586 -14.853458705041817 0 0 0 0 468.96356017740618 222.40107985028624 0 222.40107985028624 55.056055367982736 0 0 0 0 524.02010004783733 294.80705257760371 0 294.80705257760371 138.04241133073106 0 0 0 0 429.65102961243247 172.64051056868348 0 172.64051056868348 351.91087796555411 0 0 0 0 440.93782065990672 159.5240326101808 0 159.5240326101808 90.924915103290914 0 0 0 0 311.90996777164401 64.086237652101147 0 64.086237652101147 20.685602816200728 0 0 0 0 322.63502973303548 42.22507100591649 0 42.22507100591649 221.60840063621913 0 0 0 0 272.08018143377558 109.82735553606919 0 109.82735553606919 169.16474734350203 0 0 0 0 236.33907548198476 -4.5953797834614933 0 -4.5953797834614933 192.88486693870809 0 0 0 0 431.84817439656763 28.018659736786205 0 28.018659736786205 192.05642550356924 0 0 0 0 437.48956462080241 -3.2302795334278187 0 -3.2302795334278187 345.65083805252289 0 0 0 0 469.01760881903465 -125.82286855826305 0 -125.82286855826305 327.325424847254 0 0 0 0 520.42910340184244 -20.618363163171836 0 -20.618363163171836 227.84116737898785 0 0 0 0 482.50890940688987 -102.51731143562401 0 -102.51731143562401 240.55755860682621 0 0 0 0 352.41051007585156 67.73599139249481 0 67.73599139249481 217.96521901159815 0 0 0 0 369.02314248356561 -10.261623081556536 0 -10.261623081556536 268.14692882042351 0 0 0 0 428.07015724177472 -14.127781129453751 0 -14.127781129453751 248.24512685291074 0 0 0 0 235.07290554067004 -1.4243727202890568 0 -1.4243727202890568 283.1504194171124 0 0 0 0 219.4193112597568 48.579666056980045 0 48.579666056980045 272.80450766351464 0 0 0 0 99.300954938296854 38.157322043375444 0 38.157322043375444 177.67835221711925 0 0 0 0 111.2486864704988 -7.0580458666266566 0 -7.0580458666266566 252.35516250693348 0 0 0 0 215.65096113732943 61.219853532016799 0 61.219853532016799 166.32542625355472 0 0 0 0 238.97347634873586 48.57287095533529 0 48.57287095533529 56.322227422830053 0 0 0 0 81.898286338488106 25.086034581148084 0 25.086034581148084 172.65838050836385 0 0 0 0 -79.276677429064875 69.80565863882633 0 69.80565863882633 116.2248489755913 0 0 0 0 82.356631585460207 70.822446375152509 0 70.822446375152509 87.507066103357431 0 0 0 0 -78.116191961438744 50.684230512606007 0 50.684230512606007 39.681193199769382 0 0 0 0 -77.849009989273327 61.799980532120401 0 61.799980532120401 158.85026432313771 0 0 0 0 1.3471449047938222 -15.897249059872479 0 -15.897249059872479 160.43168905435954 0 0 0 0 12.788901478459593 -72.836569856062624 0 -72.836569856062624 285.34050506853396 0 0 0 0 11.834688451112015 -52.642107077168475 0 -52.642107077168475 139.73498234533454 0 0 0 0 -217.51523814569373 135.01244764054292 0 135.01244764054292 62.962277779073702 0 0 0 0 -83.025495156463876 33.415802491192778 0 33.415802491192778 47.41319382147617 0 0 0 0 64.863908989733318 221.91976869575956 0 221.91976869575956 55.009077644223339 0 0 0 0 -9.8092291058419505 -236.71854539887318 0 -236.71854539887318 114.16911059647646 0 0 0 0 -259.27325493649914 -58.070368125791447 0 -58.070368125791447 161.05399850825233 0 0 0 0 -327.40636935216025 99.437666648968303 0 99.437666648968303 123.23750405762408 0 0 0 0 -0.29944327193938491 2.4942118268316733 0 2.4942118268316733 22.523179309024101 0 0 0 0 33.511965149671596 87.939252129140641 0 87.939252129140641 13.817092922115989 0 0 0 0 -95.492618145683082 102.7183754987538 0 102.7183754987538 0.97912547099730318 0 0 0 0 -236.37685084485565 22.392802969554651 0 22.392802969554651 83.463151575678751 0 0 0 0 281.16226315130189 524.28259063963833 0 524.28259063963833 449.28895203291654 0 0 0 0 -166.17873395716015 -300.84056365989818 0 -300.84056365989818 746.24240390531168 0 0 0 0 223.41662979248213 -159.12991288699232 0 -159.12991288699232 -30.190476917416163 0 0 0 0 -468.38948312602588 58.317444454313545 0 58.317444454313545 359.53568451770116 0 0 0 0 -0.65913787021236203 -0.7339184101896592 0 -0.7339184101896592 -0.96879448192134987 0 0 0 0 67.615190827738843 -139.06598248731825 0 -139.06598248731825 -98.412716109194662 0 0 0 0 626.33419411888462 -331.38648670150451 0 -331.38648670150451 98.351672265229354 0 0 0 0 81.494918028125539 -54.874083741558934 0 -54.874083741558934 -41.923603679740154 0 0 0 0 11.146897287793848 1.4616778044115613 0 1.4616778044115613 0.85036439276989828 0 0 0 0 75.755290534234518 -115.07428263364545 0 -115.07428263364545 -98.683590643619027 0 0 0 0 278.43839446805214 127.32361583306829 0 127.32361583306829 -326.6141804993531 0 0 0 0 -109.02213616064546 -94.847391986807907 0 -94.847391986807907 -76.211733974865638 0 0 0 0 -38.13799511086836 -77.625061757386447 0 -77.625061757386447 -126.98927932161723 0 0 0 0 60.334938428153691 -90.736665008072123 0 -90.736665008072123 -129.26520791044641 0 0 0 0 -65.310183191773831 -148.28994892324954 0 -148.28994892324954 -79.993252479498096 0 0 0 0 12.390020204939816 0.12737657442707651 0 0.12737657442707651 -1.3083016676298671 0 0 0 0 36.668985355332552 21.405655073425521 0 21.405655073425521 -32.882683943509164 0 0 0 0 61.69938864595315 -29.37964291728531 0 -29.37964291728531 1.5472344273384806 0 0 0 0 13.730609648617246 -30.255307184815138 0 -30.255307184815138 17.66112767467439 0 0 0 0 -106.67734699149878 96.118614506530662 0 96.118614506530662 -24.09265320420468 0 0 0 0 -96.417299278109567 115.05590568958033 0 115.05590568958033 8.7964171272658405 0 0 0 0 -129.97775543027092 171.62853304084149 0 171.62853304084149 -74.202974783528759 0 0 0 0 1.6486216466833241 -3.9554124793523613 0 -3.9554124793523613 -3.0753256478417512 0 0 0 0 1.0285474515883237 3.6179152660654808 0 3.6179152660654808 28.624310908388921 0 0 0 0 -35.116879917102779 -13.402308911754972 0 -13.402308911754972 33.363315472771319 0 0 0 0 36.415905422065407 -71.869931274705323 0 -71.869931274705323 -14.736367921724195 0 0 0 0 5.5515491516971736 -4.0330957617984851 0 -4.0330957617984851 2.6819851725317632 0 0 0 0 1.8107026740985432 -2.1767168692340562 0 -2.1767168692340562 2.6108407062930219 0 0 0 0 14.386096138150606 -6.6015269529088982 0 -6.6015269529088982 -1.8347383913533122 0 0 0 0 13.440951671844232 -0.51122131944430294 0 -0.51122131944430294 7.960142919359896 0 0 0 0 3.28112625106127 1.1333259288049646 0 1.1333259288049646 -0.32256611593926721 0 0 0 0 9.2836911451456956 11.302781860495035 0 11.302781860495035 9.8323807678071304 0 0 0 0 16.534159535280196 11.476664090400845 0 11.476664090400845 -6.8159563762401376 0 0 0 0 -19.026517194171902 9.4683837957441028 0 9.4683837957441028 25.196905658962237 0 0 0 0 -78.506855643943709 64.662448375373287 0 64.662448375373287 -6.1049908589607185 0 0 0 0 2.249874793633353 104.54582538427576 0 104.54582538427576 -137.57935984122537 0 0 0 0 27.044185120408656 17.004657098355892 0 17.004657098355892 -8.1722629433995735 0 0 0 0 34.476991671203905 18.322158820682148 0 18.322158820682148 -11.044570509031473 0 0 0 0 64.746147199897678 -5.6798909867968632 0 -5.6798909867968632 2.8972815904362506 0 0 0 0 33.739364100139937 20.981237081612903 0 20.981237081612903 80.355316667422358 0 0 0 0 35.585679730029369 -57.241098066868744 0 -57.241098066868744 188.23562760750588 0 0 0 0 -0.33127167223153009 -0.77618943581568089 0 -0.77618943581568089 1.26851214247211 0 0 0 0 44.869483286718605 19.104216771298752 0 19.104216771298752 19.492681857748721 0 0 0 0 137.69628552138784 -207.87753735064442 0 -207.87753735064442 225.56402199847798 0 0 0 0 -32.254486253104915 10.219733425826917 0 10.219733425826917 101.28806294909464 0 0 0 0 38.693836701756481 -17.213501570366191 0 -17.213501570366191 -0.8126106655181502 0 0 0 0 99.572666478125029 -233.82614090321454 0 -233.82614090321454 354.22305081355898 0 0 0 0 97.976543631666573 -86.862084584817921 0 -86.862084584817921 34.876837129628825 0 0 0 0 -0.84635125384872367 -0.36942385356738328 0 -0.36942385356738328 2.996733927382131 0 0 0 0 8.5613729840952146 22.540615337827035 0 22.540615337827035 32.552998094510258 0 0 0 0 -4.5297125807992416 16.905684890957446 0 16.905684890957446 167.10867950282409 0 0 0 0 310.87004426778003 -229.34015243869101 0 -229.34015243869101 216.46394570970415 0 0 0 0 171.80154583723561 -208.43097674423757 0 -208.43097674423757 215.10166647222673 0 0 0 0 228.53976668670657 -217.53110477299927 0 -217.53110477299927 196.47673325854259 0 0 0 0 185.32400249726197 -225.01740446485235 0 -225.01740446485235 223.82100459620852 0 0 0 0 192.77634354784004 -176.99737861127213 0 -176.99737861127213 151.52959150667675 0 0 0 0 201.17633987526642 -201.27262352955009 0 -201.27262352955009 205.43856925665366 0 0 0 0 189.66393958762637 -198.17168297883455 0 -198.17168297883455 216.62888020277683 0 0 0 0 239.82713366346434 -173.8611503706031 0 -173.8611503706031 205.58899115537503 0 0 0 0 204.29266011505524 -180.57757790621378 0 -180.57757790621378 215.3106198669783 0 0 0 0 232.68492077619885 -178.42280808234329 0 -178.42280808234329 136.49799520810757 0 0 0 0 194.18069576166818 -184.44061896444279 0 -184.44061896444279 213.84821779960379 0 0 0 0 184.97514998017141 -187.35535286531569 0 -187.35535286531569 234.41605069484297 0 0 0 0 217.97708918710123 78.293674515958344 0 78.293674515958344 163.68314661404736 0 0 0 0 309.74136435274841 13.327528991865577 0 13.327528991865577 39.02930927152147 0 0 0 0 315.07268515894975 51.966710784605539 0 51.966710784605539 125.11868585539241 0 0 0 0 0.14121567170579397 -0.30273592928429593 0 -0.30273592928429593 2.1319744346425438 0 0 0 0 -90.032261932765778 12.171856092940182 0 12.171856092940182 150.44476824826017 0 0 0 0 184.67066958895884 -58.557735678186077 0 -58.557735678186077 115.29251320638309 0 0 0 0 166.66667820415751 -157.29513575655494 0 -157.29513575655494 160.42210049593484 0 0 0 0 228.40945330810695 -134.92071800646951 0 -134.92071800646951 155.91836901825218 0 0 0 0 167.82717096767647 -84.856611229076265 0 -84.856611229076265 166.06628366963105 0 0 0 0 366.5479677317453 -154.47737324890295 0 -154.47737324890295 212.13396376868513 0 0 0 0 273.38396792352432 -79.474658940081781 0 -79.474658940081781 151.92653297755169 0 0 0 0 242.60904798163574 -167.95966425934489 0 -167.95966425934489 320.82854770844733 0 0 0 0 287.45753104578034 -203.91998180306859 0 -203.91998180306859 218.56668929502848 0 0 0 0 345.09119382805511 -258.35802825476253 0 -258.35802825476253 229.4025346825174 0 0 0 0 430.95200476826722 -370.26383590806017 0 -370.26383590806017 371.91475052345959 0 0 0 0 376.61242383748322 -211.00147159499784 0 -211.00147159499784 147.3930197421314 0 0 0 0 376.65400788139937 -7.6337066542277157 0 -7.6337066542277157 22.464607157355204 0 0 0 0 319.15429196504192 -18.579185304282191 0 -18.579185304282191 91.388001996605908 0 0 0 0 629.19895443868336 -72.33430235035155 0 -72.33430235035155 2.4639443634650888 0 0 0 0 496.02123405678685 -345.27592816480865 0 -345.27592816480865 257.55696828488908 0 0 0 0 489.41211116145132 -217.41807263771943 0 -217.41807263771943 167.22545065154009 0 0 0 0 382.16238870820962 -253.39973695449771 0 -253.39973695449771 296.05533175186747 0 0 0 0 1125.6751222246639 -207.5304968490791 0 -207.5304968490791 34.800672526271228 0 0 0 0 3.2450038639445324 -3.7615253950565091 0 -3.7615253950565091 0.68371449131804951 0 0 0 0 319.68695844449394 -275.51696402734615 0 -275.51696402734615 261.65295767215048 0 0 0 0 6.0935444050846854 -14.109974702381123 0 -14.109974702381123 -5.0762028401918542 0 0 0 0 364.77916199735773 -284.57054384424464 0 -284.57054384424464 232.92541458556536 0 0 0 0 0.47266702340263578 -0.037979628680901101 0 -0.037979628680901101 6.5217999506304452 0 0 0 0 435.97741207836225 -268.62448782314368 0 -268.62448782314368 181.21631620847484 0 0 0 0 365.14129947574111 -288.76610865334851 0 -288.76610865334851 261.77599881165952 0 0 0 0 259.7257126593322 -19.177001079045112 0 -19.177001079045112 14.945417258467387 0 0 0 0 3.9461201014271268 3.9447629087758571 0 3.9447629087758571 7.8789650749709317 0 0 0 0 388.44738880166733 -234.8499237887861 0 -234.8499237887861 210.2175730986728 0 0 0 0 213.95486329511186 -237.42386652588812 0 -237.42386652588812 229.29635397715538 0 0 0 0 381.7850807994364 -317.10531613616718 0 -317.10531613616718 273.43870199497542 0 0 0 0 400.48061606934061 -267.76454174112314 0 -267.76454174112314 262.86033874470741 0 0 0 0 186.43716494586261 81.733773946762085 0 81.733773946762085 -334.92190487382322 0 0 0 0 -0.80624758764332682 1.786165621781036 0 1.786165621781036 3.3565485309630674 0 0 0 0 -132.8433092450432 31.648024696453831 0 31.648024696453831 -207.8984890284064 0 0 0 0 -293.32305894208548 394.54443709329894 0 394.54443709329894 -134.36867326304855 0 0 0 0 699.61200622976003 459.94491807395747 0 459.94491807395747 372.42907925603868 0 0 0 0 132.64034035874647 -24.033473194253929 0 -24.033473194253929 -35.501943579356066 0 0 0 0 97.911475995206274 204.72498344852693 0 204.72498344852693 -88.86801356034448 0 0 0 0 140.51058998125882 306.4124589367907 0 306.4124589367907 -236.90922947960462 0 0 0 0 410.5231719086587 -295.99590006699054 0 -295.99590006699054 129.76868900370391 0 0 0 0 469.47955445380285 127.69068290707719 0 127.69068290707719 320.14170695447501 0 0 0 0 -376.77576427496388 -130.62750933694497 0 -130.62750933694497 520.53259804695699 0 0 0 0 -446.64452289306791 114.66288958214409 0 114.66288958214409 841.75992703891461 0 0 0 0 0.17063538275975532 1.6241535227111399 0 1.6241535227111399 4.9166869901863706 0 0 0 0 154.65162321503158 418.74442854825611 0 418.74442854825611 643.78574913738703 0 0 0 0 -347.78884944299352 100.99099648349102 0 100.99099648349102 850.19119173039144 0 0 0 0 -240.68972415101598 293.95297229666448 0 293.95297229666448 939.30954217838371 0 0 0 0 -86.847072138807562 -210.22875087665307 0 -210.22875087665307 972.44743985261857 0 0 0 0 -222.27314078791824 141.61625404896404 0 141.61625404896404 1100.955001968834 0 0 0 0 -183.0449005462724 106.92833118424096 0 106.92833118424096 707.20911107778193 0 0 0 0 533.97079013999974 -385.54276370138814 0 -385.54276370138814 611.11937860056605 0 0 0 0 171.86579093882267 -171.10573609568152 0 -171.10573609568152 638.13197700006276 0 0 0 0 166.03570166337886 101.81006812838041 0 101.81006812838041 980.73653329007175 0 0 0 0 264.88268930089544 -315.89141404210932 0 -315.89141404210932 542.19122328407866 0 0 0 0 353.01999950592653 -424.18743355155402 0 -424.18743355155402 528.21572630432274 0 0 0 0 235.5982631490042 -171.86574855593244 0 -171.86574855593244 497.3313791410983 0 0 0 0 35.430012509325024 -196.64015275892007 0 -196.64015275892007 670.35834493133007 0 0 0 0 61.222036443174147 -249.80271432118889 0 -249.80271432118889 302.85654267472273 0 0 0 0 -73.639107002381934 -34.131121072257883 0 -34.131121072257883 302.31411226127966 0 0 0 0 -38.257791078378432 98.04098487498095 0 98.04098487498095 215.27064731401697 0 0 0 0 -28.537861207383685 -289.74975876687859 0 -289.74975876687859 609.83580963019858 0 0 0 0 -409.67493356436898 59.167069499232639 0 59.167069499232639 295.15457580785369 0 0 0 0 -105.40261455802101 -156.87915172817702 0 -156.87915172817702 46.399599988719274 0 0 0 0 -222.99790317930456 202.32595103805943 0 202.32595103805943 -6.5250526797303792 0 0 0 0 -134.73161284980597 79.932466297414976 0 79.932466297414976 9.3541914006964362 0 0 0 0 -220.4368275204688 160.01470518084261 0 160.01470518084261 -133.6745569925115 0 0 0 0 -217.66948140182649 209.60151246673558 0 209.60151246673558 69.300567579441122 0 0 0 0 9.6088420495788114 1.9195140203011221 0 1.9195140203011221 -8.2078845452081168 0 0 0 0 -343.08511769927281 175.06809200328826 0 175.06809200328826 35.213274884730708 0 0 0 0 -230.58703464156133 63.15434728559012 0 63.15434728559012 443.79163292418616 0 0 0 0 -97.572036177007249 187.0930169295425 0 187.0930169295425 -126.12603186404522 0 0 0 0 -166.38219207842485 249.93329219332736 0 249.93329219332736 103.41504017614534 0 0 0 0 -28.698958622075224 -139.60094895457814 0 -139.60094895457814 511.84385549026047 0 0 0 0 -12.458087271743352 8.0599822637477931 0 8.0599822637477931 12.265598986069419 0 0 0 0 47.016077580534329 433.45907611082021 0 433.45907611082021 -717.31139930679274 0 0 0 0 -216.58051710457949 156.44800053664767 0 156.44800053664767 -131.51353146778365 0 0 0 0 25.064679368324406 22.852410992620037 0 22.852410992620037 8.4775929660166138 0 0 0 0 -203.18671804368205 249.92663232094674 0 249.92663232094674 -119.40408759896286 0 0 0 0 43.748422097069124 25.707025964262471 0 25.707025964262471 23.454085357449003 0 0 0 0 11.290666363340279 41.635055872157409 0 41.635055872157409 -10.314549256620012 0 0 0 0 40.03376168220457 16.819052586237461 0 16.819052586237461 -5.9237873329608242 0 0 0 0 39.247191949223634 42.172455720531616 0 42.172455720531616 117.70416571372266 0 0 0 0 41.019204586753204 39.310841232766784 0 39.310841232766784 26.655591576582648 0 0 0 0 182.52578526176512 -51.856449742476343 0 -51.856449742476343 -274.50675577975562 0 0 0 0 60.343770915562345 -11.588973701603663 0 -11.588973701603663 13.206368551620926 0 0 0 0 9.6071917778032088 -0.93170426668444861 0 -0.93170426668444861 -15.98439924723067 0 0 0 0 59.631539710178913 -223.87102231519543 0 -223.87102231519543 -480.66854840317137 0 0 0 0 69.52757395039518 52.496519765795171 0 52.496519765795171 32.857531205909417 0 0 0 0 -324.87234381726012 118.79262711065758 0 118.79262711065758 132.82660546994339 0 0 0 0 123.8227210279365 99.671219614867141 0 99.671219614867141 -267.26137193756404 0 0 0 0 30.135633521873388 18.490726537950763 0 18.490726537950763 18.148947540971079 0 0 0 0 22.433653008103647 45.863250648479891 0 45.863250648479891 -2.918312575066011 0 0 0 0 22.050602012604941 -5.81831756115389 0 -5.81831756115389 -8.7838863690742528 0 0 0 0 20.876440975749574 9.3084778950608325 0 9.3084778950608325 14.370504276342785 0 0 0 0 41.809287818991749 10.705277499327233 0 10.705277499327233 -0.16898467209233259 0 0 0 0 2.059737023730122 -8.4929687698136149 0 -8.4929687698136149 36.563039620845302 0 0 0 0 21.981864557405061 -23.279648014959776 0 -23.279648014959776 24.039999260538025 0 0 0 0 16.925200157503156 18.815542918813314 0 18.815542918813314 20.834504876160729 0 0 0 0 31.333994375318071 85.077716377335491 0 85.077716377335491 -24.110959229528817 0 0 0 0 5.3966880341686192 -4.4789130888257205 0 -4.4789130888257205 13.187512203571714 0 0 0 0 244.80697952218907 68.436761636182382 0 68.436761636182382 -53.730153195001549 0 0 0 0 -12.659058168545016 -66.25560006674641 0 -66.25560006674641 660.41210585259978 0 0 0 0 -0.96715017488347144 -2.31316752605521 0 -2.31316752605521 -0.52769551972561146 0 0 0 0 15.745299815040198 -33.252864151621452 0 -33.252864151621452 257.48925151767253 0 0 0 0 453.2453646716167 143.16564626226682 0 143.16564626226682 82.519761565009503 0 0 0 0 5.5907940968347987 6.5552727596675311 0 6.5552727596675311 8.5954177684626636 0 0 0 0 77.913545891155081 -25.929726426633351 0 -25.929726426633351 29.835826909258685 0 0 0 0 326.32501110462545 285.9810960782213 0 285.9810960782213 236.50311879798846 0 0 0 0 11.767459901333496 382.11355436454232 0 382.11355436454232 389.6514040413399 0 0 0 0 -33.284491521531891 315.72606620656734 0 315.72606620656734 312.16190577082807 0 0 0 0 -51.834446112075966 276.25146314594463 0 276.25146314594463 277.43451511287458 0 0 0 0 -29.580409330650582 225.11457777187047 0 225.11457777187047 526.99517993736686 0 0 0 0 129.37646505477096 28.225599894135712 0 28.225599894135712 -51.990636958384584 0 0 0 0 -101.57980667213997 15.302872285734793 0 15.302872285734793 105.29862116500317 0 0 0 0 -85.302950737073843 -73.77074963053974 0 -73.77074963053974 -7.6131244291059375 0 0 0 0 -100.11241285488359 -104.01148986043802 0 -104.01148986043802 337.16958658926387 0 0 0 0 0.018476802921053803 0.8709197626463947 0 0.8709197626463947 9.2959458549219516 0 0 0 0 114.05898058545426 318.89763459039591 0 318.89763459039591 204.83509926575152 0 0 0 0 -107.00394752443754 -276.40525894123425 0 -276.40525894123425 476.08872690448834 0 0 0 0 587.34285515585725 -226.96951085361525 0 -226.96951085361525 -118.61195133753927 0 0 0 0 -327.19021432125737 338.27714333410177 0 338.27714333410177 913.94573280543864 0 0 0 0 -168.6434448087457 220.51671069186477 0 220.51671069186477 320.45909308519595 0 0 0 0 31.432138155692115 10.04527284443634 0 10.04527284443634 2.0456683997760137 0 0 0 0 -310.81920306041138 -32.235640202169634 0 -32.235640202169634 864.64465528203618 0 0 0 0 -205.86171501182616 -13.577624850716802 0 -13.577624850716802 475.11105676078205 0 0 0 0 38.935570654623007 4.0655346289611956 0 4.0655346289611956 -43.098184446868501 0 0 0 0 53.742585884931032 -2.4771659933669525 0 -2.4771659933669525 -29.180900810103935 0 0 0 0 54.42210167769008 23.737128310511508 0 23.737128310511508 -63.318172900474849 0 0 0 0 26.6092364688011 10.108606077702063 0 10.108606077702063 -32.807040709779585 0 0 0 0 74.276398016343592 3.3475859454351848 0 3.3475859454351848 -31.821013738530837 0 0 0 0 39.573583608791523 11.814619518052723 0 11.814619518052723 -33.536119767913988 0 0 0 0 50.218877696141135 -9.9062509818940043 0 -9.9062509818940043 -12.660992117536807 0 0 0 0 34.790448324434692 -11.068433224455589 0 -11.068433224455589 -7.2200956530473377 0 0 0 0 42.455437978904229 -0.60154040004545095 0 -0.60154040004545095 -23.493685598488128 0 0 0 0 32.948778621896054 -10.460398422603248 0 -10.460398422603248 -6.4585431018690542 0 0 0 0 33.576192159278435 -7.4549274628532203 0 -7.4549274628532203 -17.053473053559628 0 0 0 0 39.276748293821584 36.094290371765055 0 36.094290371765055 -20.125951349437315 0 0 0 0 42.819004378074311 10.603682967493761 0 10.603682967493761 2.0309983315318321 0 0 0 0 60.920950818777783 12.149170809384259 0 12.149170809384259 -55.173720618554626 0 0 0 0 41.104593976572687 10.911657557833134 0 10.911657557833134 1.8179398954400838 0 0 0 0 44.083490289611291 14.683091338269946 0 14.683091338269946 -38.365633689296374 0 0 0 0 55.843373540446919 45.332505684948615 0 45.332505684948615 -21.647859100662117 0 0 0 0 77.002109072607709 23.171237998517199 0 23.171237998517199 -38.805844183907496 0 0 0 0 62.531060192086443 12.754873488701605 0 12.754873488701605 -30.122809762006 0 0 0 0 46.292396397519042 39.552757778433033 0 39.552757778433033 -24.238651511591115 0 0 0 0 97.133371625619475 50.159277458610632 0 50.159277458610632 -23.51300904969753 0 0 0 0 36.919078202787205 58.279857835334042 0 58.279857835334042 1.3015254987311664 0 0 0 0 52.624541635275818 59.831402700734543 0 59.831402700734543 2.3721749749785204 0 0 0 0 51.08964796807777 78.674590885044722 0 78.674590885044722 -2.1283163014368256 0 0 0 0 86.562687359888514 37.135356242749822 0 37.135356242749822 -38.124150688240206 0 0 0 0 118.53267212987703 9.6073456905314742 0 9.6073456905314742 -30.979764485844555 0 0 0 0 149.62763570577226 135.96421396262872 0 135.96421396262872 2.6710010020897244 0 0 0 0 254.75893705518683 24.050519358174824 0 24.050519358174824 -37.869766681185055 0 0 0 0 39.077180660500744 78.207005131859205 0 78.207005131859205 -3.7774104449872539 0 0 0 0 74.527966050445684 41.205626378631678 0 41.205626378631678 114.04182975292088 0 0 0 0 72.462140094969072 82.385426698998117 0 82.385426698998117 -90.361371306821638 0 0 0 0 29.441568543305038 -17.940984487995593 0 -17.940984487995593 13.334566422508942 0 0 0 0 28.788941887767578 -13.410246695387741 0 -13.410246695387741 4.9725465870624248 0 0 0 0 21.526250304857967 -10.426218149183796 0 -10.426218149183796 6.4895173912482278 0 0 0 0 43.592254232004052 -22.282997491077595 0 -22.282997491077595 5.800451213624001 0 0 0 0 30.394820474888547 -16.918872484333974 0 -16.918872484333974 8.5413649575530144 0 0 0 0 55.818910938789486 -35.980164557583521 0 -35.980164557583521 20.943158447612404 0 0 0 0 58.930358246303513 -11.695284040765273 0 -11.695284040765273 -12.65123060561546 0 0 0 0 79.037646198368748 -28.839442026000597 0 -28.839442026000597 -2.5372849531440806 0 0 0 0 63.709774493341683 -24.364120236646158 0 -24.364120236646158 0.47019075294724644 0 0 0 0 38.984078757741372 -77.930624806681408 0 -77.930624806681408 109.47604230089263 0 0 0 0 179.37480163914734 -90.598546556416636 0 -90.598546556416636 24.490172343943414 0 0 0 0 2.3122459753234068 -0.76506479009643868 0 -0.76506479009643868 0.036025446227008803 0 0 0 0 17.722493425502762 7.9717640706541602 0 7.9717640706541602 20.872973118113805 0 0 0 0 6.3536169090248222 -0.38942361499027811 0 -0.38942361499027811 -0.771630031300234 0 0 0 0 25.229205415729666 -3.50445287575576 0 -3.50445287575576 -4.2922084691053897 0 0 0 0 21.371298486210435 -8.0484566212164736 0 -8.0484566212164736 10.694229742906828 0 0 0 0 18.213424074172508 -19.052788638499806 0 -19.052788638499806 40.340725612314145 0 0 0 0 7.2148174801259302 -6.6764624960405854 0 -6.6764624960405854 12.876181956734399 0 0 0 0 3.7622703565011761 7.4604069837355382 0 7.4604069837355382 5.6875964775172179 0 0 0 0 1.3146484721326601 4.5572297103610762 0 4.5572297103610762 -1.1856311162873461 0 0 0 0 17.985764716453559 -3.7421731222505059 0 -3.7421731222505059 4.8795588522771141 0 0 0 0 13.025534168293234 -9.7531367823548862 0 -9.7531367823548862 19.563694893558932 0 0 0 0 3.771068888308946 -13.218203628550327 0 -13.218203628550327 -54.774974651196345 0 0 0 0 -132.72548370351433 69.372314034651481 0 69.372314034651481 -203.86628901971017 0 0 0 0 78.493833045431529 -18.189060233281452 0 -18.189060233281452 -216.91368448464891 0 0 0 0 14.824848111107713 -82.862601525052014 0 -82.862601525052014 2.8947010551910353 0 0 0 0 11.945065186162537 -39.024882649902366 0 -39.024882649902366 130.86231139274605 0 0 0 0 9.2009208868485075 -105.72278958459688 0 -105.72278958459688 107.23198675602907 0 0 0 0 2.0014878871317592 -0.028141580722930826 0 -0.028141580722930826 -1.2657058645319097 0 0 0 0 29.571492557268357 9.1368733383787912 0 9.1368733383787912 -10.603895680877031 0 0 0 0 18.166707258496899 -32.145774524986791 0 -32.145774524986791 -45.460465219908883 0 0 0 0 -32.712476021493785 -75.3601363337566 0 -75.3601363337566 -155.13798467315974 0 0 0 0 22.875811974576209 -91.739315684536109 0 -91.739315684536109 -165.61640859258569 0 0 0 0 133.75594296380586 103.70036031396694 0 103.70036031396694 2.9354077585242493 0 0 0 0 14.462550434949662 -16.403574192538485 0 -16.403574192538485 -111.2484109768975 0 0 0 0 161.41510275639303 67.372034522472404 0 67.372034522472404 -161.28976789135868 0 0 0 0 147.08165596810431 1.2714804355996421 0 1.2714804355996421 -208.54911411845615 0 0 0 0 80.341097455238923 23.951866879378485 0 23.951866879378485 -176.53880615406979 0 0 0 0 83.213812104266253 34.384158192596487 0 34.384158192596487 -278.58126428208243 0 0 0 0 144.42083503607955 94.984976439485479 0 94.984976439485479 -218.6267043988355 0 0 0 0 187.87413314462174 -6.0367064735680742 0 -6.0367064735680742 -243.61611489750067 0 0 0 0 -4.7795148848090321 47.944033292191307 0 47.944033292191307 -190.25855784905161 0 0 0 0 59.490970821389055 -6.7775175115373258 0 -6.7775175115373258 -34.514214984929822 0 0 0 0 8.738319378302549 90.612404793656879 0 90.612404793656879 -220.61846781687609 0 0 0 0 348.20824641986837 54.168745168456326 0 54.168745168456326 -181.60748117336425 0 0 0 0 254.6907327578665 -119.17428955852438 0 -119.17428955852438 -55.907398794226083 0 0 0 0 190.09574722361867 -82.160776831512976 0 -82.160776831512976 -265.50129576510471 0 0 0 0 154.43587593520351 6.2885096635095579 0 6.2885096635095579 -205.30448018708103 0 0 0 0 172.31554689871155 -4.2294451655900218 0 -4.2294451655900218 -199.2243444906444 0 0 0 0 164.55323852338188 -63.826882461313289 0 -63.826882461313289 -218.92856476600673 0 0 0 0 164.04027762331043 -50.282946646800184 0 -50.282946646800184 -360.65245025532204 0 0 0 0 45.570446509096655 -42.077049088059539 0 -42.077049088059539 -283.36628421973523 0 0 0 0 54.636253262666287 -142.68432315581231 0 -142.68432315581231 -301.30841218022726 0 0 0 0 0.31183291216510156 -0.94149604423754596 0 -0.94149604423754596 -0.94565540329263253 0 0 0 0 -211.00850060627272 -201.16440264130233 0 -201.16440264130233 -187.00138040363709 0 0 0 0 -206.86954397257068 172.588851567446 0 172.588851567446 -391.53211863745901 0 0 0 0 36.88374222186394 -132.87332739979593 0 -132.87332739979593 -637.60715142976369 0 0 0 0 -5.9857950191767486 21.889950879768207 0 21.889950879768207 -278.54839961079051 0 0 0 0 -162.04510437781573 119.58729443264792 0 119.58729443264792 -180.68651807412698 0 0 0 0 -339.66022151406651 -44.10731295805499 0 -44.10731295805499 -238.375003048699 0 0 0 0 -108.92686159631921 -18.722727320426543 0 -18.722727320426543 -244.14117603308387 0 0 0 0 -43.545699893860728 9.0995401508971554 0 9.0995401508971554 -79.794668364816971 0 0 0 0 -36.013103518707794 -21.286394114444647 0 -21.286394114444647 -228.93563572897608 0 0 0 0 -129.47204883232916 46.694546522854353 0 46.694546522854353 -72.100905579402479 0 0 0 0 -15.677540088690876 65.911688837454449 0 65.911688837454449 -264.24134299823527 0 0 0 0 -65.842284481441311 -71.817180065738285 0 -71.817180065738285 -571.16903231960623 0 0 0 0 -78.730031118931947 233.49414843024624 0 233.49414843024624 -546.83454943123684 0 0 0 0 0.17506863211471568 -1.3111614186083642 0 -1.3111614186083642 -1.9338311880506414 0 0 0 0 -17.980494498569897 93.110658921618324 0 93.110658921618324 -294.94948077791196 0 0 0 0 -17.611617796676001 92.579641889004051 0 92.579641889004051 -313.21830700465944 0 0 0 0 2.9613623890181771 92.545090101705682 0 92.545090101705682 -367.18033780398173 0 0 0 0 36.771852030709852 26.282534573850626 0 26.282534573850626 -356.7936898859333 0 0 0 0 105.85862528624057 -180.11710679936118 0 -180.11710679936118 -615.06195781074894 0 0 0 0 -17.199996424154961 16.087459213836155 0 16.087459213836155 -321.50331292250485 0 0 0 0 162.90300810271947 37.017842741786353 0 37.017842741786353 125.56083565137305 0 0 0 0 95.090081381764321 53.918786333053959 0 53.918786333053959 -317.27640834858767 0 0 0 0 0.9325100211582793 1.0381568239985484 0 1.0381568239985484 -2.1248955931490769 0 0 0 0 53.082651116528723 99.179402076245651 0 99.179402076245651 -198.71945079231955 0 0 0 0 -43.394833483471302 -12.381042464393659 0 -12.381042464393659 10.688623054358686 0 0 0 0 88.973195123087862 -68.564994477001221 0 -68.564994477001221 -21.080724782571451 0 0 0 0 304.71922281457591 -400.13158273659701 0 -400.13158273659701 239.80562053881022 0 0 0 0 1003.3217596989853 137.27399726360727 0 137.27399726360727 -136.7142562218055 0 0 0 0 -1.2642191954287441 -1.8122399863496952 0 -1.8122399863496952 -6.7096793876996017 0 0 0 0 102.34857114781335 -54.611337864093457 0 -54.611337864093457 93.610434752719812 0 0 0 0 84.783137708913273 -41.551294550660486 0 -41.551294550660486 107.91658076369276 0 0 0 0 -11.52992239483865 -10.164697361495655 0 -10.164697361495655 23.445833466922068 0 0 0 0 -29.702324604033493 -1.4522298000106275 0 -1.4522298000106275 19.566373231449688 0 0 0 0 3.868359426225652 14.06597053377601 0 14.06597053377601 3.971629222485717 0 0 0 0 -26.731232475111028 35.34678904978864 0 35.34678904978864 13.161662544029696 0 0 0 0 -14.503156869133818 77.582949708817523 0 77.582949708817523 10.186307416002819 0 0 0 0 -44.29487156419782 68.551776650156853 0 68.551776650156853 17.310853430411044 0 0 0 0 -56.48773699819867 101.67748194093724 0 101.67748194093724 -59.897562006842691 0 0 0 0 -17.164089476325898 24.044787267298489 0 24.044787267298489 -0.55961303106823834 0 0 0 0 -92.284909065270767 -12.977693004223681 0 -12.977693004223681 -17.803071423355959 0 0 0 0 1468.5945262716432 474.36982298197631 0 474.36982298197631 -360.58637045890464 0 0 0 0 925.04598018806428 563.70100592530889 0 563.70100592530889 -64.669065117278478 0 0 0 0 24.220471026703308 7.8493487117341374 0 7.8493487117341374 1.01563839850769 0 0 0 0 21.968264772032853 0.38460180157926516 0 0.38460180157926516 -18.723358409253251 0 0 0 0 2.5773386602522805 -3.2614679679131768 0 -3.2614679679131768 9.0530748041131801 0 0 0 0 20.644024562031319 15.071080876011635 0 15.071080876011635 8.5796253492096355 0 0 0 0 198.96487187189632 -152.64994057028161 0 -152.64994057028161 528.48860481895099 0 0 0 0 3.1473740910569532 9.0186827557761831 0 9.0186827557761831 12.48299201049335 0 0 0 0 1542.1579556311808 -238.12286694384352 0 -238.12286694384352 -532.65478226182313 0 0 0 0 2048.6871119521929 -130.14997738186878 0 -130.14997738186878 -73.751687015468633 0 0 0 0 1915.1768533388531 691.56921705130753 0 691.56921705130753 917.70159876318212 0 0 0 0 1089.2064388759172 617.75219008787803 0 617.75219008787803 367.68240305392374 0 0 0 0 1.9445164630359955 5.5648720355963164 0 5.5648720355963164 6.9434776891031191 0 0 0 0 1531.0415087075744 1170.019982395808 0 1170.019982395808 808.861138393484 0 0 0 0 2056.2688566739307 822.87169338446097 0 822.87169338446097 -94.382549555792139 0 0 0 0 1972.8916705916054 625.48762103731997 0 625.48762103731997 -258.6045514110383 0 0 0 0 1905.961450920895 412.19023513142298 0 412.19023513142298 63.088085269754629 0 0 0 0 -115.22338849083462 190.55817820669509 0 190.55817820669509 -187.03848145122691 0 0 0 0 -383.74180915227043 -187.96228752265228 0 -187.96228752265228 165.07330354715884 0 0 0 0 -200.78461403284746 307.19912723186553 0 307.19912723186553 -220.94257706238523 0 0 0 0 1.7787370688355537 11.608563783982873 0 11.608563783982873 21.901439946389988 0 0 0 0 -374.9706661746377 242.01917313239167 0 242.01917313239167 -23.394314748622946 0 0 0 0 -300.23073532061971 199.31527693209807 0 199.31527693209807 58.426004166083999 0 0 0 0 95.908579695438675 49.227188355719022 0 49.227188355719022 2.2311624341014067 0 0 0 0 -93.69465698361455 -9.6135058170694663 0 -9.6135058170694663 239.97361799532609 0 0 0 0 207.79695791168115 18.605301085787769 0 18.605301085787769 172.43978372070501 0 0 0 0 366.58952682062227 -191.81414827630931 0 -191.81414827630931 324.14181325365865 0 0 0 0 511.06364264641888 -287.40102839648307 0 -287.40102839648307 279.61509076148286 0 0 0 0 347.57173506442632 -225.03616364821619 0 -225.03616364821619 273.30480998994062 0 0 0 0 -14.037871639171499 -32.310334715962654 0 -32.310334715962654 308.55818618384853 0 0 0 0 268.20027701246727 -304.4260966973178 0 -304.4260966973178 442.27348737007674 0 0 0 0 477.58082579186157 -201.71159425808924 0 -201.71159425808924 266.02473751400248 0 0 0 0 27.844667148776352 31.22124792280465 0 31.22124792280465 -221.32700305760864 0 0 0 0 -79.554535067363759 237.3273503139601 0 237.3273503139601 227.99726452863376 0 0 0 0 24.657807253228725 11.672275187406676 0 11.672275187406676 2.8912990057903891 0 0 0 0 3.8272880991535203 935.64165959456125 0 935.64165959456125 -877.3089843479579 0 0 0 0 65.116504690726288 34.053666818105285 0 34.053666818105285 -61.095725448887833 0 0 0 0 6.5296353929443285 6.8552468347161266 0 6.8552468347161266 9.9533977023538682 0 0 0 0 21.147338524446241 9.7545090653657098 0 9.7545090653657098 52.378435430340232 0 0 0 0 57.430694708062219 10.419231658655235 0 10.419231658655235 8.2318172549214523 0 0 0 0 25.264183967155986 82.381906083278182 0 82.381906083278182 155.87611182005162 0 0 0 0 -26.503369749290869 -50.658124835365015 0 -50.658124835365015 36.333797163812505 0 0 0 0 54.265823990979698 254.06765259029544 0 254.06765259029544 624.27022617947569 0 0 0 0 745.07524081270094 625.75123136973889 0 625.75123136973889 363.21669737338561 0 0 0 0 557.74454845547734 376.2685422103059 0 376.2685422103059 62.050081028576642 0 0 0 0 392.46724481611454 285.9694681548981 0 285.9694681548981 65.686390141409973 0 0 0 0 251.46427653718274 -118.81230576718008 0 -118.81230576718008 -223.83284343209294 0 0 0 0 1022.4291435154737 21.296378287287553 0 21.296378287287553 -211.02818780518146 0 0 0 0 -369.10862960640225 -251.33940202077474 0 -251.33940202077474 13.606347690051734 0 0 0 0 250.5430843087961 -36.912112780718417 0 -36.912112780718417 -38.371814016993085 0 0 0 0 -80.311898477186332 -860.27574061898076 0 -860.27574061898076 -352.41867547019865 0 0 0 0 -46.629922085732687 8.889891434434162 0 8.889891434434162 -15.003896026906204 0 0 0 0 1091.3595570155012 1068.0897114352947 0 1068.0897114352947 670.05203080126603 0 0 0 0 1078.7724075874139 179.31478555578951 0 179.31478555578951 -524.01940813689907 0 0 0 0 2088.9365941676369 998.79980368807173 0 998.79980368807173 -61.932391864956116 0 0 0 0 2839.326524347649 -713.42009265642446 0 -713.42009265642446 -1562.075635058939 0 0 0 0 1027.2523660981387 298.04073949873577 0 298.04073949873577 652.44534123054927 0 0 0 0 -182.81700673991145 59.597321386097583 0 59.597321386097583 61.905188906692167 0 0 0 0 7.8463466960000687 3.0651142274733587 0 3.0651142274733587 -6.7321425917854558 0 0 0 0 80.638257883721963 140.08026847081942 0 140.08026847081942 -125.67588680721792 0 0 0 0 7.8157320967749229 4.3539221025457664 0 4.3539221025457664 0.70507656677697517 0 0 0 0 -41.888015792574151 21.162307105844604 0 21.162307105844604 -47.846395943350217 0 0 0 0 -42.777529913553735 15.941517928919382 0 15.941517928919382 -44.820975100035298 0 0 0 0 -59.9216525881493 12.529592595212762 0 12.529592595212762 -38.988915103340105 0 0 0 0 -44.724958153849002 -0.24276995649915989 0 -0.24276995649915989 -8.8836923860417301 0 0 0 0 -36.432263727037935 -13.447584569283208 0 -13.447584569283208 -16.441862616847629 0 0 0 0 -128.39621310518123 10.432526450663772 0 10.432526450663772 76.889066272117816 0 0 0 0 -73.860191027197288 -119.16436252730819 0 -119.16436252730819 190.73848114264001 0 0 0 0 508.14756568646408 111.86259401460757 0 111.86259401460757 -221.37082055296491 0 0 0 0 14.941410245897714 25.656886865075649 0 25.656886865075649 -74.222873487975903 0 0 0 0 170.24318216956453 -50.431491901508707 0 -50.431491901508707 -37.312116622403664 0 0 0 0 97.270599708281225 -113.08091546361516 0 -113.08091546361516 142.57095552517239 0 0 0 0 44.316337354830466 -83.533811894943938 0 -83.533811894943938 61.301501973591257 0 0 0 0 44.747102555760648 -53.130462817452099 0 -53.130462817452099 81.080126442838264 0 0 0 0 173.26177641229697 -136.2696927925345 0 -136.2696927925345 62.176321735400961 0 0 0 0 1706.6549758187466 -119.05625165363722 0 -119.05625165363722 -1367.6825262986999 0 0 0 0 13.047542259544429 3.9822327398783344 0 3.9822327398783344 0.63853072388011345 0 0 0 0 316.14797514106613 517.35868979058387 0 517.35868979058387 846.90572842254232 0 0 0 0 -592.43121102670193 -375.04364937589338 0 -375.04364937589338 217.29166482633491 0 0 0 0 1675.6047073385707 -6.849238205065376 0 -6.849238205065376 191.34604193675841 0 0 0 0 834.7166356081143 -327.82133462553293 0 -327.82133462553293 136.17236980571533 0 0 0 0 1600.6074105584048 -194.18488482094267 0 -194.18488482094267 -185.97992493675747 0 0 0 0 1575.6771986246113 459.22014330036075 0 459.22014330036075 467.63358324187584 0 0 0 0 207.61334064526454 -461.04897082660221 0 -461.04897082660221 991.24636823906667 0 0 0 0 1400.9056279323122 -521.08871972730549 0 -521.08871972730549 318.73302651888116 0 0 0 0 692.78856131185603 -440.05136226338868 0 -440.05136226338868 322.11492135874664 0 0 0 0 648.91281894975691 163.61546226506312 0 163.61546226506312 375.82675831943789 0 0 0 0 1123.3517821935529 44.50637579261479 0 44.50637579261479 220.40933653927164 0 0 0 0 670.95940838124079 65.294529602561397 0 65.294529602561397 261.86386002301651 0 0 0 0 598.50725586871704 -71.347218618804334 0 -71.347218618804334 196.22189213356023 0 0 0 0 659.54289776239602 -125.4776860850734 0 -125.4776860850734 234.17006224596054 0 0 0 0 250.9858093104267 30.256965787499212 0 30.256965787499212 351.65711734915283 0 0 0 0 412.45604826659837 99.824728515565994 0 99.824728515565994 322.20481157428367 0 0 0 0 449.69894363274216 97.59886534313182 0 97.59886534313182 366.16142467695545 0 0 0 0 628.85371730997576 142.44609369291629 0 142.44609369291629 372.05111216140085 0 0 0 0 450.30111149981872 186.4933540029291 0 186.4933540029291 440.50885068561092 0 0 0 0 180.50755184137961 95.54997811396106 0 95.54997811396106 460.81565170495742 0 0 0 0 173.76070908800466 84.867862148250651 0 84.867862148250651 479.52639247694697 0 0 0 0 39.789134453356382 -20.038840303665211 0 -20.038840303665211 451.71448459118164 0 0 0 0 200.21324923180509 225.69635825098521 0 225.69635825098521 765.51122589869783 0 0 0 0 -51.756179672192957 -182.84431319381315 0 -182.84431319381315 446.78134093582594 0 0 0 0 9.1806040747429165 1.5334483413375519 0 1.5334483413375519 -1.7985923239408266 0 0 0 0 425.13707508039079 -282.84524074908722 0 -282.84524074908722 228.73586751351877 0 0 0 0 150.33495784174011 122.77508556345174 0 122.77508556345174 592.94284735903966 0 0 0 0 -100.16875802940922 -56.658165051680044 0 -56.658165051680044 563.81764970956101 0 0 0 0 76.314328881562687 71.97853178538935 0 71.97853178538935 643.28061649993651 0 0 0 0 -215.41748835326871 -68.11306973214414 0 -68.11306973214414 703.37527190492983 0 0 0 0 -234.16488009545719 18.628974496152296 0 18.628974496152296 722.7787233587278 0 0 0 0 488.03958224400412 351.58813346252646 0 351.58813346252646 758.11297719364393 0 0 0 0 473.0068296877289 365.76381881130328 0 365.76381881130328 651.96081143578976 0 0 0 0 59.065706821536878 163.62286911095362 0 163.62286911095362 695.20866438803387 0 0 0 0 -127.24100255320081 -206.33973370333206 0 -206.33973370333206 278.30756436870752 0 0 0 0 223.08224767669162 -86.244017420538739 0 -86.244017420538739 145.55370002452673 0 0 0 0 59.342452244833112 -210.81479040305658 0 -210.81479040305658 220.37012433093514 0 0 0 0 -218.8621112456749 -66.049041605377397 0 -66.049041605377397 231.12424083048245 0 0 0 0 -197.94553487451049 -145.47697461787493 0 -145.47697461787493 290.49203838085305 0 0 0 0 -99.655430133570917 -117.22776230898216 0 -117.22776230898216 192.40906048854049 0 0 0 0 -3.1239227683472564 -88.23943480745038 0 -88.23943480745038 390.9735149382484 0 0 0 0 22.465111680299742 3.933080858614062 0 3.933080858614062 -20.608003601481784 0 0 0 0 31.404835402485332 -112.42092364991731 0 -112.42092364991731 354.37087275189401 0 0 0 0 16.723285536271305 8.2574101403907605 0 8.2574101403907605 2.2444605045857902 0 0 0 0 36.31858482278767 -89.507865368637795 0 -89.507865368637795 385.4907612094994 0 0 0 0 62.920180786895799 -42.111206283389947 0 -42.111206283389947 464.40366285432964 0 0 0 0 128.42204979345115 -7.8787610656045217 0 -7.8787610656045217 376.92018086492317 0 0 0 0 26.146457509923493 -78.608765228364518 0 -78.608765228364518 432.38411756907044 0 0 0 0 31.743094619771 -46.055618372467052 0 -46.055618372467052 446.5757125795792 0 0 0 0 38.825130979152163 -59.501193858961869 0 -59.501193858961869 400.90219855239775 0 0 0 0 12.751126402297814 -95.1614750597073 0 -95.1614750597073 352.40506939579245 0 0 0 0 66.998866884883682 -23.050852138226332 0 -23.050852138226332 330.94176706830649 0 0 0 0 69.09137527832354 -32.661051933800081 0 -32.661051933800081 369.22397448726724 0 0 0 0 -11.163369330424757 -56.593141250683857 0 -56.593141250683857 356.65320318510862 0 0 0 0 -14.432406236919633 -96.077992481202045 0 -96.077992481202045 392.07127324568864 0 0 0 0 21.809300352921127 -0.02852589730832733 0 -0.02852589730832733 -10.157007107952722 0 0 0 0 24.233814734601765 8.0872769805101825 0 8.0872769805101825 -22.340196456090553 0 0 0 0 23.200705325356921 -0.23751449731212304 0 -0.23751449731212304 -11.167254605708422 0 0 0 0 16.619463761002407 6.2294499998449737 0 6.2294499998449737 -14.956977052260072 0 0 0 0 23.79564435116481 0.51960598071218556 0 0.51960598071218556 -17.545192257631243 0 0 0 0 -44.990949928047485 34.841738038194741 0 34.841738038194741 -68.17593914576409 0 0 0 0 -25.965365666837897 8.7336153303500623 0 8.7336153303500623 -65.992717806531076 0 0 0 0 23.449781806921237 -6.8284523609986536 0 -6.8284523609986536 0.97377882775526814 0 0 0 0 17.996722815951216 2.6084342705688073 0 2.6084342705688073 -5.5173241219094962 0 0 0 0 -149.92495936259365 77.625996831638759 0 77.625996831638759 -10.076846988808938 0 0 0 0 5.3536645039695117 4.4767494494826394 0 4.4767494494826394 -3.6648171237408049 0 0 0 0 28.405425449149334 -8.4992723101333922 0 -8.4992723101333922 -4.7214166821418075 0 0 0 0 8.4452345031217249 6.4729793360350527 0 6.4729793360350527 4.1816641182920344 0 0 0 0 -19.698575378132773 10.050119144896186 0 10.050119144896186 -20.398393390924866 0 0 0 0 -5.5543531849398278 -17.35992061563411 0 -17.35992061563411 -14.826481011293481 0 0 0 0 -21.108848377378308 -9.8701519512671894 0 -9.8701519512671894 -33.161188154547062 0 0 0 0 -40.827728826116072 -14.244927096079437 0 -14.244927096079437 -3.8667824834502653 0 0 0 0 36.165684415769647 30.503899344405227 0 30.503899344405227 -28.490510483413345 0 0 0 0 25.512571854254929 -3.4209445567032617 0 -3.4209445567032617 5.4583811856764441 0 0 0 0 29.017907592380652 -3.9363821393385479 0 -3.9363821393385479 -2.0440763572323704 0 0 0 0 24.378690645709867 -6.4845376871498956 0 -6.4845376871498956 -1.6020452095162909 0 0 0 0 25.984981849469477 -8.7071145577897369 0 -8.7071145577897369 -2.3130011833718527 0 0 0 0 24.511860630125739 -5.8388843217903741 0 -5.8388843217903741 -1.3445591231535445 0 0 0 0 24.96716426081548 -4.0042734125936477 0 -4.0042734125936477 -4.5700611374713844 0 0 0 0 27.729787149219192 -6.7964509947129272 0 -6.7964509947129272 -7.0186790532045507 0 0 0 0 2.4692643514565589 2.9792110686139921 0 2.9792110686139921 0.57303747649810788 0 0 0 0 19.637700999650406 -5.9216210544464047 0 -5.9216210544464047 7.5566419625920389 0 0 0 0 -31.61244683561381 24.244718620093067 0 24.244718620093067 11.332808028050749 0 0 0 0 -26.884931450244039 5.0886583018636884 0 5.0886583018636884 19.475341113523882 0 0 0 0 7.3855818612767337 5.0451881625296835 0 5.0451881625296835 -1.5132204381667496 0 0 0 0 19.63702094645123 -7.3335093367459194 0 -7.3335093367459194 10.479293211433742 0 0 0 0 22.344324129342567 -8.9850086339451991 0 -8.9850086339451991 7.3364665683525345 0 0 0 0 21.569001669675345 -7.7118209986770125 0 -7.7118209986770125 5.7321535933924679 0 0 0 0 24.090171431351337 -8.2935254744188569 0 -8.2935254744188569 5.035967655571767 0 0 0 0 22.394625941058621 -6.6266185226581911 0 -6.6266185226581911 5.4398283078135137 0 0 0 0 -12.935864803817822 -8.7060535640121088 0 -8.7060535640121088 -1.6763507195564671 0 0 0 0 54.436823626805563 55.985197599220555 0 55.985197599220555 -62.458761808351028 0 0 0 0 -13.89764736223151 20.810731324287644 0 20.810731324287644 19.557337236347848 0 0 0 0 45.854704685654724 6.2116793560999213 0 6.2116793560999213 0.11533003656541041 0 0 0 0 -38.810346714250045 15.274177676047657 0 15.274177676047657 24.58430864085949 0 0 0 0 -10.842690732781193 4.7498621167858346 0 4.7498621167858346 -8.6639085010478993 0 0 0 0 -0.59522536642907653 -12.735236589438045 0 -12.735236589438045 19.042374783726771 0 0 0 0 -1.3560951147009348 2.1791266376129181 0 2.1791266376129181 0.0074112067338580195 0 0 0 0 -5.5546173286275007 0.47030235981173973 0 0.47030235981173973 -6.0093707166493004 0 0 0 0 4.8136324860589355 3.0498278412672022 0 3.0498278412672022 -1.1275029755726855 0 0 0 0 3.9163774221272547 1.461287108047955 0 1.461287108047955 -1.4227420047746993 0 0 0 0 -0.43847743514925241 3.025751968680197 0 3.025751968680197 -2.1137725615117233 0 0 0 0 -114.71204158879118 89.926507931427295 0 89.926507931427295 -116.34121810765913 0 0 0 0 -9.6177939002373023 101.5977689814772 0 101.5977689814772 -164.31661602275062 0 0 0 0 -124.74692596627574 16.107931871283199 0 16.107931871283199 -193.9014712945559 0 0 0 0 -78.542885558512353 36.788086858253564 0 36.788086858253564 -334.147825202067 0 0 0 0 23.268572091925307 81.296310615706716 0 81.296310615706716 -551.67923146011799 0 0 0 0 -263.01664536763565 -162.41107778985406 0 -162.41107778985406 -178.35933959331135 0 0 0 0 -177.55867078866868 -283.61370565369634 0 -283.61370565369634 -506.40620247105471 0 0 0 0 -1.1674155452926129 0.16260612724460088 0 0.16260612724460088 -2.7011929033176596 0 0 0 0 -134.21564889228102 59.718491086969266 0 59.718491086969266 -52.459399082321852 0 0 0 0 -102.04204827161448 -101.55521443360794 0 -101.55521443360794 -151.11239607410744 0 0 0 0 28.626450134834158 106.17188310451229 0 106.17188310451229 -147.1155075599288 0 0 0 0 114.13588070919104 27.578499919365697 0 27.578499919365697 -335.18108465075647 0 0 0 0 -41.732042258488946 -20.954472053400536 0 -20.954472053400536 -96.841442682662091 0 0 0 0 -69.292976616488886 -84.216740558052152 0 -84.216740558052152 406.19841252926017 0 0 0 0 452.77748772759514 350.62667798863117 0 350.62667798863117 -27.013939817382493 0 0 0 0 374.51509083015844 159.19407735518848 0 159.19407735518848 -33.408040241321032 0 0 0 0 374.18177251286397 161.78016725492 0 161.78016725492 -50.395765881414263 0 0 0 0 151.18583339118049 158.23140046090748 0 158.23140046090748 165.21007738041635 0 0 0 0 -0.092379585765598904 1.0237485015711369 0 1.0237485015711369 -0.13947428846846452 0 0 0 0 3.1101691568464958 18.207981995728744 0 18.207981995728744 49.585634235564612 0 0 0 0 249.77968873271311 73.383137167983591 0 73.383137167983591 -91.348884480035849 0 0 0 0 65.076295131020743 69.133091037464794 0 69.133091037464794 56.932804918013062 0 0 0 0 252.6484150303877 59.704112724017705 0 59.704112724017705 -26.367792827964877 0 0 0 0 34.22298376766048 1.9636691762935925 0 1.9636691762935925 -0.69353857700480148 0 0 0 0 609.74715750082396 115.02314288027196 0 115.02314288027196 -131.79087294952114 0 0 0 0 252.22684536969609 163.07269416505278 0 163.07269416505278 -13.526052215157961 0 0 0 0 238.98434265262404 166.84605194804556 0 166.84605194804556 65.425624354592856 0 0 0 0 112.62650000517897 68.771998696334776 0 68.771998696334776 -5.3687858518419489 0 0 0 0 122.41582386643495 42.826531090085155 0 42.826531090085155 13.233125267187006 0 0 0 0 300.91620110923395 49.680863698039957 0 49.680863698039957 -36.155030647050125 0 0 0 0 297.27813322323345 71.840624256427191 0 71.840624256427191 -153.4375440050444 0 0 0 0 565.49869086154467 -43.372545099063359 0 -43.372545099063359 -105.48611670228138 0 0 0 0 9.4000423851692858 4.0363376032842027 0 4.0363376032842027 2.3991737550535905 0 0 0 0 326.380662813659 -186.76771268662162 0 -186.76771268662162 64.846956249442883 0 0 0 0 58.127241152051283 49.865420749819151 0 49.865420749819151 0.59154385025340162 0 0 0 0 75.560906809820153 -56.37779608665096 0 -56.37779608665096 41.921402479756125 0 0 0 0 40.061671564224525 26.869697187533802 0 26.869697187533802 -28.222240151547794 0 0 0 0 49.065421506908024 45.468091369798458 0 45.468091369798458 75.588742754320037 0 0 0 0 37.535324717697222 68.258993543170618 0 68.258993543170618 69.956019864618156 0 0 0 0 27.335519814521518 11.578508728674507 0 11.578508728674507 1.7225813819478981 0 0 0 0 40.131837645123596 83.099956202049498 0 83.099956202049498 50.064422089241134 0 0 0 0 71.293448020500364 56.300452228093945 0 56.300452228093945 37.144100419086499 0 0 0 0 9.7372536849836671 2.2877986745549208 0 2.2877986745549208 -9.1441232949079208 0 0 0 0 -235.83780288163689 134.50780537942296 0 134.50780537942296 67.240791321587494 0 0 0 0 61.585173322906485 48.178541512084848 0 48.178541512084848 46.623084777323129 0 0 0 0 -138.64488208826515 179.07556006707728 0 179.07556006707728 -163.52192328195633 0 0 0 0 -141.83311958349077 191.49720401754576 0 191.49720401754576 -57.653645213355958 0 0 0 0 70.416585129394662 50.142350323543269 0 50.142350323543269 33.208838592501706 0 0 0 0 1.3830195692498819 22.616109388592804 0 22.616109388592804 23.265880778324117 0 0 0 0 252.90207674008707 13.720436586379321 0 13.720436586379321 -362.58936796940293 0 0 0 0 -80.512272010106244 104.33895120572083 0 104.33895120572083 -167.08832895982141 0 0 0 0 5.8070470714637601 7.063337161970324 0 7.063337161970324 2.0224174606005736 0 0 0 0 22.23751250541028 10.758763369652137 0 10.758763369652137 0.44910045015075273 0 0 0 0 451.81869649857981 -326.50340062209739 0 -326.50340062209739 -134.20404219493321 0 0 0 0 -247.70706298655568 -228.16054538299613 0 -228.16054538299613 112.88288561158697 0 0 0 0 35.744111870684719 0.72260193956435614 0 0.72260193956435614 42.2881967485514 0 0 0 0 28.316208052761795 25.341043212697969 0 25.341043212697969 -10.871284303651464 0 0 0 0 -21.764408501256185 -3.0018857512826003 0 -3.0018857512826003 48.452828055738792 0 0 0 0 -10.340251223460655 64.504387910080368 0 64.504387910080368 240.52900816723968 0 0 0 0 855.39506303584676 661.98930682732384 0 661.98930682732384 292.2110851690577 0 0 0 0 -2.3031874794306617 5.6588611790945009 0 5.6588611790945009 12.825301534573972 0 0 0 0 364.7273493768007 -174.44759773287433 0 -174.44759773287433 -338.26987392460137 0 0 0 0 -99.911909579503117 -371.40185608983256 0 -371.40185608983256 -171.45208006495403 0 0 0 0 56.699858285846858 386.7455756311391 0 386.7455756311391 158.97621017814026 0 0 0 0 4.6461903147601333 -1.7409764086950617 0 -1.7409764086950617 -1.4700182446664516 0 0 0 0 66.019998230024669 9.1738312896092893 0 9.1738312896092893 -5.1227007987966218 0 0 0 0 270.47062349307816 -187.37934677315388 0 -187.37934677315388 -145.86319044678055 0 0 0 0 56.124206809257885 123.91114803422596 0 123.91114803422596 -150.19495416600466 0 0 0 0 -4.0779610151221277 6.0804275641612548 0 6.0804275641612548 59.437518988530996 0 0 0 0 59.954316137318699 8.4875157711850235 0 8.4875157711850235 -7.4616414841751677 0 0 0 0 82.095949783586548 57.231811373254516 0 57.231811373254516 20.993869078908347 0 0 0 0 -593.68571139012056 449.44588885044755 0 449.44588885044755 -356.96107696974377 0 0 0 0 -340.18606156294118 -58.669023514971542 0 -58.669023514971542 261.54044283709635 0 0 0 0 -224.45323913202265 295.93544857321956 0 295.93544857321956 -127.87094013371495 0 0 0 0 144.79541193123441 184.49515718644602 0 184.49515718644602 -288.19823837683725 0 0 0 0 234.42431536831464 56.392454331015188 0 56.392454331015188 -133.53530496008443 0 0 0 0 67.936636031732519 26.875536340819092 0 26.875536340819092 -12.553775681729803 0 0 0 0 -591.25904207219719 -123.98761098556088 0 -123.98761098556088 193.70138686626888 0 0 0 0 -0.16707715939774914 -1.6385976601657433 0 -1.6385976601657433 -3.1142805910884208 0 0 0 0 0.0083241946447145665 -1.1320589263060015 0 -1.1320589263060015 -1.4540326490635493 0 0 0 0 105.07636636486859 28.806351513252821 0 28.806351513252821 24.011603012518663 0 0 0 0 -606.09296852449188 -48.869451801826017 0 -48.869451801826017 -141.56536495071379 0 0 0 0 -98.672547878217301 225.15826433032407 0 225.15826433032407 -137.57685754798422 0 0 0 0 73.621828844028641 121.30140545427781 0 121.30140545427781 -80.072043329394674 0 0 0 0 53.196292210413958 91.797980905410213 0 91.797980905410213 5.3575874699245105 0 0 0 0 102.89462840113993 53.989611579956474 0 53.989611579956474 -62.326831443873743 0 0 0 0 78.781286986544728 129.18118409752444 0 129.18118409752444 -141.89644093623428 0 0 0 0 73.228442204359453 134.48138864825455 0 134.48138864825455 -143.66300319068876 0 0 0 0 28.468927797541255 8.7171062412653555 0 8.7171062412653555 -320.87408135769829 0 0 0 0 184.66300846358354 262.7686814287822 0 262.7686814287822 -160.53145828056148 0 0 0 0 40.646420995857625 89.443478633617957 0 89.443478633617957 19.601130456556575 0 0 0 0 40.927854308276437 160.45700910396135 0 160.45700910396135 48.60828362760617 0 0 0 0 876.20532767072291 145.43554071534527 0 145.43554071534527 -227.65510667643957 0 0 0 0 50.354136808899057 220.65370995288913 0 220.65370995288913 496.03468034501736 0 0 0 0 229.52841970395821 -19.662954400188141 0 -19.662954400188141 -596.3330693632339 0 0 0 0 -86.11249799363577 25.968336523687526 0 25.968336523687526 -226.51339570351911 0 0 0 0 234.96665525785647 129.22437369787121 0 129.22437369787121 -487.79890950370395 0 0 0 0 65.96810412160184 7.506401931835363 0 7.506401931835363 -6.3706674001991015 0 0 0 0 18.018717462276129 7.8739644117116896 0 7.8739644117116896 -1.0003406321044084 0 0 0 0 250.44407532145851 -98.282694122609428 0 -98.282694122609428 -321.3499097282106 0 0 0 0 53.606334949163283 226.74335199473626 0 226.74335199473626 50.427862840031594 0 0 0 0 781.34671574243112 484.01315906361219 0 484.01315906361219 -389.32104690808364 0 0 0 0 -634.3436998964462 109.91069883653427 0 109.91069883653427 912.65839848080532 0 0 0 0 -561.06513915007235 -285.86460087011346 0 -285.86460087011346 381.31825633005974 0 0 0 0 -11.247249732638011 66.961267385941255 0 66.961267385941255 41.155149161671375 0 0 0 0 148.30577134730993 393.12710721828887 0 393.12710721828887 303.44282382132246 0 0 0 0 -20.060793254291639 86.91789779631759 0 86.91789779631759 273.08265740374821 0 0 0 0 7.6142961751749567 2.9946647366528723 0 2.9946647366528723 1.2383342114352818 0 0 0 0 345.34084841364529 22.845854168213918 0 22.845854168213918 -12.29011995199204 0 0 0 0 70.936094382304873 45.443051636550081 0 45.443051636550081 49.013522557452688 0 0 0 0 -2.9384252168383682 60.879792362610488 0 60.879792362610488 -47.541802154541188 0 0 0 0 37.439460045786348 1.134545300299294 0 1.134545300299294 -0.71132390349288555 0 0 0 0 7.1067467727154963 2.8105722020588786 0 2.8105722020588786 -4.3033101289743527 0 0 0 0 -113.87553541324451 -1.6874221676582692 0 -1.6874221676582692 48.565564645371069 0 0 0 0 20.602568541115033 -41.497919382633427 0 -41.497919382633427 28.995763079998142 0 0 0 0 19.390315566638435 1.8558000331978519 0 1.8558000331978519 3.2608074253515316 0 0 0 0 100.89429959619156 38.721771595874543 0 38.721771595874543 -32.79883483004869 0 0 0 0 -89.184512217994779 48.120572751457985 0 48.120572751457985 51.14228198631713 0 0 0 0 10.279771409308125 9.552837918004883 0 9.552837918004883 0.43518518184675048 0 0 0 0 298.69718971644761 -481.25043922744351 0 -481.25043922744351 -562.86218405003547 0 0 0 0 62.923969730080984 7.9549688842102295 0 7.9549688842102295 -6.0336970820446254 0 0 0 0 384.05826189766594 -488.39202923682922 0 -488.39202923682922 -2.5551094904117235 0 0 0 0 99.898654899283429 -104.44755028467068 0 -104.44755028467068 -371.66707898926916 0 0 0 0 -137.25764250673092 -205.68664014455771 0 -205.68664014455771 -6.5960642630921029 0 0 0 0 230.4699099198333 218.24663553523874 0 218.24663553523874 -88.081100411182661 0 0 0 0 -189.89896082834457 -331.66670411452185 0 -331.66670411452185 -67.426080056118735 0 0 0 0 11.063366563982896 7.8113603868473263 0 7.8113603868473263 -5.7570472084150293 0 0 0 0 168.31914816983772 79.519013881420733 0 79.519013881420733 -49.955504786424626 0 0 0 0 122.52812850939517 -34.57550138907618 0 -34.57550138907618 -70.843546976142875 0 0 0 0 61.837704954561701 -3.4478717107545034 0 -3.4478717107545034 -1.0246563094851235 0 0 0 0 -182.29478255967842 -62.458944915814982 0 -62.458944915814982 -142.08494077521073 0 0 0 0 -117.20890976633746 -189.87221186966781 0 -189.87221186966781 -227.59045540810848 0 0 0 0 58.090337036348501 -83.847380751921492 0 -83.847380751921492 73.679366688728805 0 0 0 0 93.293958409820334 328.2452710497646 0 328.2452710497646 7.9134899849805151 0 0 0 0 234.61098362295888 47.917808539500811 0 47.917808539500811 -26.001780692029897 0 0 0 0 57.19650311035366 13.443509390249574 0 13.443509390249574 -29.004467051313441 0 0 0 0 20.192409408780804 -46.839196940676743 0 -46.839196940676743 -23.083778260973304 0 0 0 0 218.62214501941344 -108.84024602350928 0 -108.84024602350928 -12.224286863571933 0 0 0 0 -28.912604708533763 -152.42319792098749 0 -152.42319792098749 90.136280107717539 0 0 0 0 565.00315951133962 208.52501334552812 0 208.52501334552812 -221.67277765229483 0 0 0 0 65.439887036955042 89.599968443652813 0 89.599968443652813 71.635004599830381 0 0 0 0 -349.28627272885933 -192.12823611549106 0 -192.12823611549106 248.09799226191194 0 0 0 0 4.4862399396313322 1.2581949958323904 0 1.2581949958323904 0.46226783765382096 0 0 0 0 46.941231895718374 0.15409157339661742 0 0.15409157339661742 -3.8896300456240516 0 0 0 0 44.893653681734179 2.0119041649654044 0 2.0119041649654044 -1.1042772698747136 0 0 0 0 43.027296339671011 0.068717223182007126 0 0.068717223182007126 2.642251409042208 0 0 0 0 43.962130187377625 -0.032014360974992682 0 -0.032014360974992682 -0.0047506669052502053 0 0 0 0 44.130297337193042 0.55800418108612626 0 0.55800418108612626 -2.6662376278996041 0 0 0 0 41.729920778197993 2.9115503122307276 0 2.9115503122307276 -3.7738458669894106 0 0 0 0 35.59731563477726 9.1893081346759846 0 9.1893081346759846 -14.473179279622801 0 0 0 0 42.961895669417572 4.1987893517733097 0 4.1987893517733097 -7.6684300276362123 0 0 0 0 35.914440194530471 5.3904529241572501 0 5.3904529241572501 -2.4993486590495992 0 0 0 0 40.18548581450159 2.0199609287420182 0 2.0199609287420182 -0.0045569259653240705 0 0 0 0 33.074747118029336 -2.2091795691595237 0 -2.2091795691595237 -7.8567294531865013 0 0 0 0 42.982164774271951 -1.4736081806806836 0 -1.4736081806806836 -4.4921414235292687 0 0 0 0 38.743617355037713 3.5229890512206237 0 3.5229890512206237 -2.8408168212177425 0 0 0 0 33.772197706115548 -3.5780105637563526 0 -3.5780105637563526 7.2324811779300644 0 0 0 0 89.649243157560704 16.325169575907921 0 16.325169575907921 19.084753297887346 0 0 0 0 12.029045107271259 -4.0428384824820967 0 -4.0428384824820967 2.2513705034747868 0 0 0 0 34.196056237037737 -1.3420475178818188 0 -1.3420475178818188 -5.896801860336887 0 0 0 0 182.31687765198149 74.490474554466374 0 74.490474554466374 26.374201108911393 0 0 0 0 232.51966711341811 124.29106404817702 0 124.29106404817702 23.986602890117524 0 0 0 0 5.2002765082511075 -3.4036312056716156 0 -3.4036312056716156 1.150447222173643 0 0 0 0 16.553803947448614 -13.395235885176113 0 -13.395235885176113 -34.69147482088389 0 0 0 0 24.343070332179195 5.1913691749118538 0 5.1913691749118538 -5.6038364835078411 0 0 0 0 25.75645180180436 9.9879062858783794 0 9.9879062858783794 -0.010760753724087335 0 0 0 0 34.382897312782006 20.391434872249512 0 20.391434872249512 0.0041357332976188297 0 0 0 0 27.326945984441409 8.3904497155145528 0 8.3904497155145528 -15.965753494265487 0 0 0 0 17.97599796182476 16.064941781642354 0 16.064941781642354 -21.791194319988932 0 0 0 0 430.58885426260258 319.11470541391344 0 319.11470541391344 104.01893836399607 0 0 0 0 -11.467073923340649 -82.143322477197287 0 -82.143322477197287 -60.54871195165871 0 0 0 0 2.5133772965642152 -0.90869791462138494 0 -0.90869791462138494 -0.044592520113897305 0 0 0 0 240.78315941237088 -47.163312350619258 0 -47.163312350619258 -63.426852088808729 0 0 0 0 337.45842823098064 68.564091563704366 0 68.564091563704366 -0.013334484066456714 0 0 0 0 127.97345157418749 1.5506850987279677 0 1.5506850987279677 44.010107325720242 0 0 0 0 470.10339630635281 43.884307822216314 0 43.884307822216314 -3.8636014829478853 0 0 0 0 333.15232078270492 25.994641287835293 0 25.994641287835293 -80.045721279325562 0 0 0 0 212.19489872378472 133.05612024803719 0 133.05612024803719 151.03492366106377 0 0 0 0 55.098320807839627 93.203039333429729 0 93.203039333429729 50.574039243856589 0 0 0 0 211.21140273411584 -83.433772900948327 0 -83.433772900948327 -201.1311215438717 0 0 0 0 180.96957477068281 58.700801031864387 0 58.700801031864387 -69.079492942681441 0 0 0 0 293.2814452242892 13.925254523045226 0 13.925254523045226 -95.911952062532634 0 0 0 0 15.436052535554154 -8.9371259793570914 0 -8.9371259793570914 -1.9819129866808716 0 0 0 0 43.748312063744379 -11.213913872588478 0 -11.213913872588478 -2.4136545589508387 0 0 0 0 41.163040128070861 -11.330126313137498 0 -11.330126313137498 0.89191441244111047 0 0 0 0 24.765038039586585 -12.74691720494441 0 -12.74691720494441 -0.69394838129585601 0 0 0 0 25.570452528991154 -54.835843821397702 0 -54.835843821397702 -18.718097940404732 0 0 0 0 31.694815267401282 -14.072766325250086 0 -14.072766325250086 -6.1995749214529496 0 0 0 0 14.172011640181921 -10.682104109988984 0 -10.682104109988984 -0.79518002508734398 0 0 0 0 49.536134951311396 -6.7434642620542036 0 -6.7434642620542036 -5.3434158801992453 0 0 0 0 22.704463288886473 -5.6221571818991833 0 -5.6221571818991833 0.61685943880502236 0 0 0 0 34.524439456348773 -9.1297831003057581 0 -9.1297831003057581 -2.7187974717817269 0 0 0 0 38.429685983435775 -11.897650738611446 0 -11.897650738611446 -1.1674077158395448 0 0 0 0 27.59520395709842 -10.485619971857659 0 -10.485619971857659 2.6258391616579502 0 0 0 0 38.212274053963483 -14.026685051064987 0 -14.026685051064987 0.1352718539324087 0 0 0 0 34.967728069245325 -16.609718373046793 0 -16.609718373046793 -1.8843948153062229 0 0 0 0 39.119368526211474 -13.510217917698043 0 -13.510217917698043 0.87782813612830068 0 0 0 0 32.042600999505964 -17.917346132550662 0 -17.917346132550662 3.7580983783711739 0 0 0 0 50.230502800026443 -47.152394056423645 0 -47.152394056423645 -32.198946852871018 0 0 0 0 34.972341368482418 -22.72033906782838 0 -22.72033906782838 -5.5597705628479162 0 0 0 0 64.949474482622463 -45.11225466896758 0 -45.11225466896758 -51.214196058692323 0 0 0 0 26.348209364715927 -5.7646133174072531 0 -5.7646133174072531 -17.590343740499268 0 0 0 0 40.81330653677287 -19.565518933228304 0 -19.565518933228304 -4.6829312370718981 0 0 0 0 41.823294935777085 36.61865590551497 0 36.61865590551497 -59.773717136325217 0 0 0 0 41.84215335517365 -15.815412399751949 0 -15.815412399751949 -0.18900356921676575 0 0 0 0 39.989675636650645 -14.036671327254226 0 -14.036671327254226 -1.8882416019508872 0 0 0 0 31.867242985463236 24.838535885983219 0 24.838535885983219 -15.425829303486125 0 0 0 0 39.359324665390886 33.801999780251208 0 33.801999780251208 -13.104730958015352 0 0 0 0 46.708503132380429 -15.20844217112608 0 -15.20844217112608 -0.11984351089370193 0 0 0 0 21.166566940912304 6.9401827804201588 0 6.9401827804201588 -16.551392725105842 0 0 0 0 13.348908854228739 -0.59100937272530985 0 -0.59100937272530985 -5.9624635405801278 0 0 0 0 43.576138480129885 64.792971122468771 0 64.792971122468771 8.4308465298017836 0 0 0 0 32.370317963375783 21.157415937071733 0 21.157415937071733 1.9067567620386399 0 0 0 0 3.9755010576556913 7.0743256689624374 0 7.0743256689624374 -6.8727488465779807 0 0 0 0 7.8569217085098444 1.7250575114661473 0 1.7250575114661473 -3.7655309698643435 0 0 0 0 17.546772643050645 4.961418715205582 0 4.961418715205582 -11.336585241060675 0 0 0 0 20.764848946855636 59.122153992303538 0 59.122153992303538 -306.39148244057105 0 0 0 0 12.090101131150732 7.3171994458898553 0 7.3171994458898553 -12.03551998122748 0 0 0 0 10.555448844221246 -3.1766566812164001 0 -3.1766566812164001 -8.0129071382434631 0 0 0 0 18.652608778824288 -4.3074130184965611 0 -4.3074130184965611 -8.9489415722546255 0 0 0 0 14.518001144228037 -0.054528297285287408 0 -0.054528297285287408 -13.366400168401924 0 0 0 0 10.676001885660071 1.344032600225944 0 1.344032600225944 -3.0022510625273933 0 0 0 0 6.3469309285574127 -3.5510058135387226 0 -3.5510058135387226 -3.24848985598328 0 0 0 0 -23.673051568184746 -6.1026355743078966 0 -6.1026355743078966 -5.41447369629077 0 0 0 0 1.2773939985924869 -4.7508454532420927 0 -4.7508454532420927 -5.0431231205359559 0 0 0 0 5.0892559220371254 -3.9071304237368665 0 -3.9071304237368665 -4.4154055818992148 0 0 0 0 3.5645496051784136 -2.5333266175953781 0 -2.5333266175953781 -4.8210348447625258 0 0 0 0 14.561051680444507 -10.455879241255388 0 -10.455879241255388 -11.087223737290515 0 0 0 0 20.512443821455236 -1.9317826084798071 0 -1.9317826084798071 -9.5271827414753716 0 0 0 0 45.411338240417535 -10.748612092918847 0 -10.748612092918847 0.96755911300692787 0 0 0 0 23.81856863818652 -10.420790536083587 0 -10.420790536083587 -4.9904027815888092 0 0 0 0 13.866629042988734 -9.5260746105793004 0 -9.5260746105793004 -6.1683959110390241 0 0 0 0 -0.30532287146706949 -24.9834999730449 0 -24.9834999730449 4.3445890220518777 0 0 0 0 44.937450826462737 -88.195016725199935 0 -88.195016725199935 22.699558553494171 0 0 0 0 2.6356299700710224 -26.881810801041411 0 -26.881810801041411 -8.0635724115916219 0 0 0 0 -44.757263573461387 -59.109122424226371 0 -59.109122424226371 42.05954304792067 0 0 0 0 1.1436488500985433 -40.107944063109926 0 -40.107944063109926 -3.3936192946312076 0 0 0 0 -53.230809831264196 4.2463401394770699 0 4.2463401394770699 4.51070086343816 0 0 0 0 -140.12756540089322 -66.32783631698976 0 -66.32783631698976 -5.3952496367801359 0 0 0 0 215.43020296735449 -103.79705013638772 0 -103.79705013638772 -255.07443903101284 0 0 0 0 182.12889826270111 14.022454500257027 0 14.022454500257027 -111.23122004069319 0 0 0 0 111.66368641979352 -123.08543807566866 0 -123.08543807566866 -222.70781079936887 0 0 0 0 1.3570167671188642 -0.99545292811273534 0 -0.99545292811273534 0.066310759337255831 0 0 0 0 111.75703699672886 83.860177096998086 0 83.860177096998086 56.754130053259246 0 0 0 0 25.028290080612351 9.0522686995934691 0 9.0522686995934691 -3.9251316814224992 0 0 0 0 149.10907999333722 -31.817028621445615 0 -31.817028621445615 -28.154661569006748 0 0 0 0 3.5896720222954173 103.89485972883085 0 103.89485972883085 -214.64562912550173 0 0 0 0 52.699585786605894 -38.403375282724028 0 -38.403375282724028 -44.200529692222972 0 0 0 0 8.7037695936686248 -2.935686385839432 0 -2.935686385839432 -3.6564655097459688 0 0 0 0 9.8279596137363114 14.390235214622294 0 14.390235214622294 -209.72372233507303 0 0 0 0 51.160050530190347 29.105348459091147 0 29.105348459091147 -217.14388921712361 0 0 0 0 5.8806067286332677 4.2843131424755896 0 4.2843131424755896 0.33282038191405094 0 0 0 0 19.700205643559457 36.473449624518025 0 36.473449624518025 7.5537416611231265 0 0 0 0 31.171756353012228 14.041804769950872 0 14.041804769950872 -0.32309016267952728 0 0 0 0 73.40342141142537 31.714819286705847 0 31.714819286705847 -28.679689004103238 0 0 0 0 56.78026828810215 0.87857553702752078 0 0.87857553702752078 -2.2541471967237969 0 0 0 0 45.372393921345065 32.106926597637539 0 32.106926597637539 18.203059126383778 0 0 0 0 11.411976104456699 16.65007263984478 0 16.65007263984478 13.311647151558532 0 0 0 0 42.888559060058014 2.0669510935059776 0 2.0669510935059776 10.912023493409833 0 0 0 0 33.5895236215365 6.9420028814702164 0 6.9420028814702164 -30.836424739894255 0 0 0 0 27.818754266590986 18.148344595241269 0 18.148344595241269 4.310550503596005 0 0 0 0 15.173535627075637 2.0124173136171599 0 2.0124173136171599 0.54761408267749923 0 0 0 0 57.114293154219922 -20.697412827907328 0 -20.697412827907328 -37.500748985399696 0 0 0 0 24.134839779165077 -27.096940585631927 0 -27.096940585631927 -25.995806686863943 0 0 0 0 52.639826710947091 25.958160652297693 0 25.958160652297693 -16.475395698472767 0 0 0 0 24.488312507532441 10.353804096759546 0 10.353804096759546 -5.1607104410427276 0 0 0 0 31.453328568024972 -18.317124085482924 0 -18.317124085482924 -14.468475812229372 0 0 0 0 41.624736508500064 12.667744444751861 0 12.667744444751861 -22.695766828032333 0 0 0 0 29.728955642756773 -22.547713919671651 0 -22.547713919671651 -9.4353588291942287 0 0 0 0 31.90137280578017 -12.166753792900863 0 -12.166753792900863 -2.5319048302289255 0 0 0 0 25.110614046430896 -18.899236703423966 0 -18.899236703423966 -6.7422747434961945 0 0 0 0 33.320526965544559 -6.9377148754438167 0 -6.9377148754438167 -12.829731972502486 0 0 0 0 41.173989362445468 -0.77855905679474091 0 -0.77855905679474091 -1.1729966389686588 0 0 0 0 74.840778607409447 25.044405781660316 0 25.044405781660316 -13.89454219252957 0 0 0 0 34.01446789286274 0.78747215359510392 0 0.78747215359510392 -18.256371204512106 0 0 0 0 8.7037264414288984 -3.401275619487194 0 -3.401275619487194 -0.059692429068229913 0 0 0 0 27.205843371208744 3.2570948138408689 0 3.2570948138408689 -1.6064076499009032 0 0 0 0 24.861346049248823 -8.062804219888676 0 -8.062804219888676 7.5709881197756204 0 0 0 0 44.397581181721762 -5.5452131973227745 0 -5.5452131973227745 -3.5385099644257187 0 0 0 0 41.477153873267525 4.04149227801053 0 4.04149227801053 -2.9761507999985319 0 0 0 0 52.733024749701144 7.7987343614424063 0 7.7987343614424063 -14.331975810256981 0 0 0 0 48.445993348723277 2.5894067012796356 0 2.5894067012796356 -6.7637690314688079 0 0 0 0 46.147895111407706 -1.3804202567329544 0 -1.3804202567329544 -2.8328936444280233 0 0 0 0 47.166343104162536 1.1741921174901897 0 1.1741921174901897 -1.3502279404890691 0 0 0 0 218.44555476569803 37.235525754928062 0 37.235525754928062 -116.80154729343917 0 0 0 0 44.737780890734086 0.40528768185526332 0 0.40528768185526332 -1.5547706529756253 0 0 0 0 71.125994258094579 -2.8194390685899862 0 -2.8194390685899862 -40.572581877534276 0 0 0 0 -58.41441435055458 -45.342213297481749 0 -45.342213297481749 81.506545374149823 0 0 0 0 46.878349167178385 -1.9153576719770422 0 -1.9153576719770422 -11.518204309820094 0 0 0 0 46.010037559950433 -1.2615015669176362 0 -1.2615015669176362 -2.8794328588533982 0 0 0 0 44.798088828247273 -1.8105783083142146 0 -1.8105783083142146 -2.4836977821600561 0 0 0 0 45.274000653660551 0.70427309875807231 0 0.70427309875807231 3.1305702154300001 0 0 0 0 46.114453401620267 -0.23056919735688211 0 -0.23056919735688211 0.0097225847408424926 0 0 0 0 44.550612034814549 0.61064924891147443 0 0.61064924891147443 -0.25486465092734489 0 0 0 0 0.048449667188009471 0.36931811255112734 0 0.36931811255112734 0.14864251470516365 0 0 0 0 84.708815682562999 8.0035335707524151 0 8.0035335707524151 -1.9343426641981916 0 0 0 0 -7.7442484664497897 -47.181319995762323 0 -47.181319995762323 486.75870916400993 0 0 0 0 53.771917168618529 12.741601884431756 0 12.741601884431756 3.3633655244790681 0 0 0 0 58.538227081455261 -3.2726362360312118 0 -3.2726362360312118 -0.77627576689545608 0 0 0 0 48.632899098331109 4.1998655039531405 0 4.1998655039531405 7.5649472499326933 0 0 0 0 48.481705998041434 0.92798747470995269 0 0.92798747470995269 -0.47482935546345328 0 0 0 0 54.468640532431891 -1.8686858343484245 0 -1.8686858343484245 8.5107757957095522 0 0 0 0 51.025372122923727 5.1930855546876868 0 5.1930855546876868 -0.014168755538145523 0 0 0 0 43.825934096210403 -3.7203600010721667 0 -3.7203600010721667 3.6352107374791256 0 0 0 0 45.839653922943398 -4.2739611433976572 0 -4.2739611433976572 -15.90409672149679 0 0 0 0 43.781123191511142 -0.82079590533784863 0 -0.82079590533784863 0.028112046566840517 0 0 0 0 47.621202274516691 4.8902781028934426 0 4.8902781028934426 3.2677023786528263 0 0 0 0 37.604023017942382 -7.7692481111485225 0 -7.7692481111485225 1.9549772585310548 0 0 0 0 32.720949833223131 -10.08430211805581 0 -10.08430211805581 3.8124636573210466 0 0 0 0 29.983526334515773 -7.9094326238100514 0 -7.9094326238100514 4.9362176938251565 0 0 0 0 32.183692724385764 -8.9198028765051838 0 -8.9198028765051838 5.2584544892887592 0 0 0 0 29.391454354945381 4.7779053186845468 0 4.7779053186845468 4.0521952119826725 0 0 0 0 47.852277567028068 -25.176749513992675 0 -25.176749513992675 -5.2161684645857633 0 0 0 0 48.492192169680493 -22.323647334874554 0 -22.323647334874554 -10.219018836267095 0 0 0 0 40.537114439823199 -16.497824927326 0 -16.497824927326 6.1907174255100195 0 0 0 0 40.495209821616299 -18.19698997993277 0 -18.19698997993277 -3.793874149309616 0 0 0 0 34.681959730078233 -22.138792745683528 0 -22.138792745683528 14.501284944033841 0 0 0 0 26.306887096317951 -13.500579735848262 0 -13.500579735848262 5.8513685363074872 0 0 0 0 45.347328592062695 -27.192095631929515 0 -27.192095631929515 4.9422640330418481 0 0 0 0 10.878038433348848 0.82943068467412218 0 0.82943068467412218 -2.1722012284543433 0 0 0 0 50.859180815838045 20.572929339839391 0 20.572929339839391 29.928603013960583 0 0 0 0 170.90272161118264 190.23805063099678 0 190.23805063099678 -272.45090934767461 0 0 0 0 22.985951195412781 -11.365095015805716 0 -11.365095015805716 11.429225850106834 0 0 0 0 5.602312870701553 1.6448210990931926 0 1.6448210990931926 0.75495191088303437 0 0 0 0 27.693860088644783 -0.56145977718523099 0 -0.56145977718523099 2.5619511075486261 0 0 0 0 16.07641266041901 -0.8727850409246809 0 -0.8727850409246809 5.8230329946924915 0 0 0 0 26.129955495911418 8.5239946746325579 0 8.5239946746325579 -12.397836081412937 0 0 0 0 17.614086489877081 6.2995089221365106 0 6.2995089221365106 13.500982212467306 0 0 0 0 20.429753566965587 4.9374664772273462 0 4.9374664772273462 3.0049113054009204 0 0 0 0 28.611079189620796 -6.060623761105262 0 -6.060623761105262 3.9334953718628185 0 0 0 0 32.149976000626339 -12.666314300140812 0 -12.666314300140812 3.6016871568672286 0 0 0 0 23.923060373584576 -4.6205530111130173 0 -4.6205530111130173 2.4339194332953538 0 0 0 0 16.544138412150602 -3.8357094945186105 0 -3.8357094945186105 4.700820067651569 0 0 0 0 30.822288388451682 -4.7080579153880464 0 -4.7080579153880464 -2.4788950396603484 0 0 0 0 32.437880407072953 -3.5741621069898883 0 -3.5741621069898883 1.046016847123326 0 0 0 0 30.93552153906785 -14.797658426073667 0 -14.797658426073667 -0.27003757874126677 0 0 0 0 61.367463719449006 -24.367786602699653 0 -24.367786602699653 -11.570151812119207 0 0 0 0 -32.01267086158623 20.692358090592052 0 20.692358090592052 73.773080178996679 0 0 0 0 23.955207506851949 -5.1232008074071587 0 -5.1232008074071587 0.17006618513576299 0 0 0 0 24.257815516059054 -25.534772537189951 0 -25.534772537189951 54.687344942216441 0 0 0 0 20.669567308068508 -21.270238281498223 0 -21.270238281498223 131.9774907505016 0 0 0 0 31.14597316813888 14.752764415264664 0 14.752764415264664 105.78095380820969 0 0 0 0 77.0005202149041 -73.726207726700409 0 -73.726207726700409 97.868837251353114 0 0 0 0 114.62005048261199 -5.8005145917168193 0 -5.8005145917168193 -8.5847766826677798 0 0 0 0 38.865421135764336 -13.545429716153194 0 -13.545429716153194 7.6652685987985478 0 0 0 0 30.683980116074338 -16.458541890589004 0 -16.458541890589004 8.5755463949788115 0 0 0 0 4.7509770830583875 -56.796890170240317 0 -56.796890170240317 40.48175777613551 0 0 0 0 16.152037082239985 -5.4380816281563966 0 -5.4380816281563966 26.564804688643335 0 0 0 0 1.1702973417537805 -4.392099930796121 0 -4.392099930796121 4.1604309753276407 0 0 0 0 12.37280287608155 -3.4755878722435227 0 -3.4755878722435227 32.547863726601463 0 0 0 0 19.634633387584472 -3.8216437355238213 0 -3.8216437355238213 18.624500588810861 0 0 0 0 24.326563510680785 7.8870619979306262 0 7.8870619979306262 1.2376246550337575 0 0 0 0 33.10804767042282 17.714093465098006 0 17.714093465098006 -5.030588596865984 0 0 0 0 48.655381125485292 25.293037418919994 0 25.293037418919994 -3.6831854322770141 0 0 0 0 16.212651504118185 9.5298379920910872 0 9.5298379920910872 11.357538341033891 0 0 0 0 31.816687521815766 20.882500328145852 0 20.882500328145852 38.246103168645732 0 0 0 0 63.636570932081668 -38.440190359175034 0 -38.440190359175034 93.738769027390845 0 0 0 0 41.306773832780891 33.983497447301943 0 33.983497447301943 45.927173931552716 0 0 0 0 7.0430299194143728 1.4583869149801103 0 1.4583869149801103 0.90314784461747699 0 0 0 0 5.4183029724913183 5.9530175157530039 0 5.9530175157530039 -2.9146680101282199 0 0 0 0 36.882101682014763 16.407030209961704 0 16.407030209961704 1.9088477485657904 0 0 0 0 22.391722696442571 3.861605785073948 0 3.861605785073948 -3.7890212415687348 0 0 0 0 16.788188507214723 8.8707243941895513 0 8.8707243941895513 2.6172600408451614 0 0 0 0 12.297066192244529 4.1065486894755736 0 4.1065486894755736 -0.8285669766664796 0 0 0 0 13.581811167717774 9.0658827099340655 0 9.0658827099340655 -1.4327379065143 0 0 0 0 -573.08464286646631 -452.02201415732765 0 -452.02201415732765 98.763704991273869 0 0 0 0 38.163953133684117 22.163962955033661 0 22.163962955033661 1.9610141301437984 0 0 0 0 31.485590770887939 4.2513972570741743 0 4.2513972570741743 -0.11864031198671304 0 0 0 0 -289.27760563630909 512.12194432561284 0 512.12194432561284 934.68911666836971 0 0 0 0 5.3605512783897531 1.9930458095390406 0 1.9930458095390406 -0.3386993664304771 0 0 0 0 4.9135969730517388 1.7515644588869179 0 1.7515644588869179 0.43389264176795744 0 0 0 0 31.780831739481073 11.016127261395088 0 11.016127261395088 10.983450571724234 0 0 0 0 27.258643266817671 0.10359614110655802 0 0.10359614110655802 -1.2825851298761304 0 0 0 0 20.949404804996448 14.508344820980792 0 14.508344820980792 4.3051475317888004 0 0 0 0 38.687598839663679 8.1517139338747011 0 8.1517139338747011 5.9327615895404504 0 0 0 0 -0.12165459145145974 -0.022545745167661835 0 -0.022545745167661835 0.109949201373024 0 0 0 0 70.854066628351575 19.333938570096166 0 19.333938570096166 6.8479775440038244 0 0 0 0 12.973045841325074 0.18593696633215193 0 0.18593696633215193 0.015716358677351442 0 0 0 0 0.78226942769508057 0.83590726222129774 0 0.83590726222129774 0.98059756664002107 0 0 0 0 846.01150760541532 617.68378033459373 0 617.68378033459373 62.933434281163613 0 0 0 0 23.180742514421581 10.451664119644159 0 10.451664119644159 -0.1186403119851355 0 0 0 0 2306.7123862189328 616.78520513908074 0 616.78520513908074 -145.16870217396888 0 0 0 0 1595.353117154038 336.55244539076864 0 336.55244539076864 -0.54667908604950355 0 0 0 0 927.19234360975679 47.921321090143337 0 47.921321090143337 -0.19827457762573714 0 0 0 0 2601.0331838939674 -379.64559472576502 0 -379.64559472576502 -360.96815349109636 0 0 0 0 -304.83022591558984 -616.17910329244273 0 -616.17910329244273 -147.30071671970586 0 0 0 0 3837.590119793449 52.574791752857053 0 52.574791752857053 845.5355862286259 0 0 0 0 4.6892287426516077 -3.8534646073386511 0 -3.8534646073386511 1.2365337866205786 0 0 0 0 578.62512047658674 -653.10926464124213 0 -653.10926464124213 -298.14782393397712 0 0 0 0 4165.2836594465698 1313.322690028644 0 1313.322690028644 100.68354269343439 0 0 0 0 1082.3932192239154 757.99972358633033 0 757.99972358633033 940.47363699479388 0 0 0 0 1702.6664390120714 375.22400396926918 0 375.22400396926918 -201.96556344297073 0 0 0 0 1703.5478591725259 352.64516763657264 0 352.64516763657264 71.958312677208738 0 0 0 0 279.89782484917669 80.416503836747822 0 80.416503836747822 -58.2289062550648 0 0 0 0 131.03440926906478 106.86340696999319 0 106.86340696999319 0.23968634743605988 0 0 0 0 355.17651671970089 -181.74486946001588 0 -181.74486946001588 162.76721689397112 0 0 0 0 237.53465564320504 65.28187872142388 0 65.28187872142388 -69.829583903479943 0 0 0 0 -129.16509054577909 27.248326717651651 0 27.248326717651651 -178.16164277126495 0 0 0 0 95.725681777257705 -103.82586090927282 0 -103.82586090927282 -170.0437970861139 0 0 0 0 170.80214657314355 86.534395943643801 0 86.534395943643801 -172.10535422926625 0 0 0 0 107.04774659023678 51.878380285280883 0 51.878380285280883 -62.310815294661708 0 0 0 0 103.74766217780416 -9.4949613215041495 0 -9.4949613215041495 -161.99354816110508 0 0 0 0 79.902229337661993 -20.745621008641365 0 -20.745621008641365 -165.46965981210445 0 0 0 0 91.210351774439914 -2.168711094310197 0 -2.168711094310197 -261.92643388027909 0 0 0 0 11.833176122891018 -114.33017899941046 0 -114.33017899941046 -187.96884517382176 0 0 0 0 20.920581534048978 -4.2252668794756119 0 -4.2252668794756119 -8.0311317287475461 0 0 0 0 25.082082619760627 -12.08115309439107 0 -12.08115309439107 1.8601515666839425 0 0 0 0 2830.2966770041967 1966.0901487736414 0 1966.0901487736414 -144.55077669081118 0 0 0 0 133.93762988156232 -15.269537221671726 0 -15.269537221671726 -171.68017255196264 0 0 0 0 1567.914590857632 2067.0185457364655 0 2067.0185457364655 -152.54615288375476 0 0 0 0 29.109656929118501 -57.507762981974253 0 -57.507762981974253 -42.459344285790849 0 0 0 0 28.224500188196544 -38.747635614038472 0 -38.747635614038472 -13.87844565856949 0 0 0 0 60.52646406806889 -35.032978485587819 0 -35.032978485587819 -59.983626905263009 0 0 0 0 47.713556600443553 -68.143961933849567 0 -68.143961933849567 -88.77259410967622 0 0 0 0 16.612877197100374 3.8900105058927004 0 3.8900105058927004 -0.60273267936200114 0 0 0 0 1311.0769041021704 -476.93140155671063 0 -476.93140155671063 370.83097675674594 0 0 0 0 2243.5802414868958 -379.12920377138335 0 -379.12920377138335 -580.38915230311113 0 0 0 0 645.72819735790836 543.79637465992573 0 543.79637465992573 389.19789932388085 0 0 0 0 -976.07242937330739 -741.55770225604113 0 -741.55770225604113 740.61136448995194 0 0 0 0 3354.8824522848008 -109.06970608641336 0 -109.06970608641336 -138.88648818488628 0 0 0 0 4778.2812641804339 1379.6841535958938 0 1379.6841535958938 177.36334538943902 0 0 0 0 4956.9138305260858 1195.6808681726632 0 1195.6808681726632 -422.6195821240326 0 0 0 0 2123.9021658885467 -127.09482953936117 0 -127.09482953936117 952.15168178622639 0 0 0 0 4030.6423834923808 -123.21747760332261 0 -123.21747760332261 -877.7767473286458 0 0 0 0 3909.8583987569436 1256.7822838652439 0 1256.7822838652439 -626.60665388880466 0 0 0 0 2331.0435141098569 1181.0726402314324 0 1181.0726402314324 -479.90740869325941 0 0 0 0 2008.1930596015009 -97.730070002366119 0 -97.730070002366119 -466.65535665355674 0 0 0 0 2680.5155009098962 772.77412585315039 0 772.77412585315039 -150.82494737462321 0 0 0 0 45.184902452805545 -1.2651004020817709 0 -1.2651004020817709 -1.6123710274314362 0 0 0 0 1522.8274749079355 295.08835224480873 0 295.08835224480873 -0.13983939047466265 0 0 0 0 4.2930365922366036 -104.47765153292062 0 -104.47765153292062 -69.262559772686132 0 0 0 0 33.824136968934909 -17.562611661659957 0 -17.562611661659957 140.92809564918343 0 0 0 0 939.09533256181749 -234.8510696268313 0 -234.8510696268313 -96.821743463198345 0 0 0 0 1460.4560162550624 101.89806391410229 0 101.89806391410229 98.93533839142674 0 0 0 0 779.74152460567711 485.85226919690876 0 485.85226919690876 381.01353419241968 0 0 0 0 6.201513457460436 -8.8265190085505338 0 -8.8265190085505338 0.64622434250900262 0 0 0 0 68.120172010307215 -48.609759494897048 0 -48.609759494897048 -192.09078199926807 0 0 0 0 42.72339532560369 -27.892319327104573 0 -27.892319327104573 11.370434766037892 0 0 0 0 54.165722165867919 83.683658096839281 0 83.683658096839281 -176.14214704710957 0 0 0 0 1914.7594008546148 884.27576911664437 0 884.27576911664437 228.51072001439297 0 0 0 0 1250.5726745961729 852.91285585137621 0 852.91285585137621 310.04073677923043 0 0 0 0 1900.1198891129752 1038.1828964651381 0 1038.1828964651381 194.098194297487 0 0 0 0 1873.2174718399474 864.56411052029944 0 864.56411052029944 91.840519334922192 0 0 0 0 1643.9421879311049 717.57184721930366 0 717.57184721930366 -92.308755504350302 0 0 0 0 1767.646699733159 384.04394685576244 0 384.04394685576244 16.8511367409385 0 0 0 0 1821.360157907664 1174.082158515366 0 1174.082158515366 85.105989390321156 0 0 0 0 2429.9180962254468 1400.9002700785704 0 1400.9002700785704 4.2442990327781445 0 0 0 0 1485.4352381208155 589.60279822161374 0 589.60279822161374 1649.2520370377708 0 0 0 0 -1108.3585704150319 1972.8438637333331 0 1972.8438637333331 1252.2111151303768 0 0 0 0 2188.0608390167763 226.14395765473319 0 226.14395765473319 682.09993405576279 0 0 0 0 1387.1403258799983 1093.930294863078 0 1093.930294863078 431.6340945107404 0 0 0 0 1952.654225955368 639.22697187711856 0 639.22697187711856 578.16394644449156 0 0 0 0 242.13757511672156 86.923818256643017 0 86.923818256643017 -171.74104626739154 0 0 0 0 -523.27151527551541 -2148.0725743663984 0 -2148.0725743663984 1299.2063101424696 0 0 0 0 47.629012870194856 -22.551823226321176 0 -22.551823226321176 -12.788977267919748 0 0 0 0 10.572270800274566 4.0338650491212888 0 4.0338650491212888 -11.193066862391399 0 0 0 0 51.605564901948583 -29.73735939113152 0 -29.73735939113152 9.7904652776473569 0 0 0 0 2335.0787849262742 -138.29057190848744 0 -138.29057190848744 142.63414919642855 0 0 0 0 12.214328868540946 -12.068492700693611 0 -12.068492700693611 8.6526246571156022 0 0 0 0 -696.29917780321557 -546.55897481947181 0 -546.55897481947181 -2099.5019835074704 0 0 0 0 2859.9229115059861 243.05053057161967 0 243.05053057161967 138.64592658999982 0 0 0 0 2763.114631491364 -159.88146997612603 0 -159.88146997612603 11.797650013964812 0 0 0 0 2190.9499463908505 177.04149746515213 0 177.04149746515213 177.04663803803669 0 0 0 0 2223.9103106732946 428.87055263581988 0 428.87055263581988 204.60053310125386 0 0 0 0 2004.0998942551523 529.85877773726088 0 529.85877773726088 180.69512993466378 0 0 0 0 2490.9964861985354 595.72124838784566 0 595.72124838784566 172.80096079307077 0 0 0 0 2173.0462886956666 616.6275075353642 0 616.6275075353642 174.76965620048668 0 0 0 0 -1521.3043222941778 1443.2909765325526 0 1443.2909765325526 1916.6879779067876 0 0 0 0 8.3190244421268744 8.299893937359073 0 8.299893937359073 5.4235898875486512 0 0 0 0 1454.1325648790371 1977.9215677526754 0 1977.9215677526754 1032.9825101319486 0 0 0 0 4249.919639323507 -306.01928028691805 0 -306.01928028691805 10.752265576046739 0 0 0 0 1503.62835117348 -203.46186637691835 0 -203.46186637691835 258.00045884434257 0 0 0 0 1835.7292421178645 54.067952212478303 0 54.067952212478303 1.9623556562601152 0 0 0 0 2011.1301761130162 -582.64000703764759 0 -582.64000703764759 -1108.5039723057189 0 0 0 0 1541.8089563686372 -42.82776127390207 0 -42.82776127390207 71.495088912070969 0 0 0 0 585.0231707131752 632.78502839905377 0 632.78502839905377 -918.14473186202486 0 0 0 0 1601.7210080385848 176.85338820882498 0 176.85338820882498 -1554.2010720709095 0 0 0 0 1048.7504159161981 -387.19071084146708 0 -387.19071084146708 -423.3815076890387 0 0 0 0 1020.8838149545918 -367.08358885113466 0 -367.08358885113466 -346.81063817897711 0 0 0 0 6.8830977488310339 -0.90482075500464276 0 -0.90482075500464276 -2.0947892648362068 0 0 0 0 -2.6321215962745157 2.4250534964431125 0 2.4250534964431125 -0.056812955260838294 0 0 0 0 734.0249616974761 -120.33185615072489 0 -120.33185615072489 90.533845160373176 0 0 0 0 718.17093127520639 -393.33119846027512 0 -393.33119846027512 177.46742078114448 0 0 0 0 762.80815997869649 101.41673044214895 0 101.41673044214895 -526.63600634547311 0 0 0 0 -30.459164118823537 35.1637531446504 0 35.1637531446504 135.28569363160204 0 0 0 0 -5.5675649207041715 155.13175616057379 0 155.13175616057379 30.612429431073906 0 0 0 0 2369.4978660175402 848.92216317974817 0 848.92216317974817 228.98957678420038 0 0 0 0 16.945325804078237 -9.4294905206239577 0 -9.4294905206239577 6.182383890487035 0 0 0 0 572.58035605707846 -922.95110559261138 0 -922.95110559261138 564.95574156137627 0 0 0 0 1487.3003187179056 -1173.6250343539982 0 -1173.6250343539982 243.68930684999214 0 0 0 0 1014.0354945227737 -510.69057023320829 0 -510.69057023320829 129.71856962440643 0 0 0 0 -78.230391959252302 -179.15344476176546 0 -179.15344476176546 290.71332360839375 0 0 0 0 1134.2234993602469 470.89160595934936 0 470.89160595934936 130.49695035627656 0 0 0 0 5.2086532079438257 -4.7841450242099199 0 -4.7841450242099199 4.5760695658981829 0 0 0 0 1445.3364316333173 59.96749118231196 0 59.96749118231196 -72.018415121234739 0 0 0 0 744.00678501377115 -807.3529577992382 0 -807.3529577992382 330.65528472010925 0 0 0 0 30.72867905277235 -241.89166119648291 0 -241.89166119648291 261.4725583352274 0 0 0 0 977.52652394291363 572.24518690641935 0 572.24518690641935 107.70602953378875 0 0 0 0 391.80149657049333 300.80363731243824 0 300.80363731243824 42.419945797096261 0 0 0 0 845.2313391579446 -138.37156276900237 0 -138.37156276900237 -41.165250031742289 0 0 0 0 1.8677433186595636 3.0079051826254499 0 3.0079051826254499 0.63638759593530381 0 0 0 0 66.166852866314002 6.2771284155385274 0 6.2771284155385274 -12.215533821339704 0 0 0 0 36.428467013261979 -200.02542632350651 0 -200.02542632350651 49.833163867367148 0 0 0 0 158.10410780062375 -73.901782799900502 0 -73.901782799900502 49.724690816416114 0 0 0 0 -38.525787231512368 -371.69882234102806 0 -371.69882234102806 -35.036773273291033 0 0 0 0 41.421504502672178 -178.28061089533048 0 -178.28061089533048 -55.671908034182252 0 0 0 0 1231.3346066616214 750.74821470939605 0 750.74821470939605 460.38413060103312 0 0 0 0 -452.75762953635422 -167.66842196989677 0 -167.66842196989677 447.72165105687657 0 0 0 0 -271.40192300993658 -31.595273230299995 0 -31.595273230299995 263.73057496859747 0 0 0 0 608.41724896207052 198.78054430092004 0 198.78054430092004 753.84774232357722 0 0 0 0 25.455856520367547 -28.645076214328284 0 -28.645076214328284 30.70762466724625 0 0 0 0 -299.11121093377005 -112.09289790502294 0 -112.09289790502294 144.53577352145476 0 0 0 0 -289.25598009819805 -206.89297742795634 0 -206.89297742795634 -35.418122594746023 0 0 0 0 -225.93592660001013 -98.612188083912997 0 -98.612188083912997 131.94429885032997 0 0 0 0 -57.912043200078188 -109.80277898325141 0 -109.80277898325141 -151.73763791881197 0 0 0 0 -117.38139024368138 -202.73384508067207 0 -202.73384508067207 -172.73258649070954 0 0 0 0 20.224455121925075 -10.619897396311458 0 -10.619897396311458 7.8788056891046612 0 0 0 0 -393.46126876189373 -251.24950262299171 0 -251.24950262299171 -23.398304553911203 0 0 0 0 12.46060534613207 -267.65696335605298 0 -267.65696335605298 -493.478984818139 0 0 0 0 -598.97125877309009 -498.79458081985922 0 -498.79458081985922 -329.64056299636013 0 0 0 0 8.3824957165849412 -1.6179951681021691 0 -1.6179951681021691 -0.92309648307853731 0 0 0 0 194.1199742036988 -8.7260531679728501 0 -8.7260531679728501 -1.2621767457007991 0 0 0 0 -378.03220414224779 -1075.5911176707737 0 -1075.5911176707737 203.86651629745575 0 0 0 0 -501.09998963458929 -653.68745325275802 0 -653.68745325275802 501.67363567823645 0 0 0 0 -365.47955060310778 -1396.5343472544341 0 -1396.5343472544341 -647.73427558181675 0 0 0 0 -103.35388988368504 -736.35380154825089 0 -736.35380154825089 -584.21423968848012 0 0 0 0 -265.98350746452343 -309.77508578498964 0 -309.77508578498964 -30.749282655250227 0 0 0 0 -74.535780727979727 -630.19832469956509 0 -630.19832469956509 -199.51711319936885 0 0 0 0 -172.24475331255235 -482.90936380593485 0 -482.90936380593485 -441.15994487078206 0 0 0 0 -268.3456531103584 -276.29789118391409 0 -276.29789118391409 -347.88657531673925 0 0 0 0 -221.02712807850912 -423.72899827064066 0 -423.72899827064066 -314.99864331999515 0 0 0 0 -158.48898681040737 -445.68640978719884 0 -445.68640978719884 -404.87100738812114 0 0 0 0 16.408359169552568 -461.40711701416058 0 -461.40711701416058 -413.35659548872263 0 0 0 0 113.73207647225354 -708.50470477016461 0 -708.50470477016461 -1115.692520881976 0 0 0 0 121.98275392121286 -205.54423775292435 0 -205.54423775292435 -817.75592347474389 0 0 0 0 40.323432799938018 -531.71074710887717 0 -531.71074710887717 -549.57038989291595 0 0 0 0 40.252986382052541 -20.874504605402407 0 -20.874504605402407 10.253856839095866 0 0 0 0 -50.418223498825682 -259.67361553991032 0 -259.67361553991032 -413.94600599046771 0 0 0 0 51.100100332812872 -14.219465861917683 0 -14.219465861917683 10.046885834216482 0 0 0 0 46.997941067209467 -23.838722434861893 0 -23.838722434861893 7.1019408052698054 0 0 0 0 56.101133326061245 -30.097989929961415 0 -30.097989929961415 -29.809426790347629 0 0 0 0 11.532981291486834 3.2953482460557666 0 3.2953482460557666 2.7483133609893833 0 0 0 0 187.99912913425942 51.14625733609796 0 51.14625733609796 44.502716054483074 0 0 0 0 54.154281411316333 -18.537501704949165 0 -18.537501704949165 -0.82589413877030893 0 0 0 0 53.982335701657576 -24.793675709151245 0 -24.793675709151245 -7.0872029552065214 0 0 0 0 267.40308575559175 -44.711460854084748 0 -44.711460854084748 -34.685141208951904 0 0 0 0 418.51642807147437 -76.251051139037259 0 -76.251051139037259 -31.580326892485346 0 0 0 0 597.51763441701769 39.734199365464292 0 39.734199365464292 -38.663365125373389 0 0 0 0 196.80075582416612 79.595119310433461 0 79.595119310433461 40.366499639108042 0 0 0 0 784.10949327291564 361.5563908419536 0 361.5563908419536 125.97429142896635 0 0 0 0 -6.3980179447062255 -81.256576756864149 0 -81.256576756864149 228.25769827875638 0 0 0 0 516.00316966118407 -370.47829746362743 0 -370.47829746362743 101.95907000976547 0 0 0 0 753.4017624690805 -148.40539170615654 0 -148.40539170615654 -125.28233309980442 0 0 0 0 663.32277707417961 -106.92064447888276 0 -106.92064447888276 -119.10410236424264 0 0 0 0 366.33082430369541 -105.41368844735592 0 -105.41368844735592 -99.126459808392156 0 0 0 0 466.82882244927168 -108.88202939351038 0 -108.88202939351038 -65.631334066701584 0 0 0 0 441.5180307530245 -100.7840905988279 0 -100.7840905988279 -64.378693153699885 0 0 0 0 410.2796035375577 -172.22887460758449 0 -172.22887460758449 -64.729622679808472 0 0 0 0 517.06589877983788 -127.91174511337169 0 -127.91174511337169 -105.36838406501511 0 0 0 0 435.5119889933776 -96.601436231770066 0 -96.601436231770066 -19.195768824075913 0 0 0 0 403.33093000513327 -81.550977617778955 0 -81.550977617778955 -9.8969139798225854 0 0 0 0 393.48485385499225 -64.136907527679142 0 -64.136907527679142 -17.786992569067934 0 0 0 0 4.2490277628766364 5.1073061971191578 0 5.1073061971191578 0.37188423716404873 0 0 0 0 479.94995813649439 -142.65976576610439 0 -142.65976576610439 36.710922941220403 0 0 0 0 66.564388431288535 -2.2594129554253186 0 -2.2594129554253186 -74.364256308132781 0 0 0 0 65.028019647979818 -23.283466147087353 0 -23.283466147087353 -30.198515203675584 0 0 0 0 47.131407220069377 14.256222342901339 0 14.256222342901339 -38.129928963634256 0 0 0 0 57.090836652641883 -1.2194360880924364 0 -1.2194360880924364 -14.703322479431009 0 0 0 0 54.784310113886022 27.638726539817782 0 27.638726539817782 -34.280697344872145 0 0 0 0 102.38369203524826 17.354493360786016 0 17.354493360786016 -66.480058085042174 0 0 0 0 64.152670321709593 45.364506060149154 0 45.364506060149154 -87.001615708525989 0 0 0 0 105.76172976846419 86.950923368826793 0 86.950923368826793 -55.151131404376315 0 0 0 0 35.325682811322622 88.482267743240939 0 88.482267743240939 -0.10536226117937716 0 0 0 0 91.775032453486347 55.46905057265473 0 55.46905057265473 -33.578817710568288 0 0 0 0 602.00402256874077 -204.70168445918006 0 -204.70168445918006 124.5745464012508 0 0 0 0 586.0715727589195 -136.90711283912887 0 -136.90711283912887 15.474112492727897 0 0 0 0 3.7310985337568638 3.2380639493206615 0 3.2380639493206615 -0.41781110092526152 0 0 0 0 -12.411606468871469 59.552642321503861 0 59.552642321503861 -25.508436299395782 0 0 0 0 -76.913818213979539 70.651347422120608 0 70.651347422120608 0.01054071763677529 0 0 0 0 -8.7895151125412667 37.745941875506318 0 37.745941875506318 -27.813803396112913 0 0 0 0 992.50920700676215 -253.75724403875711 0 -253.75724403875711 -20.393692672201524 0 0 0 0 2.0610858985126583 1.0657658598288435 0 1.0657658598288435 -0.38738882926331758 0 0 0 0 20.36098728946024 0.95200820933542574 0 0.95200820933542574 -3.1529610460981079 0 0 0 0 592.14703477280273 -94.011689831295428 0 -94.011689831295428 80.048890771657256 0 0 0 0 769.92623114955495 -12.874633230618681 0 -12.874633230618681 0.46579578443518421 0 0 0 0 0.59174586173329691 -0.60279303614737501 0 -0.60279303614737501 -0.048452931039898249 0 0 0 0 687.48076238739304 -26.912951888110573 0 -26.912951888110573 -56.370714057468632 0 0 0 0 0.4805748828840144 -1.3068880683400437 0 -1.3068880683400437 -0.7360263123299331 0 0 0 0 473.36452595770243 -50.270045941576626 0 -50.270045941576626 32.83261300451278 0 0 0 0 0.1525841064412532 0.20588182260271992 0 0.20588182260271992 -0.21888684781711787 0 0 0 0 11.648537149711046 3.6723522167460239 0 3.6723522167460239 0.30930994512042048 0 0 0 0 5.9302651857142337 -7.5490833847006931 0 -7.5490833847006931 0.30930994511866849 0 0 0 0 7.7380045462341513 5.6095278445118781 0 5.6095278445118781 -0.002049491302267776 0 0 0 0 0.18658879892035429 0.11265084147999005 0 0.11265084147999005 -0.0334456586345665 0 0 0 0 122.72636540384701 8.8882640832797151 0 8.8882640832797151 17.854261125188156 0 0 0 0 0.14947663628845476 4.2088493000755189 0 4.2088493000755189 4.6629145799590024 0 0 0 0 130.48771971654787 11.197045845392111 0 11.197045845392111 0.045272688362210156 0 0 0 0 199.34125122251862 71.462657428290868 0 71.462657428290868 35.151630145487843 0 0 0 0 101.99584265581871 22.505122019035383 0 22.505122019035383 53.134627066517211 0 0 0 0 89.943135206587613 -23.240137051275354 0 -23.240137051275354 11.185467821460161 0 0 0 0 118.40013602712861 3.1080813152777207 0 3.1080813152777207 11.468916143219602 0 0 0 0 64.596144045106485 -7.3175219820234787 0 -7.3175219820234787 19.93824328914663 0 0 0 0 69.585966359994927 -22.416811638018814 0 -22.416811638018814 -33.65231589940538 0 0 0 0 171.46126849277061 36.317380884056703 0 36.317380884056703 28.695964175740869 0 0 0 0 -23.710384135338245 8.0584349023941968 0 8.0584349023941968 42.977274335843212 0 0 0 0 79.350850770817488 -23.689612220967877 0 -23.689612220967877 -11.3319216648132 0 0 0 0 19.359130288185952 -1.3709986350713488 0 -1.3709986350713488 -1.417479363001064 0 0 0 0 420.46988841412895 -61.883935868877558 0 -61.883935868877558 0.054803514113018537 0 0 0 0 1.59888250257697 0.060419178636067272 0 0.060419178636067272 -0.63368266609993484 0 0 0 0 0.51654850119728901 -2.8005823476965475 0 -2.8005823476965475 -2.1918390339272023 0 0 0 0 402.62972199694195 -51.310533755982277 0 -51.310533755982277 -5.887058536611363 0 0 0 0 15.98671686703392 -3.8906621089962292 0 -3.8906621089962292 -1.4174793630014904 0 0 0 0 504.27665971864917 -20.514466639781649 0 -20.514466639781649 -20.578109541676554 0 0 0 0 75.546885288174963 -15.323549395993355 0 -15.323549395993355 15.656706550729751 0 0 0 0 70.974219554549563 -30.499273779633743 0 -30.499273779633743 6.2686847173109612 0 0 0 0 383.15546048205579 7.1475283109948791 0 7.1475283109948791 42.187398844664571 0 0 0 0 421.93375754737644 9.9661130038691113 0 9.9661130038691113 42.248943630331496 0 0 0 0 381.26796220695542 53.108384060852579 0 53.108384060852579 -0.059974011978549589 0 0 0 0 447.10955568408463 28.202762193664547 0 28.202762193664547 -0.062561643140183101 0 0 0 0 563.03692907775985 53.000440317818175 0 53.000440317818175 -5.2191616438625132 0 0 0 0 346.86133047479962 103.62535990731354 0 103.62535990731354 -10.090407488950312 0 0 0 0 258.00148262669973 34.801121363720185 0 34.801121363720185 0.046449819618946946 0 0 0 0 178.18556820392268 225.23768306797183 0 225.23768306797183 67.958104765286876 0 0 0 0 -26.889179870253429 182.9988558503191 0 182.9988558503191 69.960063949355359 0 0 0 0 713.73324564512768 -129.97738776646105 0 -129.97738776646105 16.770591435019242 0 0 0 0 3.5882476078841989 1.9069845409196375 0 1.9069845409196375 0.89401658653259308 0 0 0 0 435.72210222994181 11.232578037088516 0 11.232578037088516 14.535585432436676 0 0 0 0 432.35560753465688 1.559620809768596 0 1.559620809768596 171.50643217204492 0 0 0 0 640.52854952319467 178.62636721317347 0 178.62636721317347 49.779391632472709 0 0 0 0 483.8088430694188 46.498693767356357 0 46.498693767356357 -26.959038691577007 0 0 0 0 424.69457837712253 123.43146604041044 0 123.43146604041044 29.635312601468556 0 0 0 0 348.42288186602673 41.50601107933602 0 41.50601107933602 -17.217472558409327 0 0 0 0 376.69969813525677 -6.9047827172734912 0 -6.9047827172734912 59.877176796976357 0 0 0 0 312.41453610861936 74.470853370375607 0 74.470853370375607 2.6408183608589582 0 0 0 0 380.32309472366251 45.691235770276876 0 45.691235770276876 -69.604093070578983 0 0 0 0 384.03781690562028 63.741938351649424 0 63.741938351649424 -37.568752403390818 0 0 0 0 452.63795108698832 1.5699952794570322 0 1.5699952794570322 13.865138025362739 0 0 0 0 352.42341572543955 71.542768635306402 0 71.542768635306402 -11.129676065974081 0 0 0 0 455.7354380342731 57.824062197215881 0 57.824062197215881 -75.379742786240286 0 0 0 0 499.92194155158359 96.550691980703988 0 96.550691980703988 -41.166008430266402 0 0 0 0 455.56758186645402 59.290213579711768 0 59.290213579711768 -65.347220748414657 0 0 0 0 480.39189323042228 58.900807826236132 0 58.900807826236132 -65.415445135804646 0 0 0 0 239.13346383134194 83.717678512968064 0 83.717678512968064 -19.973983013541613 0 0 0 0 510.51163542830545 77.227507609536787 0 77.227507609536787 -21.796779816480012 0 0 0 0 217.32538234244566 -87.131518516720121 0 -87.131518516720121 13.882064383413685 0 0 0 0 140.32624418490013 13.374557709903428 0 13.374557709903428 73.819944671610756 0 0 0 0 43.99046762510261 -54.084731383741712 0 -54.084731383741712 60.293371730954391 0 0 0 0 -159.93435446513467 -87.272899857732227 0 -87.272899857732227 110.44389532357032 0 0 0 0 200.43543747414515 95.183493925337984 0 95.183493925337984 120.86152630709762 0 0 0 0 13.494314139526978 -167.06858278224144 0 -167.06858278224144 -172.22926153074582 0 0 0 0 97.164100896083625 -29.915685906171479 0 -29.915685906171479 8.5381920621905394 0 0 0 0 569.10641770650182 698.5539314781945 0 698.5539314781945 544.84293132444873 0 0 0 0 -69.162805345622473 180.59758914438231 0 180.59758914438231 195.42588129564484 0 0 0 0 654.63728702726075 330.72909461288873 0 330.72909461288873 66.130677990056256 0 0 0 0 638.88537485792449 17.247396093004834 0 17.247396093004834 -149.22671078672056 0 0 0 0 505.72136591240996 -92.357146030231888 0 -92.357146030231888 -214.23216965144456 0 0 0 0 1043.4739659418483 -99.426319871946021 0 -99.426319871946021 -300.12703083858196 0 0 0 0 53.733702508485294 -363.66870078175191 0 -363.66870078175191 -104.98081301098046 0 0 0 0 226.53850498113206 1471.9807917148567 0 1471.9807917148567 1068.5083438983888 0 0 0 0 496.00027596959262 -369.57712623257044 0 -369.57712623257044 -398.90157269751103 0 0 0 0 21.362130020509994 1.4845162652535322 0 1.4845162652535322 -0.67047889714148456 0 0 0 0 519.20958792930469 -152.79927314801353 0 -152.79927314801353 -12.658617552243186 0 0 0 0 258.39685763546368 -10.48218119741901 0 -10.48218119741901 302.97851284653689 0 0 0 0 285.51474070519907 -82.120074670452368 0 -82.120074670452368 -21.639062647441278 0 0 0 0 72.052874731947668 1.5527692511296038 0 1.5527692511296038 -4.5697082625054861 0 0 0 0 75.157089225947857 8.8876616783510585 0 8.8876616783510585 -16.440842758705003 0 0 0 0 13.401294901399524 40.512047603852125 0 40.512047603852125 12.024162175989261 0 0 0 0 1.2722097746984673 2.1308944899531639 0 2.1308944899531639 0.43525956896339846 0 0 0 0 6.5399257251498675 0.62669992610994996 0 0.62669992610994996 -8.6102690517198983 0 0 0 0 19.03224089757714 -39.502724622852412 0 -39.502724622852412 -0.031014843407774606 0 0 0 0 330.25778335452196 -104.42565681983808 0 -104.42565681983808 -17.235290579183356 0 0 0 0 83.889486422722939 -6.5644794458581339 0 -6.5644794458581339 -12.984704847534601 0 0 0 0 2.1806654776239753 -0.054055463431382123 0 -0.054055463431382123 -5.3697834339192534 0 0 0 0 -0.22117317389826052 -2.2149809787781578 0 -2.2149809787781578 0.28869347435637926 0 0 0 0 68.622024104101001 -3.1789170994626943 0 -3.1789170994626943 -5.7012205730899836 0 0 0 0 20.569091649973416 41.241676232536179 0 41.241676232536179 -59.940888830858341 0 0 0 0 61.380029554024077 -12.642629617243855 0 -12.642629617243855 -16.662147689319127 0 0 0 0 4.4559019735381753 5.7375257827232957 0 5.7375257827232957 3.3740500779344513 0 0 0 0 72.103972097721908 1.689184179951166 0 1.689184179951166 -33.089897419195822 0 0 0 0 67.248275624675443 18.338176937694755 0 18.338176937694755 -26.205962053116082 0 0 0 0 59.044393411499186 -78.113916547211105 0 -78.113916547211105 -1.574068747567253 0 0 0 0 20.505404369890158 1.1325856734224828 0 1.1325856734224828 4.6177498008948081 0 0 0 0 51.310827251232695 -59.730600898417947 0 -59.730600898417947 64.506933074937479 0 0 0 0 133.92626706283045 -4.1487873773949104 0 -4.1487873773949104 -72.018846732660222 0 0 0 0 105.6757025973572 -25.952361234164737 0 -25.952361234164737 5.4743848316972263 0 0 0 0 58.979992942535318 14.758357351951076 0 14.758357351951076 -17.458267729856288 0 0 0 0 144.32073998753913 -27.501858410059413 0 -27.501858410059413 -27.834329688373828 0 0 0 0 70.015976247058205 10.53612731069515 0 10.53612731069515 -21.145658541279861 0 0 0 0 51.657272289342473 3.6820587495071919 0 3.6820587495071919 -8.5746947263048146 0 0 0 0 69.391209945250012 12.254981559758352 0 12.254981559758352 -9.0370885715237392 0 0 0 0 1.4434862149792025 13.719463172303222 0 13.719463172303222 -7.1003369356913026 0 0 0 0 27.55156395288941 -60.447776510510948 0 -60.447776510510948 -26.037771506773424 0 0 0 0 3.2352113624841081 4.6461955801907635 0 4.6461955801907635 -2.4451717517352765 0 0 0 0 -71.983990207314491 49.030290615170088 0 49.030290615170088 57.589347332716898 0 0 0 0 -84.717752578842919 -17.198374267578401 0 -17.198374267578401 -41.673245196697735 0 0 0 0 -63.35734661843162 81.01716392689832 0 81.01716392689832 95.519345102714851 0 0 0 0 -11.615787210961571 -29.30265431586713 0 -29.30265431586713 7.9073959643155831 0 0 0 0 68.671697748053703 3.5319073570997261 0 3.5319073570997261 -9.2096842310802458 0 0 0 0 -89.983835594408447 10.930185454324601 0 10.930185454324601 47.834417196945651 0 0 0 0 8.3086206449127058 23.934652387285496 0 23.934652387285496 -6.3127387473120695 0 0 0 0 89.313868652679957 11.132227895087681 0 11.132227895087681 -16.672979623972083 0 0 0 0 31.040378423421192 17.941469906370372 0 17.941469906370372 -16.957279108744768 0 0 0 0 45.114349266513386 27.263625234077551 0 27.263625234077551 -18.357535361820176 0 0 0 0 60.966131978592216 65.621226155878247 0 65.621226155878247 -61.737814435706241 0 0 0 0 26.923092928347835 -9.1788791363751585 0 -9.1788791363751585 0.019917158882849506 0 0 0 0 114.26237176527155 40.221960184519496 0 40.221960184519496 -79.9557031677532 0 0 0 0 81.651017237560808 36.144455915486731 0 36.144455915486731 -38.032803183076297 0 0 0 0 117.40987631425742 47.67283987587416 0 47.67283987587416 -71.017890222774895 0 0 0 0 95.618472447218664 34.392531979975843 0 34.392531979975843 -56.170231959312332 0 0 0 0 118.9602778630524 32.650674724096731 0 32.650674724096731 -70.060568454610802 0 0 0 0 145.75951430530404 35.532344526609677 0 35.532344526609677 -73.940900749677439 0 0 0 0 140.71720220288262 29.75119310287505 0 29.75119310287505 -68.269798543905608 0 0 0 0 134.79976823469042 43.785067253723582 0 43.785067253723582 -62.241890618012917 0 0 0 0 133.53819205989203 29.079045965912826 0 29.079045965912826 -77.317735148594693 0 0 0 0 141.61977108866267 15.373268152323817 0 15.373268152323817 -70.076692472936429 0 0 0 0 114.61883446744469 20.718377597809877 0 20.718377597809877 -50.481712511769047 0 0 0 0 129.07515922562743 40.397737267030607 0 40.397737267030607 -84.073089391104986 0 0 0 0 114.83554673676554 22.710305643698575 0 22.710305643698575 -39.708914087019366 0 0 0 0 139.04907219322013 6.46370333058195 0 6.46370333058195 -96.449724247214363 0 0 0 0 116.73803370656424 -39.148643688834284 0 -39.148643688834284 -143.55815325234835 0 0 0 0 124.54055859371147 -0.049835653492209531 0 -0.049835653492209531 -66.943735967704697 0 0 0 0 171.82458719621354 14.422586041327008 0 14.422586041327008 -124.19037085234868 0 0 0 0 149.3627875220991 23.207294437740586 0 23.207294437740586 -89.15919801202017 0 0 0 0 154.34122459376522 28.928194211466916 0 28.928194211466916 -101.01313032445091 0 0 0 0 154.84315619189147 44.253984422433746 0 44.253984422433746 -77.493173913542705 0 0 0 0 147.285741841034 49.379602604631678 0 49.379602604631678 -50.304762537294664 0 0 0 0 165.49538877539453 69.798869759441402 0 69.798869759441402 -35.379746680216329 0 0 0 0 145.80238375013323 38.443977295049137 0 38.443977295049137 -62.529803012437924 0 0 0 0 166.03259339397164 45.834423698307134 0 45.834423698307134 -52.222581429179513 0 0 0 0 170.49812005067361 58.378249907415352 0 58.378249907415352 -67.342658238995654 0 0 0 0 217.14426974611706 89.503942713985793 0 89.503942713985793 -19.123362766375976 0 0 0 0 133.2088897033027 59.285118044061392 0 59.285118044061392 2.400729773370017 0 0 0 0 132.99285700153087 57.461937742368185 0 57.461937742368185 -12.826416886601933 0 0 0 0 119.27740514656034 59.073551029321209 0 59.073551029321209 7.9153099040224788 0 0 0 0 113.73578524588083 54.589812266896217 0 54.589812266896217 12.301026390283596 0 0 0 0 96.358140770280443 115.29273897241305 0 115.29273897241305 50.928895959879355 0 0 0 0 206.32199549106008 47.45595838940153 0 47.45595838940153 -33.092811433783481 0 0 0 0 15.635328432130308 -5.3526837814717112 0 -5.3526837814717112 -16.692946148807 0 0 0 0 129.17519056712626 20.382381511646713 0 20.382381511646713 26.077203374304332 0 0 0 0 114.90819485012616 49.423718449519157 0 49.423718449519157 34.052476645383194 0 0 0 0 173.69172856038495 31.733249310042197 0 31.733249310042197 -36.746117678765813 0 0 0 0 122.25851569549923 56.854515626730873 0 56.854515626730873 -41.251091419009526 0 0 0 0 134.28123864950976 27.013075655943311 0 27.013075655943311 -47.3247417939142 0 0 0 0 130.47304292531044 38.58574096376617 0 38.58574096376617 -24.393986822874012 0 0 0 0 127.22200090781553 28.43466559101455 0 28.43466559101455 -6.7661453210519653 0 0 0 0 130.20240253749944 44.126676436481603 0 44.126676436481603 -25.129630753027982 0 0 0 0 18.711587996280286 -62.218763570226997 0 -62.218763570226997 -87.6330055752519 0 0 0 0 52.129382457598695 -6.8865994453806252 0 -6.8865994453806252 -311.24540252140741 0 0 0 0 63.072399194880234 -12.551578001500992 0 -12.551578001500992 1.4040562532281626 0 0 0 0 245.73854989084066 423.60352648513071 0 423.60352648513071 205.6631794813195 0 0 0 0 101.46331574644137 -112.71636949774916 0 -112.71636949774916 -373.02528444292602 0 0 0 0 973.80470322529436 -1181.7269011079995 0 -1181.7269011079995 -683.21373193749787 0 0 0 0 45.132078281701752 -39.490488049927563 0 -39.490488049927563 -170.78532226017751 0 0 0 0 49.309695693860704 -127.23378908027064 0 -127.23378908027064 -254.6504519215423 0 0 0 0 122.7866196489631 -80.284484702254531 0 -80.284484702254531 -150.11458938947362 0 0 0 0 98.316976995200093 -41.262622939633957 0 -41.262622939633957 -123.34568304000913 0 0 0 0 156.68028683683951 3.2870815617645803 0 3.2870815617645803 -151.01910258529779 0 0 0 0 89.123602251604041 -23.590474282781734 0 -23.590474282781734 4.3874638788174112 0 0 0 0 117.9776276869452 -85.061396377990377 0 -85.061396377990377 -274.60628731415682 0 0 0 0 64.939909116492345 -49.83852587592969 0 -49.83852587592969 -150.00760754257817 0 0 0 0 129.37036399153294 -39.123237185428934 0 -39.123237185428934 -173.07142684756309 0 0 0 0 112.37643850992026 0.50075625534077517 0 0.50075625534077517 -104.18796032335013 0 0 0 0 132.04361359814357 9.316258775440474 0 9.316258775440474 -99.212531638925384 0 0 0 0 145.63856163619494 -41.1044527350914 0 -41.1044527350914 -175.99930465905709 0 0 0 0 192.96321169799194 15.787251203771376 0 15.787251203771376 -103.74231425140324 0 0 0 0 194.25462757257628 41.607244692333353 0 41.607244692333353 -66.994561069237221 0 0 0 0 214.49582714502321 22.21896214736239 0 22.21896214736239 -53.263457299248557 0 0 0 0 234.38654926148229 50.536369787527178 0 50.536369787527178 -18.622339416593832 0 0 0 0 211.01938821496151 -129.58635836612223 0 -129.58635836612223 -34.287121407989389 0 0 0 0 165.93984067127167 -34.917284050990929 0 -34.917284050990929 -71.823162262336695 0 0 0 0 343.10234445479 -43.994450665828481 0 -43.994450665828481 -75.416642725175166 0 0 0 0 213.37741389740404 -93.566132751398726 0 -93.566132751398726 -61.917140640880348 0 0 0 0 118.14955955399273 -73.754544535599592 0 -73.754544535599592 -65.992000331417842 0 0 0 0 193.71196693169759 -34.780095892865532 0 -34.780095892865532 -86.981709267587689 0 0 0 0 157.15256217500428 -6.0188714599544255 0 -6.0188714599544255 -109.48187314075926 0 0 0 0 73.620293481259978 -123.99385779818233 0 -123.99385779818233 -2.480523763559404 0 0 0 0 88.835062760947039 -32.658541264763983 0 -32.658541264763983 -123.27026781933979 0 0 0 0 135.94175813019683 -103.12273268474075 0 -103.12273268474075 -28.593056689630203 0 0 0 0 141.2081245824229 -177.78203158675649 0 -177.78203158675649 -27.524015402383384 0 0 0 0 58.645319066752563 -151.74254938003844 0 -151.74254938003844 -10.466846895105505 0 0 0 0 60.333573901511045 -127.48304815944385 0 -127.48304815944385 29.018094195735898 0 0 0 0 24.51763331689699 -173.89884039244461 0 -173.89884039244461 59.785588623011108 0 0 0 0 33.257515105302446 -61.468505443591653 0 -61.468505443591653 -87.604127279590159 0 0 0 0 62.180442731434596 9.9173851248665414 0 9.9173851248665414 -51.80948053341308 0 0 0 0 11.857880009942477 7.0136852427424223 0 7.0136852427424223 4.1370027609022051 0 0 0 0 48.030749712619581 57.879911127840501 0 57.879911127840501 -176.79776489076994 0 0 0 0 21.038658193452378 0.72523744898821008 0 0.72523744898821008 -5.4950430058067745 0 0 0 0 76.996348009124631 -181.26177385946096 0 -181.26177385946096 -179.66259766915982 0 0 0 0 80.667320110500441 -142.75628298271101 0 -142.75628298271101 -15.104620171660372 0 0 0 0 269.16159067885746 -97.388944542704451 0 -97.388944542704451 -25.551969833137036 0 0 0 0 181.11792259853974 -206.4924888107887 0 -206.4924888107887 -4.5152155031619259 0 0 0 0 416.68107275153307 265.2022335877748 0 265.2022335877748 115.37708167094422 0 0 0 0 178.61006129923044 -218.05279177698094 0 -218.05279177698094 188.24609127508211 0 0 0 0 2.345274708689999 -3.4194588885699737 0 -3.4194588885699737 1.4013729524681229 0 0 0 0 1.2034560877073091 -15.139701757216244 0 -15.139701757216244 23.697789205216168 0 0 0 0 321.80482737797138 -60.245806488835569 0 -60.245806488835569 360.32597615071336 0 0 0 0 572.75994210231875 -193.24687867615785 0 -193.24687867615785 -47.064079108721444 0 0 0 0 451.55719909840627 168.06987295212008 0 168.06987295212008 127.78696964775736 0 0 0 0 342.36034134266083 41.775067771126032 0 41.775067771126032 -17.92069927824457 0 0 0 0 198.68412849002925 54.240465478925898 0 54.240465478925898 195.04554831395171 0 0 0 0 307.45564198721149 13.665268514748561 0 13.665268514748561 22.903367372132379 0 0 0 0 288.50554905521858 -64.977677995694364 0 -64.977677995694364 102.47978857335738 0 0 0 0 243.4893288932326 8.6440433462694273 0 8.6440433462694273 -3.8789086995075195 0 0 0 0 260.64141331765859 -32.055179884395329 0 -32.055179884395329 -21.564264612167335 0 0 0 0 306.70105285830505 34.005547279963139 0 34.005547279963139 -45.535821999096697 0 0 0 0 329.41236012473382 29.597660540965308 0 29.597660540965308 -48.513992340991535 0 0 0 0 350.95705173989336 42.025896444289174 0 42.025896444289174 -41.345288090198665 0 0 0 0 527.64621379913297 -57.093238707542696 0 -57.093238707542696 13.491365078531999 0 0 0 0 96.794186908926349 40.008332600123822 0 40.008332600123822 61.92383717579105 0 0 0 0 328.65737467967233 42.957728933833593 0 42.957728933833593 -40.616414943750897 0 0 0 0 121.23600160443311 19.636470110785012 0 19.636470110785012 6.6310841802996947 0 0 0 0 104.56137880613096 21.847828882233443 0 21.847828882233443 7.6432206135505112 0 0 0 0 36.414159644843011 39.356555565001571 0 39.356555565001571 7.4699667291474778 0 0 0 0 87.955637255297916 64.156408382490781 0 64.156408382490781 28.469469662664324 0 0 0 0 127.43688370426389 16.105287024226527 0 16.105287024226527 2.1634647924693127 0 0 0 0 64.599887681318179 -33.851986573379925 0 -33.851986573379925 -48.598662525077998 0 0 0 0 76.157071815083327 -23.171484898505469 0 -23.171484898505469 -8.193900815744712 0 0 0 0 185.4347023245864 48.374615768168496 0 48.374615768168496 17.590896821984643 0 0 0 0 107.37636460935573 14.476722908037488 0 14.476722908037488 -15.129645369356126 0 0 0 0 167.28675743869462 83.617700440967383 0 83.617700440967383 11.197389124408801 0 0 0 0 65.129775983338249 -14.544803327181612 0 -14.544803327181612 -58.571245050228988 0 0 0 0 121.30268460253137 46.918248899529999 0 46.918248899529999 -21.97623450797164 0 0 0 0 114.64769756491296 43.468343029309153 0 43.468343029309153 5.5667690505735834 0 0 0 0 118.23335428904102 58.380902923627986 0 58.380902923627986 39.042615132981155 0 0 0 0 151.92544721937156 60.818091509074293 0 60.818091509074293 0.38691998574381614 0 0 0 0 199.51027325649193 54.094458190459136 0 54.094458190459136 26.909563794282576 0 0 0 0 151.14797522396839 58.064053589361038 0 58.064053589361038 50.664399453714623 0 0 0 0 143.62855559869058 52.948218518632302 0 52.948218518632302 91.642785821319194 0 0 0 0 82.636088648338045 18.151694240812503 0 18.151694240812503 40.335291682385105 0 0 0 0 139.39871838012186 30.269235975875063 0 30.269235975875063 2.2800955602697286 0 0 0 0 152.18364412380106 1.7258726474454988 0 1.7258726474454988 -29.480640586510617 0 0 0 0 174.006250107901 -42.458475930260647 0 -42.458475930260647 57.564715992916376 0 0 0 0 191.83356697062845 -22.00524323735317 0 -22.00524323735317 13.563487219833405 0 0 0 0 150.2239653568904 15.659085700929381 0 15.659085700929381 2.0044212804787094 0 0 0 0 94.462623899547907 -63.997214791956139 0 -63.997214791956139 -9.8810406496902488 0 0 0 0 72.540571959502174 -45.158850014651456 0 -45.158850014651456 -31.884209373797656 0 0 0 0 395.02932197315386 273.43318732363969 0 273.43318732363969 135.07243277948419 0 0 0 0 162.57995202174607 96.883313839559378 0 96.883313839559378 150.71048497274387 0 0 0 0 224.69246271385782 126.5780487334232 0 126.5780487334232 134.33080571496248 0 0 0 0 135.39185843266023 98.13346216658465 0 98.13346216658465 220.67325829724359 0 0 0 0 32.508855030318955 111.61981817701962 0 111.61981817701962 219.22225052305271 0 0 0 0 80.958930527067423 29.622630763488814 0 29.622630763488814 236.79436080536652 0 0 0 0 104.58673680151696 88.545569162480206 0 88.545569162480206 300.08724840979448 0 0 0 0 51.224258367139555 -62.135196753650234 0 -62.135196753650234 76.696497215629734 0 0 0 0 100.23104097092619 40.633688187597272 0 40.633688187597272 137.49117949211177 0 0 0 0 114.11746283851608 11.957181116609718 0 11.957181116609718 2.3056195566423412 0 0 0 0 130.13768120044915 62.17329294391493 0 62.17329294391493 127.28050589141731 0 0 0 0 158.57803354240241 120.73202758770003 0 120.73202758770003 -186.37378287509273 0 0 0 0 79.852747055087093 62.651633154434421 0 62.651633154434421 93.958885075274338 0 0 0 0 81.346996464759542 44.298013731791301 0 44.298013731791301 24.669975152643147 0 0 0 0 108.83939276517268 66.079237699602757 0 66.079237699602757 21.012106419788829 0 0 0 0 171.23873481546252 92.150918298100805 0 92.150918298100805 -105.89686142318169 0 0 0 0 565.07043058955605 -350.270281925566 0 -350.270281925566 -22.103200125191279 0 0 0 0 591.94830721957987 -257.34918852873398 0 -257.34918852873398 77.084905347701351 0 0 0 0 611.52111286665604 -286.91589808717617 0 -286.91589808717617 41.198076185833997 0 0 0 0 -39.240534309206851 197.10475350676825 0 197.10475350676825 -4.6910578803253884 0 0 0 0 52.593495322639356 26.681088160273767 0 26.681088160273767 13.843129676235641 0 0 0 0 812.71513971282548 -847.55969158727567 0 -847.55969158727567 482.43754104296022 0 0 0 0 349.95363695646665 -37.683140073602772 0 -37.683140073602772 3.2261276772491101 0 0 0 0 113.90114729515881 125.52920692943098 0 125.52920692943098 401.26341023882196 0 0 0 0 257.21602394764341 232.7789335350335 0 232.7789335350335 394.56401730078994 0 0 0 0 133.22280766047152 70.463046409891376 0 70.463046409891376 307.59739784400881 0 0 0 0 239.48007221919761 233.23521081266153 0 233.23521081266153 438.90604204704323 0 0 0 0 2117.4308923529979 453.13444782690203 0 453.13444782690203 182.58725021315331 0 0 0 0 925.30647866790241 942.50974766394211 0 942.50974766394211 879.55032938915315 0 0 0 0 1803.3060663928554 -508.13832766482938 0 -508.13832766482938 551.4088774735319 0 0 0 0 1853.8239217997398 897.24424740375434 0 897.24424740375434 1177.1546986873163 0 0 0 0 2243.0003956903602 1038.1239344456117 0 1038.1239344456117 565.20754632979151 0 0 0 0 2385.0008320558845 -1410.2756520912653 0 -1410.2756520912653 1045.9961543176441 0 0 0 0 -246.18973930111315 251.39255857826083 0 251.39255857826083 1052.4281754959502 0 0 0 0 18.597102388786311 8.6297262760796585 0 8.6297262760796585 6.3007976722746442 0 0 0 0 925.74004914817851 -307.38893303043642 0 -307.38893303043642 502.18293700535105 0 0 0 0 368.31051499249588 -521.76343346127533 0 -521.76343346127533 669.9345342178749 0 0 0 0 917.26820791891078 -362.80833305333908 0 -362.80833305333908 1401.7701990794053 0 0 0 0 1404.0457769908826 -421.65027661871045 0 -421.65027661871045 267.05828498061874 0 0 0 0 1947.4846217305239 568.38414653977725 0 568.38414653977725 741.86860465868449 0 0 0 0 74.194556218193611 -16.189102204418305 0 -16.189102204418305 656.77176266683637 0 0 0 0 -22.729123650877227 -473.66577881445698 0 -473.66577881445698 673.70786245716408 0 0 0 0 -406.0561620084045 617.58625616110658 0 617.58625616110658 50.553750796811073 0 0 0 0 2032.3584001706622 1166.6476731952139 0 1166.6476731952139 -87.468296233298588 0 0 0 0 1623.8431691638689 -494.5112686491284 0 -494.5112686491284 -262.28846865472974 0 0 0 0 3798.9865673520362 -1108.8307582855632 0 -1108.8307582855632 -287.41262578396072 0 0 0 0 -338.25103113388468 158.32000720733913 0 158.32000720733913 21.366155628750676 0 0 0 0 666.27116057963576 -295.50120126768275 0 -295.50120126768275 456.55744513225727 0 0 0 0 -181.78068838983017 1663.1894821752953 0 1663.1894821752953 -300.47299367898063 0 0 0 0 2252.4169690249328 642.03692295939709 0 642.03692295939709 -30.100613213180623 0 0 0 0 17.979179953674134 8.4398331177206956 0 8.4398331177206956 -1.4034016784057641 0 0 0 0 748.43409012073244 -644.20136417261801 0 -644.20136417261801 -168.65499289512809 0 0 0 0 320.10953547894314 349.34380231156342 0 349.34380231156342 -794.29599553050389 0 0 0 0 34.453394742510199 19.834092548506533 0 19.834092548506533 1.4144807535594754 0 0 0 0 1109.4491736882701 525.67216986606775 0 525.67216986606775 -556.80688769321455 0 0 0 0 1891.9934819772316 -534.09886639667843 0 -534.09886639667843 -320.51165443483842 0 0 0 0 1623.8238528000365 -165.95817201697491 0 -165.95817201697491 -611.39402125797483 0 0 0 0 1172.3657161050796 524.37992116381247 0 524.37992116381247 601.76576694291407 0 0 0 0 2926.951703686882 569.72426432241161 0 569.72426432241161 -410.53398814906132 0 0 0 0 10.337084312239313 -294.05279407666012 0 -294.05279407666012 347.42266388277494 0 0 0 0 -486.00591980094578 927.18895593602019 0 927.18895593602019 -574.14237001142328 0 0 0 0 742.56034804518276 1382.7210537862684 0 1382.7210537862684 -972.34023945891749 0 0 0 0 49.050794205610003 36.590159968901567 0 36.590159968901567 21.796224619869591 0 0 0 0 1040.6225817885643 784.40487890640759 0 784.40487890640759 -93.614618288214004 0 0 0 0 1441.6439943037549 595.51758303571887 0 595.51758303571887 55.1882527026996 0 0 0 0 -540.47026099922368 387.34209639753476 0 387.34209639753476 42.297271878001084 0 0 0 0 1269.1550646236283 -591.88734819307456 0 -591.88734819307456 -125.48723396707101 0 0 0 0 1548.1004085898749 -677.79584552659026 0 -677.79584552659026 -181.62397366318407 0 0 0 0 21.274878227095058 12.723973373636554 0 12.723973373636554 5.2991751058006233 0 0 0 0 3163.4226381707631 -1349.6630685014413 0 -1349.6630685014413 -103.37362236799743 0 0 0 0 -1726.7296511456225 656.67928637429054 0 656.67928637429054 -169.9446525698695 0 0 0 0 -1699.2217799771752 1167.735398978685 0 1167.735398978685 -852.60917866641898 0 0 0 0 5.2349490897834698 5.4450635023794831 0 5.4450635023794831 0.73735695785151556 0 0 0 0 873.53397179085005 -401.95668851404434 0 -401.95668851404434 555.81777225873702 0 0 0 0 2200.7403853309443 -832.27686575443317 0 -832.27686575443317 -56.202288694761592 0 0 0 0 640.55577280352009 -196.32087171120838 0 -196.32087171120838 -4.2293411606124209 0 0 0 0 1284.9267804940609 -147.38387109368341 0 -147.38387109368341 -95.837427964461313 0 0 0 0 15.972118255990779 15.64989808796723 0 15.64989808796723 0.80393500604521861 0 0 0 0 1426.7166677264395 -562.18260535268587 0 -562.18260535268587 -196.03316616321717 0 0 0 0 651.97107021723059 1595.832057420565 0 1595.832057420565 -316.21647396996843 0 0 0 0 966.23708455906308 -576.05487231068673 0 -576.05487231068673 -83.127074564624309 0 0 0 0 800.55916731983234 125.19387409860133 0 125.19387409860133 -511.6612009228993 0 0 0 0 760.60846303733706 -79.401313053397189 0 -79.401313053397189 -601.64753531043516 0 0 0 0 899.17222139749356 -33.547058639088391 0 -33.547058639088391 -522.70622605882636 0 0 0 0 818.73598279097496 -341.8061787739698 0 -341.8061787739698 -98.619545378192925 0 0 0 0 1352.7680035398516 -825.42930877954723 0 -825.42930877954723 293.11799153235074 0 0 0 0 1848.7716126706546 -620.07375509153917 0 -620.07375509153917 -444.89950010715893 0 0 0 0 19.414080243504444 19.431601485735172 0 19.431601485735172 4.4991394001123624 0 0 0 0 1646.1285203145526 -132.05562277545869 0 -132.05562277545869 -406.19339690365268 0 0 0 0 1606.7694841912016 -392.51221432904185 0 -392.51221432904185 -609.30881530770375 0 0 0 0 1390.5846022559708 -304.7314772478976 0 -304.7314772478976 -298.94864129473353 0 0 0 0 1608.4326577290465 -347.92288004809251 0 -347.92288004809251 -312.39791714483363 0 0 0 0 1085.0933013657777 125.39961604123891 0 125.39961604123891 1.2888035244891398 0 0 0 0 1037.9022210322946 60.265601872408979 0 60.265601872408979 -81.112541898082782 0 0 0 0 420.48083188197052 423.43426274867079 0 423.43426274867079 369.87961670319328 0 0 0 0 -595.06635444358108 -20.205967505357421 0 -20.205967505357421 -49.487229798537555 0 0 0 0 180.0749702823814 -239.73650675894987 0 -239.73650675894987 -394.23292914297826 0 0 0 0 234.8559085438319 273.89564445234282 0 273.89564445234282 -136.37687049199394 0 0 0 0 1876.6174495061132 -693.34180768542933 0 -693.34180768542933 136.49619826440539 0 0 0 0 -766.18453808907361 1263.7842112710573 0 1263.7842112710573 -88.727221824192597 0 0 0 0 13.598965238996811 7.8801338504653415 0 7.8801338504653415 0.89468182069600743 0 0 0 0 2209.0996057109296 -165.0846363821438 0 -165.0846363821438 64.19745512094687 0 0 0 0 2104.3194728126655 212.66887976516887 0 212.66887976516887 305.6796373567704 0 0 0 0 -44.877484133990947 1481.439235438123 0 1481.439235438123 1384.6612528101778 0 0 0 0 627.11112577952554 910.2173745425049 0 910.2173745425049 -97.502995857262249 0 0 0 0 1263.6055800186587 251.08837190217037 0 251.08837190217037 -69.249280532862031 0 0 0 0 34.989218502952838 -41.102684975709622 0 -41.102684975709622 45.292920959197687 0 0 0 0 -269.83823571677203 -348.11591983222024 0 -348.11591983222024 34.255017522422349 0 0 0 0 -70.008727945329156 -111.07892257885942 0 -111.07892257885942 -48.027698349165803 0 0 0 0 200.33911464225093 -122.35760466347119 0 -122.35760466347119 -97.609687290874717 0 0 0 0 139.9922041525424 -161.26060016727615 0 -161.26060016727615 -109.31421866316305 0 0 0 0 181.60984039835603 -87.949530096031594 0 -87.949530096031594 -117.93265454068205 0 0 0 0 -16.257663035125006 -55.87932168066618 0 -55.87932168066618 -166.76473666301513 0 0 0 0 -129.1086753293639 -43.458058580413308 0 -43.458058580413308 -62.464659168770595 0 0 0 0 112.93214244264527 101.42050041967468 0 101.42050041967468 -101.90545153680387 0 0 0 0 424.49866561047384 150.55210800387977 0 150.55210800387977 -95.023587952032358 0 0 0 0 336.51531833986519 -132.97698083609885 0 -132.97698083609885 -116.0550114875623 0 0 0 0 272.92368939633889 -27.51935045848586 0 -27.51935045848586 -78.066026993874402 0 0 0 0 64.216933249743306 -94.507109626362762 0 -94.507109626362762 -74.665393627134165 0 0 0 0 79.771483753545738 28.646286033260211 0 28.646286033260211 -34.722330242245576 0 0 0 0 886.85788257751119 53.063299301178375 0 53.063299301178375 415.89637556424282 0 0 0 0 89.674467242555693 -163.35134948362975 0 -163.35134948362975 -104.93059193330555 0 0 0 0 46.235498700642182 -46.308859825088376 0 -46.308859825088376 45.421291848567179 0 0 0 0 124.4017980468052 -121.91262596922388 0 -121.91262596922388 -173.12244978294734 0 0 0 0 129.28923422214575 -136.54639380958724 0 -136.54639380958724 -129.51386323018596 0 0 0 0 994.42127184984565 81.751069936565955 0 81.751069936565955 158.04080378435901 0 0 0 0 1050.8643035599089 166.74785242221196 0 166.74785242221196 197.90130293055586 0 0 0 0 989.74948218016652 93.720736539133213 0 93.720736539133213 294.98461889346027 0 0 0 0 788.17802982963622 151.61777149879822 0 151.61777149879822 8.8054968922879198 0 0 0 0 1050.9868874977683 165.94817583688803 0 165.94817583688803 -10.840327172376419 0 0 0 0 770.47911501527415 294.62288719520438 0 294.62288719520438 62.451059972448093 0 0 0 0 -432.51699955482036 532.46491707578093 0 532.46491707578093 19.011814200299767 0 0 0 0 340.19714143068995 436.82100792870597 0 436.82100792870597 28.0389133023059 0 0 0 0 5.9208535917762788 -2.5810785531530769 0 -2.5810785531530769 -0.31260132621681347 0 0 0 0 771.16145298327319 293.95389284640339 0 293.95389284640339 -128.73945613931028 0 0 0 0 355.47444270778215 273.5651067653057 0 273.5651067653057 -85.14988039922531 0 0 0 0 246.34006684143969 268.22382592304393 0 268.22382592304393 36.271619782055041 0 0 0 0 663.4241603857372 264.4585345282635 0 264.4585345282635 -89.693598793256115 0 0 0 0 1005.471227432281 -9.8412391978338292 0 -9.8412391978338292 -141.14990445768444 0 0 0 0 657.5103234499984 261.58312008965891 0 261.58312008965891 -61.393160057461046 0 0 0 0 62.961718366850619 95.397925263073475 0 95.397925263073475 -28.262749350573927 0 0 0 0 73.161765524222574 56.881493542902547 0 56.881493542902547 -18.96792913429276 0 0 0 0 118.51064718340785 94.072733752626846 0 94.072733752626846 89.097586170638806 0 0 0 0 208.95393196184887 71.422478858226441 0 71.422478858226441 8.5169869809742522 0 0 0 0 345.73251261241967 72.206330794756013 0 72.206330794756013 0.15802042064206034 0 0 0 0 4.461136684098733 32.662859609667024 0 32.662859609667024 -3.6617691590737338 0 0 0 0 337.12187391431689 44.444819852582356 0 44.444819852582356 -44.643327094644064 0 0 0 0 570.99990784639522 22.465205577705774 0 22.465205577705774 -54.135816874515967 0 0 0 0 659.03445671773079 -219.01042705633756 0 -219.01042705633756 11.749135418659137 0 0 0 0 658.43596442921262 -269.71835013898806 0 -269.71835013898806 -177.51616349553365 0 0 0 0 30.531878074105123 19.128044242819058 0 19.128044242819058 3.5912704026176789 0 0 0 0 558.52208319498459 -112.74235229326814 0 -112.74235229326814 -149.74628023539978 0 0 0 0 959.20009864638268 -11.948563964432651 0 -11.948563964432651 -25.923914127919716 0 0 0 0 1164.8300078526427 -597.17704681111013 0 -597.17704681111013 210.43343554817966 0 0 0 0 1529.7432266065734 -308.22885098109271 0 -308.22885098109271 127.89501313673077 0 0 0 0 2614.4181839843627 1148.9460210945615 0 1148.9460210945615 577.51504349053448 0 0 0 0 2938.4794762171732 1095.8233461077762 0 1095.8233461077762 132.34854451962619 0 0 0 0 2994.9263008942435 1429.8276239655736 0 1429.8276239655736 90.254818047943829 0 0 0 0 2968.4182540017209 1189.2721321620647 0 1189.2721321620647 159.10528323073487 0 0 0 0 2633.6013865062196 1789.1684060579569 0 1789.1684060579569 606.94713798540249 0 0 0 0 1691.9673074266902 622.40585690436581 0 622.40585690436581 16.402238872848216 0 0 0 0 1520.4872935059975 886.60433268010956 0 886.60433268010956 173.71359482024258 0 0 0 0 2011.4217716404237 427.94256051686102 0 427.94256051686102 -126.0933659212638 0 0 0 0 996.96568683201622 394.36830686227995 0 394.36830686227995 128.09792568595472 0 0 0 0 2203.4476231268782 1309.3006579524094 0 1309.3006579524094 263.82766781050611 0 0 0 0 146.46473078556301 66.291173221179747 0 66.291173221179747 104.74799027944323 0 0 0 0 1126.1002353406366 171.63448910324433 0 171.63448910324433 117.21338494124436 0 0 0 0 415.67823049868457 -322.99033335758065 0 -322.99033335758065 234.9096222206631 0 0 0 0 1512.7353830898501 -508.3652678293297 0 -508.3652678293297 -101.665224215119 0 0 0 0 -32.213384268601658 -283.05398082012277 0 -283.05398082012277 348.82158262040429 0 0 0 0 2215.9731910731643 741.77361133838508 0 741.77361133838508 148.46829924274974 0 0 0 0 2645.8883692346717 663.99376132955194 0 663.99376132955194 51.159620174448605 0 0 0 0 3218.3550095900428 1072.737716736324 0 1072.737716736324 341.87543376000065 0 0 0 0 2831.4722484706726 1310.3841579988484 0 1310.3841579988484 638.26920937674868 0 0 0 0 6.7131972137988214 9.4082040479797513 0 9.4082040479797513 10.453923737384267 0 0 0 0 -11.578976041229907 493.32441552574164 0 493.32441552574164 658.34719821927865 0 0 0 0 471.06630183756351 489.71856085472791 0 489.71856085472791 360.84142970896028 0 0 0 0 3005.9854069823632 25.030505406370366 0 25.030505406370366 83.707010087222784 0 0 0 0 596.4862198635692 10.415370762313927 0 10.415370762313927 -358.8244390791142 0 0 0 0 473.07312197436113 1166.7639587253334 0 1166.7639587253334 1141.0914624243023 0 0 0 0 2547.2708197711618 1180.5520028131707 0 1180.5520028131707 284.68406534194685 0 0 0 0 989.28633110134979 1235.1292454608192 0 1235.1292454608192 1139.8211923970625 0 0 0 0 2925.7023568380973 410.22043297297455 0 410.22043297297455 235.05916197286663 0 0 0 0 2819.8778024237181 751.18950900799587 0 751.18950900799587 1045.298068418123 0 0 0 0 2942.6229328908703 759.4192989782747 0 759.4192989782747 118.44997621723556 0 0 0 0 3501.0321252407339 1053.0637344356637 0 1053.0637344356637 143.14904643522408 0 0 0 0 2566.2239568195109 162.57820853624798 0 162.57820853624798 -0.20911932587493531 0 0 0 0 3496.6065603299226 484.37114746715724 0 484.37114746715724 -338.27292801962955 0 0 0 0 2907.0806894511406 525.07593112020925 0 525.07593112020925 147.01471212783594 0 0 0 0 1484.3263914204799 633.59007849082036 0 633.59007849082036 82.704463826190832 0 0 0 0 2133.5742302427025 328.38547811539229 0 328.38547811539229 94.411675756986199 0 0 0 0 2848.5760098522169 772.09146253689823 0 772.09146253689823 -58.930465788615152 0 0 0 0 1331.88955920648 550.19947161441553 0 550.19947161441553 292.78351004335326 0 0 0 0 1263.5174811155011 868.95258515643059 0 868.95258515643059 328.85093265699635 0 0 0 0 673.48902755357267 604.31379307240786 0 604.31379307240786 230.13651146432784 0 0 0 0 277.90562766091898 204.39465633474174 0 204.39465633474174 298.94586571395217 0 0 0 0 65.333659826486837 -76.69224632011742 0 -76.69224632011742 35.786092833350153 0 0 0 0 283.84604196170403 357.66381099956635 0 357.66381099956635 69.192751410428741 0 0 0 0 565.50365473614875 176.34328949042771 0 176.34328949042771 35.119495640273399 0 0 0 0 1055.1800411690638 374.3297398106364 0 374.3297398106364 102.8475931019475 0 0 0 0 808.85795328610402 185.80602895105318 0 185.80602895105318 0.53326866536904982 0 0 0 0 1521.1517266748924 501.76360120428808 0 501.76360120428808 -110.74098689200738 0 0 0 0 890.76395446709648 217.80039728310905 0 217.80039728310905 41.63458759978522 0 0 0 0 814.94626331946347 565.18676332111193 0 565.18676332111193 193.37167247027293 0 0 0 0 229.27923595640459 201.28476001912642 0 201.28476001912642 134.45543377585591 0 0 0 0 11.695618973171804 165.70281880815381 0 165.70281880815381 91.099982490480883 0 0 0 0 256.74036198353133 198.13505762758581 0 198.13505762758581 87.704452125188368 0 0 0 0 169.96982387675962 52.439282772001576 0 52.439282772001576 -39.771156459964516 0 0 0 0 -156.72081044100923 76.520039874522126 0 76.520039874522126 68.496019666840596 0 0 0 0 44.795245147615788 31.41117656399561 0 31.41117656399561 -65.158722783605981 0 0 0 0 58.028709327089018 58.799396680483881 0 58.799396680483881 -29.27715867806495 0 0 0 0 359.95641415732098 263.2935205065138 0 263.2935205065138 217.16640959078117 0 0 0 0 0.079622421123637821 0.27807931702261612 0 0.27807931702261612 -0.73865828631078134 0 0 0 0 449.23168075299327 189.67551382913749 0 189.67551382913749 79.534465247601972 0 0 0 0 26.988990760219167 -2.19410782483709 0 -2.19410782483709 4.8063034099591277 0 0 0 0 103.40813642393914 -42.387534076918882 0 -42.387534076918882 3.7222083415155112 0 0 0 0 2.1740115752693896 0.41571008601442827 0 0.41571008601442827 -3.7343323756857139 0 0 0 0 -7.597212721768301 15.367907572982858 0 15.367907572982858 -17.380197903566113 0 0 0 0 65.770764074608451 49.022040165056751 0 49.022040165056751 -53.938906295689776 0 0 0 0 55.988896047405433 61.089988205247892 0 61.089988205247892 -60.196234572078396 0 0 0 0 73.189030702284072 62.436652485148784 0 62.436652485148784 -67.479981993765364 0 0 0 0 50.632470992699382 119.10089845573646 0 119.10089845573646 -78.218206323786035 0 0 0 0 -14.555229047939065 39.814100912714935 0 39.814100912714935 -52.445908965127956 0 0 0 0 54.101071205310291 13.1736475646602 0 13.1736475646602 -70.38135553357165 0 0 0 0 48.876924515643623 23.423795266294519 0 23.423795266294519 -61.704661958107408 0 0 0 0 24.374945539926557 8.1328715541375587 0 8.1328715541375587 -6.5897232609186176 0 0 0 0 32.589575712481746 19.270401958739626 0 19.270401958739626 -28.94124972255031 0 0 0 0 6.6828587683392726 0.12298984052728201 0 0.12298984052728201 -1.1832488831981505 0 0 0 0 74.213262247714738 0.64106179836321076 0 0.64106179836321076 -2.6403064066693105 0 0 0 0 168.55591034633107 -22.101113469709276 0 -22.101113469709276 -54.324111680431301 0 0 0 0 3.4092285491950634 -0.52244952166751091 0 -0.52244952166751091 -1.3236859781056669 0 0 0 0 12.663060184374032 5.3690446107937078 0 5.3690446107937078 -4.7744785244655379 0 0 0 0 27.372627797838504 -2.5059940424121407 0 -2.5059940424121407 -5.6683386992826854 0 0 0 0 72.315898962267966 -1.7152571769701979 0 -1.7152571769701979 -2.577146336588612 0 0 0 0 35.87938961012361 10.727721137969962 0 10.727721137969962 -13.129731439056687 0 0 0 0 53.816238276194781 -3.781132037084717 0 -3.781132037084717 -7.3896446893108987 0 0 0 0 43.601147821202176 -4.1528243584471056 0 -4.1528243584471056 -2.7410885123148319 0 0 0 0 27.334294361762034 -0.93236965553657214 0 -0.93236965553657214 -6.3811450869058337 0 0 0 0 27.327930741388101 -4.1747243541533408 0 -4.1747243541533408 -3.3413911873682736 0 0 0 0 17.48826837760862 -2.402267203284282 0 -2.402267203284282 -3.9281674202716204 0 0 0 0 13.512876137392595 -8.5743999690312194 0 -8.5743999690312194 -5.5076373757146939 0 0 0 0 28.638405455981001 -14.721791910785214 0 -14.721791910785214 -6.768276717471112 0 0 0 0 32.635165668702243 -5.9360545582328825 0 -5.9360545582328825 -6.954706418155185 0 0 0 0 16.364584622055503 -9.6944037221206543 0 -9.6944037221206543 -3.8490210282193775 0 0 0 0 59.132908655737992 -58.754531949806733 0 -58.754531949806733 -143.92925440595241 0 0 0 0 -48.176818128267769 3.1682455741008653 0 3.1682455741008653 -80.080973560298844 0 0 0 0 5.4603210911324851 -2.0416373496755398 0 -2.0416373496755398 -2.0406111044288089 0 0 0 0 37.27698179766594 -3.919363040673943 0 -3.919363040673943 -7.3185729398753665 0 0 0 0 -32.167105687774892 10.942362603741117 0 10.942362603741117 124.32187882926291 0 0 0 0 12.916206335743169 -6.4775508463168308 0 -6.4775508463168308 -3.9835328754600781 0 0 0 0 237.65461720846361 242.41109774070799 0 242.41109774070799 294.94016638942367 0 0 0 0 -46.03243913956976 -138.50769952614996 0 -138.50769952614996 109.91877517784769 0 0 0 0 701.79505591157067 638.84714021111711 0 638.84714021111711 600.1542672538335 0 0 0 0 701.59871255641337 428.85835530079589 0 428.85835530079589 264.38604015332112 0 0 0 0 -73.316619643257582 239.07699664217739 0 239.07699664217739 511.49501869903338 0 0 0 0 1143.4393247004646 402.46894130538737 0 402.46894130538737 293.9806534326226 0 0 0 0 520.74678637585021 524.26536381127289 0 524.26536381127289 363.6554293061065 0 0 0 0 12.546412899711868 -109.86437425961503 0 -109.86437425961503 218.08163826596785 0 0 0 0 2.4665459306845037 3.3110535339289129 0 3.3110535339289129 1.229118680371319 0 0 0 0 101.42942892619612 -53.984232690574117 0 -53.984232690574117 31.41978562537588 0 0 0 0 0.86752422365259463 1.8781880639155801 0 1.8781880639155801 2.075169780580735 0 0 0 0 -4.230467219303307 -0.17702044278891549 0 -0.17702044278891549 3.1975168141836043 0 0 0 0 11.729641269921558 -35.745091414188664 0 -35.745091414188664 29.582000526944171 0 0 0 0 62.463772108239937 -38.493270212504058 0 -38.493270212504058 -65.587139225870487 0 0 0 0 7.9852502381359045 -0.66704715921596147 0 -0.66704715921596147 0.55565784316077993 0 0 0 0 64.10952952344087 -14.425210905547374 0 -14.425210905547374 -191.51444210481577 0 0 0 0 73.250661391379253 -37.79025094338084 0 -37.79025094338084 -184.14056717312815 0 0 0 0 16.848202897733586 -5.6418604355089386 0 -5.6418604355089386 -2.2306054765498229 0 0 0 0 15.591257932566805 -12.870902747834407 0 -12.870902747834407 9.9087608030140473 0 0 0 0 -3.9783128021269931 -9.9148146942150674 0 -9.9148146942150674 1.8873186843481591 0 0 0 0 217.41067906888202 -256.53020623871998 0 -256.53020623871998 65.135962825163006 0 0 0 0 23.59404709075659 -8.1029138994260279 0 -8.1029138994260279 1.6776579987402158 0 0 0 0 -447.27130779175786 -766.13972967810787 0 -766.13972967810787 900.90926898372163 0 0 0 0 368.01562585729698 -139.29663819156349 0 -139.29663819156349 -411.21600309500445 0 0 0 0 -99.66234459575935 56.597524020964158 0 56.597524020964158 35.563283849796562 0 0 0 0 130.81082650920143 133.21819799905688 0 133.21819799905688 -205.60372657652033 0 0 0 0 -150.78531874688633 25.153326284974185 0 25.153326284974185 335.4402904397291 0 0 0 0 32.573494435933981 14.560318608342143 0 14.560318608342143 16.962094045114245 0 0 0 0 49.953525263728807 -21.41307634070597 0 -21.41307634070597 -10.047610757958523 0 0 0 0 57.050090571850887 1.0750192049640646 0 1.0750192049640646 19.275245678530837 0 0 0 0 42.689378669369034 -19.056245516376521 0 -19.056245516376521 -42.164561155201511 0 0 0 0 39.971786115512202 -20.4843272933592 0 -20.4843272933592 -2.0669662484623679 0 0 0 0 35.249867951525488 -14.887860851135475 0 -14.887860851135475 -1.2109048739426895 0 0 0 0 24.190788293103651 -18.582310905151839 0 -18.582310905151839 -40.174298890008771 0 0 0 0 40.739342802977404 -11.66929564675182 0 -11.66929564675182 -10.953539204468445 0 0 0 0 40.477488357981201 -20.241563273729298 0 -20.241563273729298 -2.1214118261978001 0 0 0 0 60.195270445488205 -11.714782174585849 0 -11.714782174585849 -10.02938375938059 0 0 0 0 86.899922121790752 -14.067673070916271 0 -14.067673070916271 -7.4260712087238812 0 0 0 0 104.03874073748011 -29.291930143031095 0 -29.291930143031095 5.4834750118970987 0 0 0 0 93.728238307856373 12.007011752802555 0 12.007011752802555 -8.948308828818881 0 0 0 0 111.60304537939373 -7.2605797278574755 0 -7.2605797278574755 -1.3853603769530309 0 0 0 0 82.320310448769305 18.109716456631304 0 18.109716456631304 -8.2751482524399762 0 0 0 0 68.72587397263851 -2.4362084088670599 0 -2.4362084088670599 -6.6906908302148622 0 0 0 0 72.929496283642948 3.7022522060306073 0 3.7022522060306073 -3.0982836444311488 0 0 0 0 42.011541811717393 1.3443762321965966 0 1.3443762321965966 -1.9587323121714197 0 0 0 0 51.691291821766697 -5.8832738624599052 0 -5.8832738624599052 -1.5264823683350981 0 0 0 0 33.526272982267983 -5.8881508972008874 0 -5.8881508972008874 -13.171877412186404 0 0 0 0 88.989284048322588 -22.015720297742519 0 -22.015720297742519 5.3186200858929169 0 0 0 0 89.232622919556889 -7.0524585969933469 0 -7.0524585969933469 -9.4023795620614692 0 0 0 0 5.4243336392344759 -4.9628581654482176 0 -4.9628581654482176 0.30424405682222044 0 0 0 0 42.171233303430199 -69.959309157861753 0 -69.959309157861753 58.227271625524736 0 0 0 0 32.542667457601056 1.114272196082311 0 1.114272196082311 -17.095789533286734 0 0 0 0 51.265134410372042 -3.6004113238854814 0 -3.6004113238854814 -2.9915064837528584 0 0 0 0 62.575765780020447 -58.242431809351956 0 -58.242431809351956 -36.209859989381584 0 0 0 0 78.332930772892126 -17.930774745115002 0 -17.930774745115002 -2.8696254822203677 0 0 0 0 70.757536088524802 -0.054438079737700207 0 -0.054438079737700207 -15.408534653447131 0 0 0 0 40.196998460480245 2.3204231013737626 0 2.3204231013737626 -14.678077221424246 0 0 0 0 77.562456461016168 -4.90230367994387 0 -4.90230367994387 -7.8946317552571976 0 0 0 0 53.868884758121567 -0.094482755223907589 0 -0.094482755223907589 -16.079787333527975 0 0 0 0 53.882907101602541 -1.4447505440482189 0 -1.4447505440482189 -6.5296361994665544 0 0 0 0 66.576350795250619 -1.8935835855929781 0 -1.8935835855929781 -4.4843264522369282 0 0 0 0 61.370430621920462 1.2561908712817456 0 1.2561908712817456 -8.8565968620306226 0 0 0 0 46.672178399290949 -2.4387894030429607 0 -2.4387894030429607 -1.9585233573040739 0 0 0 0 63.726046939060325 -8.8386976208603301 0 -8.8386976208603301 -4.1252790757348521 0 0 0 0 68.061903779103886 -7.2203077280992147 0 -7.2203077280992147 -5.2197673124519497 0 0 0 0 47.338546917377329 -9.2217431130516871 0 -9.2217431130516871 -6.8914559464971648 0 0 0 0 69.58536793894018 -3.5963342531749731 0 -3.5963342531749731 -5.2028629481228563 0 0 0 0 67.416776005091378 -2.9457390969641892 0 -2.9457390969641892 -3.2111627331432828 0 0 0 0 64.330165706836851 -6.1154795396923873 0 -6.1154795396923873 -1.935697762289692 0 0 0 0 50.318713950036454 20.650603687136545 0 20.650603687136545 -16.078886173519891 0 0 0 0 74.680157022492494 -2.8104243534064182 0 -2.8104243534064182 -1.9542331020002166 0 0 0 0 51.033932927966816 -6.2663447544403255 0 -6.2663447544403255 -1.4584778416324298 0 0 0 0 50.663808969427919 -4.6102782394071937 0 -4.6102782394071937 -6.3098206659969946 0 0 0 0 74.344293608111911 -1.2890859188060517 0 -1.2890859188060517 -4.8185833295465841 0 0 0 0 25.880965702146522 4.2521837960469782 0 4.2521837960469782 -6.9742330734875129 0 0 0 0 23.368949558572453 1.3349223810021726 0 1.3349223810021726 -3.0875076195585032 0 0 0 0 21.119129230850376 2.8034012544749203 0 2.8034012544749203 -5.0917284397964977 0 0 0 0 24.847011659954319 5.4895775517156693 0 5.4895775517156693 -8.2270943817519075 0 0 0 0 34.083881571200919 3.2501756175635279 0 3.2501756175635279 -6.2812361345504906 0 0 0 0 49.30406317213783 2.0617324034078592 0 2.0617324034078592 -2.6600298356170242 0 0 0 0 29.788392511493612 13.517812690905622 0 13.517812690905622 -8.5117730190323311 0 0 0 0 26.282808984053474 0.59745474089572781 0 0.59745474089572781 -7.7220660474837937 0 0 0 0 46.307655918702949 -23.524183836121665 0 -23.524183836121665 0.28709881394388503 0 0 0 0 22.65392460781819 -12.399856806806611 0 -12.399856806806611 -0.85244826878828306 0 0 0 0 25.507624230575175 -11.897470155973565 0 -11.897470155973565 -1.1058045557662322 0 0 0 0 41.860635040138732 -20.221064524368558 0 -20.221064524368558 -3.1453021348970651 0 0 0 0 49.972869618359255 -12.233769896678496 0 -12.233769896678496 -8.5139673006929115 0 0 0 0 36.019345224434801 -22.693335073444814 0 -22.693335073444814 0.22171317101856403 0 0 0 0 32.479728851555024 -15.365280210323277 0 -15.365280210323277 -5.2840020025405767 0 0 0 0 20.574732668959768 -5.0270174585411951 0 -5.0270174585411951 -2.8048970123636536 0 0 0 0 34.569641759015177 -7.9449878681449064 0 -7.9449878681449064 1.0369832172557132 0 0 0 0 62.789039083305397 -9.8623518091662845 0 -9.8623518091662845 2.2144019423649297 0 0 0 0 32.5044250075523 -1.9155358999540013 0 -1.9155358999540013 -9.5959323725850112 0 0 0 0 6.6582841997031892 2.3903284496934134 0 2.3903284496934134 0.94991272484880429 0 0 0 0 61.97383272308798 188.80643194317486 0 188.80643194317486 382.6480883688298 0 0 0 0 51.738584701757645 104.01405847196577 0 104.01405847196577 28.671961466661401 0 0 0 0 243.90738131976104 116.1974306700248 0 116.1974306700248 -225.68199470381546 0 0 0 0 -68.75257117615547 -224.18626278981537 0 -224.18626278981537 -442.20734199815388 0 0 0 0 387.3653880142374 167.60466481342871 0 167.60466481342871 -407.65178393423321 0 0 0 0 547.30661268095719 36.042349147701088 0 36.042349147701088 -220.58317452016286 0 0 0 0 250.74941034347285 140.42108337314241 0 140.42108337314241 -142.99147599571307 0 0 0 0 214.17647672258317 322.64747835972992 0 322.64747835972992 8.320269627471248 0 0 0 0 504.29472650861135 346.78791341864803 0 346.78791341864803 -1.3279947413026321 0 0 0 0 22.543103318312205 10.706419697355841 0 10.706419697355841 84.419254445033744 0 0 0 0 25.320727533602621 34.523323948174266 0 34.523323948174266 2.2822589926686305 0 0 0 0 23.576866157542099 24.905380559996729 0 24.905380559996729 21.860850455268519 0 0 0 0 33.004687725740951 57.394331438713834 0 57.394331438713834 -45.019976846410827 0 0 0 0 41.441102034616051 45.35635320775873 0 45.35635320775873 -43.807784991082144 0 0 0 0 22.912917702458799 40.511562643520847 0 40.511562643520847 7.9249961854955018 0 0 0 0 14.353424836299382 80.649918020004861 0 80.649918020004861 -21.715812218701558 0 0 0 0 -7.7062103065545671 41.472415435794119 0 41.472415435794119 -38.7725447705634 0 0 0 0 27.486154889455065 40.715324140476014 0 40.715324140476014 -78.028994345579122 0 0 0 0 38.075039499755405 18.406697917857286 0 18.406697917857286 -0.41348178550552661 0 0 0 0 -23.582107299414929 -4.8518477607972272 0 -4.8518477607972272 -80.911627387657262 0 0 0 0 53.118170434380545 10.329494062025873 0 10.329494062025873 -0.54642788505506834 0 0 0 0 65.563610385303036 25.55911913887951 0 25.55911913887951 -10.34697943598691 0 0 0 0 51.645998368847359 17.055733318879604 0 17.055733318879604 -21.698732248851456 0 0 0 0 92.862699964704603 -2.2504787177904362 0 -2.2504787177904362 -2.6005399087357737 0 0 0 0 126.48256136056443 -1.0381293037708872 0 -1.0381293037708872 -7.4880879174556867 0 0 0 0 98.777896367355424 22.178952617154891 0 22.178952617154891 1.9122389491005833 0 0 0 0 60.709399630803091 9.7359184570112518 0 9.7359184570112518 17.79301121059757 0 0 0 0 258.90026143548312 34.25533573648795 0 34.25533573648795 -314.96279951318115 0 0 0 0 94.870014242420439 -48.818010691879408 0 -48.818010691879408 -203.33805121418453 0 0 0 0 14.770282466668277 13.928158926628953 0 13.928158926628953 7.1499295534047755 0 0 0 0 75.484259751799982 -1.6210491379011955 0 -1.6210491379011955 8.897784499595673 0 0 0 0 52.316494681042968 -15.650982638592723 0 -15.650982638592723 1.2879146553640339 0 0 0 0 85.01395034120651 -9.0492876743392117 0 -9.0492876743392117 -0.34185708041820817 0 0 0 0 84.219610655709403 -15.49618188858426 0 -15.49618188858426 0.7033680414713217 0 0 0 0 42.213199296866065 13.385102946277044 0 13.385102946277044 -6.877597762938958 0 0 0 0 14.200616388447031 1.1417003168364772 0 1.1417003168364772 -2.6692386121352967 0 0 0 0 21.834060491019045 2.8850576936866901 0 2.8850576936866901 -21.617125943712381 0 0 0 0 19.295894437140021 -16.914280744845456 0 -16.914280744845456 -10.938753669467186 0 0 0 0 18.303157514805207 10.781350489718022 0 10.781350489718022 -87.080961149779796 0 0 0 0 6.109164343419252 27.488610740477384 0 27.488610740477384 -109.65424870089862 0 0 0 0 75.315726376341445 -1.5467162796821299 0 -1.5467162796821299 -2.6345513076188327 0 0 0 0 74.773382312909234 -51.603478774769826 0 -51.603478774769826 -134.32571905172301 0 0 0 0 70.193727543461137 -317.43771783060288 0 -317.43771783060288 52.827448234620874 0 0 0 0 112.35246676695533 -14.375096170613233 0 -14.375096170613233 -184.28504144113458 0 0 0 0 -117.08207282243529 78.961259042084748 0 78.961259042084748 -214.19605008297964 0 0 0 0 11.195794226722413 1.8720409596781735 0 1.8720409596781735 -0.78778287074358522 0 0 0 0 -1.055210748569209 -2.7882571526468691 0 -2.7882571526468691 0.13372016790690566 0 0 0 0 82.703805306286085 -288.10121712144746 0 -288.10121712144746 -269.97350555677917 0 0 0 0 -387.10676618112484 -26.58777337184074 0 -26.58777337184074 91.80214431121226 0 0 0 0 3.0758502705500348 -1.9347196282535606 0 -1.9347196282535606 -0.54045684812901107 0 0 0 0 110.96830150272581 120.12896401334535 0 120.12896401334535 -190.65404804900459 0 0 0 0 138.48655411801883 271.19363921621186 0 271.19363921621186 637.99927576458799 0 0 0 0 298.10010882321512 -616.48618392560297 0 -616.48618392560297 224.19617698105776 0 0 0 0 810.91129707521759 117.36922269995057 0 117.36922269995057 -195.58278034716704 0 0 0 0 17.281162192593911 90.344814127899497 0 90.344814127899497 -45.166629639223061 0 0 0 0 -189.13715604142635 97.452994397075713 0 97.452994397075713 113.03902199900949 0 0 0 0 159.44134455680614 197.24331815809307 0 197.24331815809307 25.257045519127985 0 0 0 0 155.1775767894203 25.186359780940514 0 25.186359780940514 -36.318057360302873 0 0 0 0 43.618397315534821 -0.88922096395045003 0 -0.88922096395045003 -59.478961843255775 0 0 0 0 -68.696067091914301 -23.891673655295051 0 -23.891673655295051 -72.652643452073789 0 0 0 0 23.9239872952312 60.533617561216431 0 60.533617561216431 -0.94090286475682205 0 0 0 0 183.70020482549444 -8.1835252840571684 0 -8.1835252840571684 -26.910264096139031 0 0 0 0 0.65846455208938437 0.43545949909392334 0 0.43545949909392334 -0.21815792395035682 0 0 0 0 34.226860147507978 5.7087796164718725 0 5.7087796164718725 -56.449417641716025 0 0 0 0 -39.510273313091602 150.69394875370415 0 150.69394875370415 -37.898221781360917 0 0 0 0 199.8324404523446 23.673145982893857 0 23.673145982893857 -65.826906989476981 0 0 0 0 223.79163748922292 -155.51225226827381 0 -155.51225226827381 123.79926453472763 0 0 0 0 149.80227706702863 -83.947446800908352 0 -83.947446800908352 -2.6679104734223529 0 0 0 0 35.361951984086772 -50.771371007018843 0 -50.771371007018843 66.985887223841587 0 0 0 0 619.63347021960362 69.573865712751058 0 69.573865712751058 -43.409341201378538 0 0 0 0 30.492538762424374 7.466823583443329 0 7.466823583443329 -2.1019604100956144 0 0 0 0 20.000152822265534 5.8967876417224048 0 5.8967876417224048 -0.96252498248044738 0 0 0 0 18.182366927278053 5.2482082591048993 0 5.2482082591048993 14.496331230696796 0 0 0 0 36.686228902311996 -17.654802021467731 0 -17.654802021467731 27.318893475001573 0 0 0 0 32.746434129454428 -1.0273688322610042 0 -1.0273688322610042 -4.6141925476888446 0 0 0 0 28.036270052747568 1.2166407569287685 0 1.2166407569287685 5.2992701060485388 0 0 0 0 34.045174394967034 2.2356994575513909 0 2.2356994575513909 -6.5433646878385616 0 0 0 0 101.18693026021356 -32.832688427061157 0 -32.832688427061157 -33.446303300177306 0 0 0 0 104.81198570865672 -7.2750466925064643 0 -7.2750466925064643 -62.430078531980541 0 0 0 0 73.687589513778221 -1.6936528664566595 0 -1.6936528664566595 -50.471366227455974 0 0 0 0 74.232971859222744 1.3530468823057618 0 1.3530468823057618 -36.387169709455634 0 0 0 0 48.767281961539993 21.866725609627224 0 21.866725609627224 -52.552312969713967 0 0 0 0 53.454301266057882 12.049865265934613 0 12.049865265934613 -58.277944998113071 0 0 0 0 90.459922137059039 26.213868386964407 0 26.213868386964407 -72.865097413686158 0 0 0 0 92.214663280558852 1.6863360834110566 0 1.6863360834110566 -68.532021970073174 0 0 0 0 108.89525528001832 6.5194793948934944 0 6.5194793948934944 -68.086427386371327 0 0 0 0 52.208278833029908 31.182635094022231 0 31.182635094022231 -62.901065600291531 0 0 0 0 108.61240872266353 1.0819445206531633 0 1.0819445206531633 -80.111538810444927 0 0 0 0 106.16101723358224 -6.5412097716662529 0 -6.5412097716662529 -79.122832512734647 0 0 0 0 44.041300287273771 20.449273386558332 0 20.449273386558332 -46.526523955387006 0 0 0 0 121.2027807138511 -55.576006772053304 0 -55.576006772053304 23.463818962677436 0 0 0 0 141.80368460915633 13.700652736241807 0 13.700652736241807 15.684422566266505 0 0 0 0 129.94952416102751 40.336154116887798 0 40.336154116887798 -64.649044075748861 0 0 0 0 110.59745222635684 -3.8237684560270395 0 -3.8237684560270395 -55.693920004314577 0 0 0 0 195.39869660590193 9.7316404670329177 0 9.7316404670329177 -56.865876856026489 0 0 0 0 205.42741856268549 32.477073358116705 0 32.477073358116705 -0.010698422718506413 0 0 0 0 288.51088332006475 67.202760703546062 0 67.202760703546062 28.323400347271317 0 0 0 0 278.88198365760036 -73.800926599992877 0 -73.800926599992877 6.3122299584546315 0 0 0 0 0.90928543764132996 0.45508004723143358 0 0.45508004723143358 -0.19588446779278673 0 0 0 0 2.1298839416626834 127.92682213713474 0 127.92682213713474 81.991447230646372 0 0 0 0 5.3840883487118845 -45.241851018925814 0 -45.241851018925814 -38.733035078705257 0 0 0 0 91.595746836028411 64.968804826609912 0 64.968804826609912 -3.7928548964568809 0 0 0 0 229.79620684843394 78.76503267094553 0 78.76503267094553 63.269641768218193 0 0 0 0 12.508259576483397 10.80755399452925 0 10.80755399452925 2.1446925010358737 0 0 0 0 18.482039930771862 8.6974116810266775 0 8.6974116810266775 0.092851935437379352 0 0 0 0 74.550479409204854 69.979016434639192 0 69.979016434639192 49.608353385077223 0 0 0 0 12.137205237304443 -34.714669343349719 0 -34.714669343349719 -27.065890305909519 0 0 0 0 27.451287312142085 -29.748764510299424 0 -29.748764510299424 -41.520984809994843 0 0 0 0 0.8808322411817926 -0.0747189158085515 0 -0.0747189158085515 0.01505626599939211 0 0 0 0 7.2445831176737556 1.4587518131628769 0 1.4587518131628769 -37.045472377111139 0 0 0 0 2.3339331970856279 -0.057307952168125453 0 -0.057307952168125453 -0.030313950117526765 0 0 0 0 18.129249128644005 3.5164747099433242 0 3.5164747099433242 -53.952868814989259 0 0 0 0 57.598058481016778 14.236692524717057 0 14.236692524717057 -35.750378814533356 0 0 0 0 21.391871390573215 -40.013010696410788 0 -40.013010696410788 -56.851867195842544 0 0 0 0 1.4999752302086904 0.89294598907835621 0 0.89294598907835621 -0.38436378519276548 0 0 0 0 61.054451646195957 -21.761253644188685 0 -21.761253644188685 -56.428132090791024 0 0 0 0 20.14127744774305 23.282749407550625 0 23.282749407550625 -5.7389532222083517 0 0 0 0 47.190201282734051 -4.5086101541672292 0 -4.5086101541672292 4.9716751056693909 0 0 0 0 27.918121408918523 51.182141971131045 0 51.182141971131045 -12.258842759719982 0 0 0 0 -36.385659214596672 40.592551114593164 0 40.592551114593164 -10.278605891086386 0 0 0 0 -26.885160182107938 26.965417403542972 0 26.965417403542972 -4.8661416023612674 0 0 0 0 8.1527936209895415 25.8130117803342 0 25.8130117803342 -15.579231982790873 0 0 0 0 16.450372498875367 12.083933499585811 0 12.083933499585811 -26.125159407357501 0 0 0 0 4.3529366235816269 12.66356231657128 0 12.66356231657128 -25.143442356274448 0 0 0 0 2.4137573419575347 11.198645582699911 0 11.198645582699911 -24.674678963682709 0 0 0 0 3.3190404916093712 -0.042853155565122591 0 -0.042853155565122591 -0.2050386376204909 0 0 0 0 1.0006883349647637 0.90046391552036198 0 0.90046391552036198 0.30626579120574893 0 0 0 0 -10.702332705710432 18.719043681129136 0 18.719043681129136 -18.098533904640021 0 0 0 0 3.6908132093958557 -0.9184935406744561 0 -0.9184935406744561 -3.2006372349345678 0 0 0 0 0.63140247266710503 0.026630944273199283 0 0.026630944273199283 -0.00026004550605577474 0 0 0 0 1.6848487199047355 -0.41372240734108345 0 -0.41372240734108345 -0.51669915008015299 0 0 0 0 0.45586439317611394 -0.057048360054125169 0 -0.057048360054125169 -0.031645237363744874 0 0 0 0 6.4793926511483733 -6.2730067578046258 0 -6.2730067578046258 1.4868816234254181 0 0 0 0 0.11144114339015232 -0.059821898613549251 0 -0.059821898613549251 0.0040726985950123532 0 0 0 0 173.74361004345701 -118.32868236286873 0 -118.32868236286873 0.3673464091242522 0 0 0 0 -18.832506948638184 22.373582620004608 0 22.373582620004608 0.079978693112714355 0 0 0 0 28.303895498247584 51.105589273958763 0 51.105589273958763 -20.896694160684397 0 0 0 0 1.2989645708046282 0.10843272073086041 0 0.10843272073086041 -0.1302243942315616 0 0 0 0 1.1519583627841712 0.2607467803008312 0 0.2607467803008312 0.091166473130451703 0 0 0 0 1.2343641590596235 0.41620321638060886 0 0.41620321638060886 -0.62808314565755552 0 0 0 0 -22.657519369036891 -1.1368752175393553 0 -1.1368752175393553 11.790511813696497 0 0 0 0 21.064223927649437 -31.886535385879014 0 -31.886535385879014 8.5737346568381554 0 0 0 0 4.3453742642013822 -9.6341504503289173 0 -9.6341504503289173 -20.296082741375002 0 0 0 0 -12.145178651917377 -17.805475133561046 0 -17.805475133561046 35.084697046712122 0 0 0 0 154.69725457587629 128.45323403758698 0 128.45323403758698 53.312273795384947 0 0 0 0 1.1271435469348603 0.22585851093217713 0 0.22585851093217713 0.033807622709605301 0 0 0 0 409.57605202360719 6.5839968333994818 0 6.5839968333994818 -8.774910480541422 0 0 0 0 197.08875886902388 11.673567646847999 0 11.673567646847999 28.493362255812031 0 0 0 0 193.13441563610104 60.70393843084851 0 60.70393843084851 3.270515081779422 0 0 0 0 0.45977944830330841 1.1001333485464215 0 1.1001333485464215 0.73799391418360072 0 0 0 0 30.650446738523897 20.863787936463147 0 20.863787936463147 32.092586004440705 0 0 0 0 245.3177292131877 35.126011386061407 0 35.126011386061407 -20.6648949436767 0 0 0 0 270.4445989067608 95.035526224934529 0 95.035526224934529 18.700670976843519 0 0 0 0 233.51612663078413 59.339171562929693 0 59.339171562929693 -1.9904383251944182 0 0 0 0 261.40646145907522 2.2624210253012507 0 2.2624210253012507 -37.308482651035774 0 0 0 0 360.18366582351155 63.383669060688362 0 63.383669060688362 -77.306483598982823 0 0 0 0 180.66887288272846 -71.398014722973357 0 -71.398014722973357 -96.306694747785969 0 0 0 0 119.84634311251284 -21.19511982804363 0 -21.19511982804363 -349.53965129876258 0 0 0 0 -44.593022307264619 -7.7056213706243852 0 -7.7056213706243852 -120.62375152274745 0 0 0 0 116.69968389050337 97.93304986438261 0 97.93304986438261 -180.72288504408345 0 0 0 0 110.23012048754026 -23.765639409410824 0 -23.765639409410824 -57.927154887021402 0 0 0 0 66.638915657713369 88.372729309334716 0 88.372729309334716 -109.19173323218342 0 0 0 0 0.36112898471436949 0.63984534012851668 0 0.63984534012851668 0.30268596097445721 0 0 0 0 228.36374937881192 55.555740898921385 0 55.555740898921385 7.62253479079925 0 0 0 0 -89.287044711771159 29.892383118951358 0 29.892383118951358 7.7217933885335697 0 0 0 0 -37.173544186720392 37.858819150353838 0 37.858819150353838 -5.846838542837304 0 0 0 0 -37.025572371123872 35.063631133210009 0 35.063631133210009 6.0432328593503826 0 0 0 0 1.5426231801247923 13.128383676478052 0 13.128383676478052 -29.446222156033059 0 0 0 0 9.5422155192936771 41.456400515596386 0 41.456400515596386 5.8856549240697404 0 0 0 0 4.1643420720938593 13.01504491791502 0 13.01504491791502 -64.33231128114403 0 0 0 0 -6.718043212313205 -2.4365698045772888 0 -2.4365698045772888 -77.503509144064893 0 0 0 0 -31.067131978750695 54.816364593921662 0 54.816364593921662 -6.1130187757435959 0 0 0 0 -14.288271594166872 48.318311217250425 0 48.318311217250425 -72.96214626944959 0 0 0 0 12.236308974501128 1.1408891935164167 0 1.1408891935164167 -0.60984315911587939 0 0 0 0 -2.5309861281703547 2.5461329515172295 0 2.5461329515172295 0.42153563597088439 0 0 0 0 -0.087210409983526915 32.155143887643476 0 32.155143887643476 -164.91237036744224 0 0 0 0 11.072672267153393 89.627894407974054 0 89.627894407974054 204.90181965701618 0 0 0 0 97.451040523126721 19.512324607469964 0 19.512324607469964 -39.864517615784735 0 0 0 0 -5.4232079186767805 54.456307058948369 0 54.456307058948369 184.20102161806881 0 0 0 0 70.51706896504038 87.196573928011958 0 87.196573928011958 43.923209725815013 0 0 0 0 7.9680479901149397 5.384520005232865 0 5.384520005232865 -0.63173903725207792 0 0 0 0 9.5334016458364204 1.6148399656776746 0 1.6148399656776746 -18.73172106327047 0 0 0 0 18.918614814188913 37.693446200175572 0 37.693446200175572 28.136556073177644 0 0 0 0 17.821096079896961 12.313361375761588 0 12.313361375761588 -110.54052692655523 0 0 0 0 7.2552758143697247 2.0936166654727071 0 2.0936166654727071 -1.3335519093690211 0 0 0 0 33.757454640304786 52.047398446036254 0 52.047398446036254 -17.532695071482976 0 0 0 0 51.316024181243847 28.018276540145365 0 28.018276540145365 -10.42201017889289 0 0 0 0 58.006916293365066 36.949258112119537 0 36.949258112119537 -87.700492611833397 0 0 0 0 36.769576293845603 30.221815867998174 0 30.221815867998174 73.216249433747635 0 0 0 0 41.444576249745296 52.857407548540465 0 52.857407548540465 47.848327416666962 0 0 0 0 24.295765708229737 122.84118383075952 0 122.84118383075952 -30.745520932668569 0 0 0 0 -10.067749629160971 126.78872544971932 0 126.78872544971932 -31.84058772208698 0 0 0 0 41.13563549380342 -42.312233421955852 0 -42.312233421955852 -133.83159583820753 0 0 0 0 258.06718816398643 14.712176108757774 0 14.712176108757774 -572.14362793726468 0 0 0 0 121.9928148680483 207.48180955718044 0 207.48180955718044 83.743834839995543 0 0 0 0 -170.07185588499124 36.291931248749052 0 36.291931248749052 71.274413146275947 0 0 0 0 72.647800706530688 52.798870407639697 0 52.798870407639697 78.113731947412361 0 0 0 0 153.29018214970711 303.635307477374 0 303.635307477374 -220.66424789123357 0 0 0 0 154.28835383385012 74.038995488347609 0 74.038995488347609 -114.79685930110782 0 0 0 0 271.64469276395175 395.35427008077716 0 395.35427008077716 299.78276976442203 0 0 0 0 448.33459442813182 -92.150248195650192 0 -92.150248195650192 83.800725064454809 0 0 0 0 435.17247711401433 232.72821651227127 0 232.72821651227127 110.64676650071351 0 0 0 0 473.43039820083504 53.309691456349128 0 53.309691456349128 -287.14664581364423 0 0 0 0 4.0195967286491054 0.65637005584319041 0 0.65637005584319041 0.31995262248059858 0 0 0 0 -1.2905408037908614 -0.31027834002332355 0 -0.31027834002332355 -0.0092170675766569676 0 0 0 0 -165.69962933356874 -18.603854733680237 0 -18.603854733680237 27.960343602102057 0 0 0 0 -51.393281657074112 168.00798580961373 0 168.00798580961373 659.26955977904299 0 0 0 0 97.260641655389918 -32.127787628612225 0 -32.127787628612225 286.07738750452245 0 0 0 0 124.97546005592449 55.855991798055129 0 55.855991798055129 165.25822751101259 0 0 0 0 33.933533115312457 152.26441191314643 0 152.26441191314643 164.77527464729246 0 0 0 0 36.949105099892222 52.394787037565735 0 52.394787037565735 298.10150220104515 0 0 0 0 518.6491768793494 1159.5787419809437 0 1159.5787419809437 1267.2489957198668 0 0 0 0 211.3150141476217 -328.55401307831926 0 -328.55401307831926 -117.5938793447566 0 0 0 0 -45.345421721445746 -5.7612841638053283 0 -5.7612841638053283 -54.671486364572729 0 0 0 0 21.877003226488057 -2.8482353405097527 0 -2.8482353405097527 0.66140857170587397 0 0 0 0 230.25797653105974 151.85206945225914 0 151.85206945225914 732.25605250185163 0 0 0 0 53.979142125190606 -1.8677981002966959 0 -1.8677981002966959 -1.8500224016228153 0 0 0 0 1092.6344487805327 416.46841296704622 0 416.46841296704622 -632.2245340210377 0 0 0 0 615.30366341784247 -913.97326775678061 0 -913.97326775678061 -51.109846672572985 0 0 0 0 1179.7563726248991 1089.3014136895947 0 1089.3014136895947 313.75889128769381 0 0 0 0 90.595886467446689 73.825099743244351 0 73.825099743244351 -170.06346278344603 0 0 0 0 68.535587064673621 -3.8229722413896958 0 -3.8229722413896958 -2.3203967973069917 0 0 0 0 -34.782635282659612 -383.62277192022862 0 -383.62277192022862 -390.46961330367844 0 0 0 0 41.222938385611656 18.191571419292842 0 18.191571419292842 -4.015265119052212 0 0 0 0 121.80075582957943 5.8266660644933381 0 5.8266660644933381 -5.0882109496551493 0 0 0 0 70.865759670021362 11.122283477353676 0 11.122283477353676 7.6204333480495734 0 0 0 0 61.976076715363888 -43.119911967684402 0 -43.119911967684402 66.842695175686202 0 0 0 0 102.00371198311041 -15.260092037631466 0 -15.260092037631466 43.375324599256373 0 0 0 0 3.7908354400182702 9.4637397253881286 0 9.4637397253881286 -1.866366949301588 0 0 0 0 53.881544659394422 -41.694720890160681 0 -41.694720890160681 37.396452719205286 0 0 0 0 60.486032420101765 -36.316280540026796 0 -36.316280540026796 41.307665613678409 0 0 0 0 4.7877762301751261 -3.5264425682924809 0 -3.5264425682924809 2.5177624240362078 0 0 0 0 29.955998184843338 -22.123950503245169 0 -22.123950503245169 43.543846430983422 0 0 0 0 54.831924150610575 -36.474940922173744 0 -36.474940922173744 37.77897687576877 0 0 0 0 54.05466199919465 -43.120642642880028 0 -43.120642642880028 30.882082649775043 0 0 0 0 54.862882932182401 -36.943996402329049 0 -36.943996402329049 29.428815508713129 0 0 0 0 -774.05736915205489 27.419399520871593 0 27.419399520871593 55.290670618907598 0 0 0 0 -537.92721552589501 -717.56812610606971 0 -717.56812610606971 887.12412963277984 0 0 0 0 -0.47522597081425033 1.8424903558034771 0 1.8424903558034771 2.6722553143393482 0 0 0 0 61.573727897433855 -82.926604756041343 0 -82.926604756041343 308.90753070132689 0 0 0 0 65.588083816423023 -41.924628853653061 0 -41.924628853653061 40.469973424578484 0 0 0 0 1.9968474748602603 -27.816475260590501 0 -27.816475260590501 59.547234319722122 0 0 0 0 -0.13946657878113911 94.417613136979753 0 94.417613136979753 136.41206236104836 0 0 0 0 39.131828023928392 -58.482247000503875 0 -58.482247000503875 84.823424721571712 0 0 0 0 -23.284554971942271 29.98755107173784 0 29.98755107173784 -24.100022405414506 0 0 0 0 57.448326143348822 122.44807868528409 0 122.44807868528409 37.037292147812991 0 0 0 0 24.698912579391617 143.12056613681489 0 143.12056613681489 68.140380624879754 0 0 0 0 19.610793209158146 165.85741452407478 0 165.85741452407478 -32.304503320927211 0 0 0 0 497.64209529703658 310.99933886713268 0 310.99933886713268 5.2312765003723953 0 0 0 0 86.237777580063266 224.90261965348193 0 224.90261965348193 378.84972547079781 0 0 0 0 610.11805593988174 -113.20975732198525 0 -113.20975732198525 -92.596678415758902 0 0 0 0 930.78749753538932 -145.98548384287477 0 -145.98548384287477 -166.95229699092079 0 0 0 0 871.21161219241185 1198.3914485038094 0 1198.3914485038094 28.737346596719107 0 0 0 0 213.17546249450243 -75.587221428414978 0 -75.587221428414978 80.446069926015241 0 0 0 0 222.94597564908327 -160.58301591902401 0 -160.58301591902401 -1.0972601642781115 0 0 0 0 -3.7479080393386539 -182.7757851168285 0 -182.7757851168285 4.5794232656452323 0 0 0 0 212.75855848908759 -5.7241923943805659 0 -5.7241923943805659 -223.19778324007007 0 0 0 0 238.00885180517798 -67.269557967263154 0 -67.269557967263154 -87.103525557895864 0 0 0 0 369.19437445232325 11.93982036309194 0 11.93982036309194 -266.56535172373287 0 0 0 0 180.52686632828591 30.429950922210736 0 30.429950922210736 -118.63355783684256 0 0 0 0 195.71848053667054 80.643550431934727 0 80.643550431934727 -277.74997212178278 0 0 0 0 100.40855488255301 -0.88596027602740435 0 -0.88596027602740435 -2.8895502663641341 0 0 0 0 35.488904755100521 -80.815346018493358 0 -80.815346018493358 -94.581951071624644 0 0 0 0 163.10177709007985 -94.606109720273025 0 -94.606109720273025 -215.87029375000779 0 0 0 0 111.66917489145271 20.406309858372424 0 20.406309858372424 5.0500086536194431 0 0 0 0 122.83733778079477 21.792616106022706 0 21.792616106022706 -1.3217071014460089 0 0 0 0 108.87804448658835 -4.4198629475437201 0 -4.4198629475437201 -13.700997023999662 0 0 0 0 133.51718465302838 18.981501164440488 0 18.981501164440488 6.0697573715433464 0 0 0 0 168.3106413992864 7.5127339312284676 0 7.5127339312284676 5.9573202736473831 0 0 0 0 131.61384983948665 3.144642780200229 0 3.144642780200229 18.757247394953993 0 0 0 0 122.83063177030272 19.358561341321092 0 19.358561341321092 4.8608842185767571 0 0 0 0 121.60306329776358 18.52891958022019 0 18.52891958022019 4.3298354722137447 0 0 0 0 183.23192747872963 47.066303354364209 0 47.066303354364209 4.1456493788573425 0 0 0 0 23.264328756546789 -9.0363276445518181 0 -9.0363276445518181 -19.374243580022092 0 0 0 0 183.71301588356437 48.900718385181335 0 48.900718385181335 -4.013016787152992 0 0 0 0 30.973230483988551 10.358610716434235 0 10.358610716434235 -6.0810495157091822 0 0 0 0 82.782198635606619 17.46174670921846 0 17.46174670921846 -4.4779957446830849 0 0 0 0 96.467278494332277 -19.3354710075414 0 -19.3354710075414 22.948447173009299 0 0 0 0 18.892172844223609 10.001514396089313 0 10.001514396089313 -9.1113604182878163 0 0 0 0 135.80907561240019 -11.480464523881892 0 -11.480464523881892 -16.02243025565258 0 0 0 0 23.162159261608885 -1.4665654836819186 0 -1.4665654836819186 -4.4985974301085534 0 0 0 0 127.20178314988152 -4.3126400583482791 0 -4.3126400583482791 -33.442272448482072 0 0 0 0 106.64474546657351 -3.5716825554380627 0 -3.5716825554380627 -5.764603041547236 0 0 0 0 71.903965844467166 -6.2083519049010647 0 -6.2083519049010647 -13.836825639088602 0 0 0 0 126.28488531126641 16.067395312007648 0 16.067395312007648 -9.9889778173655941 0 0 0 0 57.947365941528361 34.35096149079726 0 34.35096149079726 -8.0669174995670385 0 0 0 0 63.306893674322623 10.41425196945562 0 10.41425196945562 -11.53900117063537 0 0 0 0 46.051263991234009 12.132915895596511 0 12.132915895596511 -21.670611374859845 0 0 0 0 65.237310597369898 -4.1261219231831348 0 -4.1261219231831348 -14.045964152736541 0 0 0 0 90.25491339535472 3.9988101343898279 0 3.9988101343898279 -33.766611422755815 0 0 0 0 71.231844309923702 9.0437640420606584 0 9.0437640420606584 -8.7994716399343869 0 0 0 0 3.0702276246811664 6.7412390347118514 0 6.7412390347118514 -1.0777749922837181 0 0 0 0 53.440417251315012 -1.1303842896604124 0 -1.1303842896604124 -14.8529090805755 0 0 0 0 32.656691719310402 1.9191925895176212 0 1.9191925895176212 -15.09366826679252 0 0 0 0 74.568595187425672 99.905697382250992 0 99.905697382250992 49.211177227063217 0 0 0 0 47.762964396607885 7.578830268995091 0 7.578830268995091 -13.957746650730137 0 0 0 0 54.691748375098456 41.233519841454736 0 41.233519841454736 -10.925743501361326 0 0 0 0 144.85358807661942 12.607138062204754 0 12.607138062204754 -97.901265771352428 0 0 0 0 20.190619647670246 90.671966278504783 0 90.671966278504783 52.690142938879944 0 0 0 0 192.64125265079201 105.48851545379603 0 105.48851545379603 -102.17495254501227 0 0 0 0 12.865495905748276 5.2687980641432262 0 5.2687980641432262 0.507730667267702 0 0 0 0 130.65776259745326 -17.872191263079458 0 -17.872191263079458 -148.21286156513816 0 0 0 0 144.38060001991107 50.663284807103537 0 50.663284807103537 -90.96121702720211 0 0 0 0 149.79242728478857 48.547024428131408 0 48.547024428131408 54.341271433357178 0 0 0 0 142.44757603724429 26.28245589981816 0 26.28245589981816 52.387620434959331 0 0 0 0 102.24480200413382 -22.418263441668387 0 -22.418263441668387 40.708271943474756 0 0 0 0 141.71606203490228 181.24852696859944 0 181.24852696859944 -18.328181731693888 0 0 0 0 165.76551536889747 172.00002501731012 0 172.00002501731012 -162.65998605383265 0 0 0 0 157.48649249121081 39.146383062814039 0 39.146383062814039 -237.92548412918836 0 0 0 0 -9.8899081989566184 155.58915781647795 0 155.58915781647795 40.062492220978811 0 0 0 0 -4.0103852136671776 90.138501434956424 0 90.138501434956424 -73.091554655871619 0 0 0 0 156.00456052747904 43.746022820839244 0 43.746022820839244 -60.713708263072249 0 0 0 0 111.04915161292593 195.39248434920262 0 195.39248434920262 17.922444278658759 0 0 0 0 54.225497315321448 43.72199891723713 0 43.72199891723713 -7.1849122957542022 0 0 0 0 117.19758869945508 73.550569257026439 0 73.550569257026439 -17.574776582400858 0 0 0 0 -0.71706282123074239 0.37695602956102903 0 0.37695602956102903 -0.14953545729372397 0 0 0 0 181.58746100725693 9.6489461959623952 0 9.6489461959623952 -37.731221976244342 0 0 0 0 -15.598047116007365 34.549144541279588 0 34.549144541279588 21.019228829407325 0 0 0 0 146.76688638041014 37.539070635051758 0 37.539070635051758 0.6984807550311416 0 0 0 0 145.68941724227625 27.711459371636352 0 27.711459371636352 -30.635507019809893 0 0 0 0 51.860151501108703 32.409789902348194 0 32.409789902348194 5.6606174547064256 0 0 0 0 181.60842054989189 63.105244317056304 0 63.105244317056304 11.599589630494847 0 0 0 0 197.70769593302975 11.659593780193575 0 11.659593780193575 13.103748821741078 0 0 0 0 169.92824822574767 7.3430625193743708 0 7.3430625193743708 16.657845559319185 0 0 0 0 236.26771765898593 4.2370579800954147 0 4.2370579800954147 14.4642407406742 0 0 0 0 167.11102585256594 39.059770404334699 0 39.059770404334699 22.496827068602329 0 0 0 0 348.66512341961788 -34.130020505139328 0 -34.130020505139328 -6.1830376012118222 0 0 0 0 165.05351758038887 50.350731579017804 0 50.350731579017804 -22.413130496463396 0 0 0 0 68.579697302120621 -12.582905573134553 0 -12.582905573134553 -4.7728101280436022 0 0 0 0 9.9846367589169986 2.8347426925004555 0 2.8347426925004555 10.392184435632229 0 0 0 0 258.25043860128335 -45.300541719122236 0 -45.300541719122236 11.356462295384063 0 0 0 0 257.98392149886058 -44.866189331224291 0 -44.866189331224291 13.244032562130087 0 0 0 0 247.20837342584855 -3.0812812120119588 0 -3.0812812120119588 -15.67076216492967 0 0 0 0 222.07454883716127 -32.789221731511731 0 -32.789221731511731 20.255914965644934 0 0 0 0 19.707168782330882 -44.773500974951091 0 -44.773500974951091 18.048223350991066 0 0 0 0 0.37315278630875781 4.5289294890201148 0 4.5289294890201148 8.9220605293780295 0 0 0 0 156.89657695725327 -21.191551953583428 0 -21.191551953583428 40.942945123810773 0 0 0 0 251.01433388152873 -26.247681156289161 0 -26.247681156289161 -3.1608247732187351 0 0 0 0 1.9589889895628616 5.0115250797567796 0 5.0115250797567796 7.3178756937809908 0 0 0 0 251.82742661809971 -23.830019723209318 0 -23.830019723209318 -34.006619871130965 0 0 0 0 -34.176909108569816 -7.6010971624179078 0 -7.6010971624179078 74.303973337674734 0 0 0 0 141.26951333721809 33.979420779891939 0 33.979420779891939 6.3054522280838228 0 0 0 0 209.69487223264878 -28.36116756390544 0 -28.36116756390544 -15.46443592318451 0 0 0 0 1.1005632000492014 5.7158827655863149 0 5.7158827655863149 5.073027857878512 0 0 0 0 111.33132945679245 2.9465719459320781 0 2.9465719459320781 -9.0996797887983121 0 0 0 0 127.00173809052126 12.896379895653316 0 12.896379895653316 -25.499177187788973 0 0 0 0 128.37498145183054 -22.240076759104568 0 -22.240076759104568 32.39287110369753 0 0 0 0 247.29207890670295 -11.232751236927243 0 -11.232751236927243 -21.744761240882326 0 0 0 0 -14.341445361889868 5.63688006637733 0 5.63688006637733 2.2071905439332369 0 0 0 0 124.43828272617247 38.657392911209712 0 38.657392911209712 22.583666952566141 0 0 0 0 -111.44669528705708 82.356739861858955 0 82.356739861858955 10.539868458219786 0 0 0 0 17.975995253922193 -0.3648206342798801 0 -0.3648206342798801 1.08617838440819 0 0 0 0 -53.176878313650377 -24.663351592321249 0 -24.663351592321249 4.4839019308621459 0 0 0 0 -0.068368258661394066 13.488495686842494 0 13.488495686842494 -0.51804309848637331 0 0 0 0 -9.4501685407594778 -3.5528419273518352 0 -3.5528419273518352 -28.129649740088411 0 0 0 0 24.173820193328918 -1.0382433011993584 0 -1.0382433011993584 -0.40351007854607968 0 0 0 0 157.55546978166967 36.773471808668432 0 36.773471808668432 -21.159593655226402 0 0 0 0 62.839180090781312 40.527673170139913 0 40.527673170139913 -7.0809094926824159 0 0 0 0 24.655405817742576 33.897749043408339 0 33.897749043408339 10.347435126283017 0 0 0 0 362.61759519625048 -148.78210230272663 0 -148.78210230272663 -189.72101409913182 0 0 0 0 0.88599169387505583 0.50392385696875408 0 0.50392385696875408 0.95938117805230028 0 0 0 0 23.282125806294889 13.086355503965748 0 13.086355503965748 3.4174313111710473 0 0 0 0 66.514152434043353 54.569040587390049 0 54.569040587390049 233.45447967202927 0 0 0 0 137.59185757944942 73.879693736060005 0 73.879693736060005 -17.593219089388867 0 0 0 0 -32.370274211192736 6.5310619407792387 0 6.5310619407792387 47.455503171729106 0 0 0 0 -2.1125843591871671 -8.4352737176650407 0 -8.4352737176650407 50.456740009359038 0 0 0 0 -28.184246606717352 86.502168218403369 0 86.502168218403369 94.059590385288743 0 0 0 0 -120.95701825826836 47.39290018280154 0 47.39290018280154 77.648163114237036 0 0 0 0 86.525514432985801 104.20201249878016 0 104.20201249878016 70.425700480956266 0 0 0 0 30.896640411312546 58.313820511174896 0 58.313820511174896 32.872198443564002 0 0 0 0 44.110026557231322 16.378900770858081 0 16.378900770858081 50.750610331452435 0 0 0 0 45.934117121098097 11.849727449622378 0 11.849727449622378 54.658667120815153 0 0 0 0 79.924412033869885 26.559360249810879 0 26.559360249810879 40.988649991199054 0 0 0 0 69.37326134525938 2.8615762461049599 0 2.8615762461049599 56.124545009958297 0 0 0 0 96.970283977076178 46.347927583355613 0 46.347927583355613 32.013733408720327 0 0 0 0 84.376466651880037 -3.1934074760714992 0 -3.1934074760714992 7.0600003447834752 0 0 0 0 68.97266670371755 11.652871217168922 0 11.652871217168922 -1.9305007823381857 0 0 0 0 103.99089072164497 25.921692209759954 0 25.921692209759954 -56.990671421053662 0 0 0 0 81.393106097162672 -17.562831624511205 0 -17.562831624511205 -36.535820503364903 0 0 0 0 88.634328224019555 -13.729578951866813 0 -13.729578951866813 8.5552169393627651 0 0 0 0 58.186250251572034 20.310671329013459 0 20.310671329013459 -7.6818412945835703 0 0 0 0 157.24960932237445 23.754537248542874 0 23.754537248542874 34.459302715402373 0 0 0 0 173.20027332969767 23.748129271491052 0 23.748129271491052 29.486810863630581 0 0 0 0 160.11728304649296 -1.3806050759883419 0 -1.3806050759883419 -17.47820374947878 0 0 0 0 164.2045617619151 -5.3883744354875489 0 -5.3883744354875489 -18.363018585136615 0 0 0 0 99.433854386668827 -40.622452747938041 0 -40.622452747938041 -17.528857161116122 0 0 0 0 137.21529620374349 7.8297874706822768 0 7.8297874706822768 30.582027046841631 0 0 0 0 68.40481757188536 47.095776967593679 0 47.095776967593679 4.9198784399529814 0 0 0 0 111.29452853678958 13.884511261861139 0 13.884511261861139 -3.2333667887758111 0 0 0 0 51.211546869455162 26.883732462896482 0 26.883732462896482 -6.1462300462618487 0 0 0 0 99.44865752520127 -0.61467568732189193 0 -0.61467568732189193 -17.565208875324515 0 0 0 0 111.37687484367052 -11.243833291891633 0 -11.243833291891633 -8.2314920919051531 0 0 0 0 92.246928528225908 -29.580382904009298 0 -29.580382904009298 20.697801107595524 0 0 0 0 107.68584367512085 -43.185628022939625 0 -43.185628022939625 -9.461428578454445 0 0 0 0 130.51952989985875 -13.293228225562814 0 -13.293228225562814 -8.0233096877658454 0 0 0 0 126.92628321076336 -6.7184895975791505 0 -6.7184895975791505 -16.453848348624113 0 0 0 0 145.73990632918139 -1.9648389721811554 0 -1.9648389721811554 -16.026979000890151 0 0 0 0 120.18260246538557 1.3208549425762612 0 1.3208549425762612 -9.9337905929894532 0 0 0 0 134.73961854379741 7.9472209004682099 0 7.9472209004682099 -7.0318609861526511 0 0 0 0 146.40623014993616 -13.226208779399769 0 -13.226208779399769 -6.9017834954938735 0 0 0 0 134.03496312633797 -0.049076866331120073 0 -0.049076866331120073 -6.8362869919847071 0 0 0 0 13.773379801200559 -0.4360342350951214 0 -0.4360342350951214 -0.25605157662543654 0 0 0 0 10.703545332827083 0.29948937392946107 0 0.29948937392946107 0.032300205089399014 0 0 0 0 8.5678754790003389 4.312298156347822 0 4.312298156347822 3.2865992578979508 0 0 0 0 127.36788356785291 -1.4908460241641848 0 -1.4908460241641848 0.047558242016748409 0 0 0 0 127.2766909016209 -0.019289400614752594 0 -0.019289400614752594 -4.6946940439675018 0 0 0 0 123.02756716209115 -28.753111434408538 0 -28.753111434408538 2.198430985836012 0 0 0 0 83.337634350100416 -24.133400420917098 0 -24.133400420917098 -5.6598366612518021 0 0 0 0 45.595474049348923 3.2061831839222634 0 3.2061831839222634 10.909983105564152 0 0 0 0 46.987939134358697 -10.393213841202215 0 -10.393213841202215 1.5353151283837636 0 0 0 0 123.80997226915497 -22.925632133443173 0 -22.925632133443173 -8.9962617742380644 0 0 0 0 77.263468119243043 5.4224608709235724 0 5.4224608709235724 22.1606793900703 0 0 0 0 76.378587708459236 6.7485731408232823 0 6.7485731408232823 -21.072678918017118 0 0 0 0 57.885416676523164 0.725971937295526 0 0.725971937295526 -20.205235670673574 0 0 0 0 73.543028786001855 34.395315735544436 0 34.395315735544436 5.2252759594595011 0 0 0 0 110.53769804814229 -39.662689891100165 0 -39.662689891100165 -17.744492825898895 0 0 0 0 62.673386958610422 -16.272333084541554 0 -16.272333084541554 -3.4466037758215262 0 0 0 0 21.141967612915067 -7.1866386823836876 0 -7.1866386823836876 -1.6942893610776348 0 0 0 0 85.314902050515229 -3.9648423278271139 0 -3.9648423278271139 -8.5608782048316812 0 0 0 0 148.72753816243494 -168.12231012503685 0 -168.12231012503685 -278.65369101580882 0 0 0 0 117.03589031467413 -16.042997284209637 0 -16.042997284209637 -1.2327485368710762 0 0 0 0 292.33717989793877 -12.273828219142992 0 -12.273828219142992 -21.898120667622827 0 0 0 0 -67.48921624571085 -101.31778171769838 0 -101.31778171769838 8.2780251133772254 0 0 0 0 -73.023744342848659 -150.62847159425974 0 -150.62847159425974 -4.9171571595082355 0 0 0 0 83.247954346390244 -6.350377556710427 0 -6.350377556710427 10.384621907519172 0 0 0 0 22.379804819257913 4.3568184222302762 0 4.3568184222302762 2.5233814405687323 0 0 0 0 85.788302231670059 6.8951580194828459 0 6.8951580194828459 117.01928362038728 0 0 0 0 63.656743941712193 -172.8933041664836 0 -172.8933041664836 251.37114009748291 0 0 0 0 112.71910295709677 -87.10896375132107 0 -87.10896375132107 12.785418359960936 0 0 0 0 107.42015874784556 -47.623751028865911 0 -47.623751028865911 57.67052869485542 0 0 0 0 139.49657802782895 -73.001943219544387 0 -73.001943219544387 -51.866246868634818 0 0 0 0 209.74606612201023 -58.856195449672086 0 -58.856195449672086 -49.76442609614783 0 0 0 0 170.05772785282898 -228.83653863776249 0 -228.83653863776249 -137.16019572049066 0 0 0 0 98.696796495303715 -126.75959089876621 0 -126.75959089876621 -28.6057515742026 0 0 0 0 121.79139480805316 -117.50067299005951 0 -117.50067299005951 -25.69539171868503 0 0 0 0 182.24676715191526 -62.176174312218258 0 -62.176174312218258 -348.39427789213545 0 0 0 0 53.191379110267007 17.210626757143217 0 17.210626757143217 -68.89452869301499 0 0 0 0 9.6286663547505782 1.5633645844349822 0 1.5633645844349822 -0.63798268740556496 0 0 0 0 -83.88595213543158 125.56854736937524 0 125.56854736937524 -150.98040179741014 0 0 0 0 16.205606166979123 -12.40952764378676 0 -12.40952764378676 -33.091391578259675 0 0 0 0 152.7698979343877 -110.30414310712888 0 -110.30414310712888 -83.059476671565449 0 0 0 0 182.03193003122215 -36.698184475165391 0 -36.698184475165391 -63.682916260428556 0 0 0 0 419.46688530017855 -13.743097166466441 0 -13.743097166466441 -62.1866689734658 0 0 0 0 219.87762650047807 -6.9106618448103063 0 -6.9106618448103063 -49.155958780870463 0 0 0 0 146.93918736190244 -51.128735124965708 0 -51.128735124965708 -9.5714090846432498 0 0 0 0 140.29234499307131 -18.301789705630327 0 -18.301789705630327 -24.081495565473915 0 0 0 0 139.52420963065379 -6.5356589909286669 0 -6.5356589909286669 -46.767792029104385 0 0 0 0 138.18531453111791 -5.9591941931094254 0 -5.9591941931094254 -20.793322311828149 0 0 0 0 65.083815989037248 58.593606437962599 0 58.593606437962599 -5.2311818275432529 0 0 0 0 197.24776293188188 80.306295152930602 0 80.306295152930602 -13.016997057445963 0 0 0 0 156.91374715918209 -118.34688555809885 0 -118.34688555809885 56.127502623452926 0 0 0 0 102.67888069463879 103.72328044527575 0 103.72328044527575 159.94977408625323 0 0 0 0 378.48728565373676 25.139057152653493 0 25.139057152653493 -54.546911556421264 0 0 0 0 132.57802818391792 10.992322920846561 0 10.992322920846561 -77.594388223957026 0 0 0 0 105.97560349260311 -33.227674882991892 0 -33.227674882991892 1.0181638199297822 0 0 0 0 100.46991592706036 19.989134673951241 0 19.989134673951241 -41.728679295004895 0 0 0 0 2.0005611368032987 178.47364093548026 0 178.47364093548026 -106.33362738914934 0 0 0 0 88.540335738784705 18.850208291568308 0 18.850208291568308 -4.6316403022930848 0 0 0 0 117.85947694117021 60.530147527475719 0 60.530147527475719 -98.51240078871075 0 0 0 0 298.22620878307953 -142.29253348839143 0 -142.29253348839143 -20.992707900195455 0 0 0 0 248.4762593843534 -87.310723094226432 0 -87.310723094226432 -80.30476590744388 0 0 0 0 444.9072541497053 24.169351118499549 0 24.169351118499549 -120.99702348925621 0 0 0 0 240.10991995250879 46.284932319336804 0 46.284932319336804 -26.183114546394791 0 0 0 0 43.580797099046322 41.296826094640437 0 41.296826094640437 -76.541660613583417 0 0 0 0 208.72586462512095 175.94879018023715 0 175.94879018023715 31.577862172574896 0 0 0 0 98.623940000128599 27.086244769162018 0 27.086244769162018 -0.072872502534162997 0 0 0 0 192.08326258769921 191.21727458682631 0 191.21727458682631 -248.91876942736837 0 0 0 0 172.86013320029451 100.35618245765249 0 100.35618245765249 -133.75179826723695 0 0 0 0 237.70027359588221 -34.866067885491248 0 -34.866067885491248 -126.7761594350963 0 0 0 0 224.54099693628859 -73.384847905028096 0 -73.384847905028096 -73.081822271718693 0 0 0 0 116.66021620529618 25.667720178531031 0 25.667720178531031 -1.9595499458803234 0 0 0 0 32.891243056379608 68.634336910263642 0 68.634336910263642 -46.205697698243966 0 0 0 0 32.293561992593823 84.562640011292672 0 84.562640011292672 57.640327102274568 0 0 0 0 194.36855866302722 -153.43735510795909 0 -153.43735510795909 68.47200930602412 0 0 0 0 19.632340511932853 29.303454829379461 0 29.303454829379461 16.56237745282715 0 0 0 0 3.3688838388339661 0.71160031176191652 0 0.71160031176191652 0.36282728662716179 0 0 0 0 89.572078910889104 140.16368227641755 0 140.16368227641755 187.35686873359998 0 0 0 0 25.475147408276825 24.34403731269299 0 24.34403731269299 15.964185307973139 0 0 0 0 63.260672564687411 -40.921488888765595 0 -40.921488888765595 24.937287872917807 0 0 0 0 16.184082720502193 -1.8407473882652994 0 -1.8407473882652994 -5.883453399453753 0 0 0 0 36.206003045663238 27.27224642051101 0 27.27224642051101 3.187728026278478 0 0 0 0 228.29198848934902 -123.18915165630506 0 -123.18915165630506 11.652176489204862 0 0 0 0 150.80651017882155 -91.756710602390186 0 -91.756710602390186 1.0722529866203274 0 0 0 0 161.05223664784717 -78.697383660511662 0 -78.697383660511662 14.382833656321665 0 0 0 0 163.86949834835258 -57.684939934243033 0 -57.684939934243033 -6.3003606271325339 0 0 0 0 127.72025890516397 -8.6559203633328572 0 -8.6559203633328572 -50.483554117880828 0 0 0 0 15.630521906469198 -13.454363406658935 0 -13.454363406658935 -3.2216765287913232 0 0 0 0 164.34157554265403 -117.29990714265341 0 -117.29990714265341 38.425929490759245 0 0 0 0 105.31395959104339 -79.380796635216427 0 -79.380796635216427 15.07813224983056 0 0 0 0 14.77289671070657 -66.105189315917002 0 -66.105189315917002 0.085905540430890603 0 0 0 0 110.01970874443941 -59.335463838870453 0 -59.335463838870453 5.9197893566539506 0 0 0 0 134.62191990571591 -64.676107806315542 0 -64.676107806315542 -1.811403646076883 0 0 0 0 106.70065137432539 -54.595131153805596 0 -54.595131153805596 2.9326827102805737 0 0 0 0 95.65128021223353 -57.76203079647 0 -57.76203079647 6.8969427686270137 0 0 0 0 3501.6875456076741 -347.7998536880267 0 -347.7998536880267 -473.28589225983796 0 0 0 0 96.223523960240698 -31.617568579427889 0 -31.617568579427889 -2.9092750272391186 0 0 0 0 69.453242698160466 -21.605381615157853 0 -21.605381615157853 -1.0805317243801369 0 0 0 0 116.72037690223806 -32.112032748832391 0 -32.112032748832391 -12.383153614407462 0 0 0 0 -1.9828900074234639 -8.7094123052167305 0 -8.7094123052167305 -3.0197857453799104 0 0 0 0 3495.759176933032 -702.9174029658011 0 -702.9174029658011 -34.953101465697273 0 0 0 0 3147.1982959630113 -472.97026413944445 0 -472.97026413944445 -186.16489356730909 0 0 0 0 3.5136156940502019 -16.280745911073438 0 -16.280745911073438 -1.7117955391946318 0 0 0 0 42.037020300642325 15.91995476665765 0 15.91995476665765 -13.492426808817982 0 0 0 0 2579.519327947899 -1372.7681627238721 0 -1372.7681627238721 720.24795381882484 0 0 0 0 93.882185824717453 -40.960117538702221 0 -40.960117538702221 0.92641191532789335 0 0 0 0 152.44760617498196 -30.667738820920853 0 -30.667738820920853 -28.976074110842738 0 0 0 0 151.35179309474188 -59.16619637282372 0 -59.16619637282372 -4.2315938914952653 0 0 0 0 196.41154297262256 -42.401239891854914 0 -42.401239891854914 -9.1689752079120694 0 0 0 0 137.01570432615699 -22.731154609560235 0 -22.731154609560235 -28.009899482411015 0 0 0 0 3496.9934499474693 -5.101454969575526 0 -5.101454969575526 2.2648410159388912 0 0 0 0 -2.7636843744339217 -0.70020894418385637 0 -0.70020894418385637 1.2944819350571197 0 0 0 0 12.998230929049562 1.0639329699553031 0 1.0639329699553031 3.7182103942289237 0 0 0 0 22.746613199855645 -28.547013188841603 0 -28.547013188841603 -2.1267589647244987 0 0 0 0 3497.6304381690384 1132.8028412117123 0 1132.8028412117123 955.18861745021184 0 0 0 0 3379.751976551277 1554.9877034314011 0 1554.9877034314011 -551.3580853395971 0 0 0 0 1091.0994670060627 1241.78707852159 0 1241.78707852159 1507.7187861782754 0 0 0 0 -17.148927029607876 -52.529435430145313 0 -52.529435430145313 80.342838186159497 0 0 0 0 227.45299708249877 73.897129357074888 0 73.897129357074888 -95.586849954886134 0 0 0 0 42.679758194302543 -30.148563757075337 0 -30.148563757075337 0.9586807927942893 0 0 0 0 231.7775653806857 -121.49957331854486 0 -121.49957331854486 -46.672821299433863 0 0 0 0 159.63454666289908 181.63900223347053 0 181.63900223347053 95.974333243917712 0 0 0 0 439.12751193865915 -120.54628889381607 0 -120.54628889381607 12.029091940483227 0 0 0 0 2.3970748478708117 0.13618932959796481 0 0.13618932959796481 -0.093988413417411709 0 0 0 0 100.01932495417714 133.41184164549909 0 133.41184164549909 -101.13144696048856 0 0 0 0 226.26665348823735 -230.45582180349624 0 -230.45582180349624 207.48476994781902 0 0 0 0 42.076307261202601 -95.939564019415911 0 -95.939564019415911 110.33269271801453 0 0 0 0 6.0535762992319917 1.6097193863255548 0 1.6097193863255548 -2.3636446646110447 0 0 0 0 -33.017615727963857 -61.463621308700766 0 -61.463621308700766 -109.10318100405124 0 0 0 0 82.867115141098111 -27.71710254921328 0 -27.71710254921328 -4.5399205822611748 0 0 0 0 1.5541048375784863 1.1053058174357631 0 1.1053058174357631 -2.3554641303968382 0 0 0 0 -41.989641288673738 183.99848641729278 0 183.99848641729278 221.80286805261807 0 0 0 0 51.026032763693365 157.60601028177001 0 157.60601028177001 -125.32525337761884 0 0 0 0 69.996548688308394 2.9088672910682192 0 2.9088672910682192 -234.46801761822013 0 0 0 0 112.00855186878425 -13.401967569826802 0 -13.401967569826802 -4.6890928536695702 0 0 0 0 46.985634543390006 -16.952698184498995 0 -16.952698184498995 48.016835036918081 0 0 0 0 88.258944842942583 49.985041637504892 0 49.985041637504892 89.478536534336797 0 0 0 0 63.107211899856338 -75.980598660054667 0 -75.980598660054667 205.25731202991366 0 0 0 0 75.301737874833634 -133.49750162406087 0 -133.49750162406087 229.02507583422198 0 0 0 0 229.83484279811091 -312.50475185313439 0 -312.50475185313439 -105.21117956510568 0 0 0 0 563.28131137660239 597.6470792960215 0 597.6470792960215 310.31362987171315 0 0 0 0 126.91270442841051 59.479112310129722 0 59.479112310129722 -150.08275607974792 0 0 0 0 1780.8986493817647 1264.4978968750831 0 1264.4978968750831 789.69263210148074 0 0 0 0 22.687662379033043 4.1774878621592251 0 4.1774878621592251 -0.86569291149376859 0 0 0 0 3893.9306454510152 1639.8075713588889 0 1639.8075713588889 332.29496589898849 0 0 0 0 2486.287248007533 -549.87356308561687 0 -549.87356308561687 129.83693477203292 0 0 0 0 2761.4836359295223 2482.7017832884926 0 2482.7017832884926 2074.0062309156128 0 0 0 0 8.8697744900704265 -5.9127832987698454 0 -5.9127832987698454 3.3586764810122718 0 0 0 0 847.8375619459548 -119.0456813042716 0 -119.0456813042716 -86.695705796857027 0 0 0 0 1869.8386820877968 -1156.5319125780929 0 -1156.5319125780929 412.96912045740066 0 0 0 0 2206.0919093162738 -982.30744095837315 0 -982.30744095837315 -225.85219170525556 0 0 0 0 3500.1172647654057 -622.50959157345108 0 -622.50959157345108 -523.11561972937432 0 0 0 0 2353.6615758676016 -1049.7688216163174 0 -1049.7688216163174 -237.02450452020997 0 0 0 0 2226.9843207925701 -349.38605292342118 0 -349.38605292342118 -245.31791721169714 0 0 0 0 8.2360066598736594 -20.656251964847847 0 -20.656251964847847 -0.70013655682654719 0 0 0 0 3267.9907576726819 426.999902794891 0 426.999902794891 273.39362232479118 0 0 0 0 2722.1001312548015 -225.35819723073209 0 -225.35819723073209 321.47440550278714 0 0 0 0 1732.1995125033936 -319.13478943908831 0 -319.13478943908831 -28.705017013669476 0 0 0 0 17.491140515863663 -15.502478616454823 0 -15.502478616454823 -81.965251401612122 0 0 0 0 3933.2551642045291 31.300297592392894 0 31.300297592392894 -124.68582826234149 0 0 0 0 137.82223880908953 -181.27830833560759 0 -181.27830833560759 -37.298343745235343 0 0 0 0 4.8960096885393645 -17.272157922196463 0 -17.272157922196463 13.213175806534638 0 0 0 0 294.8428351559437 -323.81121664205142 0 -323.81121664205142 403.85995793482095 0 0 0 0 12.169843070259873 -14.029592812084438 0 -14.029592812084438 -9.845026740136344 0 0 0 0 4110.8033061473789 -20.266050798459048 0 -20.266050798459048 -285.17859789840395 0 0 0 0 22.122202443967595 -14.963652671283242 0 -14.963652671283242 -5.6948855538785583 0 0 0 0 4252.8402835030356 709.01744945143309 0 709.01744945143309 608.40019952556395 0 0 0 0 378.58634090907617 -25.539873864773881 0 -25.539873864773881 -32.140570207701785 0 0 0 0 400.23087886808497 -37.171723684596728 0 -37.171723684596728 -44.972314973297216 0 0 0 0 3365.1963310110204 -182.30609637401994 0 -182.30609637401994 697.29478681227374 0 0 0 0 4.8281033795513419 -25.349551364480508 0 -25.349551364480508 20.82913806530329 0 0 0 0 5555.564715746048 -1341.2341702975552 0 -1341.2341702975552 -894.97594670477565 0 0 0 0 376.7161382064296 -38.706276599047214 0 -38.706276599047214 3.6351419186814837 0 0 0 0 114.19371855265854 -664.0346022956312 0 -664.0346022956312 -1681.6582878450831 0 0 0 0 2.8804926569505263 -9.0044997596826803 0 -9.0044997596826803 5.4190463068957051 0 0 0 0 6251.0934033456142 212.76520604038956 0 212.76520604038956 -617.38522615846023 0 0 0 0 -1331.3769395664349 -1151.5355241185157 0 -1151.5355241185157 -692.68088544689545 0 0 0 0 61.149236421486421 -1037.5539111426854 0 -1037.5539111426854 -1066.9750527845226 0 0 0 0 227.13358142907236 -492.52687515176819 0 -492.52687515176819 722.51891405552078 0 0 0 0 665.99291947555321 -174.69174458795632 0 -174.69174458795632 -141.40739006269996 0 0 0 0 1546.969237542502 -2095.2629308562682 0 -2095.2629308562682 2096.9906400529535 0 0 0 0 3495.0211572072476 -1777.840164205106 0 -1777.840164205106 159.1945751987671 0 0 0 0 1810.6500029828021 847.52941593001935 0 847.52941593001935 -3042.5446891118268 0 0 0 0 13.399465814569467 -7.3256444774574501 0 -7.3256444774574501 -3.3073635078700754 0 0 0 0 1513.1143286605711 -556.10898990733824 0 -556.10898990733824 448.76444628430028 0 0 0 0 3494.9440232032466 -689.5417148840105 0 -689.5417148840105 -1639.9738552358281 0 0 0 0 1992.3433734260325 -1099.6121241693136 0 -1099.6121241693136 -303.04450810154219 0 0 0 0 705.68370114560821 -427.08506375308662 0 -427.08506375308662 -646.47638046157203 0 0 0 0 2949.1478326049837 -1846.9958285746975 0 -1846.9958285746975 1200.2166046707832 0 0 0 0 3494.6319172311873 -2343.5764105659277 0 -2343.5764105659277 1379.3904658703143 0 0 0 0 2268.1359460934727 -2474.0458641063378 0 -2474.0458641063378 2592.8151640916872 0 0 0 0 15.293643846640435 -5.730572183431093 0 -5.730572183431093 5.5315396651877711 0 0 0 0 199.47557447596773 -249.62099981778874 0 -249.62099981778874 -131.77443788486846 0 0 0 0 40.282273328932405 -25.997120968746543 0 -25.997120968746543 8.3001211239001726 0 0 0 0 -149.63035186003799 137.26985719430877 0 137.26985719430877 630.67932138621472 0 0 0 0 8.5329548747169639 -1.0932312760826335 0 -1.0932312760826335 13.069492388586216 0 0 0 0 1507.1553110903842 -1668.2151185595233 0 -1668.2151185595233 2053.7298076616503 0 0 0 0 68.139764618830668 -29.819832828393487 0 -29.819832828393487 -16.233761263996712 0 0 0 0 51.49444343351206 -23.102382203553248 0 -23.102382203553248 0.0012596167434821837 0 0 0 0 2343.1500315655576 1220.4920602061568 0 1220.4920602061568 537.24314718968981 0 0 0 0 1292.0974140951803 737.92963857821735 0 737.92963857821735 554.33140193828285 0 0 0 0 3493.2126420289974 631.24911930633959 0 631.24911930633959 -269.59844334725591 0 0 0 0 7.8358098285977462 -9.3759170542584087 0 -9.3759170542584087 -4.9538905141083394 0 0 0 0 2201.2457652389858 -222.7541366228283 0 -222.7541366228283 -432.17517488232971 0 0 0 0 65.264464500141344 -173.06113037795319 0 -173.06113037795319 168.23158335614153 0 0 0 0 8.3584732504989994 -70.382795054430176 0 -70.382795054430176 15.97537655261107 0 0 0 0 135.05813321193409 -71.218908468404976 0 -71.218908468404976 -4.7800706395237285 0 0 0 0 53.357422220185981 -49.862276787066321 0 -49.862276787066321 17.698968512717329 0 0 0 0 91.543201393986237 -77.59733873996106 0 -77.59733873996106 19.175887290662331 0 0 0 0 57.989944017112805 -43.700990350882449 0 -43.700990350882449 4.4771163574904476 0 0 0 0 145.71518509107409 190.25198865966422 0 190.25198865966422 71.334249328298029 0 0 0 0 141.9602588834241 1.7136080095524449 0 1.7136080095524449 -299.93399177139531 0 0 0 0 -98.074244226994779 -4.7151598984585235 0 -4.7151598984585235 426.33102300212977 0 0 0 0 -178.13069467916392 46.638753883061952 0 46.638753883061952 286.64810084324563 0 0 0 0 10.756633515677628 -31.407635997829633 0 -31.407635997829633 -7.1363494461078965 0 0 0 0 -55.302650672820164 -72.799520082446179 0 -72.799520082446179 128.13773547373103 0 0 0 0 -59.232385772615089 -834.21926475024145 0 -834.21926475024145 1717.1893913206136 0 0 0 0 959.87727837396415 -1879.0830013289765 0 -1879.0830013289765 891.71841033446867 0 0 0 0 622.94603415916936 -366.0437341339499 0 -366.0437341339499 48.646138378672049 0 0 0 0 1075.3784087146596 -1365.1333764652045 0 -1365.1333764652045 105.63358924194699 0 0 0 0 194.49801634340656 -1986.1442484469007 0 -1986.1442484469007 -271.47226789398883 0 0 0 0 1333.7301434138863 -448.74503820872451 0 -448.74503820872451 -0.62899464247584547 0 0 0 0 303.95417305404101 68.387074287619811 0 68.387074287619811 -10.01587651263344 0 0 0 0 895.44190400118305 -659.92077707075111 0 -659.92077707075111 283.75113174968942 0 0 0 0 1.5275276228104273 -26.498227679777418 0 -26.498227679777418 14.890970881831313 0 0 0 0 374.39591127446874 18.482030865700381 0 18.482030865700381 24.186937402553667 0 0 0 0 351.39830223068566 -29.297193553434226 0 -29.297193553434226 -52.603894047636118 0 0 0 0 389.19103266498405 1.8091264629133548 0 1.8091264629133548 -42.747563277399422 0 0 0 0 470.53869009413756 -51.932469132752885 0 -51.932469132752885 -25.330823646854697 0 0 0 0 445.69972552433319 -25.141998901400257 0 -25.141998901400257 -52.944464450499026 0 0 0 0 194.97737793898978 -105.37848637489651 0 -105.37848637489651 8.082798100947798 0 0 0 0 357.86035192679992 -73.252680175710793 0 -73.252680175710793 2.8796693848671566 0 0 0 0 376.92884981939437 -141.49550774809535 0 -141.49550774809535 15.249336674844926 0 0 0 0 390.34281399669158 -118.19994237516522 0 -118.19994237516522 36.589897685480537 0 0 0 0 3.4346004494346891 -4.5939570590009531 0 -4.5939570590009531 -13.17661886903357 0 0 0 0 8.4789247730641364 -20.274714965566773 0 -20.274714965566773 -37.722904329897119 0 0 0 0 388.62384148514138 -123.89937858524445 0 -123.89937858524445 120.56409417912255 0 0 0 0 493.17269943192514 -109.24293853221207 0 -109.24293853221207 11.381362917892147 0 0 0 0 466.45880651449079 -255.73606015191262 0 -255.73606015191262 329.07928703541984 0 0 0 0 462.41785289911604 112.96818407348565 0 112.96818407348565 -95.807515478310961 0 0 0 0 473.08482540723753 -39.045257829673801 0 -39.045257829673801 -2.8321361576927302 0 0 0 0 693.63146137739932 -187.21695020715833 0 -187.21695020715833 16.28502916180355 0 0 0 0 597.24238961090668 -58.539578207249178 0 -58.539578207249178 -154.4183213874071 0 0 0 0 582.06289764445683 -32.593592506297909 0 -32.593592506297909 62.763214038863225 0 0 0 0 701.8130360354744 668.38000012961061 0 668.38000012961061 43.970459314399704 0 0 0 0 5.7501041872950971 6.4641408611952826 0 6.4641408611952826 4.3284798029230558 0 0 0 0 1084.2646937572936 -577.38732882610384 0 -577.38732882610384 113.07626665416524 0 0 0 0 1263.0605827225263 -226.02957950357086 0 -226.02957950357086 -198.8039842151411 0 0 0 0 -70.706089097950098 44.848412069053666 0 44.848412069053666 338.19784193328996 0 0 0 0 22.515767750152463 -24.051606097504646 0 -24.051606097504646 214.71833215398146 0 0 0 0 55.89134156293585 -26.215519501160998 0 -26.215519501160998 11.89881954770317 0 0 0 0 22.455486426419156 -38.274299004463501 0 -38.274299004463501 92.690005373160602 0 0 0 0 19.965962895374105 0.11663882285438376 0 0.11663882285438376 101.39496494926789 0 0 0 0 85.388424493338789 39.754924948458665 0 39.754924948458665 81.164428689466149 0 0 0 0 55.673822036753336 40.190422676650087 0 40.190422676650087 132.99794643062705 0 0 0 0 26.143063810064632 56.676216730851593 0 56.676216730851593 124.56260603073406 0 0 0 0 15.440550074479688 71.274513361523532 0 71.274513361523532 223.31203528242258 0 0 0 0 17.092386809823438 152.30296075514889 0 152.30296075514889 146.45446560173878 0 0 0 0 312.75582560632211 263.10383723069526 0 263.10383723069526 159.81590860114102 0 0 0 0 103.80526313428345 106.95055972378759 0 106.95055972378759 154.35821005607704 0 0 0 0 99.919845377584352 55.566009353867912 0 55.566009353867912 41.12010158116982 0 0 0 0 222.67170643403733 -324.37864961757623 0 -324.37864961757623 259.40006982900377 0 0 0 0 692.44372610420942 171.88487534483102 0 171.88487534483102 -21.461412751144508 0 0 0 0 -4.5458948437693998 -17.451372616858773 0 -17.451372616858773 3.3185864574262567 0 0 0 0 709.78951025647257 -232.10867258511462 0 -232.10867258511462 -10.136002539582364 0 0 0 0 1867.5368327960678 -439.68500461306212 0 -439.68500461306212 -336.25219726224122 0 0 0 0 -135.28133538433758 134.54626102448856 0 134.54626102448856 362.28254224764851 0 0 0 0 -79.354339407709631 174.03859523095798 0 174.03859523095798 233.16637541222326 0 0 0 0 -6.5949699966095068 68.546191100424267 0 68.546191100424267 -7.3765671374430895 0 0 0 0 28.230289164827809 36.747224991695134 0 36.747224991695134 -33.858800501707265 0 0 0 0 11.390445807555807 76.136029364422484 0 76.136029364422484 31.516153217719875 0 0 0 0 10.343161779110233 50.635706774446135 0 50.635706774446135 113.70695503665866 0 0 0 0 20.392893999349326 18.192561327160547 0 18.192561327160547 50.843713014781315 0 0 0 0 21.078494413950466 18.744161404362785 0 18.744161404362785 50.454710935902767 0 0 0 0 38.060916972137541 8.1622711870610996 0 8.1622711870610996 -6.460673144334292 0 0 0 0 5.4187328871612408 26.644646105551601 0 26.644646105551601 64.278334062154499 0 0 0 0 67.24343797923575 20.84498334921318 0 20.84498334921318 2.0118039475810292 0 0 0 0 121.56541152433601 -9.4392569052911881 0 -9.4392569052911881 -116.39598015125884 0 0 0 0 48.377855869401628 38.381586261370472 0 38.381586261370472 1.4354878822699675 0 0 0 0 5.3492017819025932 -40.686354543657501 0 -40.686354543657501 -13.747035141110246 0 0 0 0 5.9162597921458655 -12.986342201270418 0 -12.986342201270418 -2.3554807742020785 0 0 0 0 13.790343797018068 -39.616620661066008 0 -39.616620661066008 -53.006096404281777 0 0 0 0 28.262887677777208 13.315063559122432 0 13.315063559122432 -7.5087179421634831 0 0 0 0 0.043801094142597918 -1.886999645349166 0 -1.886999645349166 1.889226288848544 0 0 0 0 213.22716458792866 -42.289400385434988 0 -42.289400385434988 -30.29665976725596 0 0 0 0 225.46320715538727 185.82807895139118 0 185.82807895139118 127.31775919804272 0 0 0 0 371.96321816303862 9.0318198193914441 0 9.0318198193914441 -139.95401478450481 0 0 0 0 275.65464865620243 -126.39249809189181 0 -126.39249809189181 -105.494532392358 0 0 0 0 64.984933917651688 139.6282901351783 0 139.6282901351783 -248.65370716539127 0 0 0 0 4.1198328510715729 1.7205133786237843 0 1.7205133786237843 -3.4759008765543244 0 0 0 0 -70.26171399339637 194.45415007966994 0 194.45415007966994 -160.45031805535291 0 0 0 0 359.93181866772102 -56.032425401726869 0 -56.032425401726869 -186.94052273759769 0 0 0 0 228.95635530844493 -18.458786845018722 0 -18.458786845018722 -146.55299865294592 0 0 0 0 235.78210092727431 -18.183167817458525 0 -18.183167817458525 -185.40960267318951 0 0 0 0 -150.05360332575583 -13.524346685622504 0 -13.524346685622504 226.86752883548161 0 0 0 0 186.06845208525283 -47.372061292446688 0 -47.372061292446688 -72.679550292443309 0 0 0 0 129.15869914406903 -1.6959427089743713 0 -1.6959427089743713 -45.668665447130934 0 0 0 0 2.0859737048793185 -0.64049569819718144 0 -0.64049569819718144 -6.144625902127558 0 0 0 0 -25.426618633850353 27.63063026576981 0 27.63063026576981 -94.077673537341525 0 0 0 0 355.5641835620836 -28.767466544349872 0 -28.767466544349872 -71.09391805105588 0 0 0 0 306.76835224682691 -74.135228971881133 0 -74.135228971881133 -79.412109437186302 0 0 0 0 346.65456666329737 -32.648397744292424 0 -32.648397744292424 -78.868943107844643 0 0 0 0 232.72471230347537 -13.465945906966454 0 -13.465945906966454 -119.94451425700618 0 0 0 0 356.42824362767533 -50.902593598199473 0 -50.902593598199473 -45.748879067843205 0 0 0 0 379.10542814470045 -28.987462326011382 0 -28.987462326011382 -54.729870702442895 0 0 0 0 293.06005438751254 -141.05274396377285 0 -141.05274396377285 -81.707848904458274 0 0 0 0 309.38234089421803 -82.573067634095082 0 -82.573067634095082 8.0615124156432785 0 0 0 0 350.80149782237822 -66.648447934987871 0 -66.648447934987871 -55.713265753528859 0 0 0 0 328.95401674573986 -100.27830160904091 0 -100.27830160904091 -93.334056116340662 0 0 0 0 344.78388346989323 -67.829063333981253 0 -67.829063333981253 -35.695211916586231 0 0 0 0 320.82345464007085 -77.88146445010625 0 -77.88146445010625 -132.6509532308757 0 0 0 0 320.53502817020672 -79.693167534881468 0 -79.693167534881468 -137.92551877074857 0 0 0 0 379.8390852580751 -138.17037526300953 0 -138.17037526300953 -128.21757275732324 0 0 0 0 429.96693803646485 -170.83145694276982 0 -170.83145694276982 -124.77578367835896 0 0 0 0 334.31033194183692 -161.32769023074798 0 -161.32769023074798 -124.49676162504875 0 0 0 0 261.96340673664508 -177.48091236216055 0 -177.48091236216055 -129.94681233935012 0 0 0 0 271.57849301217266 -236.99560214896439 0 -236.99560214896439 -54.378955830361974 0 0 0 0 461.28769880633808 -187.57918787183047 0 -187.57918787183047 -90.535812194173161 0 0 0 0 189.81046645704191 -270.20722826763284 0 -270.20722826763284 86.878945360750777 0 0 0 0 430.96817925962205 -115.91615415963884 0 -115.91615415963884 91.532572305109341 0 0 0 0 464.69409970905781 -225.74709724708111 0 -225.74709724708111 -41.288082741083826 0 0 0 0 494.91649491922544 20.207390409312893 0 20.207390409312893 38.325295341389676 0 0 0 0 379.94739719849531 108.6331659405264 0 108.6331659405264 -11.412414805126787 0 0 0 0 337.4775844931446 345.85428736698003 0 345.85428736698003 222.04485919806461 0 0 0 0 124.64093159749063 155.64597548121594 0 155.64597548121594 58.527683476584457 0 0 0 0 210.56433675503376 253.82068534998064 0 253.82068534998064 -35.187117166646658 0 0 0 0 -194.64502858715719 104.75040828057867 0 104.75040828057867 -33.310839450020467 0 0 0 0 135.92009193487229 4.2571248722827022 0 4.2571248722827022 -230.949826926334 0 0 0 0 263.86719888350342 -5.0241061536235065 0 -5.0241061536235065 -117.69483317565891 0 0 0 0 580.51973060349951 -61.903700208363318 0 -61.903700208363318 -163.52772236135365 0 0 0 0 270.82893346961919 108.50511150716397 0 108.50511150716397 -164.79540193291086 0 0 0 0 284.7711686803932 -65.178543777893537 0 -65.178543777893537 -147.95141333390006 0 0 0 0 10.452444756738318 -8.825949129923675 0 -8.825949129923675 -14.194504963259547 0 0 0 0 368.6015981064902 203.33605788592445 0 203.33605788592445 148.25653877779064 0 0 0 0 574.43027866195644 100.70218008246047 0 100.70218008246047 175.37811785281485 0 0 0 0 -193.64150066224511 487.9581606274387 0 487.9581606274387 -104.41106236376004 0 0 0 0 634.5485848995886 -153.02673865125394 0 -153.02673865125394 80.403541898849312 0 0 0 0 1.8203895255951155 0.97426068596692517 0 0.97426068596692517 -0.96189379001592989 0 0 0 0 337.00813982325963 140.53958669397645 0 140.53958669397645 32.499171359130514 0 0 0 0 223.17457368429041 290.64919437553681 0 290.64919437553681 -72.84711636195712 0 0 0 0 90.180312125172804 265.93697213152791 0 265.93697213152791 81.545932121897977 0 0 0 0 28.0632210218983 -32.472592997230322 0 -32.472592997230322 -7.3173788214157867 0 0 0 0 28.902861128776294 8.0615577058014765 0 8.0615577058014765 24.415222758024314 0 0 0 0 -43.906302675605616 -31.11761319410067 0 -31.11761319410067 36.718534966197922 0 0 0 0 4.688172875813251 -62.656677882038252 0 -62.656677882038252 -43.539547951992972 0 0 0 0 10.891575263543347 -8.3281962533434299 0 -8.3281962533434299 -19.736511551781415 0 0 0 0 299.63798725377728 719.43929126258536 0 719.43929126258536 -272.68402614265506 0 0 0 0 88.692295825460178 14.834013814102946 0 14.834013814102946 -64.794569388308219 0 0 0 0 78.197497732292277 33.376099655901839 0 33.376099655901839 -6.8403162163567686 0 0 0 0 -0.74696520889368667 -1.7571938803222655 0 -1.7571938803222655 -2.361542747282023 0 0 0 0 74.825285100758947 14.865951520850103 0 14.865951520850103 1.1311175273272056 0 0 0 0 578.49345078702845 4.3676441368140786 0 4.3676441368140786 -209.6617142657708 0 0 0 0 18.726372482633231 -7.9655198786759875 0 -7.9655198786759875 -17.949476457588997 0 0 0 0 -147.11346735133338 -112.84765614367279 0 -112.84765614367279 546.07320559988239 0 0 0 0 -142.16120739155213 196.29123299387311 0 196.29123299387311 -101.23885185177323 0 0 0 0 64.466973806847818 59.825046438714367 0 59.825046438714367 -69.489699318043222 0 0 0 0 -0.63013730340774199 -2.4313951055786145 0 -2.4313951055786145 -3.4782009565796796 0 0 0 0 234.24304784390006 207.63398927491437 0 207.63398927491437 -239.36842754934105 0 0 0 0 402.66139315922186 -3.5450226445101549 0 -3.5450226445101549 -59.510608013220235 0 0 0 0 308.52833140011171 62.664190722205831 0 62.664190722205831 171.321589545607 0 0 0 0 201.46155409999938 -76.945903837394326 0 -76.945903837394326 8.0843268005661457 0 0 0 0 442.38562129786624 -203.77453670161367 0 -203.77453670161367 67.292069698880482 0 0 0 0 76.58631538181362 35.846901449754569 0 35.846901449754569 -155.03003574732168 0 0 0 0 89.464874891741601 -175.90273492630445 0 -175.90273492630445 -114.399210269229 0 0 0 0 311.30879273024834 -72.426970869002247 0 -72.426970869002247 -110.67700840549287 0 0 0 0 19.502352615796021 6.2874622297398739 0 6.2874622297398739 -0.15304687180313659 0 0 0 0 -137.81400605807221 43.91185233452228 0 43.91185233452228 53.885580334796032 0 0 0 0 81.79820161317457 16.922688638243017 0 16.922688638243017 -93.046856879074085 0 0 0 0 26.270370309639897 -2.4916838206623284 0 -2.4916838206623284 -14.602970683897867 0 0 0 0 107.45220045535461 56.298473133800492 0 56.298473133800492 -4.0323028443758488 0 0 0 0 37.288483251089332 64.164078314318914 0 64.164078314318914 5.5943215275768878 0 0 0 0 128.91709491266465 52.26609240430389 0 52.26609240430389 -16.51341288344662 0 0 0 0 123.408158369587 119.36556952887994 0 119.36556952887994 47.220276764525352 0 0 0 0 56.452144274805406 21.342242495956921 0 21.342242495956921 -10.414243839222724 0 0 0 0 112.38276421450064 68.150738223096113 0 68.150738223096113 -52.590395755449222 0 0 0 0 26.833866751054302 70.724599142979969 0 70.724599142979969 0.078168106289467687 0 0 0 0 139.06961462065738 99.559040756507159 0 99.559040756507159 -14.240866320453506 0 0 0 0 14.165811963581405 23.272009026724575 0 23.272009026724575 -4.4291666260744726 0 0 0 0 274.88272100971517 259.77538412814397 0 259.77538412814397 152.9888652632917 0 0 0 0 91.931169268209487 74.159603720227494 0 74.159603720227494 20.518302738088096 0 0 0 0 43.49416435262912 34.12289493805104 0 34.12289493805104 -14.644640718036149 0 0 0 0 -10.937073035871549 8.1572425633359238 0 8.1572425633359238 8.0651943323677813 0 0 0 0 127.50681419533703 -64.195671695776696 0 -64.195671695776696 138.64907900786602 0 0 0 0 393.66654555988498 -110.26274389402113 0 -110.26274389402113 30.654197322778941 0 0 0 0 264.86134812576347 -60.353982979390935 0 -60.353982979390935 11.315858986995181 0 0 0 0 256.98305208614329 -53.780421261140077 0 -53.780421261140077 38.773028746081764 0 0 0 0 37.873104654609051 97.789397209831805 0 97.789397209831805 -71.834861709935467 0 0 0 0 68.66461770505218 17.16086676447495 0 17.16086676447495 -8.4665444813487163 0 0 0 0 30.606598419020884 38.720638271271469 0 38.720638271271469 -29.959299015489705 0 0 0 0 7.271381943821325 -39.029978983402998 0 -39.029978983402998 76.290190536590558 0 0 0 0 277.05313023137569 72.393022275583462 0 72.393022275583462 -24.18328430654401 0 0 0 0 435.51931741763838 58.322782592930707 0 58.322782592930707 -28.2273164417511 0 0 0 0 100.24466172106622 -40.310558242938669 0 -40.310558242938669 282.01552205065173 0 0 0 0 413.5052860084179 117.52698939409379 0 117.52698939409379 -135.39180901135569 0 0 0 0 235.30514864164434 15.425549585182125 0 15.425549585182125 -41.828164449034375 0 0 0 0 103.64409275438298 -23.73476874926709 0 -23.73476874926709 -22.389682628272453 0 0 0 0 105.69887645143172 27.729794874759591 0 27.729794874759591 0.61436058902290824 0 0 0 0 21.158404546075154 11.735104854448718 0 11.735104854448718 5.5150001088427807 0 0 0 0 137.9564793529662 -90.808417952151132 0 -90.808417952151132 -91.431310506991849 0 0 0 0 348.71149639712166 111.39238714278781 0 111.39238714278781 -7.0501311872001224 0 0 0 0 75.790762650951365 18.089097757554839 0 18.089097757554839 1.7545226455579268 0 0 0 0 2.9060451882680809 5.1204684832702618 0 5.1204684832702618 4.4062073740284635 0 0 0 0 223.3050485802778 -47.69337728058963 0 -47.69337728058963 -105.62888879850107 0 0 0 0 174.58291050210391 -159.47643584144589 0 -159.47643584144589 -79.757383103496977 0 0 0 0 261.28243106894661 -25.514535326625264 0 -25.514535326625264 -197.9624890703235 0 0 0 0 123.51932024428416 -24.734711239812398 0 -24.734711239812398 -21.399449890870592 0 0 0 0 86.650021112531249 137.98691296476863 0 137.98691296476863 51.702127304300348 0 0 0 0 652.89605591249529 165.0554984257476 0 165.0554984257476 36.449814820294705 0 0 0 0 635.16354464447431 215.16148432808774 0 215.16148432808774 -90.658109820244135 0 0 0 0 220.70698474571509 85.237460562139859 0 85.237460562139859 148.56305394841411 0 0 0 0 215.09027078136205 67.478890279397547 0 67.478890279397547 238.63486677953935 0 0 0 0 337.2062950061154 -134.56435862402759 0 -134.56435862402759 -39.925564708893944 0 0 0 0 272.97927508650901 43.465734984020855 0 43.465734984020855 13.934905883765168 0 0 0 0 297.59604585702209 100.19184293199802 0 100.19184293199802 85.088219917784954 0 0 0 0 307.56456844665445 -72.376993841611693 0 -72.376993841611693 235.10524240679024 0 0 0 0 879.77823193791482 229.11698379466952 0 229.11698379466952 109.91752380782782 0 0 0 0 -0.21024512310414067 -1.0314163046255374 0 -1.0314163046255374 0.051613847771621479 0 0 0 0 126.63460450362436 -171.05958541344239 0 -171.05958541344239 -18.692232954206247 0 0 0 0 87.328315680860754 21.542221369385516 0 21.542221369385516 -5.9609550762143044 0 0 0 0 14.1978546485465 2.7738369100068487 0 2.7738369100068487 -4.2012404452263432 0 0 0 0 51.81380942583403 2.8026551242181057 0 2.8026551242181057 -12.139097777664261 0 0 0 0 7.4489980912004512 -68.039821760312407 0 -68.039821760312407 -79.85220271361959 0 0 0 0 -58.735849007158322 -55.668942060506652 0 -55.668942060506652 -45.527624255978481 0 0 0 0 2.859611156480685 -2.7600678163223868 0 -2.7600678163223868 -0.77035579693739109 0 0 0 0 -159.32040187183247 -151.31453425376685 0 -151.31453425376685 -85.75972564715812 0 0 0 0 22.639107113026967 -119.18716070238816 0 -119.18716070238816 -211.69443615456657 0 0 0 0 63.368290256821219 1.1658201535119908 0 1.1658201535119908 -8.9187076133942149 0 0 0 0 80.154488529238733 24.211001194581058 0 24.211001194581058 9.9164254857105334 0 0 0 0 17.149899751001112 3.4973582310290716 0 3.4973582310290716 -1.489164520552853 0 0 0 0 95.868505957932939 16.873030795816703 0 16.873030795816703 -9.3753047471177524 0 0 0 0 -78.024064963008399 -62.304424225455477 0 -62.304424225455477 -60.495199837518157 0 0 0 0 92.580382834061311 24.877828418191257 0 24.877828418191257 18.038844767874252 0 0 0 0 14.823312262629718 2.0222792094668662 0 2.0222792094668662 4.4792766906405426 0 0 0 0 101.68464762432632 23.879575163437949 0 23.879575163437949 1.0467730949731049 0 0 0 0 71.519169186517956 -0.3310119081380094 0 -0.3310119081380094 -19.806460111466095 0 0 0 0 76.222858399542019 21.910949636736404 0 21.910949636736404 8.240717692432554 0 0 0 0 50.813318716551102 -5.1001623397360305 0 -5.1001623397360305 -10.680269341351423 0 0 0 0 32.230774003624127 34.168902921625971 0 34.168902921625971 5.7894014184640525 0 0 0 0 82.813280500204201 17.482553666407057 0 17.482553666407057 13.868798788935237 0 0 0 0 86.396558411845035 11.758360042824961 0 11.758360042824961 5.2950964000883687 0 0 0 0 80.645217315744958 6.4339828336919709 0 6.4339828336919709 -10.954253899069272 0 0 0 0 131.34693054806849 39.050934283815423 0 39.050934283815423 9.2193415083852415 0 0 0 0 23.370750792862776 1.9974068936853655 0 1.9974068936853655 -7.4859887115554891 0 0 0 0 35.759382948914805 -6.9486029061578307 0 -6.9486029061578307 -7.9992492767988352 0 0 0 0 128.06989413016709 33.670434137253096 0 33.670434137253096 20.524308430306519 0 0 0 0 52.115926447614534 -8.662121069981886 0 -8.662121069981886 -19.482179351839516 0 0 0 0 138.52555936406134 9.1841643013608518 0 9.1841643013608518 8.0628605907222664 0 0 0 0 129.44766667845397 24.670069761097693 0 24.670069761097693 -0.17444896921733744 0 0 0 0 142.65234380658512 5.1688902875944223 0 5.1688902875944223 6.9404035060488241 0 0 0 0 139.22918942205433 8.8768892449988925 0 8.8768892449988925 6.7369388173458447 0 0 0 0 70.279441621794831 20.095354744911219 0 20.095354744911219 1.1485632191631794 0 0 0 0 173.98542394702235 -5.7106441458463451 0 -5.7106441458463451 9.0277009201827241 0 0 0 0 55.19969582896217 28.010248750789707 0 28.010248750789707 -5.7610147717983438 0 0 0 0 119.65090576353396 9.796329826487181 0 9.796329826487181 9.2636238095892622 0 0 0 0 146.63574200969742 21.891734138089532 0 21.891734138089532 10.674921019177418 0 0 0 0 129.06102516100646 -4.1094561400500069 0 -4.1094561400500069 -14.449418288126418 0 0 0 0 215.63556504991175 -65.358589512259641 0 -65.358589512259641 -88.840442354679908 0 0 0 0 64.273765672367517 -30.329181386951859 0 -30.329181386951859 -48.729543451450809 0 0 0 0 146.73908803622635 -133.1775610368154 0 -133.1775610368154 -77.24408736004807 0 0 0 0 245.72765246030576 -45.34677068180099 0 -45.34677068180099 -214.78463332017213 0 0 0 0 -40.871945634896406 140.54995863013158 0 140.54995863013158 5.2909203907984192 0 0 0 0 71.386378287394805 5.7726806600718792 0 5.7726806600718792 -10.164984710431579 0 0 0 0 25.288707019226155 -6.7311667491497786 0 -6.7311667491497786 -9.9085369653322957 0 0 0 0 -20.715528351678586 -106.1520496584244 0 -106.1520496584244 62.046479708700645 0 0 0 0 345.90464023593449 -103.45397124730061 0 -103.45397124730061 -89.959609486450063 0 0 0 0 578.86812185004192 195.74422350971167 0 195.74422350971167 -146.06412718354113 0 0 0 0 240.05752566364299 164.0140311383343 0 164.0140311383343 72.274480835241775 0 0 0 0 230.38592758387904 137.27736332882841 0 137.27736332882841 -163.60986782088185 0 0 0 0 17.838340601188065 -68.670413790656312 0 -68.670413790656312 -92.866987152280672 0 0 0 0 -185.21124084473649 213.65478846555106 0 213.65478846555106 67.418287922057061 0 0 0 0 -4.9550757293408374 -3.0911611304679631 0 -3.0911611304679631 2.1123983642642301 0 0 0 0 615.45309106997956 267.35939845507892 0 267.35939845507892 700.51976023631505 0 0 0 0 906.08936509215073 167.02549024829659 0 167.02549024829659 -136.69923111213393 0 0 0 0 286.29058214821907 129.71172986110446 0 129.71172986110446 3.2485834512081055 0 0 0 0 149.29711049585694 204.92080842566793 0 204.92080842566793 11.102901298698271 0 0 0 0 162.1385118727851 108.46856955188719 0 108.46856955188719 75.389032431415217 0 0 0 0 226.32002157821626 181.62995202679622 0 181.62995202679622 17.772100660372416 0 0 0 0 214.29915462932058 120.10878930073295 0 120.10878930073295 73.919019041148658 0 0 0 0 229.87860255198484 87.928472038415066 0 87.928472038415066 40.301481908055393 0 0 0 0 237.97987603309321 103.20037398970612 0 103.20037398970612 61.499205047313467 0 0 0 0 306.54938198848663 37.898971253239552 0 37.898971253239552 31.500582146210718 0 0 0 0 195.70755872355551 24.133703760982826 0 24.133703760982826 72.440610068706519 0 0 0 0 85.593545715094479 132.33043829469989 0 132.33043829469989 68.428156412574936 0 0 0 0 5.2893509356243174 -5.9998496238502099 0 -5.9998496238502099 1.6776189054781785 0 0 0 0 -18.757086898782973 -60.494592082175132 0 -60.494592082175132 -45.127013347614479 0 0 0 0 -139.60787630591611 -128.49065374173108 0 -128.49065374173108 -20.690557917484966 0 0 0 0 337.20634186112966 95.438949097909926 0 95.438949097909926 14.796080079242984 0 0 0 0 287.78013095786901 96.100711797154247 0 96.100711797154247 -10.43884680681802 0 0 0 0 289.40756731729005 88.381401415731972 0 88.381401415731972 14.136794901713973 0 0 0 0 6.3441655715244405 -8.9127002076588244 0 -8.9127002076588244 7.019925530154393 0 0 0 0 220.0043165364757 -0.10334927154687534 0 -0.10334927154687534 -20.531924031236201 0 0 0 0 51.872390110463982 45.788482208509322 0 45.788482208509322 -76.641651496897993 0 0 0 0 385.2432465429838 26.529354650196865 0 26.529354650196865 -49.00773014562742 0 0 0 0 349.65853111647061 80.780933326126615 0 80.780933326126615 -80.464946064178548 0 0 0 0 420.29761602647523 152.82768432141228 0 152.82768432141228 -21.323595138150694 0 0 0 0 298.20763689413297 254.7575941125416 0 254.7575941125416 95.951506663561432 0 0 0 0 206.69338056788638 171.56303708660604 0 171.56303708660604 79.786257032902512 0 0 0 0 196.36436825564488 162.23492397662596 0 162.23492397662596 144.74364962522372 0 0 0 0 240.92041649688144 144.17057540539167 0 144.17057540539167 85.24845843194305 0 0 0 0 207.88592272742062 121.1511401563306 0 121.1511401563306 73.749677092258935 0 0 0 0 286.45487812516058 109.26237810062298 0 109.26237810062298 46.413576616450428 0 0 0 0 127.53203424579419 355.98694604140792 0 355.98694604140792 151.27080408127006 0 0 0 0 158.86733810973419 268.79115549912876 0 268.79115549912876 20.815737723896746 0 0 0 0 -88.044952280024518 183.55362637174085 0 183.55362637174085 152.51778640489238 0 0 0 0 64.29198116148018 175.93494166554183 0 175.93494166554183 144.4495355226328 0 0 0 0 178.26462150878888 230.31953623871709 0 230.31953623871709 147.75756192052177 0 0 0 0 170.84205474897681 249.59480335260832 0 249.59480335260832 97.768264325791108 0 0 0 0 494.13627699362723 481.9098309485928 0 481.9098309485928 127.65775806287365 0 0 0 0 909.45865500689933 111.97089309312673 0 111.97089309312673 -84.929563433096973 0 0 0 0 3.5531920948704681 2.2693433105424194 0 2.2693433105424194 -0.1974785580353815 0 0 0 0 41.899846113799413 12.11745545097483 0 12.11745545097483 123.91030977273431 0 0 0 0 383.01203523207391 -303.6650619665977 0 -303.6650619665977 135.43121951547619 0 0 0 0 187.10437484465956 -313.75569011225366 0 -313.75569011225366 293.60113162422749 0 0 0 0 1229.4569774498182 343.56734600360551 0 343.56734600360551 -602.48979005248668 0 0 0 0 1086.1248783724395 683.42339565927989 0 683.42339565927989 -284.34426508853267 0 0 0 0 2018.7883143058839 -618.58008838200271 0 -618.58008838200271 158.63283112165936 0 0 0 0 604.33896192591237 463.15917189823654 0 463.15917189823654 483.40002468897092 0 0 0 0 9.3904179432940253 6.2875445462300625 0 6.2875445462300625 3.611455938521086 0 0 0 0 -374.95790345887599 634.89545176140746 0 634.89545176140746 -816.56041379895123 0 0 0 0 -382.70445776405222 1064.0412125629 0 1064.0412125629 -382.86488120207378 0 0 0 0 -445.23935555644061 215.03940100939076 0 215.03940100939076 -126.14010101785971 0 0 0 0 -275.20715141495998 52.518305620242472 0 52.518305620242472 36.599350557232356 0 0 0 0 -119.29243718917587 392.88689911644724 0 392.88689911644724 -34.504062484195856 0 0 0 0 28.23487202207631 17.031361159077289 0 17.031361159077289 5.764486441427934 0 0 0 0 803.05210430549869 -346.08352503491915 0 -346.08352503491915 115.146411625974 0 0 0 0 429.49835660675944 -182.65368497622148 0 -182.65368497622148 60.598146598111271 0 0 0 0 456.58402701570503 -99.899665116528467 0 -99.899665116528467 -24.796652086581162 0 0 0 0 671.93233451133256 -187.65289033767021 0 -187.65289033767021 -28.78413168298448 0 0 0 0 690.84170571416325 -160.52905198406825 0 -160.52905198406825 -70.021222327754913 0 0 0 0 622.12602649750443 -182.74857077019442 0 -182.74857077019442 25.043149274019015 0 0 0 0 705.02255179473559 -129.91383101065435 0 -129.91383101065435 -53.914779411226846 0 0 0 0 547.43417825498273 -120.47310480528449 0 -120.47310480528449 -13.238170118281232 0 0 0 0 517.39322709051544 -42.662663398309405 0 -42.662663398309405 -35.683779325074283 0 0 0 0 515.43896175231112 -98.858737433970418 0 -98.858737433970418 -23.058286345680699 0 0 0 0 698.48904135521479 -142.75084656618537 0 -142.75084656618537 143.13672856860356 0 0 0 0 571.47241946869417 -67.933816774101615 0 -67.933816774101615 -28.755426967826679 0 0 0 0 782.2822170460563 -190.69165253056781 0 -190.69165253056781 -28.325894032966971 0 0 0 0 703.8886293712734 197.13128845149436 0 197.13128845149436 -50.425200580157252 0 0 0 0 130.20164621783124 88.855767958496926 0 88.855767958496926 9.6058489810511674 0 0 0 0 453.06414457252367 52.351735382125753 0 52.351735382125753 -30.84668349520507 0 0 0 0 168.89102171014929 8.7679650100044455 0 8.7679650100044455 17.989983903097709 0 0 0 0 110.07540061212694 8.4175955146320121 0 8.4175955146320121 66.225201275543441 0 0 0 0 107.77956589603937 -24.732919976575303 0 -24.732919976575303 -7.3336991401101841 0 0 0 0 398.48675120897497 -95.637753531068029 0 -95.637753531068029 45.307187479673303 0 0 0 0 2.6694753761288226 -12.47372090588749 0 -12.47372090588749 46.30624399284973 0 0 0 0 -66.397727911062248 28.508207284059154 0 28.508207284059154 111.50748556722101 0 0 0 0 -156.79658657685673 -109.39455249274056 0 -109.39455249274056 51.032783639297122 0 0 0 0 629.74877124131353 179.48530333569818 0 179.48530333569818 -57.411693592433011 0 0 0 0 405.12037854436062 -161.49928369815166 0 -161.49928369815166 -22.844642728853614 0 0 0 0 541.00331442127049 58.908412084792474 0 58.908412084792474 -45.177962260668664 0 0 0 0 4.116009600837355 -14.700398731333262 0 -14.700398731333262 45.865643794068021 0 0 0 0 -244.57977486551681 -95.005180248444049 0 -95.005180248444049 72.753932139059998 0 0 0 0 489.490279318744 -78.331318206555579 0 -78.331318206555579 42.594113504729648 0 0 0 0 545.79601368316298 -436.68248594774275 0 -436.68248594774275 598.07520881666096 0 0 0 0 60.171681089806043 -7.4797709656987763 0 -7.4797709656987763 392.76178123658519 0 0 0 0 405.87255842078821 243.99937702988541 0 243.99937702988541 236.21322931200029 0 0 0 0 329.26883458541215 -2.5381408951370759 0 -2.5381408951370759 -158.35588677743635 0 0 0 0 92.552182433655616 48.431878412125457 0 48.431878412125457 14.78654110498519 0 0 0 0 -92.748828231455036 -147.77049095507198 0 -147.77049095507198 176.96327141034499 0 0 0 0 119.32378521077044 78.718841266418622 0 78.718841266418622 130.27912901868933 0 0 0 0 -277.18809317773594 -215.71218104028276 0 -215.71218104028276 68.684950006328677 0 0 0 0 3.3972156299972376 -14.110003480353441 0 -14.110003480353441 41.877915871636461 0 0 0 0 -24.292260987616828 156.94316499937395 0 156.94316499937395 239.03230846049837 0 0 0 0 268.14872846533399 -99.896290115605098 0 -99.896290115605098 -93.642811448990869 0 0 0 0 -38.358477302101846 15.87977680263603 0 15.87977680263603 26.699146282680545 0 0 0 0 13.672107635753813 0.0032247428356414476 0 0.0032247428356414476 4.8886405142330895 0 0 0 0 6.8858698715373805 -1.0972647233402313 0 -1.0972647233402313 6.4873775312756869 0 0 0 0 -233.27880964027099 -344.69771636150608 0 -344.69771636150608 198.78483199089783 0 0 0 0 5.2088697317465167 -9.9854320223038382 0 -9.9854320223038382 29.5422786272919 0 0 0 0 120.10320817179263 -79.565521855280167 0 -79.565521855280167 -431.70035749638828 0 0 0 0 33.090616828200837 -18.806602006908861 0 -18.806602006908861 26.261196940660739 0 0 0 0 9.714140258291037 -10.920207324033941 0 -10.920207324033941 13.006894545784558 0 0 0 0 6.2456749736452366 -13.29125728805748 0 -13.29125728805748 27.13395852913925 0 0 0 0 10.459320684240765 -9.5711802514357487 0 -9.5711802514357487 -7.6397332743159083 0 0 0 0 -2.3464131866845719 -16.93899388937804 0 -16.93899388937804 6.6329618829818742 0 0 0 0 127.32724235735077 118.4618633662983 0 118.4618633662983 52.413785061585088 0 0 0 0 129.16002521695611 134.68002533643025 0 134.68002533643025 192.18324962101315 0 0 0 0 13.219669950493749 -9.6075817697313894 0 -9.6075817697313894 -7.9956318081508195 0 0 0 0 21.075581850572124 -3.4960088421374707 0 -3.4960088421374707 -2.5305348457024315 0 0 0 0 1.8514441490100326 2.5349263996714289 0 2.5349263996714289 -2.3655429401344055 0 0 0 0 236.90840526394061 -150.49077055073093 0 -150.49077055073093 95.677321646234986 0 0 0 0 -58.823359276695101 -120.54712583706163 0 -120.54712583706163 -90.825122339599147 0 0 0 0 -19.591405065128129 43.075518841187773 0 43.075518841187773 36.554897979704435 0 0 0 0 3.5651184859473002 -0.73040055404196513 0 -0.73040055404196513 -1.045290560243969 0 0 0 0 93.433127761029709 33.418647929483967 0 33.418647929483967 -75.415045644230531 0 0 0 0 1018.7351650315734 85.090915326378195 0 85.090915326378195 278.89478842398489 0 0 0 0 688.14518162056368 -555.46719323417051 0 -555.46719323417051 216.50024226349137 0 0 0 0 7.7529809402480057 -0.89586477534883091 0 -0.89586477534883091 0.6578011478388478 0 0 0 0 110.26021873834702 -70.963015989258224 0 -70.963015989258224 45.917895397839629 0 0 0 0 189.12110489502948 -440.13914423238475 0 -440.13914423238475 705.33396188609174 0 0 0 0 94.04677220056692 89.414443766159366 0 89.414443766159366 134.01804606023384 0 0 0 0 54.83728534250622 125.20814765612562 0 125.20814765612562 351.37401632683782 0 0 0 0 407.5159090704301 480.48853647960414 0 480.48853647960414 645.06830666773942 0 0 0 0 1094.7038448813594 201.04431417557603 0 201.04431417557603 68.40579965396023 0 0 0 0 716.7562311114732 -350.07383359125203 0 -350.07383359125203 646.69318006178446 0 0 0 0 621.45123996819029 -103.25852602269185 0 -103.25852602269185 73.542396896589594 0 0 0 0 372.31112938448678 -164.05243262776037 0 -164.05243262776037 481.84494441056239 0 0 0 0 414.99640563514004 -73.025987080350205 0 -73.025987080350205 67.368326129777245 0 0 0 0 565.71597079291951 44.549792475093682 0 44.549792475093682 453.3866529045373 0 0 0 0 677.66867028161869 85.801506878456394 0 85.801506878456394 319.3320555081873 0 0 0 0 514.02093878860046 108.86102075726262 0 108.86102075726262 375.40008593369998 0 0 0 0 586.02861884178492 287.1768894543618 0 287.1768894543618 797.603757983023 0 0 0 0 582.04408081278325 93.953233887446913 0 93.953233887446913 370.90304832077737 0 0 0 0 513.75710230100526 227.45349878875504 0 227.45349878875504 181.57640652401005 0 0 0 0 579.52645699682796 157.44948760427349 0 157.44948760427349 279.09483715569331 0 0 0 0 775.68934202646642 258.79162453991239 0 258.79162453991239 -211.02916944928893 0 0 0 0 306.83534108654021 -174.36036051660813 0 -174.36036051660813 42.281107932051555 0 0 0 0 -627.34959676051835 -308.25240301951317 0 -308.25240301951317 69.184473965442066 0 0 0 0 155.1488036960277 63.957507734994806 0 63.957507734994806 -331.94081965791247 0 0 0 0 369.15695495586493 -257.77819392280236 0 -257.77819392280236 99.55102927766211 0 0 0 0 216.81570998527673 -154.72571688581115 0 -154.72571688581115 92.699197310143973 0 0 0 0 357.73638114556275 -431.72690460958734 0 -431.72690460958734 -318.53963390505487 0 0 0 0 357.1794257769086 -442.40854258614695 0 -442.40854258614695 219.51823103781044 0 0 0 0 -51.163346140092358 -680.66684562463843 0 -680.66684562463843 108.6919226440059 0 0 0 0 292.46010522836923 -896.24284826332291 0 -896.24284826332291 -128.11735400731777 0 0 0 0 889.84215721690543 -677.99552341028266 0 -677.99552341028266 -207.19124236561174 0 0 0 0 1292.9634128948974 260.9767742719348 0 260.9767742719348 6.2357200417759486 0 0 0 0 -515.82400357431743 -937.84541373666843 0 -937.84541373666843 -9.8289490276674769 0 0 0 0 4.8483185451346031 -4.4719449531772879 0 -4.4719449531772879 3.0602163559212894 0 0 0 0 476.41266000509495 74.725250682104161 0 74.725250682104161 10.013448486880833 0 0 0 0 455.68833974704808 38.644416932097897 0 38.644416932097897 -52.732389696350083 0 0 0 0 -225.11362437676007 -510.95486467820456 0 -510.95486467820456 -355.34142355864151 0 0 0 0 13.608615406746406 -10.931422855126687 0 -10.931422855126687 4.6737578014817647 0 0 0 0 470.36502638281013 94.616252794964339 0 94.616252794964339 -65.51899342013121 0 0 0 0 485.57951104801441 52.029593968215295 0 52.029593968215295 -29.539979840816613 0 0 0 0 176.91512070386216 -29.303057071149397 0 -29.303057071149397 -86.006214815400256 0 0 0 0 560.6338436399692 153.37329860831073 0 153.37329860831073 -171.8757840211498 0 0 0 0 528.02187081152442 121.37711983218401 0 121.37711983218401 -1.5882704829878094 0 0 0 0 14.559007172316953 -10.000957868456299 0 -10.000957868456299 1.9807722105253465 0 0 0 0 -128.66335976174435 -193.0801657049694 0 -193.0801657049694 -350.56518276906536 0 0 0 0 -118.21760382229741 -144.0571556246914 0 -144.0571556246914 -120.71628471101167 0 0 0 0 340.33964428236504 -272.1927752624307 0 -272.1927752624307 -570.68917659523777 0 0 0 0 152.24697982855923 -131.30483912101317 0 -131.30483912101317 -120.28817979503739 0 0 0 0 16.206649916571084 -12.210028619287879 0 -12.210028619287879 4.1202885585334172 0 0 0 0 790.25094258497575 -102.82265830569077 0 -102.82265830569077 -198.02167863100442 0 0 0 0 828.31323426342101 317.49221038819314 0 317.49221038819314 -35.033025161665591 0 0 0 0 283.5476677510967 -263.57405459927122 0 -263.57405459927122 -197.84523039543774 0 0 0 0 144.14969889425731 73.03874896014122 0 73.03874896014122 49.116126841854566 0 0 0 0 1460.4530595883273 252.56438333835899 0 252.56438333835899 -292.39990732761999 0 0 0 0 1510.3452110739447 90.666117292590116 0 90.666117292590116 175.05165628710802 0 0 0 0 2047.0971264256439 233.64581358852251 0 233.64581358852251 -233.59494916526273 0 0 0 0 1465.384846910169 283.33385840201811 0 283.33385840201811 26.460170926894989 0 0 0 0 1098.2943193944125 -60.554699419383269 0 -60.554699419383269 50.651223454352476 0 0 0 0 1632.3966176653771 -41.93698372251356 0 -41.93698372251356 -111.09576691111079 0 0 0 0 1155.5611528251582 413.88814001689889 0 413.88814001689889 -29.363880635540227 0 0 0 0 3556.1512781957117 232.50659225957912 0 232.50659225957912 104.46206964654398 0 0 0 0 1774.6129947732998 43.218463016725082 0 43.218463016725082 -167.32038364795767 0 0 0 0 7.7432119411352875 -9.0972994635171389 0 -9.0972994635171389 -12.989611048982225 0 0 0 0 3643.0188292328262 256.48565066026333 0 256.48565066026333 38.946449428233933 0 0 0 0 3581.7263623139443 291.32608074150312 0 291.32608074150312 28.897351412529193 0 0 0 0 3500.0186750243079 270.75784038963189 0 270.75784038963189 92.83117367559521 0 0 0 0 3432.6748589365379 299.26265433714991 0 299.26265433714991 29.117876211437224 0 0 0 0 3499.977432822121 281.8305131051427 0 281.8305131051427 -10.265097724175206 0 0 0 0 8.5330188804060132 -12.941674360184402 0 -12.941674360184402 -15.438977986795546 0 0 0 0 3432.7033798311986 287.99312114946741 0 287.99312114946741 3.8095199903407106 0 0 0 0 3356.8403219433021 315.35107414481172 0 315.35107414481172 8.2495738618867804 0 0 0 0 3376.2942940496823 186.33173941326237 0 186.33173941326237 -73.274455605644903 0 0 0 0 3499.821076412456 162.56720142354831 0 162.56720142354831 -123.96020064830229 0 0 0 0 3163.5426069204732 -66.286767596151776 0 -66.286767596151776 -247.27032286242093 0 0 0 0 3121.0189131243642 227.10956096746685 0 227.10956096746685 -35.346347728197173 0 0 0 0 3203.6506042028659 206.5580050761464 0 206.5580050761464 -49.936295552136755 0 0 0 0 8.9443096416894541 -16.492486808430385 0 -16.492486808430385 -12.234505060343929 0 0 0 0 1949.7459172444997 262.77827981601592 0 262.77827981601592 -117.4426419038374 0 0 0 0 896.83109779300366 43.482320576593906 0 43.482320576593906 161.21091832434604 0 0 0 0 1317.2111222185167 139.03836719539595 0 139.03836719539595 -12.341852680093098 0 0 0 0 1373.9541179418825 41.692557729604573 0 41.692557729604573 116.74589829859042 0 0 0 0 1856.3689132066629 79.415558247525269 0 79.415558247525269 134.85757863630778 0 0 0 0 9.1265170329435072 -20.087857949102382 0 -20.087857949102382 -4.4332888415481762 0 0 0 0 1670.3239776501405 236.98560998218841 0 236.98560998218841 27.330227274910527 0 0 0 0 1315.945637603706 -452.05706826084997 0 -452.05706826084997 201.84833062790619 0 0 0 0 -547.14813921572659 -239.57118830569252 0 -239.57118830569252 303.81759480059475 0 0 0 0 4166.9990081028554 -52.040081431082044 0 -52.040081431082044 -292.24944075879353 0 0 0 0 3.1412515501399465 -5.4275330049437311 0 -5.4275330049437311 3.8882402132002243 0 0 0 0 53.312699371756935 -544.55377249660751 0 -544.55377249660751 195.28135667685717 0 0 0 0 3661.8997678226233 -506.97057666795388 0 -506.97057666795388 -143.04637348086248 0 0 0 0 2716.5671135959547 21.353136605115353 0 21.353136605115353 -147.88799061913159 0 0 0 0 2794.6684595949082 -514.55461347769187 0 -514.55461347769187 -458.84162216174531 0 0 0 0 3499.3795947898834 -125.98788871900713 0 -125.98788871900713 -337.91985803786037 0 0 0 0 2728.8268802007474 -11.446130201960752 0 -11.446130201960752 -109.80215300576828 0 0 0 0 464.13828336590814 15.383439762642865 0 15.383439762642865 12.12010041705139 0 0 0 0 344.83801890118048 252.2704365056469 0 252.2704365056469 176.16955133945567 0 0 0 0 1430.8412960906935 1677.6374138084943 0 1677.6374138084943 340.58252276881956 0 0 0 0 1718.1498073036928 292.22708366419192 0 292.22708366419192 -138.66511096935113 0 0 0 0 8.0612140361400293 -4.5369696650997327 0 -4.5369696650997327 -1.3359550180579181 0 0 0 0 149.86997618614987 -18.86456380054301 0 -18.86456380054301 -82.429559459360462 0 0 0 0 601.33915591283221 318.58542368971712 0 318.58542368971712 -110.05306105780164 0 0 0 0 608.27295122502255 150.56032235320663 0 150.56032235320663 -179.33977289476024 0 0 0 0 6.6577606372573968 1.6895732992865184 0 1.6895732992865184 -1.4347101324149865 0 0 0 0 531.39883734446403 529.97228690685722 0 529.97228690685722 449.18392404175802 0 0 0 0 177.12347030446836 -71.824557254231763 0 -71.824557254231763 -267.6673623699603 0 0 0 0 666.72094327068044 171.8033943996731 0 171.8033943996731 -2.2611334358271051 0 0 0 0 313.19033538660005 172.13326715956356 0 172.13326715956356 93.965053145060949 0 0 0 0 247.36365526196823 241.8485645938415 0 241.8485645938415 213.5782879337421 0 0 0 0 426.62833948107436 256.63358885384173 0 256.63358885384173 87.754640132502118 0 0 0 0 297.9821596828333 202.88389401056247 0 202.88389401056247 65.5376303558362 0 0 0 0 325.47808768805407 116.57350700158759 0 116.57350700158759 42.466416840822376 0 0 0 0 1367.1846456413114 826.03149172747419 0 826.03149172747419 172.68831174463412 0 0 0 0 442.64595637707589 144.94177215321452 0 144.94177215321452 7.2846120021941942 0 0 0 0 22.809145509679304 -20.2798600626809 0 -20.2798600626809 6.3713925903284085 0 0 0 0 1327.1843194780959 1004.7758564167725 0 1004.7758564167725 9.7914168314946437 0 0 0 0 1199.5289709985664 -214.70345790320243 0 -214.70345790320243 91.190424828357209 0 0 0 0 1917.8295082105615 533.44586483902458 0 533.44586483902458 -221.96098585233085 0 0 0 0 2506.7753530702466 378.08018424165766 0 378.08018424165766 -340.81797871945673 0 0 0 0 3769.0627705078459 -599.00047705932434 0 -599.00047705932434 -37.652361950375052 0 0 0 0 1917.6721456807572 -262.25759444067444 0 -262.25759444067444 30.575129351573196 0 0 0 0 4.8556021156586553 10.407400500209221 0 10.407400500209221 1.6866910522695928 0 0 0 0 2156.5095955156703 1821.4652391117515 0 1821.4652391117515 -213.0864078847153 0 0 0 0 3485.3568539441476 1875.4937442102869 0 1875.4937442102869 -561.03990488213822 0 0 0 0 232.98975648947089 -34.078401225566211 0 -34.078401225566211 91.476626832821637 0 0 0 0 2849.3971127136101 263.37518462557637 0 263.37518462557637 1264.3136416821762 0 0 0 0 2321.5445489990889 1288.2082345629017 0 1288.2082345629017 229.94935294926518 0 0 0 0 18.708178002223896 -14.782372242971384 0 -14.782372242971384 3.2055154841277465 0 0 0 0 5.9606851854256533 2.271974963255289 0 2.271974963255289 -9.6513292043858669 0 0 0 0 431.05352131465042 313.37333563040602 0 313.37333563040602 799.64961868926639 0 0 0 0 -143.22351613936917 52.747507707249042 0 52.747507707249042 1.6660686809193521 0 0 0 0 770.79483426662046 1277.6784779023806 0 1277.6784779023806 1065.3160193721887 0 0 0 0 12.472695840368189 13.78527233398114 0 13.78527233398114 5.3949458813206981 0 0 0 0 18.099897549571324 31.48274293148495 0 31.48274293148495 -13.213388411777032 0 0 0 0 -6.1325225634136586 70.374504704323954 0 70.374504704323954 -64.700704699472681 0 0 0 0 -6.7718587611670955 46.374062215322738 0 46.374062215322738 -26.385743818345418 0 0 0 0 48.388724030477533 31.701104907264494 0 31.701104907264494 -41.190195061532904 0 0 0 0 31.605912227751105 -6.6050103225043131 0 -6.6050103225043131 -74.02072763509068 0 0 0 0 8.0233268305173553 0.90693899426224789 0 0.90693899426224789 -15.947856392738698 0 0 0 0 170.77670599291014 -28.982287486921223 0 -28.982287486921223 -76.688983468392507 0 0 0 0 152.88153346097988 106.89414752383124 0 106.89414752383124 -79.89843606522777 0 0 0 0 -28.383624073670944 166.25107083625255 0 166.25107083625255 -35.621818328545544 0 0 0 0 261.11885688048733 23.401300383507582 0 23.401300383507582 -11.483668939897143 0 0 0 0 280.57319816351446 210.54292987175089 0 210.54292987175089 180.18695992032659 0 0 0 0 116.36613564647269 134.46211400068339 0 134.46211400068339 -8.8010867946443341 0 0 0 0 71.855463175646037 -10.246903329703461 0 -10.246903329703461 25.08865289738128 0 0 0 0 -80.714009746214288 -120.34169375944418 0 -120.34169375944418 -53.48683648920246 0 0 0 0 4.9327039862425366 -5.6068005505107834 0 -5.6068005505107834 -7.029590112651654 0 0 0 0 112.51116230756452 -49.881092898549014 0 -49.881092898549014 68.04379842339813 0 0 0 0 194.64608364725791 98.790222664469638 0 98.790222664469638 23.385184902572291 0 0 0 0 320.07722318637752 -33.394050849132327 0 -33.394050849132327 9.9750087763926558 0 0 0 0 5.7449723775771133 -6.7393435487172013 0 -6.7393435487172013 0.05232356010080963 0 0 0 0 377.62201490926236 339.38473749018681 0 339.38473749018681 22.100532418424223 0 0 0 0 322.95467446644034 -145.98030802341123 0 -145.98030802341123 -145.55496188045072 0 0 0 0 468.32549926588763 177.6424640827081 0 177.6424640827081 -28.39250253358432 0 0 0 0 442.69432024283014 192.98159951252137 0 192.98159951252137 236.12771288583417 0 0 0 0 1075.5161525038193 84.058156626039136 0 84.058156626039136 -1.3291580376308048 0 0 0 0 895.71330775030219 401.80683382203779 0 401.80683382203779 -42.865367989715651 0 0 0 0 608.56966223179188 127.96552862379031 0 127.96552862379031 41.080497578944232 0 0 0 0 937.55856999703974 387.48569869780567 0 387.48569869780567 -56.705189205083116 0 0 0 0 -411.62574528059668 -315.85677440804807 0 -315.85677440804807 371.76019551769605 0 0 0 0 634.26273335081351 132.11911469191864 0 132.11911469191864 -72.6187819199898 0 0 0 0 -99.442113438461092 -216.67058908673266 0 -216.67058908673266 -93.565241569511727 0 0 0 0 731.02708210995479 -408.05851507920306 0 -408.05851507920306 379.03020158577715 0 0 0 0 643.85874967958989 -82.120057283504252 0 -82.120057283504252 400.58192175517615 0 0 0 0 375.45042826912868 -375.50734981755136 0 -375.50734981755136 629.40094390577178 0 0 0 0 1339.2487649501563 149.95460063750943 0 149.95460063750943 40.948096230500369 0 0 0 0 922.19123459727052 409.3954420312748 0 409.3954420312748 207.99636039338839 0 0 0 0 565.19969059391588 542.0402454906407 0 542.0402454906407 498.4625448430221 0 0 0 0 366.44150177434494 235.8992963546375 0 235.8992963546375 172.87907434360932 0 0 0 0 432.93796144976295 338.01759683199862 0 338.01759683199862 226.94325395648502 0 0 0 0 950.70001271455476 406.80519328203854 0 406.80519328203854 70.938675984027213 0 0 0 0 839.7990159064866 418.66796894673189 0 418.66796894673189 74.742119680515771 0 0 0 0 700.15275225829282 253.45335020713924 0 253.45335020713924 -60.973442149370385 0 0 0 0 536.37623096509924 159.41290182828425 0 159.41290182828425 -128.37050092301354 0 0 0 0 906.62934121989565 351.04701225333707 0 351.04701225333707 -71.292612954213837 0 0 0 0 175.0888529908334 105.83859087210612 0 105.83859087210612 -70.276905917486147 0 0 0 0 449.93990809961906 270.35855574924199 0 270.35855574924199 -0.48636407731100917 0 0 0 0 553.00857779260741 273.91147587976201 0 273.91147587976201 -143.09693838172461 0 0 0 0 245.07648353204422 130.2698164373387 0 130.2698164373387 16.385934744904716 0 0 0 0 159.94772259516139 201.74286447983377 0 201.74286447983377 77.021519519980757 0 0 0 0 130.42691800999819 89.547727713415725 0 89.547727713415725 40.430870849095299 0 0 0 0 175.24784336716039 185.22505641007047 0 185.22505641007047 232.43163511464991 0 0 0 0 377.43643942044582 195.36417465415343 0 195.36417465415343 39.520891424398542 0 0 0 0 163.99270912826978 105.01283036009318 0 105.01283036009318 194.83767207417259 0 0 0 0 236.70379501041316 226.48076547984419 0 226.48076547984419 349.93310965180899 0 0 0 0 70.790657463123352 88.04735160440714 0 88.04735160440714 214.36956840970379 0 0 0 0 69.380048254293797 99.121393137038467 0 99.121393137038467 285.71206754129162 0 0 0 0 -23.359578812380732 241.16307327302434 0 241.16307327302434 159.778410475501 0 0 0 0 -63.758125252930768 74.698276605353385 0 74.698276605353385 216.992419389102 0 0 0 0 0.065503995794984782 -1.3418578838816657 0 -1.3418578838816657 -1.2099286326658358 0 0 0 0 -512.25534546979907 69.908460056947206 0 69.908460056947206 168.15167465152535 0 0 0 0 464.58110268602468 279.5949556409405 0 279.5949556409405 237.49108612529017 0 0 0 0 200.62389018616523 195.07229724335957 0 195.07229724335957 169.25876244433675 0 0 0 0 104.14210615630509 299.3329847332584 0 299.3329847332584 149.64171276157322 0 0 0 0 602.89403317891993 631.61956862167244 0 631.61956862167244 344.41875646847984 0 0 0 0 532.74509623082849 195.30381530304112 0 195.30381530304112 341.72012299431941 0 0 0 0 213.29846617189469 1.7511538491685315 0 1.7511538491685315 -29.865852284667199 0 0 0 0 156.66569386656192 -55.829106641249837 0 -55.829106641249837 -6.9001192139457999 0 0 0 0 565.73253063763514 336.34330751066659 0 336.34330751066659 868.91445542386282 0 0 0 0 94.362281582419513 -50.076112599475131 0 -50.076112599475131 -15.918579089250954 0 0 0 0 803.4649400318558 179.73254963713134 0 179.73254963713134 92.162168439957895 0 0 0 0 665.08944306044805 346.56647177799186 0 346.56647177799186 506.56158135144506 0 0 0 0 3.3963996000336216 -2.6774757273461844 0 -2.6774757273461844 1.9526045032051513 0 0 0 0 860.05595914831429 333.71793038960823 0 333.71793038960823 231.42524366205544 0 0 0 0 766.50927548668187 651.96602538756906 0 651.96602538756906 564.89009912172605 0 0 0 0 -17.906113355495762 -15.837781783434977 0 -15.837781783434977 8.6652641791628717 0 0 0 0 672.25946781896914 229.10463813803 0 229.10463813803 186.75145107356002 0 0 0 0 545.42777276396009 333.27801350669233 0 333.27801350669233 111.37309962405834 0 0 0 0 0.73707597803725289 -0.6567410604954631 0 -0.6567410604954631 1.8180362688896601 0 0 0 0 -193.17661908599757 59.997641388488034 0 59.997641388488034 107.72740265982065 0 0 0 0 1416.2633685507499 239.01156798382249 0 239.01156798382249 -322.56881999971392 0 0 0 0 714.69426574215686 486.74549782534905 0 486.74549782534905 123.90691659693402 0 0 0 0 694.91357398050786 154.55110824065287 0 154.55110824065287 70.284945982539284 0 0 0 0 3.7202862812195079 -3.5952485825625828 0 -3.5952485825625828 3.7678664523726972 0 0 0 0 654.60315489771529 46.311732233523799 0 46.311732233523799 177.09858119580167 0 0 0 0 146.38715960523405 59.420481244857001 0 59.420481244857001 -91.401447844649738 0 0 0 0 -0.47430537051494404 0.71472987368198915 0 0.71472987368198915 -4.6361009108719244 0 0 0 0 -261.77122112202778 109.38632447978762 0 109.38632447978762 32.593000004861096 0 0 0 0 162.34665496986872 149.65322531964262 0 149.65322531964262 -51.421292717934193 0 0 0 0 -48.421914715501771 118.53289257915549 0 118.53289257915549 25.860427210838679 0 0 0 0 -15.291760075765524 87.649458068069634 0 87.649458068069634 -79.433192738710204 0 0 0 0 -2.0201913351411349 53.0384293766665 0 53.0384293766665 -13.9710938369426 0 0 0 0 -53.578993488963533 153.91019017804172 0 153.91019017804172 -69.901077412143422 0 0 0 0 115.83795887209817 20.858754331373461 0 20.858754331373461 -20.05832874324642 0 0 0 0 115.96034023889223 15.602353307926741 0 15.602353307926741 -9.5150474242205707 0 0 0 0 216.26893524791194 52.564237617489198 0 52.564237617489198 -59.866379541666902 0 0 0 0 93.951090469037808 35.494176835809867 0 35.494176835809867 -0.6450412541271362 0 0 0 0 360.85863088126644 -93.812507081891454 0 -93.812507081891454 16.433366811925225 0 0 0 0 222.71995291374333 54.584632130404771 0 54.584632130404771 -9.0171491722844621 0 0 0 0 42.851710124549868 38.983376321013694 0 38.983376321013694 -0.46926545069771919 0 0 0 0 80.975390464159034 81.387101688847622 0 81.387101688847622 24.765101486039669 0 0 0 0 25.576007194738139 36.403480262708797 0 36.403480262708797 -5.1095957551256426 0 0 0 0 244.26771558913606 64.572579619271892 0 64.572579619271892 7.4607020254079544 0 0 0 0 212.23991921302513 12.44532485216132 0 12.44532485216132 11.339343724350329 0 0 0 0 308.35330633609556 -31.653463990835917 0 -31.653463990835917 29.978817487723063 0 0 0 0 431.50117907408276 141.99540952973894 0 141.99540952973894 26.016993851735606 0 0 0 0 361.2348674543889 85.528477046108833 0 85.528477046108833 0.7410737798873015 0 0 0 0 253.03392125532264 51.263634072788591 0 51.263634072788591 129.430451033395 0 0 0 0 286.25866850645252 43.057779974416917 0 43.057779974416917 11.480263194604049 0 0 0 0 232.93178441708733 -9.7337645739994514 0 -9.7337645739994514 -4.4374598880185658 0 0 0 0 204.86323980332236 2.3586062875456264 0 2.3586062875456264 18.929930802085892 0 0 0 0 183.17573179563624 -64.309842312869478 0 -64.309842312869478 -28.12627919465649 0 0 0 0 27.085274811860931 4.4759933419424911 0 4.4759933419424911 -2.4486343433914399 0 0 0 0 329.60374987354589 37.993338108995886 0 37.993338108995886 -147.34673140415362 0 0 0 0 134.67959558292867 -40.681226754175285 0 -40.681226754175285 -9.6201345841010273 0 0 0 0 109.87244737350557 194.73947459071587 0 194.73947459071587 461.05868692374861 0 0 0 0 564.05064358493109 96.495921990583156 0 96.495921990583156 244.02531158844749 0 0 0 0 510.13709167996967 215.87978077489515 0 215.87978077489515 90.157535988129894 0 0 0 0 476.37148192708992 178.8551944277865 0 178.8551944277865 168.02981320804338 0 0 0 0 433.39623502456561 231.26183463253301 0 231.26183463253301 126.97879835484855 0 0 0 0 561.36303805047532 251.7389389575219 0 251.7389389575219 113.38094453705708 0 0 0 0 26.63991266663583 -4.2014657165617777 0 -4.2014657165617777 0.81333091001092228 0 0 0 0 51.425120027121011 47.066297065305889 0 47.066297065305889 36.289875368087451 0 0 0 0 508.46826745281396 114.85369439871511 0 114.85369439871511 69.020529588862701 0 0 0 0 267.83716409673798 7.6992234297267714 0 7.6992234297267714 -30.168909106057981 0 0 0 0 170.79869878983828 -24.210317251689215 0 -24.210317251689215 -8.9616050552354167 0 0 0 0 252.006892666574 -132.80045256195422 0 -132.80045256195422 -80.967920694778513 0 0 0 0 149.69654547367281 125.05192827293195 0 125.05192827293195 65.898718955643744 0 0 0 0 136.0865499964375 101.74395274388462 0 101.74395274388462 50.871568219828987 0 0 0 0 143.316929065164 102.89753710079185 0 102.89753710079185 -41.299425604395765 0 0 0 0 27.695839344522213 11.022119966325876 0 11.022119966325876 0.39966519600341499 0 0 0 0 110.25470269756079 -0.20540389323605268 0 -0.20540389323605268 -105.27167811465915 0 0 0 0 131.99195224302457 -175.89781331605172 0 -175.89781331605172 48.098899992090082 0 0 0 0 5.1933806880111781 -1.0387834237806999 0 -1.0387834237806999 -0.96294567702500267 0 0 0 0 517.29737009740893 507.78873418342482 0 507.78873418342482 352.8387202790982 0 0 0 0 440.09574962481111 98.601757501797692 0 98.601757501797692 -42.531000434668385 0 0 0 0 82.847752155166745 10.706226834206973 0 10.706226834206973 -33.114758786790844 0 0 0 0 150.04550187383393 133.44924530702065 0 133.44924530702065 206.08723798607525 0 0 0 0 215.24098479966415 106.9651901528423 0 106.9651901528423 89.064616984775796 0 0 0 0 197.4076066704547 94.323024609323511 0 94.323024609323511 98.192255094537359 0 0 0 0 216.66312608630142 88.773704357112365 0 88.773704357112365 22.271909845792379 0 0 0 0 225.91535801456121 -20.37181422454978 0 -20.37181422454978 -209.05503341501299 0 0 0 0 216.08161339988033 25.566010086608799 0 25.566010086608799 73.956880741923669 0 0 0 0 528.81665955015956 -299.79109019140202 0 -299.79109019140202 -77.126503437584688 0 0 0 0 -14.368688917790678 -34.132496913281102 0 -34.132496913281102 59.893117173694009 0 0 0 0 212.56645121182191 50.780094326706148 0 50.780094326706148 45.366994265452831 0 0 0 0 183.15640494524905 124.64149686285026 0 124.64149686285026 121.9450882378178 0 0 0 0 326.05262681774548 137.39869126361305 0 137.39869126361305 94.692341720792342 0 0 0 0 206.54629767731603 110.45535345119572 0 110.45535345119572 134.26662917337637 0 0 0 0 391.88309733411552 63.075826824302226 0 63.075826824302226 137.43994680394053 0 0 0 0 74.615332520362244 140.84494631516191 0 140.84494631516191 122.22423597227134 0 0 0 0 426.7730161306572 173.12215609646501 0 173.12215609646501 74.189211127299131 0 0 0 0 445.34705780704189 138.13849230468725 0 138.13849230468725 61.700663176524358 0 0 0 0 548.40105431514894 132.93818344274575 0 132.93818344274575 35.967958626018458 0 0 0 0 2.8417677201992539 -2.4932208702833591 0 -2.4932208702833591 0.30846850544578786 0 0 0 0 488.24110702422149 160.67070016325249 0 160.67070016325249 38.729483629968854 0 0 0 0 427.12934843104449 120.22199065784014 0 120.22199065784014 129.70319869854666 0 0 0 0 496.73817826917639 36.397670361804671 0 36.397670361804671 -27.054659602450329 0 0 0 0 414.69486911981039 28.131679628386905 0 28.131679628386905 108.33933751783411 0 0 0 0 439.7640860416177 56.006271216305549 0 56.006271216305549 -30.019160088154877 0 0 0 0 273.0079595006855 33.827646583357819 0 33.827646583357819 20.129499089282263 0 0 0 0 306.86562247872826 131.82444760467683 0 131.82444760467683 143.76733513007321 0 0 0 0 465.5881992579275 126.21639017315348 0 126.21639017315348 62.58575553973958 0 0 0 0 307.79338611588946 128.24210043645147 0 128.24210043645147 104.42295409151995 0 0 0 0 254.77435861566482 90.899164208469529 0 90.899164208469529 106.02611496325335 0 0 0 0 206.83809889787699 95.26979333716929 0 95.26979333716929 110.36266050158906 0 0 0 0 173.09334052319628 136.06597528314961 0 136.06597528314961 115.48442227448834 0 0 0 0 195.76330529140887 123.02166057099097 0 123.02166057099097 121.36313837812475 0 0 0 0 -7.2988731836230727 45.76807445495956 0 45.76807445495956 -83.458016052574976 0 0 0 0 2.5921133451706702 2.3392563280995162 0 2.3392563280995162 -8.5630723868786749 0 0 0 0 -19.354732024508849 48.546969560755997 0 48.546969560755997 -62.403664022692965 0 0 0 0 15.598839043292273 0.89611124346654236 0 0.89611124346654236 -3.5238018207355193 0 0 0 0 -9.1033491815833258 60.470448556386145 0 60.470448556386145 -73.302815838813558 0 0 0 0 23.454514957589709 101.33234471055357 0 101.33234471055357 -40.321269569814831 0 0 0 0 -46.53122081165202 86.854911385378728 0 86.854911385378728 -30.883581570134083 0 0 0 0 -42.244683707951481 55.113986017791063 0 55.113986017791063 -29.26684135439973 0 0 0 0 -19.448401361551078 58.318001414725359 0 58.318001414725359 -28.839374856169343 0 0 0 0 -73.750147595736053 5.8356876353534517 0 5.8356876353534517 64.960950795966255 0 0 0 0 0.81994366439534971 2.2990233027802276 0 2.2990233027802276 4.897606159292593 0 0 0 0 617.73616193458747 118.50605552954738 0 118.50605552954738 36.797996615883676 0 0 0 0 582.22408869241372 64.914093219114193 0 64.914093219114193 -42.276983994410784 0 0 0 0 481.49417443908169 163.11657443834565 0 163.11657443834565 71.92045590043557 0 0 0 0 337.00961456415098 21.673829741175268 0 21.673829741175268 8.5133882300274308 0 0 0 0 446.83325977605637 80.009802400957483 0 80.009802400957483 4.6721734364175518 0 0 0 0 1.7952380833782655 4.2901789924775287 0 4.2901789924775287 7.0094226011859408 0 0 0 0 4.9243847953621298 10.781402140845898 0 10.781402140845898 11.331085281637343 0 0 0 0 241.53948582438716 72.426612378669603 0 72.426612378669603 72.619094226299922 0 0 0 0 57.375197049450435 42.851763409666034 0 42.851763409666034 -26.149714479131603 0 0 0 0 13.365692468630215 7.6998176552268323 0 7.6998176552268323 -6.2881785749798933 0 0 0 0 10.967927495468757 4.6845223696972198 0 4.6845223696972198 5.277000248724562 0 0 0 0 282.46636905284322 -104.42952374493052 0 -104.42952374493052 -32.657291489681484 0 0 0 0 364.4499797543649 102.71619106396307 0 102.71619106396307 -9.7789531333770299 0 0 0 0 3.1578386510591088 3.5843027700931351 0 3.5843027700931351 -0.94316167283898356 0 0 0 0 370.85837429956155 45.817809064873018 0 45.817809064873018 84.848210039942288 0 0 0 0 416.83652632676967 35.5387246794823 0 35.5387246794823 23.839742998302 0 0 0 0 438.45045594882686 33.17573887888193 0 33.17573887888193 -95.735566892138195 0 0 0 0 308.05238199359883 88.954143197260237 0 88.954143197260237 -1.6230079867270888 0 0 0 0 64.749353723739659 61.758080548844333 0 61.758080548844333 41.321902075754224 0 0 0 0 73.834553551376302 49.941583290139079 0 49.941583290139079 -4.2994166107246201 0 0 0 0 1.7216911623576783 -0.73922963031676403 0 -0.73922963031676403 -1.3271244005007383 0 0 0 0 216.22756123649742 127.2227150227078 0 127.2227150227078 42.909406577155551 0 0 0 0 328.1999770404218 224.31581443498635 0 224.31581443498635 57.762667670146925 0 0 0 0 241.861566453048 153.80741518975992 0 153.80741518975992 69.797234630522325 0 0 0 0 4.0545826952150268 -1.593663504940686 0 -1.593663504940686 -0.36528005440090477 0 0 0 0 169.04195317090489 126.07547637154551 0 126.07547637154551 98.503950023686457 0 0 0 0 181.00535365819087 140.86963024294673 0 140.86963024294673 113.60420614969576 0 0 0 0 204.8236783816119 154.85250909982301 0 154.85250909982301 115.43361330353491 0 0 0 0 211.60705990084534 149.50302166616478 0 149.50302166616478 113.71146583519544 0 0 0 0 299.9896964974032 216.87067832894741 0 216.87067832894741 104.38933610184699 0 0 0 0 245.83718136700554 197.42315870730226 0 197.42315870730226 140.81869384489687 0 0 0 0 254.69938834147251 212.0574102916645 0 212.0574102916645 107.14486943994552 0 0 0 0 276.15221392591047 197.06651175004617 0 197.06651175004617 117.56965566692179 0 0 0 0 242.979705312031 185.92144784756306 0 185.92144784756306 114.20135920503435 0 0 0 0 248.09524874864292 175.40117773693919 0 175.40117773693919 126.77353718286275 0 0 0 0 321.26701337380837 293.96060469261101 0 293.96060469261101 157.88387084891747 0 0 0 0 229.64541083774566 203.62071675255345 0 203.62071675255345 133.8249728675346 0 0 0 0 258.75217275885825 223.51537762770295 0 223.51537762770295 137.79223543945136 0 0 0 0 261.34475179411311 40.458155629904013 0 40.458155629904013 4.5774146977782948 0 0 0 0 268.58480849734769 -2.6916896593688762 0 -2.6916896593688762 -104.10952658728775 0 0 0 0 -0.20798426794729696 -2.1391030758445311 0 -2.1391030758445311 0.25311852187931905 0 0 0 0 570.70274355509173 192.49922822080362 0 192.49922822080362 22.54230274740803 0 0 0 0 -123.26348345712904 117.00182365716364 0 117.00182365716364 91.197980834213013 0 0 0 0 277.82314047996852 72.000471443131119 0 72.000471443131119 -66.762388162385832 0 0 0 0 489.34030372478082 90.885884456141866 0 90.885884456141866 -115.27366108309957 0 0 0 0 603.89078874496408 44.251907693000248 0 44.251907693000248 -96.951576922518598 0 0 0 0 309.10051924471736 276.26360744453405 0 276.26360744453405 58.75289628797691 0 0 0 0 356.88758015379426 215.53901721014699 0 215.53901721014699 99.143007545673754 0 0 0 0 1017.6026029578443 529.09271737331892 0 529.09271737331892 213.60589720514417 0 0 0 0 11.268643924886035 6.2502315133934516 0 6.2502315133934516 4.6149154583891736 0 0 0 0 122.43992421477378 380.24871482485469 0 380.24871482485469 724.39369829427051 0 0 0 0 55.395505342952674 3.3047476234032729 0 3.3047476234032729 137.12276582021059 0 0 0 0 54.90671430205839 -7.6056120478615412 0 -7.6056120478615412 66.412576275869455 0 0 0 0 126.99245376866565 87.957329563039366 0 87.957329563039366 117.80229316174064 0 0 0 0 166.27250095211821 120.95731955969495 0 120.95731955969495 65.834374044012293 0 0 0 0 83.485532739367045 194.44631416585617 0 194.44631416585617 357.48114082994107 0 0 0 0 312.72433958053261 311.86589353597992 0 311.86589353597992 174.63640167077756 0 0 0 0 61.191428175065084 142.11025905616407 0 142.11025905616407 58.183235954522388 0 0 0 0 -25.632619064579558 72.061325750607466 0 72.061325750607466 124.39386852067457 0 0 0 0 144.74088494870966 55.164651025520243 0 55.164651025520243 125.73764022129217 0 0 0 0 194.32728534108219 -107.32937171020399 0 -107.32937171020399 77.752045719979833 0 0 0 0 255.17232482760301 -31.363603629437307 0 -31.363603629437307 20.766974895487692 0 0 0 0 518.32594401784809 -170.26129141652791 0 -170.26129141652791 42.580404402866407 0 0 0 0 423.95238550680187 -18.417421218509389 0 -18.417421218509389 15.352690391191572 0 0 0 0 430.85323476625854 5.26574949690621 0 5.26574949690621 -76.955205858892896 0 0 0 0 471.45777644191116 -26.7118875409802 0 -26.7118875409802 -53.336706135887653 0 0 0 0 527.06556225130407 -29.811489692365285 0 -29.811489692365285 21.373455440403632 0 0 0 0 567.14890356611295 -54.065410744397013 0 -54.065410744397013 -51.794890806092553 0 0 0 0 1087.9343822430915 -275.39980874886521 0 -275.39980874886521 96.173304500845916 0 0 0 0 317.84328158230892 -120.17118361691246 0 -120.17118361691246 1053.2015408532006 0 0 0 0 301.52996694808826 135.96448963918101 0 135.96448963918101 56.192106701843841 0 0 0 0 143.57900699283164 -112.84876099533449 0 -112.84876099533449 314.3189694719922 0 0 0 0 -461.05501018718087 308.15940192141602 0 308.15940192141602 -113.32509316717187 0 0 0 0 81.675631719575222 96.619986056323 0 96.619986056323 14.02044493723497 0 0 0 0 -62.872948671912127 403.48532814868759 0 403.48532814868759 -168.99554689139677 0 0 0 0 -122.37840181600859 30.423108541794136 0 30.423108541794136 68.422880011077723 0 0 0 0 -116.61165427440847 290.67335694166513 0 290.67335694166513 -281.6759549266817 0 0 0 0 367.42684256398957 -33.403251989019282 0 -33.403251989019282 -13.454582843150092 0 0 0 0 -376.49690132041815 750.98287524561056 0 750.98287524561056 -526.11574911983485 0 0 0 0 40.02135703850184 23.970619623421918 0 23.970619623421918 6.684800913126054 0 0 0 0 -154.51861948764326 221.78062942182487 0 221.78062942182487 -476.45628020555341 0 0 0 0 40.056240685497869 326.53508851840979 0 326.53508851840979 -624.73946025715486 0 0 0 0 69.005151239836778 407.5453395018194 0 407.5453395018194 -429.16004247981346 0 0 0 0 562.22950541614773 586.68543905733259 0 586.68543905733259 -364.40025767591214 0 0 0 0 -23.91757132868895 150.44280519600034 0 150.44280519600034 254.60541748073774 0 0 0 0 493.67679219130775 57.191938712022306 0 57.191938712022306 -428.11052130207463 0 0 0 0 1320.3780131296844 643.55743099064284 0 643.55743099064284 -12.532147859196812 0 0 0 0 224.20906485596242 214.99283325086662 0 214.99283325086662 -465.4847421351933 0 0 0 0 410.48006550625541 180.0263743854448 0 180.0263743854448 -780.77978969276774 0 0 0 0 -13.417973821812666 99.710993827768107 0 99.710993827768107 -740.29880861942002 0 0 0 0 16.410155662770649 -150.60110705953593 0 -150.60110705953593 128.65573548663269 0 0 0 0 62.322017888099573 2.2771192620424721 0 2.2771192620424721 -6.5012189778668059 0 0 0 0 255.93496571567448 132.56041819086386 0 132.56041819086386 -220.61150729660039 0 0 0 0 -39.101933073369764 -239.79100597303159 0 -239.79100597303159 -347.93148908878356 0 0 0 0 284.47573895851565 -22.764589226573662 0 -22.764589226573662 -590.3066547109338 0 0 0 0 -44.274265207194503 397.40970951391853 0 397.40970951391853 -609.74925282933509 0 0 0 0 25.795502637034588 170.60342156102615 0 170.60342156102615 -619.22306963336405 0 0 0 0 48.043851669673721 26.07415113519783 0 26.07415113519783 6.8036781762964544 0 0 0 0 73.05896950459919 61.498770055318346 0 61.498770055318346 6.5282622947124764 0 0 0 0 3.5368304411044633 12.417270088847669 0 12.417270088847669 1.3764914636102503 0 0 0 0 473.56224394172023 -110.9189509570715 0 -110.9189509570715 -134.99721444544957 0 0 0 0 88.961151927300307 95.18036210889818 0 95.18036210889818 -12.727368551464679 0 0 0 0 437.6369425618841 -117.42519599463412 0 -117.42519599463412 -16.10849284068172 0 0 0 0 533.39593398040961 -392.93385780643621 0 -392.93385780643621 -907.43355864666728 0 0 0 0 -231.324293215137 -378.22516825128332 0 -378.22516825128332 -896.75315436475648 0 0 0 0 1242.6713407959178 295.51106010487365 0 295.51106010487365 -590.95629135129275 0 0 0 0 1028.2212214982392 1456.953761287723 0 1456.953761287723 -146.63713068143329 0 0 0 0 1178.5969341808268 -262.7269215018614 0 -262.7269215018614 42.533641267387793 0 0 0 0 12.251744132634173 0.12400785529302283 0 0.12400785529302283 -2.9779495019222715 0 0 0 0 608.52720603608759 1567.6910761305139 0 1567.6910761305139 -363.56354027491943 0 0 0 0 -241.11290162721707 1056.6105894643015 0 1056.6105894643015 -205.82581295161594 0 0 0 0 208.08067636840678 -248.79327614175099 0 -248.79327614175099 111.94819777276825 0 0 0 0 22.623111557111798 -9.3738541127788508 0 -9.3738541127788508 -14.87131437524684 0 0 0 0 256.37520008678348 -374.26324893249966 0 -374.26324893249966 -1194.2442901035283 0 0 0 0 35.112292268994622 18.05847575577744 0 18.05847575577744 4.931805909647732 0 0 0 0 107.84619076406034 75.849054866353526 0 75.849054866353526 -6.7321175714441779 0 0 0 0 252.64133432068411 -59.36852417164755 0 -59.36852417164755 -422.64011223624857 0 0 0 0 747.41347476689043 -628.1980708382489 0 -628.1980708382489 162.69636974295736 0 0 0 0 468.79797786707422 154.20402839600365 0 154.20402839600365 -978.90252129256896 0 0 0 0 187.92007523500615 -321.6506268000112 0 -321.6506268000112 -919.85179609667284 0 0 0 0 -35.724496540666223 -450.60220698967169 0 -450.60220698967169 -682.59239586422109 0 0 0 0 287.51310812459815 -629.22080646269387 0 -629.22080646269387 -1101.6829760289856 0 0 0 0 19.595995477614121 1.1991288918575638 0 1.1991288918575638 -1.613096631688725 0 0 0 0 48.727989163674209 0.65350376679321442 0 0.65350376679321442 -4.3781668975297396 0 0 0 0 386.22983628652855 -132.99317994886042 0 -132.99317994886042 -1273.209225773312 0 0 0 0 438.84577439237455 399.23986013940157 0 399.23986013940157 128.21204816297859 0 0 0 0 662.4527607401634 269.3321956117743 0 269.3321956117743 174.83536708306019 0 0 0 0 691.58353356372027 1140.7126464259773 0 1140.7126464259773 1320.3064947953694 0 0 0 0 426.2576540271362 714.08828308804596 0 714.08828308804596 635.78680050099865 0 0 0 0 1367.709342110049 900.27210078902317 0 900.27210078902317 376.55832747693239 0 0 0 0 1148.3958941283972 236.05258478491487 0 236.05258478491487 415.01510058438907 0 0 0 0 557.62128912842127 1018.7628275382931 0 1018.7628275382931 1121.7235643748263 0 0 0 0 615.84475351835499 451.90842787410747 0 451.90842787410747 466.21328613405967 0 0 0 0 626.6249204701744 133.54309763679157 0 133.54309763679157 38.667121913269511 0 0 0 0 -104.64344957236244 -53.592319710975971 0 -53.592319710975971 91.211324242312912 0 0 0 0 -288.52058167178257 -21.711098148806741 0 -21.711098148806741 148.34348622169182 0 0 0 0 1.5005686774729572 -2.2612194401558057 0 -2.2612194401558057 -2.805693770890251 0 0 0 0 -109.11568332861498 55.768792310918798 0 55.768792310918798 -40.515394876971186 0 0 0 0 1383.7307448267784 347.10403269395647 0 347.10403269395647 -146.97146350981893 0 0 0 0 440.99751742554781 133.89028043937765 0 133.89028043937765 199.24072796806104 0 0 0 0 841.56605855543785 945.83378213952346 0 945.83378213952346 -384.50717409424215 0 0 0 0 196.85555210302482 61.063504102499792 0 61.063504102499792 102.4122535976785 0 0 0 0 538.92232797761972 -9.9809528466448683 0 -9.9809528466448683 -7.8556069989826938 0 0 0 0 538.22373264284033 -95.657161793393243 0 -95.657161793393243 -26.211854130775464 0 0 0 0 250.38121586187481 103.24562885416526 0 103.24562885416526 228.68742986187317 0 0 0 0 409.2873118865391 -115.45945221190777 0 -115.45945221190777 205.79564391012457 0 0 0 0 106.71991797315059 88.322126311013562 0 88.322126311013562 122.55839924968222 0 0 0 0 43.16672857571757 5.6910258287161923 0 5.6910258287161923 173.17013265388869 0 0 0 0 -32.667381170718727 90.068371738191672 0 90.068371738191672 105.93039074986336 0 0 0 0 155.37151151628677 -2.1429064361741439 0 -2.1429064361741439 106.79735296368199 0 0 0 0 -52.89431100092952 -43.6788238814338 0 -43.6788238814338 116.51026893558083 0 0 0 0 54.007525611650635 76.209158016539732 0 76.209158016539732 148.14074709395254 0 0 0 0 502.15458753752318 173.99106837064528 0 173.99106837064528 140.82709212024747 0 0 0 0 678.17726329934158 -56.111371414812766 0 -56.111371414812766 -23.530445851512923 0 0 0 0 198.07653492820464 -280.86397885337874 0 -280.86397885337874 75.017869766919375 0 0 0 0 90.978940843684541 34.298488366930087 0 34.298488366930087 323.37648160992876 0 0 0 0 -94.551151511197531 -58.250375333680722 0 -58.250375333680722 26.724184476633582 0 0 0 0 37.258252514664491 -142.9079480200171 0 -142.9079480200171 49.647316017118328 0 0 0 0 3.8788932373499847 -59.032419825948182 0 -59.032419825948182 -147.61055835220577 0 0 0 0 78.426554236631546 -40.46165867172698 0 -40.46165867172698 -131.94398093133987 0 0 0 0 45.432622861862001 -127.34153620879806 0 -127.34153620879806 -84.050329816407611 0 0 0 0 0.26052164517750498 -84.372622809511768 0 -84.372622809511768 -156.5775153945815 0 0 0 0 1706.7053108579585 391.84961566122411 0 391.84961566122411 -224.85745598773792 0 0 0 0 1125.344136035721 939.65624956651573 0 939.65624956651573 712.39197045362107 0 0 0 0 2.2233030981070936 -1.8325342122676993 0 -1.8325342122676993 -11.75140847348116 0 0 0 0 -186.77065665587361 -174.93516819628167 0 -174.93516819628167 15.248340001152542 0 0 0 0 754.92892219496844 337.49879421916557 0 337.49879421916557 166.08233767000092 0 0 0 0 1298.761659890908 494.3265594636282 0 494.3265594636282 84.18503168350253 0 0 0 0 6.3402189243536533 0.28220615122636161 0 0.28220615122636161 -25.424062889553824 0 0 0 0 1194.747749728991 324.61392310534848 0 324.61392310534848 -110.78984698525164 0 0 0 0 1271.3441431926694 273.36976477989901 0 273.36976477989901 -238.98655047476404 0 0 0 0 714.79767958032608 535.82974707373842 0 535.82974707373842 -37.527727804203096 0 0 0 0 1317.7344531434665 543.14375176437352 0 543.14375176437352 -150.85297408452971 0 0 0 0 1119.9604788556207 425.30431686477095 0 425.30431686477095 -193.17037774038818 0 0 0 0 1104.8842487450884 426.83684901052129 0 426.83684901052129 132.08602406623322 0 0 0 0 963.82566360445708 574.95872959070084 0 574.95872959070084 213.98624841221317 0 0 0 0 21.964347375268787 -19.197355134848419 0 -19.197355134848419 -4.6958377992061919 0 0 0 0 513.0343516815883 -62.680998896735218 0 -62.680998896735218 286.09218705669628 0 0 0 0 1369.4821688311931 557.30368956863458 0 557.30368956863458 42.127502164195903 0 0 0 0 1500.4587377749813 489.60132912259905 0 489.60132912259905 -4.2384764917878783 0 0 0 0 1474.7571753602751 367.86293011545786 0 367.86293011545786 -49.429594884322796 0 0 0 0 1768.5713004728459 -35.680997460096478 0 -35.680997460096478 619.68779623479713 0 0 0 0 1879.6834321893475 902.68174208433447 0 902.68174208433447 170.81426901475061 0 0 0 0 1084.1426787943383 953.04415801629511 0 953.04415801629511 644.34110590636556 0 0 0 0 1480.5560184401911 1084.5938577512425 0 1084.5938577512425 585.70576009162323 0 0 0 0 1603.0572624203414 676.09157551146382 0 676.09157551146382 87.08711891425628 0 0 0 0 1198.0201662957552 753.20104708029976 0 753.20104708029976 408.68895719449938 0 0 0 0 0.081789280846621182 7.5344577310775236 0 7.5344577310775236 -4.5974809237919132 0 0 0 0 1411.4464307916496 115.36748292417542 0 115.36748292417542 -197.95818034963759 0 0 0 0 1226.3310028035776 1057.8524663887838 0 1057.8524663887838 640.62458063108716 0 0 0 0 1461.0297484199327 -648.03253800494713 0 -648.03253800494713 389.18946988155949 0 0 0 0 2654.4549625895743 196.69162275082908 0 196.69162275082908 -280.78011836494261 0 0 0 0 -179.8987665753084 -194.03904480834171 0 -194.03904480834171 299.10312506573973 0 0 0 0 835.29012534153298 -465.33604873975855 0 -465.33604873975855 -101.15928469749633 0 0 0 0 22.999196358703912 10.915762765173675 0 10.915762765173675 -32.391135481845339 0 0 0 0 1829.2912949428865 940.91892994001137 0 940.91892994001137 475.86468547112281 0 0 0 0 1536.5465598428927 495.70022364870056 0 495.70022364870056 -205.95697351966737 0 0 0 0 1556.172836266873 214.38993053413338 0 214.38993053413338 -139.2279346807918 0 0 0 0 16.348168694443387 4.5199726985920989 0 4.5199726985920989 -32.313145940460927 0 0 0 0 26.768323696189327 12.124543785257856 0 12.124543785257856 -30.498579001869075 0 0 0 0 60.083037076397886 -0.1829253345813413 0 -0.1829253345813413 -229.28930696509315 0 0 0 0 40.954806899280626 20.844268372085796 0 20.844268372085796 -0.17496705837419402 0 0 0 0 9.8296077933846391 36.208086324872966 0 36.208086324872966 -28.873068637674351 0 0 0 0 21.829404779076867 8.4135125420659165 0 8.4135125420659165 -30.768630942664458 0 0 0 0 -34.973183705253177 -14.940427296030066 0 -14.940427296030066 69.496559346921458 0 0 0 0 -22.745586657023523 -7.9668135046143789 0 -7.9668135046143789 -29.024711459804166 0 0 0 0 22.367897796666512 -3.6475428229430236 0 -3.6475428229430236 -61.775564481553374 0 0 0 0 19.035919451183872 5.5660840827226821 0 5.5660840827226821 -25.319108210228478 0 0 0 0 26.047610482717573 16.878693513128383 0 16.878693513128383 -45.469390968916287 0 0 0 0 23.858904560087467 22.75715025887348 0 22.75715025887348 -16.626214171194079 0 0 0 0 24.159007751077297 39.651441672115652 0 39.651441672115652 -26.854301037440791 0 0 0 0 20.132659989278181 28.299884983623087 0 28.299884983623087 -20.087742784896363 0 0 0 0 -15.56436997318815 39.055021696708081 0 39.055021696708081 -20.944152374278019 0 0 0 0 17.194092263976927 40.689183278458131 0 40.689183278458131 -68.02333111105861 0 0 0 0 72.58573206802248 35.827766745709596 0 35.827766745709596 -38.197309264486194 0 0 0 0 3.7286738690900805 13.577152031632416 0 13.577152031632416 -18.098814503336154 0 0 0 0 63.569531637171167 79.4758916119481 0 79.4758916119481 99.508550666207157 0 0 0 0 63.958815788777429 39.90574591261975 0 39.90574591261975 -37.023383037551866 0 0 0 0 -0.43007776594429004 8.9658030606671311 0 8.9658030606671311 -5.9832443075516331 0 0 0 0 954.34533469505914 573.50694904034663 0 573.50694904034663 392.44787491268653 0 0 0 0 46.098608880492975 41.266900998655728 0 41.266900998655728 -33.783222458758701 0 0 0 0 69.692929355092929 20.5537325524067 0 20.5537325524067 -23.924611323198405 0 0 0 0 38.658675239465083 37.808166567129774 0 37.808166567129774 -22.991542911119723 0 0 0 0 43.597926220696536 24.733788882847875 0 24.733788882847875 11.615952820443454 0 0 0 0 1323.1624100287827 390.37072631551337 0 390.37072631551337 46.798719683665695 0 0 0 0 0.86674220157288318 1.0560597525922049 0 1.0560597525922049 -2.8586917743730922 0 0 0 0 1776.0229324572592 608.00810114374258 0 608.00810114374258 47.913608193985056 0 0 0 0 -7.8229989003527933 13.267177138243021 0 13.267177138243021 -18.472094029955912 0 0 0 0 1502.3279742780433 343.38596774254984 0 343.38596774254984 55.455464745637073 0 0 0 0 66.463917049361044 -23.095678034330149 0 -23.095678034330149 -165.85726968294603 0 0 0 0 61.091927248518914 52.140934276997541 0 52.140934276997541 -14.538278695898953 0 0 0 0 38.988469922740478 52.041349314203671 0 52.041349314203671 6.9555838954646561 0 0 0 0 1602.1900641548928 325.00353552022716 0 325.00353552022716 -24.542713995848317 0 0 0 0 4.0571482973136881 38.217390202398292 0 38.217390202398292 -6.9445380222541644 0 0 0 0 5.7364539015434275 36.540406879601505 0 36.540406879601505 -20.818522078478054 0 0 0 0 24.122950798308011 39.029121570459665 0 39.029121570459665 -11.517047099837328 0 0 0 0 24.034109779160644 36.615471317958736 0 36.615471317958736 -1.6601917972930096 0 0 0 0 40.764565911202226 46.277303653776471 0 46.277303653776471 -14.593446099225275 0 0 0 0 54.926037764824287 28.474818871528669 0 28.474818871528669 -12.445810373899349 0 0 0 0 23.091267337207682 40.610537903040495 0 40.610537903040495 -6.9832266215307754 0 0 0 0 35.196323921350995 44.285186814445296 0 44.285186814445296 -10.103658265938066 0 0 0 0 19.779536952250055 29.777306201651527 0 29.777306201651527 -0.090066104467950936 0 0 0 0 6.0591006965041743 40.95994999169875 0 40.95994999169875 -1.7150411863012778 0 0 0 0 3.5647604987516388 27.404747230825166 0 27.404747230825166 1.1796141809245455 0 0 0 0 799.38655548949464 42.283045223095542 0 42.283045223095542 5.3546989819224109 0 0 0 0 -0.15287275511776954 13.686645486712926 0 13.686645486712926 -17.506525138993013 0 0 0 0 17.652026740797737 30.931946357201838 0 30.931946357201838 -8.6911647926167461 0 0 0 0 15.097079593659146 32.491859467451491 0 32.491859467451491 -0.8052530990902369 0 0 0 0 21.313010255449626 25.32854151013612 0 25.32854151013612 -2.7774181514655538 0 0 0 0 24.911635929805925 32.700840603068627 0 32.700840603068627 -2.516910544496568 0 0 0 0 30.598164572016685 23.19389873872899 0 23.19389873872899 -2.9315720115855584 0 0 0 0 12.416013272199052 26.494234979288777 0 26.494234979288777 -10.429190264715658 0 0 0 0 -204.24338280866505 153.70978779327743 0 153.70978779327743 234.15138987118189 0 0 0 0 1505.567570598032 718.22355184256412 0 718.22355184256412 61.024543187080781 0 0 0 0 1008.2190912665246 674.85783675673565 0 674.85783675673565 -545.95743005273835 0 0 0 0 1161.332637816573 338.8751879466281 0 338.8751879466281 -199.31066155654662 0 0 0 0 1524.5575986972672 857.59839129685747 0 857.59839129685747 99.508549956966817 0 0 0 0 1447.6025837208144 579.71924638811743 0 579.71924638811743 252.86740380534775 0 0 0 0 1485.0760587206196 644.26532915682048 0 644.26532915682048 308.01483792401632 0 0 0 0 276.12760104853078 163.89664257045979 0 163.89664257045979 92.014353814893184 0 0 0 0 350.87005286476415 169.8846082286193 0 169.8846082286193 84.070819350514739 0 0 0 0 239.42229782576396 157.48716804606647 0 157.48716804606647 106.9101457385168 0 0 0 0 24.09671934032184 -20.827348222283373 0 -20.827348222283373 1.3654517623495863 0 0 0 0 1239.3521185886111 242.2441962826606 0 242.2441962826606 17.881320903059532 0 0 0 0 1263.0638590799563 402.78763707447558 0 402.78763707447558 159.82878532539689 0 0 0 0 1461.5554173767523 459.59980973568599 0 459.59980973568599 -24.073428726816019 0 0 0 0 638.12334911093058 -89.582873712585268 0 -89.582873712585268 -91.765342951642964 0 0 0 0 -72.972024699876783 318.5039766623463 0 318.5039766623463 4.1016323421558809 0 0 0 0 -75.475766691124591 269.23311286947353 0 269.23311286947353 768.05177413074716 0 0 0 0 2.4477577141282438 3.8489089320550534 0 3.8489089320550534 3.8804494013612407 0 0 0 0 539.28381398038618 269.6528777317393 0 269.6528777317393 -57.238143638442068 0 0 0 0 152.22862355046527 27.397055867447172 0 27.397055867447172 -44.613733705727384 0 0 0 0 147.70305885925336 79.970960318259017 0 79.970960318259017 -0.83630195606031066 0 0 0 0 10.70907441378796 10.264499083527532 0 10.264499083527532 1.5396744285461579 0 0 0 0 20.20118134672461 16.28946401861306 0 16.28946401861306 5.8025309690903581 0 0 0 0 4.3220444272374152 26.521265856503078 0 26.521265856503078 0.40290696861006836 0 0 0 0 4.010293849169102 22.924250323130195 0 22.924250323130195 -5.4472673490993202 0 0 0 0 16.728784124708909 19.00733112552075 0 19.00733112552075 -4.4875614682068772 0 0 0 0 -10.665110034908139 7.169923625484671 0 7.169923625484671 2.0231068886814683 0 0 0 0 -23.500213550018088 36.505868399876135 0 36.505868399876135 -0.015222523084503337 0 0 0 0 42.425469213572796 59.162275610988793 0 59.162275610988793 64.330309382615823 0 0 0 0 6.6429737396655426 6.2633996062350406 0 6.2633996062350406 -11.407589257580732 0 0 0 0 114.98127062474668 211.26356050224092 0 211.26356050224092 -72.751981700643682 0 0 0 0 209.00624972656806 355.72155652702975 0 355.72155652702975 -81.018805328144936 0 0 0 0 434.10696977197222 210.02553031409593 0 210.02553031409593 -133.15933187126734 0 0 0 0 -271.59827050754393 792.02151119217035 0 792.02151119217035 -275.07791843015116 0 0 0 0 155.60197195016553 -416.09742263966484 0 -416.09742263966484 136.7012766669377 0 0 0 0 0.80293698357195353 -0.15588458845993358 0 -0.15588458845993358 -5.2048287685792758 0 0 0 0 -65.773509270264185 33.931711351885951 0 33.931711351885951 -8.9399833877660058 0 0 0 0 -29.894640485443233 69.435975226596156 0 69.435975226596156 -84.744837081897458 0 0 0 0 20.123159303408102 11.161878965208871 0 11.161878965208871 -150.14260991384072 0 0 0 0 -21.653967953789106 -109.8102482988561 0 -109.8102482988561 -65.256698828436129 0 0 0 0 57.740297771626501 594.02678994799862 0 594.02678994799862 37.676555655967718 0 0 0 0 1055.5454246954796 18.190863456305578 0 18.190863456305578 -102.19364633361965 0 0 0 0 890.79877134625531 -556.87522937975518 0 -556.87522937975518 130.40002858899425 0 0 0 0 4.2320984544487175 3.5115867703612125 0 3.5115867703612125 2.6348220386009871 0 0 0 0 488.68491521345277 -309.55842159892654 0 -309.55842159892654 39.701933830650205 0 0 0 0 -124.85723452900129 142.69250743927751 0 142.69250743927751 -356.21307018796961 0 0 0 0 -57.400241509822081 460.17338754723096 0 460.17338754723096 -645.3751038695259 0 0 0 0 143.35825700456189 243.8815255023037 0 243.8815255023037 -687.68344805176366 0 0 0 0 -51.254327727561758 267.33845537092611 0 267.33845537092611 -152.82807149991049 0 0 0 0 647.49646227233461 437.45441864136751 0 437.45441864136751 -114.67698907302429 0 0 0 0 433.12631984233303 -232.93788356696427 0 -232.93788356696427 -49.982178895415018 0 0 0 0 48.265790766774444 -87.898975252236141 0 -87.898975252236141 -59.374917611207394 0 0 0 0 438.61384948151681 179.04667232152588 0 179.04667232152588 -445.93984175472906 0 0 0 0 25.957033685786882 179.07816937636289 0 179.07816937636289 -426.93182514997625 0 0 0 0 157.03977601417864 48.760808027113853 0 48.760808027113853 -397.19538074518914 0 0 0 0 138.92649657285074 207.58088983752259 0 207.58088983752259 -512.05927691785473 0 0 0 0 0.029571842955192551 107.01653561716921 0 107.01653561716921 -438.86637140730454 0 0 0 0 -5.926038938313539 0.22469836708746982 0 0.22469836708746982 0.068167548798101052 0 0 0 0 -103.08909341381514 -25.353685982383467 0 -25.353685982383467 -23.762795941060176 0 0 0 0 -0.38593587824288988 129.9547402794451 0 129.9547402794451 -251.84123428566454 0 0 0 0 18.835503428967215 10.678336081547741 0 10.678336081547741 4.1522585195915624 0 0 0 0 -25.443510593140672 -10.990426244437913 0 -10.990426244437913 -285.16288695919502 0 0 0 0 -119.08423207662418 259.67158142035896 0 259.67158142035896 -393.49636758585166 0 0 0 0 12.644876102321646 8.3845389171897224 0 8.3845389171897224 3.8520552868138171 0 0 0 0 450.10981233188795 88.452018610469622 0 88.452018610469622 -341.63037050145431 0 0 0 0 215.35481206516852 102.01944708600604 0 102.01944708600604 25.385943670680717 0 0 0 0 362.26617848738715 -127.46107796853198 0 -127.46107796853198 -22.805023081091349 0 0 0 0 979.89517349606967 -286.26875682121891 0 -286.26875682121891 -131.80580217733768 0 0 0 0 137.81703537861176 -167.17404457150042 0 -167.17404457150042 26.476688456608827 0 0 0 0 6.0210618822457036 363.54932384572385 0 363.54932384572385 493.74818897585101 0 0 0 0 325.08079019714802 826.10407461868147 0 826.10407461868147 -368.06127021931752 0 0 0 0 951.53425614310254 446.76348107623289 0 446.76348107623289 340.40836586833757 0 0 0 0 420.53843646557652 -354.90673565466295 0 -354.90673565466295 -847.43627260961603 0 0 0 0 12.868889575756967 -10.395201554960698 0 -10.395201554960698 0.46404598822715126 0 0 0 0 91.229527103932924 275.84248409122665 0 275.84248409122665 1203.8299995058169 0 0 0 0 -6.7345148339973093 -102.89136222622483 0 -102.89136222622483 72.729471942104283 0 0 0 0 274.71891449328791 -985.24415036520782 0 -985.24415036520782 329.5825083150703 0 0 0 0 -110.02344779333362 -33.838922937832649 0 -33.838922937832649 26.676397562264356 0 0 0 0 -65.428334496391471 175.33285223489474 0 175.33285223489474 9.3990788836636057 0 0 0 0 -174.6420670776497 -162.89143841237001 0 -162.89143841237001 -66.947843287215619 0 0 0 0 42.012620528746908 0.35628104703869212 0 0.35628104703869212 -5.110949383064705 0 0 0 0 184.57958533030887 266.93658032573506 0 266.93658032573506 -612.18623363351344 0 0 0 0 31.216850772730012 13.788826426194241 0 13.788826426194241 6.3534743423383375 0 0 0 0 99.607486150376644 142.59710620889336 0 142.59710620889336 -52.714963162682579 0 0 0 0 56.04184106606408 82.747999390403947 0 82.747999390403947 63.068243512566369 0 0 0 0 678.56740694338805 -481.67621947415773 0 -481.67621947415773 130.07005251810824 0 0 0 0 474.03612699973382 -303.79417429666091 0 -303.79417429666091 79.067240617416246 0 0 0 0 311.18838593429973 701.90146233047926 0 701.90146233047926 -261.86662126731426 0 0 0 0 4.5212970923862201 6.2091179924466999 0 6.2091179924466999 1.0153979249970462 0 0 0 0 11.187224325863923 6.8695715406951336 0 6.8695715406951336 3.6881695087244886 0 0 0 0 85.872883310068573 -211.47309103852967 0 -211.47309103852967 -386.45571882186414 0 0 0 0 -264.29774247331443 13.872050065002441 0 13.872050065002441 374.12859422162182 0 0 0 0 -59.654496060007659 298.57889734832861 0 298.57889734832861 570.75267943434028 0 0 0 0 -160.40498813650993 124.64147233924541 0 124.64147233924541 405.4521026992943 0 0 0 0 452.86290847339114 256.0214055306817 0 256.0214055306817 57.91389616885499 0 0 0 0 252.53810539745609 -78.874154218028707 0 -78.874154218028707 -0.59880265200990834 0 0 0 0 -1.0268236685268946 -0.52323496850778639 0 -0.52323496850778639 5.7644257601854321 0 0 0 0 -270.21574148070431 44.552274488801231 0 44.552274488801231 357.58182514350301 0 0 0 0 261.31098587274755 39.651191775497864 0 39.651191775497864 -315.90414917837916 0 0 0 0 242.21461921701848 -230.50068143472163 0 -230.50068143472163 309.28326579086843 0 0 0 0 270.50180593447476 85.652140213358052 0 85.652140213358052 -87.400138982604403 0 0 0 0 358.84229641359707 178.80481016840895 0 178.80481016840895 -216.74295416740279 0 0 0 0 367.25526390848245 14.473200516655197 0 14.473200516655197 -118.61088118940461 0 0 0 0 637.23350369909895 320.34448803097894 0 320.34448803097894 48.223103276588517 0 0 0 0 669.92436138393896 -167.69804974855526 0 -167.69804974855526 -22.361553648686822 0 0 0 0 261.59834534798574 9.6637635480001336 0 9.6637635480001336 -90.7922523959096 0 0 0 0 88.956133152705661 56.134337035402496 0 56.134337035402496 -76.373610590475437 0 0 0 0 239.33882116433358 47.318183426018528 0 47.318183426018528 -45.708856011515465 0 0 0 0 90.685544766716703 -32.18682374007949 0 -32.18682374007949 -39.120154854683733 0 0 0 0 -112.97020085268741 -66.303860173076828 0 -66.303860173076828 -23.607332540970674 0 0 0 0 11.281554262363272 -30.731712517531935 0 -30.731712517531935 -12.508898597748381 0 0 0 0 960.7213027102116 -2033.8396729925007 0 -2033.8396729925007 -958.14250142994206 0 0 0 0 114.02450158530743 -36.30555219330806 0 -36.30555219330806 -12.131316548867503 0 0 0 0 118.26416303579506 -27.263268852913598 0 -27.263268852913598 1.5687056737934348 0 0 0 0 205.71119161703245 159.85652848235077 0 159.85652848235077 6.4126685640258074 0 0 0 0 256.68998340755934 205.82135464506246 0 205.82135464506246 -117.28743530801148 0 0 0 0 18.754046696925158 -4.5287839241418624 0 -4.5287839241418624 10.648538119115052 0 0 0 0 249.30593746444356 248.37035725983515 0 248.37035725983515 -232.06843074905009 0 0 0 0 -680.23774951821542 161.52095493998058 0 161.52095493998058 1779.8236858519667 0 0 0 0 195.212052047209 85.758857405618983 0 85.758857405618983 89.550182494109322 0 0 0 0 -31.683314184803749 17.917028768692035 0 17.917028768692035 -70.102255436417181 0 0 0 0 93.769390523065624 -66.255321386471792 0 -66.255321386471792 -19.060674365082999 0 0 0 0 3.3340533687645859 -9.4424707638324676 0 -9.4424707638324676 7.3918439294039757 0 0 0 0 270.12896577642823 -287.15846338576375 0 -287.15846338576375 200.61060736632658 0 0 0 0 233.07833075919189 62.439855886390433 0 62.439855886390433 43.579022948803868 0 0 0 0 86.100869551039068 -116.5896450479122 0 -116.5896450479122 78.622985031299322 0 0 0 0 89.347419202251331 -24.055548957758219 0 -24.055548957758219 -1.0078300543018486 0 0 0 0 88.311778202146343 34.898548595607735 0 34.898548595607735 14.975238925267149 0 0 0 0 60.576592987914623 -20.777579787920583 0 -20.777579787920583 -4.1216423990332203 0 0 0 0 -53.27365689654107 -96.504088006420716 0 -96.504088006420716 17.108878232426378 0 0 0 0 -23.519819651228318 -5.5305364836513036 0 -5.5305364836513036 119.68074933090247 0 0 0 0 316.28533899144531 -111.27970802126015 0 -111.27970802126015 -152.57164138716325 0 0 0 0 219.21075980748719 -52.546003278868739 0 -52.546003278868739 -157.22217020699304 0 0 0 0 98.617364329755219 7.8362852871132418 0 7.8362852871132418 -46.707954179496483 0 0 0 0 122.60806458100984 -11.420071208752987 0 -11.420071208752987 -6.0326497150632381 0 0 0 0 80.387947401936799 -5.6731250885784696 0 -5.6731250885784696 -2.1097782085230552 0 0 0 0 363.53475994904875 -618.21582046390904 0 -618.21582046390904 -382.90901531038526 0 0 0 0 57.184093239344293 -3.8321972811008891 0 -3.8321972811008891 -232.56361805896449 0 0 0 0 139.5846042331832 -165.46574502599924 0 -165.46574502599924 -136.12252003397225 0 0 0 0 66.253526645456475 -2.396185923186124 0 -2.396185923186124 -11.189976069122434 0 0 0 0 112.09097679844126 -76.694059439857028 0 -76.694059439857028 -119.71909150077317 0 0 0 0 138.33119167309269 -105.66687854985639 0 -105.66687854985639 -90.926910765558205 0 0 0 0 280.73975814772712 -62.260570247679425 0 -62.260570247679425 -78.352110836807697 0 0 0 0 231.50370500687859 -237.22845484782374 0 -237.22845484782374 32.249709341220296 0 0 0 0 143.33781759304293 -182.4105185363785 0 -182.4105185363785 -181.26619820216001 0 0 0 0 107.22458643266145 -179.61002291437399 0 -179.61002291437399 114.51851524666563 0 0 0 0 233.19406312749743 60.54092164587928 0 60.54092164587928 -107.75858662512474 0 0 0 0 324.95708895380812 -102.6396327663233 0 -102.6396327663233 -282.65196777347091 0 0 0 0 174.54293142373353 -237.99314063756901 0 -237.99314063756901 -48.456421411538031 0 0 0 0 157.19251710082591 -80.827549631154454 0 -80.827549631154454 -7.6043116462365603 0 0 0 0 189.38394078333658 -62.234585496905311 0 -62.234585496905311 -154.39167446551437 0 0 0 0 200.82317320130824 -62.967227759578236 0 -62.967227759578236 -178.48657973396621 0 0 0 0 349.30267376578377 -153.22452157280668 0 -153.22452157280668 -38.609173300887051 0 0 0 0 309.61846074127061 -320.06071183229892 0 -320.06071183229892 32.898259856548975 0 0 0 0 179.8217432849633 -192.70874926722718 0 -192.70874926722718 -89.81081929498032 0 0 0 0 176.83889034949243 -66.356626847824373 0 -66.356626847824373 -88.7624451487427 0 0 0 0 37.388028151285411 -16.318628976344499 0 -16.318628976344499 -16.752871214295268 0 0 0 0 180.60165059225255 -49.566532942835238 0 -49.566532942835238 -140.50833046395564 0 0 0 0 300.88990164236748 -150.19617125518562 0 -150.19617125518562 -59.959467702981783 0 0 0 0 160.34027884171519 -96.189851535538764 0 -96.189851535538764 41.14075833123934 0 0 0 0 -95.158913046965608 153.78469196716833 0 153.78469196716833 -119.93345919527019 0 0 0 0 144.82078737013217 9.5127817335069267 0 9.5127817335069267 -34.789601821503311 0 0 0 0 201.61027576551714 -12.989926984768317 0 -12.989926984768317 -111.40386250229858 0 0 0 0 129.10484037416427 68.820710971258904 0 68.820710971258904 -175.47716692692484 0 0 0 0 218.28568051515322 -24.823414177253653 0 -24.823414177253653 -176.54985561521607 0 0 0 0 293.93925450509414 47.156544536685033 0 47.156544536685033 -246.76724936522078 0 0 0 0 246.62939873238793 -100.47238324247519 0 -100.47238324247519 -217.3561984048938 0 0 0 0 347.2971037698444 -55.256023690822985 0 -55.256023690822985 -233.67457243677291 0 0 0 0 221.43847169421497 -42.555990253255004 0 -42.555990253255004 -231.54758541261435 0 0 0 0 233.94875702606805 -69.441605405638256 0 -69.441605405638256 -177.22154272156695 0 0 0 0 585.4120387864059 -164.82482137942725 0 -164.82482137942725 -206.53229802741043 0 0 0 0 257.32751916692359 -15.576213706416638 0 -15.576213706416638 -171.64956309538684 0 0 0 0 451.63456839955688 96.576512811907378 0 96.576512811907378 -109.39892867718299 0 0 0 0 186.63054365212156 -274.27259266844612 0 -274.27259266844612 235.70171583597858 0 0 0 0 267.47301528168464 -403.52796617313788 0 -403.52796617313788 -782.76630957367342 0 0 0 0 -151.45037552831309 341.9041345199048 0 341.9041345199048 -388.32205708848232 0 0 0 0 92.475573334344517 260.79110556045816 0 260.79110556045816 -647.49676031053423 0 0 0 0 290.430520331156 54.611333877808192 0 54.611333877808192 -441.21387469523324 0 0 0 0 108.90118108611932 -514.51678306464464 0 -514.51678306464464 409.53875594173223 0 0 0 0 -11.509630767570343 -397.32212950005305 0 -397.32212950005305 295.47534654211449 0 0 0 0 25.60615219004103 -491.61983597668313 0 -491.61983597668313 63.828976276310186 0 0 0 0 144.63442814663722 -351.43321217645234 0 -351.43321217645234 209.85839069041867 0 0 0 0 170.20480532302463 -198.68008077986997 0 -198.68008077986997 -104.19793585301522 0 0 0 0 324.3912251377842 -427.42227627052671 0 -427.42227627052671 70.03335632139715 0 0 0 0 579.03354607925212 -151.74903732536313 0 -151.74903732536313 43.182268721997389 0 0 0 0 370.97517871976561 80.668539782344396 0 80.668539782344396 -109.45336166865309 0 0 0 0 446.16185396840592 27.731472399816084 0 27.731472399816084 -161.54683352805932 0 0 0 0 232.24114154300241 -168.45738205699195 0 -168.45738205699195 -1036.3779536131733 0 0 0 0 0.46171003699300073 -0.61767199423505303 0 -0.61767199423505303 -1.402765382388921 0 0 0 0 -4.4396992539012388 -1.5067014116006732 0 -1.5067014116006732 -5.828844199736487 0 0 0 0 -232.33799254400219 -394.50396681002485 0 -394.50396681002485 300.91432128124688 0 0 0 0 21.637180844656541 -671.38946705666513 0 -671.38946705666513 -278.74953623609508 0 0 0 0 354.56295961803698 -131.6982648228859 0 -131.6982648228859 221.04715189852868 0 0 0 0 334.80527940455795 54.835025892799877 0 54.835025892799877 38.805932766748811 0 0 0 0 511.65525612672354 -120.27214655922035 0 -120.27214655922035 93.354681898814306 0 0 0 0 399.84770823760118 101.65932086561861 0 101.65932086561861 -90.829069892186453 0 0 0 0 611.08073808963672 -49.534417296583797 0 -49.534417296583797 -81.034999694222279 0 0 0 0 775.48648027263698 -101.56606636952392 0 -101.56606636952392 -118.64654208309639 0 0 0 0 667.99157713042223 39.666128586227387 0 39.666128586227387 -65.266154886479853 0 0 0 0 567.20199256006708 -47.916748169822768 0 -47.916748169822768 172.35935202224209 0 0 0 0 553.91043803784487 -118.17748880282693 0 -118.17748880282693 -184.60314243238463 0 0 0 0 552.16388218024804 -270.22524873830298 0 -270.22524873830298 92.260310013899925 0 0 0 0 604.66259117724258 -310.28776526197908 0 -310.28776526197908 -38.634956596470147 0 0 0 0 151.37590425736562 -36.783064054267015 0 -36.783064054267015 -64.852929400934954 0 0 0 0 160.43379781351541 -57.829493422152154 0 -57.829493422152154 -59.109092356570272 0 0 0 0 713.32044393572141 -306.57617198041407 0 -306.57617198041407 -466.575769440371 0 0 0 0 1689.3379316192149 286.09849654497521 0 286.09849654497521 -588.49389776922544 0 0 0 0 1035.6644649662194 -243.98500933619471 0 -243.98500933619471 -688.72920958702525 0 0 0 0 761.60722912541314 344.46923011705962 0 344.46923011705962 90.630359277529351 0 0 0 0 1112.2867777338324 773.10079294626121 0 773.10079294626121 207.07315077524618 0 0 0 0 1.3139642496091994 -0.76143771933631399 0 -0.76143771933631399 -0.34290926378586306 0 0 0 0 -8.6690002482064301 -120.42638282702137 0 -120.42638282702137 873.34988524250866 0 0 0 0 257.20384064361861 -557.19946773775428 0 -557.19946773775428 782.40108464328478 0 0 0 0 789.97486231504217 -455.15350358339077 0 -455.15350358339077 289.4966925772278 0 0 0 0 833.60454106648831 123.15628634323275 0 123.15628634323275 1105.2719716729553 0 0 0 0 6.0020340790354112 -2.2245999357028694 0 -2.2245999357028694 0.75180682674317723 0 0 0 0 17.753574770627893 -256.61262676911429 0 -256.61262676911429 441.49927293160044 0 0 0 0 46.107487817498622 -272.62460302157342 0 -272.62460302157342 245.33334233307414 0 0 0 0 -52.537464609398739 -115.46858284575319 0 -115.46858284575319 198.73369856263889 0 0 0 0 -54.077022730118188 -185.83812608429457 0 -185.83812608429457 170.15350087338811 0 0 0 0 -10.717622584561468 -304.10398259515932 0 -304.10398259515932 363.26735281568108 0 0 0 0 -127.89458948172978 -69.19294440201611 0 -69.19294440201611 247.9349751823238 0 0 0 0 148.09903979404771 -143.06736057933085 0 -143.06736057933085 45.414481880600647 0 0 0 0 272.29027509967273 -48.18420200408309 0 -48.18420200408309 7.2754392647239001 0 0 0 0 123.35392765753204 -123.86124587662562 0 -123.86124587662562 41.304968074337012 0 0 0 0 71.849750467566992 -23.549317565957608 0 -23.549317565957608 4.659269483800017 0 0 0 0 110.22933505855326 -134.61801614267733 0 -134.61801614267733 33.722107481226885 0 0 0 0 6.9409104709338862 -16.908535436203238 0 -16.908535436203238 -13.086622792032358 0 0 0 0 9.7245352955874296 -6.3765589674251544 0 -6.3765589674251544 3.5172721542857381 0 0 0 0 54.510085568203067 -135.28324552313006 0 -135.28324552313006 -179.63099019312904 0 0 0 0 57.338532169211248 -98.831344640680072 0 -98.831344640680072 -89.385752796933957 0 0 0 0 -15.159903831001429 -7.0593269374462579 0 -7.0593269374462579 -25.470981269671029 0 0 0 0 68.62271250943013 -98.352829280600417 0 -98.352829280600417 -68.500872244432685 0 0 0 0 34.761568625370273 -68.813613753038226 0 -68.813613753038226 -8.443880512778378 0 0 0 0 -62.314364702426246 -118.11322866386399 0 -118.11322866386399 -75.09713680526238 0 0 0 0 9.1062774478641586 -40.371490488982658 0 -40.371490488982658 -57.775082381922402 0 0 0 0 9.8262996088792818 -2.8858781678770811 0 -2.8858781678770811 -0.31680082866581216 0 0 0 0 4.4455823494482161 -5.9931550693095232 0 -5.9931550693095232 4.0567536410233469 0 0 0 0 1.3678395387833007 -11.973453270318714 0 -11.973453270318714 -16.939000869546362 0 0 0 0 -118.01535375908134 30.506623817252148 0 30.506623817252148 21.984014778841811 0 0 0 0 63.418629288367811 -8.9668123549272423 0 -8.9668123549272423 -175.14611275899006 0 0 0 0 154.24318642211438 -47.930756250741979 0 -47.930756250741979 -40.480190216987467 0 0 0 0 157.57310475544364 -64.84163626633017 0 -64.84163626633017 -37.592564176490669 0 0 0 0 -3.1318743205911801 -0.56404095633656581 0 -0.56404095633656581 0.56572714839983584 0 0 0 0 84.06522928483173 -77.276449878238964 0 -77.276449878238964 -263.29264621975744 0 0 0 0 -22.219940711191157 -26.598635744332569 0 -26.598635744332569 59.797992813698329 0 0 0 0 11.409595928969793 -198.89522601759381 0 -198.89522601759381 62.821527485391016 0 0 0 0 39.01930368070316 -195.4833367414285 0 -195.4833367414285 -103.6660833967303 0 0 0 0 10.955581473768689 -8.6380338026756363 0 -8.6380338026756363 -15.612998595706813 0 0 0 0 13.167342869894071 -6.3728849428750749 0 -6.3728849428750749 1.1941077290876549 0 0 0 0 -10.228160620565177 41.694063347616975 0 41.694063347616975 -130.62722779829892 0 0 0 0 -105.17874051135732 -41.005556648692618 0 -41.005556648692618 -48.779874279603973 0 0 0 0 38.551236385618722 -82.539002589575659 0 -82.539002589575659 -38.665205870125646 0 0 0 0 6.1734342270938214 -37.842562820127569 0 -37.842562820127569 -81.110472779801967 0 0 0 0 -33.245253495668294 -4.9137604133557033 0 -4.9137604133557033 91.946526221762724 0 0 0 0 31.743189141996936 53.485830028565431 0 53.485830028565431 31.979773849136109 0 0 0 0 -12.288173143505446 -8.7550388116383147 0 -8.7550388116383147 168.79092360998402 0 0 0 0 6.5336265875812387 -2.8872213681734138 0 -2.8872213681734138 -15.486620586354547 0 0 0 0 -14.49146138796641 -35.747986782849694 0 -35.747986782849694 49.899351269754334 0 0 0 0 -31.460433479689527 12.398104334892196 0 12.398104334892196 93.137311199145188 0 0 0 0 41.558308466766903 -0.16663782087834988 0 -0.16663782087834988 86.542498065822656 0 0 0 0 431.70259697036818 -391.82689043297978 0 -391.82689043297978 269.50337740925488 0 0 0 0 22.295843714149669 -61.916087787221841 0 -61.916087787221841 361.69768708485026 0 0 0 0 883.08400829350285 -488.50695990735585 0 -488.50695990735585 -24.514644582728579 0 0 0 0 643.19717405718256 -365.7721458097667 0 -365.7721458097667 28.092204061593293 0 0 0 0 603.68241737145945 -423.44156680463266 0 -423.44156680463266 -29.235093736533599 0 0 0 0 716.29816290270537 -212.12360850917139 0 -212.12360850917139 132.69678564104106 0 0 0 0 638.41387030297119 -309.50374417504827 0 -309.50374417504827 307.34034283922665 0 0 0 0 742.34724875647589 -391.56534793890205 0 -391.56534793890205 -257.20158186209665 0 0 0 0 602.66013805514376 -382.55338727267826 0 -382.55338727267826 38.442621772854181 0 0 0 0 616.25610644936751 -304.06385004670074 0 -304.06385004670074 -54.277709140958905 0 0 0 0 0.70973484176362689 -1.402098988352634 0 -1.402098988352634 1.5729378867009913 0 0 0 0 608.71189971054264 -284.5350348175507 0 -284.5350348175507 -59.489792967888206 0 0 0 0 582.30813307422068 -287.61504388364119 0 -287.61504388364119 -49.273789952367224 0 0 0 0 550.92876359945512 -235.41419932784083 0 -235.41419932784083 -269.21339578988136 0 0 0 0 647.19380941195413 -290.76162756077338 0 -290.76162756077338 -256.18410296707953 0 0 0 0 64.985702384801698 -118.10036376522066 0 -118.10036376522066 73.040111358604918 0 0 0 0 66.091569707697886 82.456106042044311 0 82.456106042044311 -50.536405759305126 0 0 0 0 55.595946666740929 -140.98238097385911 0 -140.98238097385911 13.912588259659969 0 0 0 0 28.969452392862877 -27.845177808188168 0 -27.845177808188168 -38.873813148313275 0 0 0 0 39.693896515651431 22.693301100137205 0 22.693301100137205 -26.157601240207441 0 0 0 0 33.530204380731391 -10.097278329815261 0 -10.097278329815261 0.6706659408845419 0 0 0 0 61.273400093996315 16.349042777230352 0 16.349042777230352 -25.923334831992179 0 0 0 0 53.361895319219911 -61.721603583508113 0 -61.721603583508113 -89.790158285279631 0 0 0 0 8.8745645142043941 -15.457785275983042 0 -15.457785275983042 -35.555428728719562 0 0 0 0 21.311390056594973 -17.672988551417802 0 -17.672988551417802 -23.879882637342234 0 0 0 0 -10.774289592300192 4.9835983302600653 0 4.9835983302600653 -9.7545228655944811 0 0 0 0 14.879878733268555 -6.1975514200601793 0 -6.1975514200601793 -16.265522051600914 0 0 0 0 3.2490283587248996 -20.143453401278748 0 -20.143453401278748 -34.691126067496043 0 0 0 0 6.6834881003742339 -34.445952236825178 0 -34.445952236825178 18.322846346050937 0 0 0 0 11.923446056825924 -11.938762558648705 0 -11.938762558648705 -32.187304476148711 0 0 0 0 7.1125371662492398 -16.400729435014 0 -16.400729435014 -31.402982534506009 0 0 0 0 -47.959390275878832 -7.398205428293295 0 -7.398205428293295 27.64381772831257 0 0 0 0 28.213824639155064 -6.8945905619839323 0 -6.8945905619839323 6.5147264746683504 0 0 0 0 -60.752218848734628 -110.82815025457785 0 -110.82815025457785 32.019939491561672 0 0 0 0 136.70251856660616 -151.36314154627144 0 -151.36314154627144 -45.005631961263134 0 0 0 0 202.86579844125663 -50.907783938451757 0 -50.907783938451757 -50.919793718365327 0 0 0 0 69.967496889614267 -43.019559925487556 0 -43.019559925487556 8.2679285291378619 0 0 0 0 15.441068509899196 -45.99783764362428 0 -45.99783764362428 12.76752637703612 0 0 0 0 87.379217350244289 -17.16598581172002 0 -17.16598581172002 7.5329961539209762 0 0 0 0 27.722306662471965 -13.573142423028912 0 -13.573142423028912 37.665362713818467 0 0 0 0 88.575413536756969 -22.805334290894052 0 -22.805334290894052 -22.249145346482692 0 0 0 0 95.714391118177446 -15.419488822575659 0 -15.419488822575659 -29.704490095763504 0 0 0 0 115.75810637478571 -13.986662216605509 0 -13.986662216605509 -37.332456068033935 0 0 0 0 177.41754529773607 17.146066404393423 0 17.146066404393423 -24.6889544259177 0 0 0 0 -39.244492662413904 -85.428688132111802 0 -85.428688132111802 -12.640162954872721 0 0 0 0 1.4214967701635146 -0.55245188162821535 0 -0.55245188162821535 0.18856946707168731 0 0 0 0 113.37790678616147 45.859550789602508 0 45.859550789602508 17.667138281897223 0 0 0 0 -67.783632162980211 -12.225680009157259 0 -12.225680009157259 12.900618876512453 0 0 0 0 -11.240602329533431 -3.4110620380633918 0 -3.4110620380633918 13.237780440121242 0 0 0 0 54.492533351760358 26.113170782628004 0 26.113170782628004 25.665865428418329 0 0 0 0 -43.606697486786288 -125.5719082671003 0 -125.5719082671003 -94.234989237216723 0 0 0 0 -18.549004772808985 -31.831345628348572 0 -31.831345628348572 -91.352132724582702 0 0 0 0 -42.825135444873013 -38.18890905887838 0 -38.18890905887838 87.192921506401035 0 0 0 0 -9.6687105029632221 -0.4005063867152785 0 -0.4005063867152785 -10.933186585440126 0 0 0 0 9.8164522806728201 -14.798148649314157 0 -14.798148649314157 -11.670568541541797 0 0 0 0 3.5376240488796498 -1.8421060311445103 0 -1.8421060311445103 -0.6228792355522863 0 0 0 0 50.74407353909919 -37.532292180580043 0 -37.532292180580043 -163.80739378830913 0 0 0 0 7.1688082417316821 -6.1669480198755018 0 -6.1669480198755018 2.3888518409307045 0 0 0 0 16.017747138469787 -6.1134588160779586 0 -6.1134588160779586 0.92628282632007419 0 0 0 0 51.721606430670363 -5.9372292486159495 0 -5.9372292486159495 -90.227481987755482 0 0 0 0 28.015200417537841 -9.5158122197034309 0 -9.5158122197034309 2.0115787398881246 0 0 0 0 69.869285564986058 -28.701686959688232 0 -28.701686959688232 -37.751009630423312 0 0 0 0 3.7061375409071502 2.1482096364277794 0 2.1482096364277794 -3.5123174180898893 0 0 0 0 -0.60588196550816065 -10.637652490491746 0 -10.637652490491746 -53.597090705094161 0 0 0 0 14.016684011205143 -54.819455366963439 0 -54.819455366963439 -84.340359544570674 0 0 0 0 50.914501628256403 0.24109155416135764 0 0.24109155416135764 -60.283513451851832 0 0 0 0 35.01730327434052 -4.6363737025885712 0 -4.6363737025885712 -12.565254159348115 0 0 0 0 29.201615488462267 10.866473410256731 0 10.866473410256731 -21.908284994455244 0 0 0 0 47.462322435574606 5.9921463299015159 0 5.9921463299015159 -20.862584700812477 0 0 0 0 33.49055955017684 38.057700472583747 0 38.057700472583747 23.51260368811927 0 0 0 0 48.41823181202426 32.392063886820495 0 32.392063886820495 -0.90099348448347882 0 0 0 0 34.781832831955398 18.253846157986118 0 18.253846157986118 31.272693623976153 0 0 0 0 -67.696222195643941 25.684401941722967 0 25.684401941722967 -97.979523568894365 0 0 0 0 50.414436917089915 -12.115784048677597 0 -12.115784048677597 -107.81036302803841 0 0 0 0 41.957600081659621 32.834840052834807 0 32.834840052834807 -42.244931867553532 0 0 0 0 29.564000904239947 11.97241658177154 0 11.97241658177154 4.5109315916488413 0 0 0 0 50.812707413599128 -13.141153978041984 0 -13.141153978041984 -86.297610166397135 0 0 0 0 26.261545976241905 -7.073415622873199 0 -7.073415622873199 -41.235584184636537 0 0 0 0 72.407204170667683 -36.659323575820963 0 -36.659323575820963 -17.429408656264968 0 0 0 0 86.843924157423317 45.100129342897162 0 45.100129342897162 -10.581579889453678 0 0 0 0 39.100765406845312 45.052413793035157 0 45.052413793035157 64.119433594773 0 0 0 0 44.174915021452762 41.829419036219406 0 41.829419036219406 18.753333432516229 0 0 0 0 52.054709320844267 41.692071432360535 0 41.692071432360535 64.253628927897125 0 0 0 0 111.7702546004366 103.41957225402848 0 103.41957225402848 110.59058117027053 0 0 0 0 32.992104752564046 64.279257481558489 0 64.279257481558489 100.5412679508288 0 0 0 0 22.29663351974159 -87.492067847126236 0 -87.492067847126236 -108.2594579898614 0 0 0 0 9.0618189350074942 -6.7963524105370041 0 -6.7963524105370041 5.1790766908681878 0 0 0 0 75.194211329268001 39.187299976111717 0 39.187299976111717 30.903475325736508 0 0 0 0 39.788118461772683 19.798336954853767 0 19.798336954853767 89.11515831453471 0 0 0 0 42.708570768110803 34.236984382498122 0 34.236984382498122 24.897879856491272 0 0 0 0 30.940251790059847 37.42306435636965 0 37.42306435636965 74.956637569324812 0 0 0 0 48.688128339097602 59.091136094129979 0 59.091136094129979 75.040608058424141 0 0 0 0 -92.951885935719474 27.212080879377936 0 27.212080879377936 109.21243211060937 0 0 0 0 -87.449941786755517 -165.89663712282709 0 -165.89663712282709 -125.47223146647229 0 0 0 0 80.386718417652446 -14.818972841170762 0 -14.818972841170762 -58.548109156345618 0 0 0 0 2.4683749041154357 1.2178249866249757 0 1.2178249866249757 -0.67978531200520109 0 0 0 0 52.11629930503841 60.917178575015896 0 60.917178575015896 56.396534368866924 0 0 0 0 12.94963063802237 -10.672200837130177 0 -10.672200837130177 8.0826874300121165 0 0 0 0 76.808239723337465 -124.21868816054939 0 -124.21868816054939 -164.48441720094479 0 0 0 0 38.62135193011909 47.67795958836723 0 47.67795958836723 62.461053415045171 0 0 0 0 39.108157343005587 -11.484000199847287 0 -11.484000199847287 27.982664749228206 0 0 0 0 55.937956439418485 18.040793109266815 0 18.040793109266815 -38.322322030373613 0 0 0 0 9.5005565127321461 -81.574688044864615 0 -81.574688044864615 -91.672813700924962 0 0 0 0 22.77332914746512 -8.8192984720953973 0 -8.8192984720953973 0.29285303270444274 0 0 0 0 12.653548165428816 -3.1174052786908959 0 -3.1174052786908959 -1.1093378626516213 0 0 0 0 13.675962669236966 -7.6227977113574923 0 -7.6227977113574923 3.2013513535793336 0 0 0 0 35.468350196558276 -6.3206393130360539 0 -6.3206393130360539 -95.194580809157742 0 0 0 0 79.31069664212751 -10.053552146005771 0 -10.053552146005771 -44.642590645368855 0 0 0 0 12.917694272143763 -150.38444043583695 0 -150.38444043583695 -133.52840686676404 0 0 0 0 -34.572679057896494 -49.963738028883085 0 -49.963738028883085 -66.737862410292109 0 0 0 0 46.480238073749888 -55.495039349867511 0 -55.495039349867511 -138.32511151652579 0 0 0 0 -139.20958612063987 -63.910200690621423 0 -63.910200690621423 -127.99548344604864 0 0 0 0 85.32184216171575 -17.591434986147711 0 -17.591434986147711 -36.000164356472879 0 0 0 0 -257.6775895308092 -180.47350496355102 0 -180.47350496355102 -48.698998621317514 0 0 0 0 52.851927450280684 -18.849099936718279 0 -18.849099936718279 7.7780177338495946 0 0 0 0 14.280706963750617 -117.43759164736548 0 -117.43759164736548 -127.71485174830013 0 0 0 0 58.282544486251936 -162.03686727234526 0 -162.03686727234526 -151.94800640618632 0 0 0 0 1.1802740001508027 -61.939689391423599 0 -61.939689391423599 -71.59140114308866 0 0 0 0 -13.776480054028525 -105.33093170635038 0 -105.33093170635038 -104.38338657862914 0 0 0 0 40.881567719267423 -66.29591872945457 0 -66.29591872945457 -103.56311594842754 0 0 0 0 67.098719169563083 -83.835724217999086 0 -83.835724217999086 -155.75776111441519 0 0 0 0 -25.214461944522839 -90.206934500363786 0 -90.206934500363786 -76.153464415299823 0 0 0 0 413.75991950452226 137.38449169089859 0 137.38449169089859 112.4440402578457 0 0 0 0 -36.139086622810282 -142.14470096873174 0 -142.14470096873174 85.917116539851122 0 0 0 0 2.2011446757050805 -2.8247190381013709 0 -2.8247190381013709 3.1003910373756121 0 0 0 0 -2.387917130124805 0.84414682197242996 0 0.84414682197242996 1.7893885358464878 0 0 0 0 103.05266162480257 103.30135964845886 0 103.30135964845886 -35.249515724432058 0 0 0 0 -231.54076661183535 -248.19300538045104 0 -248.19300538045104 -174.13533639840171 0 0 0 0 -21.42259707320045 -49.504595489438543 0 -49.504595489438543 -124.95490228454946 0 0 0 0 131.6933429401397 0.69701291402998322 0 0.69701291402998322 -138.52730568178276 0 0 0 0 23.795515255143982 -160.33438818437389 0 -160.33438818437389 -174.27582368566436 0 0 0 0 -41.013203340997279 -115.79770978062879 0 -115.79770978062879 -292.44894846890293 0 0 0 0 -42.33944461849751 -108.91070716524348 0 -108.91070716524348 -83.734112540054412 0 0 0 0 85.824282129018684 -292.8478332015402 0 -292.8478332015402 -148.39919300325164 0 0 0 0 135.70482900287607 -337.63359038600902 0 -337.63359038600902 69.308361454194255 0 0 0 0 424.13830415152188 -341.89147386002696 0 -341.89147386002696 -96.111345252051251 0 0 0 0 71.532097666175105 -258.0481706873943 0 -258.0481706873943 -115.53436333366517 0 0 0 0 66.74979853516561 -325.65974664518762 0 -325.65974664518762 -115.89470617871848 0 0 0 0 131.39490860133083 -51.863892049397691 0 -51.863892049397691 -104.22693760450966 0 0 0 0 59.701700667865225 22.881518203863379 0 22.881518203863379 -198.91445895338256 0 0 0 0 66.072249018601724 -2.1742684476339491 0 -2.1742684476339491 -109.01580201354955 0 0 0 0 117.09866887051248 -96.007080604407747 0 -96.007080604407747 -180.74090518422599 0 0 0 0 152.11120707598877 -77.165236969693765 0 -77.165236969693765 -24.404583160207252 0 0 0 0 112.64286667862325 -123.85175067793898 0 -123.85175067793898 -353.88721920209355 0 0 0 0 314.93409576567865 -239.64632062154487 0 -239.64632062154487 -160.06451230339371 0 0 0 0 -26.738184204034042 -67.605549559086285 0 -67.605549559086285 -449.79491551752653 0 0 0 0 6.0473596627780353 -166.65324046911974 0 -166.65324046911974 -151.76581935232571 0 0 0 0 113.36139806505525 -54.848219824358239 0 -54.848219824358239 -104.71824653646036 0 0 0 0 136.23926508254226 -23.165545625673985 0 -23.165545625673985 -135.8247424326546 0 0 0 0 138.58475299137353 -16.342421623252449 0 -16.342421623252449 -131.26042407141358 0 0 0 0 116.5106054507778 6.771239599576802 0 6.771239599576802 -179.47139495745853 0 0 0 0 113.82593069809081 -20.437101754903779 0 -20.437101754903779 -40.528354104761092 0 0 0 0 10.605556051837993 -105.48294206559876 0 -105.48294206559876 -129.16040429070199 0 0 0 0 112.52301306072872 -14.775684897520861 0 -14.775684897520861 -32.741227479190243 0 0 0 0 57.504162802921606 -36.954446762162995 0 -36.954446762162995 7.9081329896838533 0 0 0 0 67.904626699899381 -94.591321271902416 0 -94.591321271902416 -96.026257844748216 0 0 0 0 37.451716154624592 -80.07238444815448 0 -80.07238444815448 -77.645675101888628 0 0 0 0 124.8437881116115 -16.276062287190143 0 -16.276062287190143 -53.14208074070666 0 0 0 0 -17.794888651780639 -94.397873610880197 0 -94.397873610880197 -25.417292017657019 0 0 0 0 45.845139881241721 -38.209873352779141 0 -38.209873352779141 3.6737297649415268 0 0 0 0 18.774320888058355 -33.914967553562747 0 -33.914967553562747 3.2356287787952169 0 0 0 0 -6.9264044389110495 34.579578839796341 0 34.579578839796341 97.847022156518506 0 0 0 0 20.556480299885152 -31.520037479303937 0 -31.520037479303937 6.0537440404295921 0 0 0 0 109.25213665931369 47.333891911992396 0 47.333891911992396 46.415193598735641 0 0 0 0 114.51444322714497 -5.0172067351951455 0 -5.0172067351951455 -42.311820347247703 0 0 0 0 89.394836757412122 -33.440316128766426 0 -33.440316128766426 -71.824605923800846 0 0 0 0 156.42788637384092 -14.858664113665782 0 -14.858664113665782 80.952715177245409 0 0 0 0 136.89302440804749 49.296846626441038 0 49.296846626441038 52.994641938370478 0 0 0 0 156.82441939305863 -112.90481448464561 0 -112.90481448464561 17.54804431312732 0 0 0 0 256.91957671330601 -95.204365151417733 0 -95.204365151417733 5.9343997298892646 0 0 0 0 240.0054933768406 -166.35235246047523 0 -166.35235246047523 -29.487486962210824 0 0 0 0 16.926246890529001 -100.17458352779067 0 -100.17458352779067 -45.64212682825746 0 0 0 0 132.74191438984417 -163.22060168239477 0 -163.22060168239477 -23.333059118129313 0 0 0 0 210.22964359641628 -56.235398817738314 0 -56.235398817738314 -36.861894628636946 0 0 0 0 78.927589363738662 5.0686527643229056 0 5.0686527643229056 -59.605744884109299 0 0 0 0 -20.240303785389187 -9.1244038832155638 0 -9.1244038832155638 168.74205450474074 0 0 0 0 -35.191634604949741 -163.0787061507117 0 -163.0787061507117 18.78649570179914 0 0 0 0 -9.0066542021450005 3.8872833183504554 0 3.8872833183504554 -57.730346131688748 0 0 0 0 40.871401238979161 -65.494439346681247 0 -65.494439346681247 -4.6207930935743207 0 0 0 0 14.71202998687113 16.458415823311043 0 16.458415823311043 118.23310212151955 0 0 0 0 -29.481275158228527 -25.519712486611752 0 -25.519712486611752 123.74608104643994 0 0 0 0 -10.452466223637202 32.155356895849764 0 32.155356895849764 120.6600905264022 0 0 0 0 35.223715559714947 74.248311537282007 0 74.248311537282007 280.71094861582242 0 0 0 0 241.68622459054131 -30.630171837655325 0 -30.630171837655325 137.95085151844069 0 0 0 0 296.8282213814075 289.13047154021899 0 289.13047154021899 308.56183794797289 0 0 0 0 776.51439248425231 254.64647577604046 0 254.64647577604046 162.30700873141814 0 0 0 0 67.963475229235883 145.01622139562505 0 145.01622139562505 124.43898933937817 0 0 0 0 227.30673423599364 77.994750834058323 0 77.994750834058323 141.29912786607565 0 0 0 0 352.08459445645752 602.18184572975736 0 602.18184572975736 507.38461359815665 0 0 0 0 638.59524766808772 711.73860482881446 0 711.73860482881446 559.45040151354897 0 0 0 0 659.5786581696259 561.02610835191444 0 561.02610835191444 314.71505591504138 0 0 0 0 647.1943136369664 697.88466477528527 0 697.88466477528527 562.34495240778597 0 0 0 0 1142.5547425557579 1058.9645484205939 0 1058.9645484205939 802.3986385438584 0 0 0 0 1619.4210902479135 36.398637871212486 0 36.398637871212486 664.24990695268934 0 0 0 0 394.92513968117055 72.267644624026616 0 72.267644624026616 1496.2089586984002 0 0 0 0 357.99964685693931 471.25444778713882 0 471.25444778713882 307.26942082068672 0 0 0 0 2287.1312808623779 -647.74998237918589 0 -647.74998237918589 353.7500597800954 0 0 0 0 -947.17372709743358 -320.88807475090653 0 -320.88807475090653 -12.409554694888357 0 0 0 0 852.11205232174871 147.53558276141098 0 147.53558276141098 -5.2497099334796076 0 0 0 0 15.12862746273516 -3.7517083549855954 0 -3.7517083549855954 0.67367330403293124 0 0 0 0 1017.0877548146775 -398.450860925494 0 -398.450860925494 -233.12449285525508 0 0 0 0 36.895838319858285 -359.8509477014195 0 -359.8509477014195 678.09353783375809 0 0 0 0 70.648255861419443 -106.64303280258173 0 -106.64303280258173 -106.42182621734901 0 0 0 0 10.425590138368989 -50.778962050924747 0 -50.778962050924747 4.0111280716264446 0 0 0 0 32.790139554584584 -129.18347260035807 0 -129.18347260035807 -59.329535702374415 0 0 0 0 90.595923265535021 -200.23494942932484 0 -200.23494942932484 -233.22497409084099 0 0 0 0 35.736484384702081 -14.513899238173714 0 -14.513899238173714 5.3200674404847135 0 0 0 0 -178.11484788828693 113.08651818718499 0 113.08651818718499 433.48065016326973 0 0 0 0 364.96437701532886 233.93550542023695 0 233.93550542023695 829.06274483729305 0 0 0 0 346.6220114732796 250.53803456294872 0 250.53803456294872 829.06360268417302 0 0 0 0 784.65126662655393 -76.759270752991597 0 -76.759270752991597 208.41200423285227 0 0 0 0 455.79839764599274 -58.804539845336421 0 -58.804539845336421 216.42391760548162 0 0 0 0 -95.097134216257473 -21.390650611712772 0 -21.390650611712772 480.19502816561544 0 0 0 0 22.930263829850901 212.64585292567108 0 212.64585292567108 126.56350176802152 0 0 0 0 25.838693601746854 184.68148722663864 0 184.68148722663864 970.42440321321192 0 0 0 0 204.12069641473863 29.099017876366815 0 29.099017876366815 485.45302005144424 0 0 0 0 -65.43405023995183 140.72023704662934 0 140.72023704662934 1026.3875300382097 0 0 0 0 15.227048296110297 27.348491420528262 0 27.348491420528262 961.26406307789148 0 0 0 0 39.528272251432668 181.94294718028573 0 181.94294718028573 1031.9765332865827 0 0 0 0 -65.131681681183181 159.16422014895215 0 159.16422014895215 1192.6845136092434 0 0 0 0 45.192126661688917 268.41953617315767 0 268.41953617315767 322.62018178902872 0 0 0 0 -7.233395226850007 -8.4334021810691411 0 -8.4334021810691411 616.29731477051973 0 0 0 0 65.61524633040699 137.22602377089424 0 137.22602377089424 645.11290382505831 0 0 0 0 187.74667286849581 -118.50152307185272 0 -118.50152307185272 103.12468194052599 0 0 0 0 444.26691551673775 477.16268348653011 0 477.16268348653011 525.26764431521678 0 0 0 0 582.82908135567959 -63.299540683358828 0 -63.299540683358828 527.25754508789578 0 0 0 0 476.30245523310077 -274.1564499625274 0 -274.1564499625274 1662.9249149988245 0 0 0 0 337.95073272846275 41.82948295436654 0 41.82948295436654 1095.8486577933945 0 0 0 0 742.15883569443486 1375.1666635595602 0 1375.1666635595602 -1098.047235902206 0 0 0 0 19.743470045333929 -7.9820082525281535 0 -7.9820082525281535 3.1246132321077447 0 0 0 0 122.75977667333609 291.0037022180004 0 291.0037022180004 1755.3498204863211 0 0 0 0 3878.8451410017151 4629.7198613311193 0 4629.7198613311193 -203.44952681296036 0 0 0 0 -203.61518351219001 1962.675754908465 0 1962.675754908465 110.0533989714711 0 0 0 0 34.710407621358257 21.202794711207616 0 21.202794711207616 11.453174823083145 0 0 0 0 17.399252437336092 -7.1571745893394976 0 -7.1571745893394976 16.004673824890549 0 0 0 0 142.0316724343129 -25.907877280033972 0 -25.907877280033972 465.57339458711886 0 0 0 0 -2627.7230793440358 -2978.917320510905 0 -2978.917320510905 2887.9108208574726 0 0 0 0 1011.6576495691424 848.04131650454656 0 848.04131650454656 -93.260145772639589 0 0 0 0 61.614316838367813 427.01515800902052 0 427.01515800902052 762.81431666206845 0 0 0 0 53.125026344829166 485.98316141725354 0 485.98316141725354 1252.6684911869233 0 0 0 0 -65.949944890393454 139.77182697462013 0 139.77182697462013 1488.1506235023844 0 0 0 0 -91.399505544834028 218.16793837797559 0 218.16793837797559 1166.5764182738203 0 0 0 0 -70.495028866968028 205.12489988435834 0 205.12489988435834 1145.6563439847378 0 0 0 0 -18.335602953780835 -61.146593086472421 0 -61.146593086472421 1143.0637965844471 0 0 0 0 -32.480380654651526 220.7855859774827 0 220.7855859774827 1109.6865871032496 0 0 0 0 23.358996109679083 343.65599837430364 0 343.65599837430364 1277.8019471574335 0 0 0 0 -88.291148529931206 242.15990016676687 0 242.15990016676687 1125.1541161408677 0 0 0 0 0.58905455175317911 -75.98761584798558 0 -75.98761584798558 823.29155212153091 0 0 0 0 89.407770123211776 161.92558251279615 0 161.92558251279615 1589.2838093291393 0 0 0 0 659.31178993256071 -247.10547402323664 0 -247.10547402323664 119.40743428190945 0 0 0 0 14.625406177100537 6.3668222694303749 0 6.3668222694303749 6.4863145336857677 0 0 0 0 819.31510054815863 679.30425856360216 0 679.30425856360216 1234.1574184239107 0 0 0 0 690.67542743235958 744.74739643115095 0 744.74739643115095 724.62197151856071 0 0 0 0 1011.438734511139 646.41881023766473 0 646.41881023766473 741.40278272848673 0 0 0 0 791.15221743385337 -500.1052918930236 0 -500.1052918930236 103.97307773678494 0 0 0 0 617.64044511385146 434.78394985065825 0 434.78394985065825 628.74091102079274 0 0 0 0 2226.675852578981 -496.70474465123971 0 -496.70474465123971 831.9855443218612 0 0 0 0 2978.278808632469 1954.6243508438661 0 1954.6243508438661 1448.1466464999648 0 0 0 0 -30.826975840929549 -1704.9043504257113 0 -1704.9043504257113 -3482.7448479696059 0 0 0 0 29.351615206715813 2.965641794134477 0 2.965641794134477 5.8786259139442389 0 0 0 0 638.70674559757026 48.794595607356314 0 48.794595607356314 -1201.5191478255629 0 0 0 0 223.78937679423689 -165.51777577744906 0 -165.51777577744906 1875.0977712907888 0 0 0 0 234.91969223519936 1575.6470132056629 0 1575.6470132056629 390.48186065353002 0 0 0 0 -109.96461992969489 251.6550003209278 0 251.6550003209278 614.98099346039908 0 0 0 0 -116.4362785344747 202.67197506291404 0 202.67197506291404 245.62710722608062 0 0 0 0 203.0645451999294 624.25958974139382 0 624.25958974139382 586.06472248492355 0 0 0 0 3.0493969817762263 212.20192568782204 0 212.20192568782204 27.400095769341533 0 0 0 0 53.782035431177064 -66.978295252341013 0 -66.978295252341013 1062.627164551207 0 0 0 0 -183.98978530640306 -283.01999505911408 0 -283.01999505911408 180.91029803843412 0 0 0 0 195.69677644031071 -43.115638883796962 0 -43.115638883796962 -1052.9025221158399 0 0 0 0 157.97394392168644 344.87964452153346 0 344.87964452153346 -196.92982784161131 0 0 0 0 -381.38150898109961 -533.83860579555926 0 -533.83860579555926 -772.90462410110399 0 0 0 0 -200.52351811946937 308.27789470337871 0 308.27789470337871 595.01222606612282 0 0 0 0 46.897411406862808 22.248491100316542 0 22.248491100316542 11.084824916758617 0 0 0 0 1958.2391777674929 -1183.5572831727441 0 -1183.5572831727441 -74.90000198936059 0 0 0 0 593.71217419153982 -805.53241520222036 0 -805.53241520222036 60.368372066292977 0 0 0 0 1698.4378723702484 -1559.501701277647 0 -1559.501701277647 439.3225640705823 0 0 0 0 -1783.1801806915937 -978.78258641210709 0 -978.78258641210709 1411.2196617441859 0 0 0 0 21.094258119327975 4.6218530624748571 0 4.6218530624748571 0.16569260042421341 0 0 0 0 689.41767796576096 843.55212641221988 0 843.55212641221988 411.61492722766161 0 0 0 0 -66.56064717841582 -120.54912478412325 0 -120.54912478412325 66.94410282096942 0 0 0 0 860.97419817631453 102.17514007359659 0 102.17514007359659 52.78516182426938 0 0 0 0 1084.1987988729743 56.086668147087039 0 56.086668147087039 -269.08594988115874 0 0 0 0 714.01834654614504 205.58523241324474 0 205.58523241324474 -141.84839958980047 0 0 0 0 -1.284635820504235 4.0896078688317807 0 4.0896078688317807 0.23193892947238925 0 0 0 0 247.41122192409239 133.36040547538232 0 133.36040547538232 -615.62651501650362 0 0 0 0 1025.7267701301025 -509.55551358014236 0 -509.55551358014236 -100.42172201411813 0 0 0 0 23.896089181405841 -703.91741556666648 0 -703.91741556666648 -1252.6716214050748 0 0 0 0 70.594867032291774 -26.380916679362766 0 -26.380916679362766 7.3029470402481973 0 0 0 0 408.84101867850404 -374.8585323009097 0 -374.8585323009097 -307.19122979471831 0 0 0 0 -102.39658987724397 214.39848293844625 0 214.39848293844625 -7.6606215493102354 0 0 0 0 167.67305257581756 -256.46672661290904 0 -256.46672661290904 454.55810272856138 0 0 0 0 93.402722543675026 -28.477775866009203 0 -28.477775866009203 4.1097577169537125 0 0 0 0 -34.330448352163785 -254.0977746145935 0 -254.0977746145935 8.8602203773607471 0 0 0 0 193.56013089509361 -751.50073968480183 0 -751.50073968480183 -1214.8311964352818 0 0 0 0 253.65954812663404 -211.72055342311933 0 -211.72055342311933 -1106.6487441482359 0 0 0 0 -205.02494799708256 -4.686200979812952 0 -4.686200979812952 -490.01835585010667 0 0 0 0 288.10931281808735 -570.56407580969835 0 -570.56407580969835 -537.1720208073466 0 0 0 0 -1.5652220500344072 -11.342393345292875 0 -11.342393345292875 3.7403848429809479 0 0 0 0 69.02992439490481 -119.96512600436472 0 -119.96512600436472 -312.08058914568937 0 0 0 0 -79.130101169143018 -270.03114954502144 0 -270.03114954502144 120.08624066951597 0 0 0 0 47.048988073974726 -16.436150775235483 0 -16.436150775235483 2.6890170653941112 0 0 0 0 35.357073714265425 -101.45321851794461 0 -101.45321851794461 -25.033814567605077 0 0 0 0 56.054281256804302 -21.527040497422568 0 -21.527040497422568 2.1536912760485531 0 0 0 0 43.273073304750142 -14.087137173748488 0 -14.087137173748488 -16.892486206579633 0 0 0 0 -2.8029980947467266 -74.059961666615891 0 -74.059961666615891 10.406728894431581 0 0 0 0 589.36361377831781 -76.958519985807015 0 -76.958519985807015 -1621.6259245361389 0 0 0 0 -220.77485172850356 28.391515036284545 0 28.391515036284545 -348.00450539907888 0 0 0 0 -220.65429206106273 -404.55775504416306 0 -404.55775504416306 -514.55566686509701 0 0 0 0 383.33270889846335 -19.1262861724922 0 -19.1262861724922 -420.33788787172762 0 0 0 0 80.213518332988471 4.2371257340004931 0 4.2371257340004931 -44.769682823681237 0 0 0 0 115.85531006666235 -5.575896134049799 0 -5.575896134049799 -237.87180460034506 0 0 0 0 89.874985433611073 61.817405000399958 0 61.817405000399958 -410.72530852470663 0 0 0 0 52.831469171389472 -19.849963004671736 0 -19.849963004671736 -67.238384014337726 0 0 0 0 -5.9544377530023667 -101.29702778405408 0 -101.29702778405408 -78.907075827170047 0 0 0 0 39.914484703598191 -81.848052518154873 0 -81.848052518154873 -126.33105946821888 0 0 0 0 60.394072548815245 -90.287741975342669 0 -90.287741975342669 28.097119884099811 0 0 0 0 119.4978392212015 -152.09353212823044 0 -152.09353212823044 -152.76770450502408 0 0 0 0 167.96434158485908 -332.98803016908278 0 -332.98803016908278 -124.44984557900898 0 0 0 0 138.41208697042759 -146.99174375248185 0 -146.99174375248185 -439.3207827239894 0 0 0 0 1600.674693086663 -407.41593168019244 0 -407.41593168019244 -553.47034846821043 0 0 0 0 -464.96474176967695 132.01628312031971 0 132.01628312031971 -541.8089411862461 0 0 0 0 286.39618651040109 -274.71120347365013 0 -274.71120347365013 -754.23859519686084 0 0 0 0 86.819361890917321 57.833824751508203 0 57.833824751508203 33.585674962992769 0 0 0 0 284.57428773464153 1660.9659593122269 0 1660.9659593122269 -1162.939581309638 0 0 0 0 1098.2015493119652 1321.5854552126839 0 1321.5854552126839 -1328.0851123286484 0 0 0 0 1873.2858118606891 849.46754967230481 0 849.46754967230481 -1211.9686401969848 0 0 0 0 29.051124728763185 -10.866878529943044 0 -10.866878529943044 4.0815650850138825 0 0 0 0 2214.9765648062457 1295.6504402971132 0 1295.6504402971132 529.05584764710693 0 0 0 0 3566.3303235257772 -2416.4920928847132 0 -2416.4920928847132 269.10846981465329 0 0 0 0 1345.5881865845586 -194.4511376619123 0 -194.4511376619123 -475.88047004625878 0 0 0 0 3595.7465434786427 287.34378971714705 0 287.34378971714705 -1644.9332930121163 0 0 0 0 -708.20956375233072 -2845.7840334744906 0 -2845.7840334744906 3317.6922197500462 0 0 0 0 3932.2856054159101 326.84903612662504 0 326.84903612662504 -369.21357252606686 0 0 0 0 3552.9174701000629 -2480.4130929755238 0 -2480.4130929755238 644.68797732485837 0 0 0 0 -724.79523796666763 811.67308580845383 0 811.67308580845383 -259.47750862227076 0 0 0 0 103.78681899314596 71.320614969984462 0 71.320614969984462 35.912206914071916 0 0 0 0 206.17080143814201 153.75687127533547 0 153.75687127533547 -765.58596402977128 0 0 0 0 -2066.1843418162607 -750.11523541676388 0 -750.11523541676388 2771.3486172371013 0 0 0 0 1535.3203083465269 -490.09494464979434 0 -490.09494464979434 46.176644098450197 0 0 0 0 -1405.0893901279051 641.43603607071827 0 641.43603607071827 986.65753225647859 0 0 0 0 260.83837126023718 -468.78194276979775 0 -468.78194276979775 -63.047291415105065 0 0 0 0 -307.40762034594536 -308.31344802865351 0 -308.31344802865351 63.719359874958172 0 0 0 0 26.258703272652809 15.409279869607722 0 15.409279869607722 -2.8777892638167231 0 0 0 0 -308.40291595619055 -289.05337642711311 0 -289.05337642711311 -292.8766384972887 0 0 0 0 523.72367698969902 -110.1757370430405 0 -110.1757370430405 -193.15829115959787 0 0 0 0 917.30072367402317 -685.16000299516782 0 -685.16000299516782 131.75292709578662 0 0 0 0 110.34412131409044 -104.51168114803295 0 -104.51168114803295 -72.772947439952077 0 0 0 0 790.38033114276186 -347.86619853010598 0 -347.86619853010598 -193.99297923134054 0 0 0 0 78.942900291491242 -41.880856105719431 0 -41.880856105719431 45.14812275390068 0 0 0 0 39.698758431419265 -90.65428016770602 0 -90.65428016770602 -12.701888626383152 0 0 0 0 1472.5358080429651 233.31798111722583 0 233.31798111722583 -264.99363538267971 0 0 0 0 1836.8414015045564 381.06706740623486 0 381.06706740623486 -369.60609360659146 0 0 0 0 2055.9822190721243 -17.76552837285908 0 -17.76552837285908 -426.0968564757095 0 0 0 0 1734.0844181004504 323.33088451415642 0 323.33088451415642 -232.45354084566134 0 0 0 0 858.54867248540995 -16.271186800709529 0 -16.271186800709529 -321.05799842354099 0 0 0 0 1377.1102085608436 373.09393818216267 0 373.09393818216267 -359.21294240269253 0 0 0 0 564.24956891930196 233.42837850209071 0 233.42837850209071 -45.51800093249949 0 0 0 0 134.35337287993752 -53.535960465847893 0 -53.535960465847893 -264.92487318230633 0 0 0 0 418.02968334370962 -196.01184277534958 0 -196.01184277534958 3.5357154603523213 0 0 0 0 47.396630336819214 -25.080767273297056 0 -25.080767273297056 9.8505962074989384 0 0 0 0 72.398221099414513 -140.44279030944381 0 -140.44279030944381 -207.75189438655434 0 0 0 0 164.15032052978859 -10.046181362013158 0 -10.046181362013158 28.96835195577296 0 0 0 0 82.9471682242729 -57.493309738880271 0 -57.493309738880271 -92.77269634482218 0 0 0 0 192.5463496678567 -27.767436342815927 0 -27.767436342815927 -104.66249175702978 0 0 0 0 115.44696394199855 -49.706593201986834 0 -49.706593201986834 -129.58166679670103 0 0 0 0 83.636681389063597 -27.77686334833561 0 -27.77686334833561 -93.781762327209435 0 0 0 0 127.6300952231104 12.258382568757952 0 12.258382568757952 -82.175216729709064 0 0 0 0 -13.889829981548246 -88.320563043427683 0 -88.320563043427683 -76.453085122782795 0 0 0 0 69.11494542658329 -21.0758919400796 0 -21.0758919400796 -92.267206046220963 0 0 0 0 62.02365329433087 -22.447907272022348 0 -22.447907272022348 -74.364080317289336 0 0 0 0 35.317006971861701 -86.353910036625166 0 -86.353910036625166 -112.47931474867801 0 0 0 0 -10.396775526189231 -42.440461415915252 0 -42.440461415915252 -65.530462141134194 0 0 0 0 85.098908486703294 -10.193687824184963 0 -10.193687824184963 -19.780923117094062 0 0 0 0 -1.6448449439300248 -9.008373103345253 0 -9.008373103345253 5.2331578337486544 0 0 0 0 11.349731532711303 -23.552357281176228 0 -23.552357281176228 -0.97163989832188236 0 0 0 0 34.824314776748679 -6.6062957429114064 0 -6.6062957429114064 -17.119894598273213 0 0 0 0 67.151941858208374 0.54961802750881361 0 0.54961802750881361 4.5094849324614188 0 0 0 0 36.34374831707126 -11.154341943586878 0 -11.154341943586878 -14.640733314294534 0 0 0 0 74.123471817241807 29.421408012478423 0 29.421408012478423 54.679496204391398 0 0 0 0 42.252377544071351 -38.6847156128606 0 -38.6847156128606 -66.57899689883601 0 0 0 0 23.057799294979759 -12.500329112979671 0 -12.500329112979671 -5.6031478778095334 0 0 0 0 31.420553354949618 -15.25925718992027 0 -15.25925718992027 2.2732811166297004 0 0 0 0 27.350417189969448 -12.767078023232898 0 -12.767078023232898 -10.653628107349505 0 0 0 0 39.701027223374695 0.16532276620637276 0 0.16532276620637276 -46.502324428321117 0 0 0 0 22.047970833897125 -12.269524472034391 0 -12.269524472034391 -31.808459512205445 0 0 0 0 43.463418086494499 -21.540045419215446 0 -21.540045419215446 -5.0944054073582796 0 0 0 0 33.722594619226896 -32.086588139724768 0 -32.086588139724768 8.3648381405308214 0 0 0 0 23.522038108314774 -4.7384274158717865 0 -4.7384274158717865 -5.5408961148007698 0 0 0 0 34.827218292593628 -17.324553589477926 0 -17.324553589477926 -6.4252118547291559 0 0 0 0 25.020973419363145 -11.460786073814234 0 -11.460786073814234 -14.893547731088347 0 0 0 0 32.238488539595593 -7.7201261987004983 0 -7.7201261987004983 -15.216558067169636 0 0 0 0 71.555798254048568 9.3478550932632061 0 9.3478550932632061 2.9784830663083994 0 0 0 0 68.304142330453033 -10.47863347346356 0 -10.47863347346356 -75.651285993393685 0 0 0 0 82.457048422395019 14.838454887736589 0 14.838454887736589 -47.90677616521134 0 0 0 0 102.39434873283608 42.989980273774563 0 42.989980273774563 -74.437436106294626 0 0 0 0 99.977825685258722 45.754779035247338 0 45.754779035247338 -61.027727810607757 0 0 0 0 8.2388545239845286 -2.4677837945266674 0 -2.4677837945266674 -7.3065974110586609 0 0 0 0 101.22678578068735 38.879814740284928 0 38.879814740284928 -63.370178691526235 0 0 0 0 105.67729951190995 38.720177978993888 0 38.720177978993888 -78.449245083174901 0 0 0 0 167.77048707733047 80.968510123693704 0 80.968510123693704 -76.502579645180958 0 0 0 0 104.37787302315701 46.860460294898076 0 46.860460294898076 -85.77258349053227 0 0 0 0 26.741177574855101 -15.454953556572946 0 -15.454953556572946 -41.776187724557531 0 0 0 0 1.3543007525791353 0.69348987961180342 0 0.69348987961180342 -0.41307187464951056 0 0 0 0 20.862390175461769 -0.65270228874396707 0 -0.65270228874396707 -39.154694732111238 0 0 0 0 15.077456953680667 20.884309856926848 0 20.884309856926848 -13.063555176757291 0 0 0 0 101.60778451770329 34.375486758283841 0 34.375486758283841 -5.8263901348127547 0 0 0 0 3.684331499185646 8.8817365396262176 0 8.8817365396262176 -19.863319641663111 0 0 0 0 127.77720026534371 -49.128999072393526 0 -49.128999072393526 -35.610628616392205 0 0 0 0 125.5214360771206 -33.250327403601204 0 -33.250327403601204 75.072068962042977 0 0 0 0 176.83547969906067 -50.086194403353147 0 -50.086194403353147 40.838184223652206 0 0 0 0 90.424210716140806 17.879711016272267 0 17.879711016272267 75.691142271860372 0 0 0 0 118.40333651906985 23.761533639655681 0 23.761533639655681 -37.885178068725509 0 0 0 0 106.79613955583227 12.198354532695248 0 12.198354532695248 -30.161863399094727 0 0 0 0 111.37831213045865 10.818341028252689 0 10.818341028252689 -31.370263392196648 0 0 0 0 120.52069470661809 6.8743880849469861 0 6.8743880849469861 -138.02395455160695 0 0 0 0 88.719271562804352 19.087866403566295 0 19.087866403566295 -37.172747607670317 0 0 0 0 110.54864464825368 60.082967859918426 0 60.082967859918426 -231.04263878515394 0 0 0 0 -32.35922337154625 85.864896471265638 0 85.864896471265638 21.593627284186368 0 0 0 0 2.9793879359312996 -32.084956944839178 0 -32.084956944839178 200.04304693311497 0 0 0 0 17.783198768398648 -8.3962819623682208 0 -8.3962819623682208 4.8302100028427333 0 0 0 0 1613.7569736799924 907.3696960303887 0 907.3696960303887 305.00443414389974 0 0 0 0 74.505637923919494 -390.36378533575407 0 -390.36378533575407 323.53082591382372 0 0 0 0 789.37531030719765 -679.59049639068644 0 -679.59049639068644 222.11981445078163 0 0 0 0 368.23879285770818 -164.60783348912537 0 -164.60783348912537 85.858830727624081 0 0 0 0 183.07236364724668 -203.79456320243662 0 -203.79456320243662 205.94209761192786 0 0 0 0 397.59831623997161 -244.50537751585762 0 -244.50537751585762 98.666329601222969 0 0 0 0 786.48838784498366 -166.17375036790236 0 -166.17375036790236 -111.57646356760051 0 0 0 0 657.84637692004799 -75.100042995889908 0 -75.100042995889908 -133.98530758995548 0 0 0 0 548.48103962955065 -106.09311260847426 0 -106.09311260847426 -122.55653476053385 0 0 0 0 491.74434781459422 -70.233175705876874 0 -70.233175705876874 -99.981022821717488 0 0 0 0 434.5373413804482 -163.23863702516246 0 -163.23863702516246 -0.58275874963169372 0 0 0 0 267.16757383165532 -45.059351581573537 0 -45.059351581573537 -37.150829684731434 0 0 0 0 238.24528587012719 -80.22387803974425 0 -80.22387803974425 4.4351664994937892 0 0 0 0 127.92351827045422 -14.608145473397144 0 -14.608145473397144 11.512308814120843 0 0 0 0 31.040748865925707 -54.182052720404499 0 -54.182052720404499 61.858313556125722 0 0 0 0 243.74756739078293 -120.80358888469527 0 -120.80358888469527 38.394093220322247 0 0 0 0 273.02519791189843 -94.533259445242948 0 -94.533259445242948 15.600265225569956 0 0 0 0 18.426155201001052 15.486982552469726 0 15.486982552469726 5.0768542993631272 0 0 0 0 -56.055058174111764 32.962564082539757 0 32.962564082539757 56.564194732014585 0 0 0 0 38.824702037818497 -13.214631333654324 0 -13.214631333654324 -32.042842203238251 0 0 0 0 -2.1362117137905443 -53.043855665127012 0 -53.043855665127012 94.637956844055225 0 0 0 0 -9.880805257045381 1.7168064998098167 0 1.7168064998098167 3.1990063712293337 0 0 0 0 -18.563898530457664 0.53248700818812722 0 0.53248700818812722 3.7632056102247589 0 0 0 0 20.304438578281406 -67.503670751441859 0 -67.503670751441859 102.82090401700225 0 0 0 0 46.070892651652684 -87.326825665648357 0 -87.326825665648357 12.564055171311338 0 0 0 0 -132.52739674408804 -31.478380414950152 0 -31.478380414950152 347.91477702833981 0 0 0 0 -105.7732393822298 48.045126505054213 0 48.045126505054213 170.25671234279434 0 0 0 0 57.885573210667644 -73.271548095111939 0 -73.271548095111939 -233.07318032245348 0 0 0 0 -3.3020970770922702 0.25225635169820038 0 0.25225635169820038 -0.093559273229682605 0 0 0 0 -33.174602136947215 -112.8177757349149 0 -112.8177757349149 99.394521152396919 0 0 0 0 70.200427315896377 -10.812421463791907 0 -10.812421463791907 106.51639021280425 0 0 0 0 -20.898735231756291 43.564764886164994 0 43.564764886164994 234.028952040695 0 0 0 0 -87.407176447755774 -44.843854752335574 0 -44.843854752335574 222.05515753913642 0 0 0 0 -66.901949793536915 -62.227905699794064 0 -62.227905699794064 139.82247801315657 0 0 0 0 -291.13758104435692 81.908310227432594 0 81.908310227432594 253.71103409208808 0 0 0 0 -82.191535488003865 87.493712321127532 0 87.493712321127532 85.741466075902281 0 0 0 0 212.70187091564367 36.815903412419175 0 36.815903412419175 -59.690906993626413 0 0 0 0 -0.87346638141781163 0.2417233512082646 0 0.2417233512082646 0.83754844885736901 0 0 0 0 121.49716534859908 123.77143131468074 0 123.77143131468074 54.019295762918773 0 0 0 0 601.75061514371191 273.10269269454875 0 273.10269269454875 124.2315789599088 0 0 0 0 -261.98993468852132 -110.16334619582994 0 -110.16334619582994 536.0371404700436 0 0 0 0 -58.144108718188363 337.04179917319379 0 337.04179917319379 592.91404233146386 0 0 0 0 -144.38091595398146 -273.3743345345647 0 -273.3743345345647 -47.282901669377679 0 0 0 0 497.75996924779611 15.577175695035294 0 15.577175695035294 -66.149364652326767 0 0 0 0 -126.79618891731661 -118.73958605937696 0 -118.73958605937696 245.62430477572707 0 0 0 0 -128.81490297101982 -72.843207278738987 0 -72.843207278738987 300.46856242447029 0 0 0 0 642.60014047371078 -446.2131264054351 0 -446.2131264054351 1307.4751956832724 0 0 0 0 2138.7926960685909 -216.75245743981077 0 -216.75245743981077 -250.66754779740586 0 0 0 0 1749.6877772024491 -54.431771876135826 0 -54.431771876135826 -170.70452901664976 0 0 0 0 867.13175394026621 725.81927364837975 0 725.81927364837975 518.07151762112426 0 0 0 0 879.69802252541558 61.206183062354285 0 61.206183062354285 -187.57001789063361 0 0 0 0 708.69525859189162 -89.026916472257653 0 -89.026916472257653 -171.74061596077286 0 0 0 0 558.46955228751176 40.58305044104236 0 40.58305044104236 -167.11187635623173 0 0 0 0 649.96625811760168 10.490467649586208 0 10.490467649586208 -158.55907813279828 0 0 0 0 561.01061250061321 145.9500952829294 0 145.9500952829294 -118.7135116653626 0 0 0 0 223.91261856033816 23.070597731344606 0 23.070597731344606 -45.991617558756843 0 0 0 0 269.99623974024871 136.29746013218255 0 136.29746013218255 -44.366392958785582 0 0 0 0 584.99569055979373 288.95304744236091 0 288.95304744236091 -34.981258048439486 0 0 0 0 201.00993941925117 185.41706468754455 0 185.41706468754455 115.59426919002181 0 0 0 0 184.89160798815101 -26.632609580538826 0 -26.632609580538826 -88.173944454836601 0 0 0 0 27.125992092544038 -30.446510039538225 0 -30.446510039538225 103.99211779136749 0 0 0 0 265.84818677329531 157.06395612350025 0 157.06395612350025 -142.18439889782894 0 0 0 0 14.511686138383666 18.729054929662539 0 18.729054929662539 3.4153122431899803 0 0 0 0 7.1092943042709082 3.4419403153002577 0 3.4419403153002577 0.67304552285190766 0 0 0 0 97.908341210641083 24.487585160197341 0 24.487585160197341 -46.213232975109349 0 0 0 0 49.093625977489864 151.65478211044319 0 151.65478211044319 16.719511588124078 0 0 0 0 -155.50577376213187 103.95578423596726 0 103.95578423596726 -27.630150475091796 0 0 0 0 -131.25891404516005 78.428564287803511 0 78.428564287803511 -5.9398020018415991 0 0 0 0 20.342107810509333 84.884279726082241 0 84.884279726082241 -4.2113205476907751 0 0 0 0 16.004182845531432 17.709777471091698 0 17.709777471091698 4.5037442303579454 0 0 0 0 -81.964616451095935 114.50478030744216 0 114.50478030744216 -27.151221600013741 0 0 0 0 -228.70251635812747 130.36040950129609 0 130.36040950129609 -88.100000756036025 0 0 0 0 -311.45635894533314 194.00993349967297 0 194.00993349967297 -137.05506567448538 0 0 0 0 -210.11784271991928 143.95061159813122 0 143.95061159813122 -81.280641237354757 0 0 0 0 -205.95655744275427 119.24588820234931 0 119.24588820234931 -34.059874178608879 0 0 0 0 -253.69062556821882 100.42116522171318 0 100.42116522171318 -11.578264401001434 0 0 0 0 -202.10781896306253 76.307534450941603 0 76.307534450941603 -0.63207324247741781 0 0 0 0 -173.62510492225556 142.97455379964049 0 142.97455379964049 -23.652661671429087 0 0 0 0 10.684634615925376 16.577312371077653 0 16.577312371077653 15.59445150554911 0 0 0 0 -219.37272977837711 91.795029211575184 0 91.795029211575184 -79.838014815695715 0 0 0 0 105.32363873267605 105.42334359094684 0 105.42334359094684 -56.670933653105749 0 0 0 0 6.3793395822146604 4.9591280827920059 0 4.9591280827920059 -13.549528309664389 0 0 0 0 372.20725318548648 -15.024293955111716 0 -15.024293955111716 -18.812461789846566 0 0 0 0 404.01306744482645 -76.253916218143331 0 -76.253916218143331 12.506056163994799 0 0 0 0 458.41583998346323 -24.96973708866426 0 -24.96973708866426 -43.50114361838223 0 0 0 0 451.58637281700703 5.207301473167945 0 5.207301473167945 -105.61276791699675 0 0 0 0 580.70337312489573 -47.939153664250625 0 -47.939153664250625 -84.952082643895665 0 0 0 0 590.92493144910259 -61.959260816774076 0 -61.959260816774076 -67.738305903545552 0 0 0 0 559.8258216135946 -164.7257076617916 0 -164.7257076617916 62.698937782804933 0 0 0 0 602.69784480863018 -60.16070173260232 0 -60.16070173260232 -67.628328616650833 0 0 0 0 661.61809900256412 -105.78270144323733 0 -105.78270144323733 7.492319065524498 0 0 0 0 735.988051922257 -217.52898122169245 0 -217.52898122169245 124.58276154242412 0 0 0 0 11.497353000289877 42.228082969579191 0 42.228082969579191 -95.292774545211614 0 0 0 0 -202.32974951568758 165.83727160884882 0 165.83727160884882 -165.00810399361944 0 0 0 0 95.28712368685774 295.42540233732871 0 295.42540233732871 -261.15739512896835 0 0 0 0 -80.004123976330447 111.82062825871981 0 111.82062825871981 -12.121065444578562 0 0 0 0 8.3654940289583237 9.7745558203182128 0 9.7745558203182128 9.4971391928579934 0 0 0 0 -41.153106973424656 -112.10914703433752 0 -112.10914703433752 148.71387139944636 0 0 0 0 715.41317279588111 -212.23754327295592 0 -212.23754327295592 22.760041666050256 0 0 0 0 -308.5807220091956 38.611833814007696 0 38.611833814007696 -102.83560389341619 0 0 0 0 -634.36981198408466 66.51435991177641 0 66.51435991177641 -101.34528898522694 0 0 0 0 -812.5010136430501 109.47580220684358 0 109.47580220684358 -12.50798836649119 0 0 0 0 -656.44401679661678 301.83183430841291 0 301.83183430841291 -117.91434777001268 0 0 0 0 -1.443037484288503 0.82274112478064865 0 0.82274112478064865 -4.9449378803387845 0 0 0 0 327.63520818296092 52.51724714944794 0 52.51724714944794 -194.29046170685979 0 0 0 0 -1006.0756827078112 405.85542488102874 0 405.85542488102874 60.622759065256105 0 0 0 0 -341.54636674156791 679.44633518421779 0 679.44633518421779 -395.36464908132621 0 0 0 0 14.380780042003607 411.84643506715838 0 411.84643506715838 -349.76290618559506 0 0 0 0 -716.93204657924798 706.27647231573201 0 706.27647231573201 -165.25487177258037 0 0 0 0 -347.70117839009617 309.79940641418398 0 309.79940641418398 -146.94001846986066 0 0 0 0 -596.96751103142014 415.59489666030458 0 415.59489666030458 -151.99701865149837 0 0 0 0 -295.6087137250579 261.92505188792347 0 261.92505188792347 -127.46384692697029 0 0 0 0 -368.64160298000206 227.75154107846538 0 227.75154107846538 -125.78509191347621 0 0 0 0 -289.17233494282118 202.06566623841172 0 202.06566623841172 -185.86690835223999 0 0 0 0 -42.558531769813271 125.80900987681525 0 125.80900987681525 -206.37625050603674 0 0 0 0 14.156003035433343 7.9197497711173099 0 7.9197497711173099 -0.35580233700089536 0 0 0 0 -187.5748587823764 224.71577608144253 0 224.71577608144253 -202.17503778330138 0 0 0 0 -141.43421279406175 282.49784792029823 0 282.49784792029823 -170.09581810478994 0 0 0 0 1.949849852655916 -0.19752597627942237 0 -0.19752597627942237 -1.3161928351023562 0 0 0 0 -187.13904056127649 244.95210754870459 0 244.95210754870459 -206.86297184592695 0 0 0 0 -241.23157607365283 266.05526212019322 0 266.05526212019322 -164.21068125448073 0 0 0 0 -176.38823511419105 176.56386490173486 0 176.56386490173486 -204.47282773724146 0 0 0 0 -336.25537423686183 223.14097389795279 0 223.14097389795279 -178.64457468061482 0 0 0 0 -229.26234058337286 217.72995016633649 0 217.72995016633649 -197.61160144546739 0 0 0 0 -332.12507449345139 187.96954825533976 0 187.96954825533976 -171.67984068564328 0 0 0 0 -221.75175753979784 195.48359036757211 0 195.48359036757211 -188.09674779355191 0 0 0 0 -230.45894640086044 175.28738392382365 0 175.28738392382365 -176.51616348561583 0 0 0 0 268.66110588656011 -15.479433374508517 0 -15.479433374508517 -36.907140553704266 0 0 0 0 381.8975909982837 -45.846744036304699 0 -45.846744036304699 -61.348895139776687 0 0 0 0 214.83314447358134 -40.046900287312496 0 -40.046900287312496 -72.945753207550297 0 0 0 0 103.15586516979965 -12.844241995841003 0 -12.844241995841003 3.1153562160179717 0 0 0 0 251.71888301356375 -48.379363539527731 0 -48.379363539527731 -26.185788825752752 0 0 0 0 413.31847017754626 -78.668753692364589 0 -78.668753692364589 -48.093685423269562 0 0 0 0 435.12647239685975 -32.19906838767497 0 -32.19906838767497 -79.693847561260554 0 0 0 0 546.05412141254783 -76.218100798281739 0 -76.218100798281739 -100.82056544909301 0 0 0 0 546.78013758086308 -68.345632245951492 0 -68.345632245951492 -130.1192344868532 0 0 0 0 527.44388126164267 -48.684259687073791 0 -48.684259687073791 -64.65717134519582 0 0 0 0 608.76728588150945 -40.100431448206109 0 -40.100431448206109 -117.65430249890414 0 0 0 0 397.68935254311509 -8.9181879376128563 0 -8.9181879376128563 -33.986788946171146 0 0 0 0 530.72438901499117 -44.860598594998919 0 -44.860598594998919 -83.908963344181757 0 0 0 0 525.34992845501938 -23.120184453572961 0 -23.120184453572961 -56.085482893646258 0 0 0 0 522.48789906587626 -40.746585221460919 0 -40.746585221460919 -4.1510485481921933 0 0 0 0 647.30468986877531 -44.465149653060507 0 -44.465149653060507 -75.803189605879197 0 0 0 0 603.58725166571821 -109.53207309578011 0 -109.53207309578011 12.458333645206949 0 0 0 0 700.98819894704229 -15.744268968663391 0 -15.744268968663391 -37.799898673583812 0 0 0 0 506.62949251171085 -63.401173235698479 0 -63.401173235698479 140.40111596382121 0 0 0 0 503.895970504047 -88.651780701879943 0 -88.651780701879943 -31.737936032522157 0 0 0 0 365.22563982827705 -30.400290206630416 0 -30.400290206630416 39.542978753080206 0 0 0 0 363.57307611061015 -48.994407146243532 0 -48.994407146243532 -74.029081143911753 0 0 0 0 228.19110052660108 1.6058767219037691 0 1.6058767219037691 -16.820929164321569 0 0 0 0 242.38629359540209 -62.486513190675396 0 -62.486513190675396 -137.74343660518934 0 0 0 0 242.50365412073734 -52.347160303195778 0 -52.347160303195778 -4.7391567882150412 0 0 0 0 -0.49006832456201721 1.0682290303238204 0 1.0682290303238204 -3.2813854664151449 0 0 0 0 -185.4275831138948 -146.56357240436319 0 -146.56357240436319 -74.337471174865641 0 0 0 0 81.339745542062701 0.12948812011893551 0 0.12948812011893551 -282.54266859420022 0 0 0 0 78.839652742593898 2.5626051168010235 0 2.5626051168010235 -44.331012654773986 0 0 0 0 127.47987628609189 46.020808064530684 0 46.020808064530684 -60.545607803538587 0 0 0 0 -6.2772338757422403 37.168905205332521 0 37.168905205332521 -10.61854432407381 0 0 0 0 -192.47761856913712 48.794308704435025 0 48.794308704435025 -11.086853452877676 0 0 0 0 9.9718905477224098 6.387527893813548 0 6.387527893813548 30.686504498215072 0 0 0 0 9.8399393958097789 13.378420522722081 0 13.378420522722081 21.157350332874557 0 0 0 0 102.91509606256295 -5.7578665595510756 0 -5.7578665595510756 13.757163767188104 0 0 0 0 73.096354751178296 -10.207757104929442 0 -10.207757104929442 -3.1382541541352111 0 0 0 0 60.411921852261003 -10.817474907878932 0 -10.817474907878932 21.918353172057323 0 0 0 0 45.567572939704405 -36.348626068098383 0 -36.348626068098383 11.183437682263502 0 0 0 0 72.038670696427289 -8.2308386834529301 0 -8.2308386834529301 -6.4245601648635784 0 0 0 0 -7.1753387081117239 -118.18471996253669 0 -118.18471996253669 -26.034539835090982 0 0 0 0 39.676154693734134 -0.17632376178698905 0 -0.17632376178698905 14.234810424955413 0 0 0 0 0.98433597270363293 0.31480925411636917 0 0.31480925411636917 -0.50376164182253547 0 0 0 0 0.95640409617720401 0.5939762160498816 0 0.5939762160498816 -1.4407444239632312 0 0 0 0 62.468531338619869 -27.52713213774814 0 -27.52713213774814 123.95542985123757 0 0 0 0 237.57491803185258 -15.295730415679827 0 -15.295730415679827 -114.26166744466536 0 0 0 0 111.30360274127452 -80.816574408105225 0 -80.816574408105225 177.37713942775736 0 0 0 0 129.32681776746176 20.39468848665274 0 20.39468848665274 -17.569836289127124 0 0 0 0 0.36227949039738405 0.25019442133987013 0 0.25019442133987013 -0.43114364972590025 0 0 0 0 208.05667632523546 -76.87198617390095 0 -76.87198617390095 -239.6587657941709 0 0 0 0 -86.271936945304333 -173.96290668414531 0 -173.96290668414531 -224.63786503663869 0 0 0 0 89.195879679253267 44.04326219404993 0 44.04326219404993 -263.11462099547816 0 0 0 0 -50.4284768297548 63.684571643687832 0 63.684571643687832 -41.946086246795858 0 0 0 0 9.9639558056733222 -29.557658908092435 0 -29.557658908092435 -23.843132647169114 0 0 0 0 70.067369712684012 -19.123486468715782 0 -19.123486468715782 -197.5274722301865 0 0 0 0 -1.0004904274235855 5.1864764903099143 0 5.1864764903099143 -18.026577819429491 0 0 0 0 195.76711849662388 54.900522842430291 0 54.900522842430291 -213.61199689636669 0 0 0 0 54.777058723360824 112.64931965855931 0 112.64931965855931 4.2271643326512276 0 0 0 0 237.50485524434771 104.48261739719283 0 104.48261739719283 -48.468810622558522 0 0 0 0 74.434410625552118 4.6987285188520218 0 4.6987285188520218 -63.946101393543699 0 0 0 0 137.27728640376881 21.45817951771096 0 21.45817951771096 23.813196666991644 0 0 0 0 51.58097968470247 67.563879583619382 0 67.563879583619382 48.983987280302244 0 0 0 0 -99.553252792378771 -151.12333626875079 0 -151.12333626875079 -34.455160101911133 0 0 0 0 218.18064677216171 126.43737106522553 0 126.43737106522553 -4.1003701078820995 0 0 0 0 -14.475174892315408 68.631087279859912 0 68.631087279859912 47.378330707138957 0 0 0 0 54.838711516262265 65.935639982143584 0 65.935639982143584 -10.04837162612057 0 0 0 0 -1.9029956531241083 4.8315192047213031 0 4.8315192047213031 -8.2908718159562831 0 0 0 0 24.156082169996807 117.89479389014286 0 117.89479389014286 98.61618725237804 0 0 0 0 -76.959201783418848 -22.768960695205578 0 -22.768960695205578 128.72086677604602 0 0 0 0 232.89371462927375 55.671955531407093 0 55.671955531407093 -37.854453514432407 0 0 0 0 116.45136462700611 48.100726645763643 0 48.100726645763643 -16.870879783924465 0 0 0 0 167.56003858011536 40.706739789190578 0 40.706739789190578 -104.64849998922364 0 0 0 0 9.3614131271097989 3.9122496351576928 0 3.9122496351576928 -17.164665054097899 0 0 0 0 160.06741813428744 -0.87078229031931187 0 -0.87078229031931187 -47.138702535870834 0 0 0 0 219.654630869627 -77.983728874132794 0 -77.983728874132794 -5.5762317851222178 0 0 0 0 171.33861571126909 46.133471713405015 0 46.133471713405015 -141.38593948937341 0 0 0 0 132.29386286417139 11.884672322132246 0 11.884672322132246 10.345412306684011 0 0 0 0 32.900995034236985 -8.4166989412913793 0 -8.4166989412913793 -7.7718207127375649 0 0 0 0 8.2329275359543317 -3.7431659096798029 0 -3.7431659096798029 -3.4315607248881861 0 0 0 0 157.20426125545782 -96.996120945476378 0 -96.996120945476378 -102.7476802173278 0 0 0 0 -157.64367981574014 -100.7300387060335 0 -100.7300387060335 -63.100001608512684 0 0 0 0 62.489106000779429 -5.9084615595656942 0 -5.9084615595656942 -23.075475673951587 0 0 0 0 -0.97403544251869789 2.7240835780173995 0 2.7240835780173995 -6.1141566612883267 0 0 0 0 42.100052897832938 102.63507129573645 0 102.63507129573645 -21.236389439698542 0 0 0 0 -151.64712259040607 -260.4205873911701 0 -260.4205873911701 -95.615807529262383 0 0 0 0 63.939768163945701 131.36886600262278 0 131.36886600262278 -114.47598391544307 0 0 0 0 79.790571033110609 104.05572308144838 0 104.05572308144838 -82.555710020795232 0 0 0 0 171.22500438659335 50.563648996630945 0 50.563648996630945 -115.34771726085819 0 0 0 0 514.44676745664037 -554.50514794121409 0 -554.50514794121409 -443.42247354382562 0 0 0 0 -843.53198517422425 83.894903304120817 0 83.894903304120817 124.6566280176703 0 0 0 0 10.195866252986889 -4.4650504216042464 0 -4.4650504216042464 -4.4254321561156758 0 0 0 0 10.547389169422274 -1.7868038732079086 0 -1.7868038732079086 -0.18486969053947888 0 0 0 0 127.08613890426932 113.42301722455522 0 113.42301722455522 -200.03386216195577 0 0 0 0 180.37710676115239 14.934327457500331 0 14.934327457500331 -216.5187056918694 0 0 0 0 9.4433833775110543 0.88366118705835106 0 0.88366118705835106 -1.7784060180456436 0 0 0 0 11.467168677969312 0.5563840019149211 0 0.5563840019149211 -3.6066829806477472 0 0 0 0 5.6358328078529212 -0.66451621380971915 0 -0.66451621380971915 -0.82465661206568797 0 0 0 0 0.11007367310046767 3.0577055720323187 0 3.0577055720323187 -1.4672988837856025 0 0 0 0 3.9184422377421484 1.6290632437606831 0 1.6290632437606831 -4.1829239085220209 0 0 0 0 15.550541345161037 -0.69557960873589764 0 -0.69557960873589764 -1.4978562309315748 0 0 0 0 9.6935391711839145 1.6056326207594083 0 1.6056326207594083 -6.0172524150905424 0 0 0 0 25.494997705056448 -2.0126290629686991 0 -2.0126290629686991 -5.4681992919249751 0 0 0 0 14.110504181088771 -1.1721511808378295 0 -1.1721511808378295 -3.8227087681707559 0 0 0 0 12.101026577754965 0.75038757146376156 0 0.75038757146376156 -5.8987072402742342 0 0 0 0 11.410686639785126 3.1884369095650982 0 3.1884369095650982 -12.161527336764266 0 0 0 0 14.205217545350024 -1.3888788324175039 0 -1.3888788324175039 -11.111263667076855 0 0 0 0 12.324925904618368 0.89765748209522833 0 0.89765748209522833 -0.59181302644787337 0 0 0 0 11.044408225046936 1.4493841704461374 0 1.4493841704461374 -11.861624101142297 0 0 0 0 17.633121884369757 7.2580034728543978 0 7.2580034728543978 -11.518838575945665 0 0 0 0 6.7676775089530565 3.3232662565039846 0 3.3232662565039846 -7.9404333637285163 0 0 0 0 20.545497322712567 -2.1199376744816334 0 -2.1199376744816334 -7.5899945562755278 0 0 0 0 47.038547850887142 -15.724461219983901 0 -15.724461219983901 -0.028785306961413681 0 0 0 0 -64.086892724924837 716.98212570296073 0 716.98212570296073 -709.30456448624136 0 0 0 0 13.471500817853666 267.01193393706353 0 267.01193393706353 -825.1095441739817 0 0 0 0 -552.22744258884632 633.56419777329393 0 633.56419777329393 -399.74515281226013 0 0 0 0 61.241452413596562 102.04753686135427 0 102.04753686135427 -445.80503614588815 0 0 0 0 8.6268803080928027 14.077428102916898 0 14.077428102916898 -14.298661691746382 0 0 0 0 29.648326087895839 3.2984149180956592 0 3.2984149180956592 -11.471641505802836 0 0 0 0 26.609446082788054 3.7261368537274393 0 3.7261368537274393 -7.2948082183538645 0 0 0 0 14.00779126021439 3.1068755568768402 0 3.1068755568768402 -2.2147747005251928 0 0 0 0 13.077426554184058 2.8463312376698013 0 2.8463312376698013 -13.760353825952734 0 0 0 0 24.136707079684129 7.5588072545965588 0 7.5588072545965588 -14.437534822451198 0 0 0 0 -543.85751736814564 -25.455092907366634 0 -25.455092907366634 612.12156833431072 0 0 0 0 -2.3403681401902645 3.3665469285159837 0 3.3665469285159837 -0.066375036778342889 0 0 0 0 -754.91297985054553 763.29028612307047 0 763.29028612307047 -667.03119745485174 0 0 0 0 -140.96783335985674 -36.45920309434041 0 -36.45920309434041 269.91203079128172 0 0 0 0 -260.29798321367707 902.29953731876412 0 902.29953731876412 -163.06990659525763 0 0 0 0 -145.40317041685921 200.01823885813064 0 200.01823885813064 148.52469622372155 0 0 0 0 -1047.352114192734 -105.81049705521036 0 -105.81049705521036 924.36937518910781 0 0 0 0 0.24538442968208329 2.6244353082056335 0 2.6244353082056335 1.4266341105085232 0 0 0 0 12.543989956750011 -8.8387657900502745 0 -8.8387657900502745 -11.539239097302925 0 0 0 0 -3.5858579359337455 -3.8151002899985542 0 -3.8151002899985542 -6.2894022495966055 0 0 0 0 18.212515684671416 45.528476007341396 0 45.528476007341396 141.13027286417491 0 0 0 0 60.723066029389884 36.675574060730469 0 36.675574060730469 -10.438229797096938 0 0 0 0 14.264876735927828 -549.67174725893619 0 -549.67174725893619 258.83420443690648 0 0 0 0 970.54989980490063 -959.48722812652522 0 -959.48722812652522 -22.269917075519061 0 0 0 0 344.22741568369383 -826.63440940963847 0 -826.63440940963847 108.25678538808279 0 0 0 0 -0.22267012071634085 -1.0254490288546378 0 -1.0254490288546378 3.3082035739011673 0 0 0 0 11.634943958968506 14.989527407927199 0 14.989527407927199 5.188405505992705 0 0 0 0 4.5644124406389892 7.3436141906668126 0 7.3436141906668126 -3.0787383007755125 0 0 0 0 29.436352203144452 -0.5271093324274716 0 -0.5271093324274716 8.0225377302231209 0 0 0 0 3.8563890945198924 -1.2402711495448671 0 -1.2402711495448671 2.8493299671989618 0 0 0 0 33.844817278572009 9.650515889743474 0 9.650515889743474 -12.092671719367374 0 0 0 0 3.6888446808297886 25.223281045487965 0 25.223281045487965 104.16314491685898 0 0 0 0 4.5252700840637772 21.029252878137527 0 21.029252878137527 63.750259179880231 0 0 0 0 7.7272671331011225 0.32647672146231344 0 0.32647672146231344 8.2720592886121267 0 0 0 0 -0.13760506727127364 0.0054961867151632759 0 0.0054961867151632759 1.0704307897563297 0 0 0 0 0.18402099843115138 -20.235633231199699 0 -20.235633231199699 58.907848892140464 0 0 0 0 51.161917169173648 41.46546605163212 0 41.46546605163212 28.16100190684665 0 0 0 0 -10.767026296678523 -1.111499588038896 0 -1.111499588038896 16.613489582330658 0 0 0 0 8.169959820494114 -11.813929769464266 0 -11.813929769464266 8.595708357552212 0 0 0 0 17.029727310160524 0.44549534118232259 0 0.44549534118232259 15.08494528769188 0 0 0 0 18.838228855653142 -21.927945025351619 0 -21.927945025351619 29.906264056126247 0 0 0 0 20.131757718899649 -1.685016643547641 0 -1.685016643547641 -11.885903278962608 0 0 0 0 32.255327995379048 -5.6919215370417078 0 -5.6919215370417078 17.290868817652154 0 0 0 0 3.1292853981940425 37.317304625374163 0 37.317304625374163 -8.4687765146954916 0 0 0 0 -4.717369442787458 -17.276333829187479 0 -17.276333829187479 31.018400617564112 0 0 0 0 24.042421533689776 -66.762233071278843 0 -66.762233071278843 -9.9354184424919367 0 0 0 0 -2.5297528426599456 -10.90588894411303 0 -10.90588894411303 19.42014650330384 0 0 0 0 23.753647741272289 5.3997650532091939 0 5.3997650532091939 -36.985919336262668 0 0 0 0 138.67584305617493 6.8811112986586522 0 6.8811112986586522 8.9981160833485774 0 0 0 0 16.25525454439142 -2.1693324009651462 0 -2.1693324009651462 -14.729389271586832 0 0 0 0 47.778419253998436 -179.90958782324742 0 -179.90958782324742 -11.542749491520226 0 0 0 0 19.627631988943904 -6.622284523905364 0 -6.622284523905364 -13.137175457912235 0 0 0 0 15.078662013605935 -2.3574204663236742 0 -2.3574204663236742 -17.008037955685722 0 0 0 0 7.9083429220190737 -8.4368525908957963 0 -8.4368525908957963 1.2275468718976299 0 0 0 0 9.7641942468108027 -2.3658307005716779 0 -2.3658307005716779 0.06458900620782515 0 0 0 0 54.177400442102225 -29.443293280186481 0 -29.443293280186481 -32.247983869816835 0 0 0 0 8.0734148177109546 -14.612690907900173 0 -14.612690907900173 40.681613861372171 0 0 0 0 56.039442744411645 -9.0807514941770933 0 -9.0807514941770933 -4.3588682575600615 0 0 0 0 24.103202925023652 36.98158070151203 0 36.98158070151203 -17.766892405981707 0 0 0 0 1.66298993944703 1.1890360301642957 0 1.1890360301642957 0.29550405847765404 0 0 0 0 2.9737184040259308 -35.733044601485744 0 -35.733044601485744 36.783869912847877 0 0 0 0 1.2891924830332897 0.85956645826585287 0 0.85956645826585287 0.12991974071829304 0 0 0 0 27.676283979599248 -3.6007796340281857 0 -3.6007796340281857 -1.1112413188238861 0 0 0 0 -28.788715686336218 22.990281024385695 0 22.990281024385695 37.498072300534204 0 0 0 0 26.781833520366263 -24.362883546258217 0 -24.362883546258217 5.2603749589870858 0 0 0 0 40.497794377399259 -23.29756017818363 0 -23.29756017818363 1.986949356045443 0 0 0 0 33.219847579946872 -7.2134737896958541 0 -7.2134737896958541 -0.22237459541793214 0 0 0 0 29.659617558820173 -11.105664644486751 0 -11.105664644486751 -2.533974777574258 0 0 0 0 42.279344759503147 -19.09416638429866 0 -19.09416638429866 0.31974876483582193 0 0 0 0 16.852532300910752 -13.335001769481778 0 -13.335001769481778 9.4969218312980956 0 0 0 0 11.568720457144082 10.304698774651115 0 10.304698774651115 -13.873982597251597 0 0 0 0 9.5191579895695497 1.1033857794852509 0 1.1033857794852509 -5.551593432043056 0 0 0 0 14.131555527272354 2.0016019945632202 0 2.0016019945632202 -10.126576656611167 0 0 0 0 0.40446349809161575 1.7178802746623205 0 1.7178802746623205 -3.0328458913542118 0 0 0 0 31.767510795471026 -24.659132866690925 0 -24.659132866690925 17.937847870297901 0 0 0 0 45.165599478943477 -28.508530303040061 0 -28.508530303040061 5.7635622040943417 0 0 0 0 9.542185940276255 -0.21315718236571968 0 -0.21315718236571968 -4.418445119913903 0 0 0 0 3501.4995635380965 1599.2752753024974 0 1599.2752753024974 782.24278312691797 0 0 0 0 3681.6340121435223 1771.5625456999644 0 1771.5625456999644 804.61095259066292 0 0 0 0 4024.8923473567593 1906.8725861201001 0 1906.8725861201001 653.57726223588713 0 0 0 0 3493.7182926069454 1098.7783706874438 0 1098.7783706874438 49.208865885635518 0 0 0 0 4114.4738969564714 1457.6611295253472 0 1457.6611295253472 240.60011053520589 0 0 0 0 746.03037500548635 411.15333887031295 0 411.15333887031295 321.07588054088302 0 0 0 0 663.27944765472967 455.95315326852517 0 455.95315326852517 314.82228567307641 0 0 0 0 206.18630438181026 239.25392544414922 0 239.25392544414922 342.03337608005575 0 0 0 0 372.56169699999282 308.17498005207773 0 308.17498005207773 296.04353601925118 0 0 0 0 611.61344790732801 417.45564143315033 0 417.45564143315033 332.22630139554803 0 0 0 0 590.1308548837369 450.86418582583906 0 450.86418582583906 281.26603481921711 0 0 0 0 717.6067676854309 531.92817534159485 0 531.92817534159485 303.88343231168994 0 0 0 0 619.53190971144977 432.52458320674657 0 432.52458320674657 406.64014564104855 0 0 0 0 643.86055046863476 444.7022262580831 0 444.7022262580831 239.75927680970676 0 0 0 0 755.25985423771999 588.70853984454789 0 588.70853984454789 350.34549165333442 0 0 0 0 737.32029711011842 444.43368039199709 0 444.43368039199709 294.77280960667167 0 0 0 0 18.487137208334779 -5.4680875917689455 0 -5.4680875917689455 -10.564634922768629 0 0 0 0 2024.9984452603276 1008.8701421399901 0 1008.8701421399901 296.37220367228991 0 0 0 0 16.880081324049772 -3.2123891594522256 0 -3.2123891594522256 -9.5774220942340165 0 0 0 0 2519.3892617090678 1084.3888555763658 0 1084.3888555763658 300.69163496253532 0 0 0 0 2513.3912183608791 1083.3541549535491 0 1083.3541549535491 403.8436550895031 0 0 0 0 3498.9065206646155 1073.9034894794902 0 1073.9034894794902 -176.38429999273515 0 0 0 0 2910.9900379508581 566.44978619508697 0 566.44978619508697 -538.7463175627845 0 0 0 0 2694.2661460032787 524.13673124454806 0 524.13673124454806 -519.29316110154468 0 0 0 0 2307.4094797569442 384.87994883707523 0 384.87994883707523 -488.65446603288433 0 0 0 0 2324.2390409123318 424.55458941860024 0 424.55458941860024 -452.86042675585668 0 0 0 0 3499.8542584393153 334.07769190736866 0 334.07769190736866 -874.71298509632697 0 0 0 0 3836.3837895564311 125.43015910978092 0 125.43015910978092 -851.37136834198532 0 0 0 0 2889.8581008609212 1.9254600375725204 0 1.9254600375725204 -815.08664639306051 0 0 0 0 1363.3952001638445 -341.48401234587902 0 -341.48401234587902 -241.7360905097305 0 0 0 0 5.1266365882240477 -3.282284422873972 0 -3.282284422873972 -5.1272813705440043 0 0 0 0 3987.997398114559 393.36701612933723 0 393.36701612933723 -417.75251587073535 0 0 0 0 3499.9464696430587 167.71513018072676 0 167.71513018072676 -285.40042339229728 0 0 0 0 3604.7540733749511 380.00306251673078 0 380.00306251673078 92.952566121154774 0 0 0 0 7.2399253146766762 -3.8969187917555117 0 -3.8969187917555117 -0.049361785807267466 0 0 0 0 2134.7421073840396 583.4922669258134 0 583.4922669258134 -25.501014263003526 0 0 0 0 -344.49118326812732 -518.80354385775968 0 -518.80354385775968 -335.19919010597005 0 0 0 0 2005.9228388845593 13.796562710718945 0 13.796562710718945 -165.72723521486961 0 0 0 0 1484.952036262398 133.21796673015814 0 133.21796673015814 -478.7258607236833 0 0 0 0 -7.584609106967946 -482.50348015344787 0 -482.50348015344787 -350.31894378871152 0 0 0 0 542.87047986355742 -208.55012030495413 0 -208.55012030495413 -246.87897417330009 0 0 0 0 1484.9178124259356 125.03640625468616 0 125.03640625468616 -309.71988789744296 0 0 0 0 1247.2840730782086 465.18281816077922 0 465.18281816077922 -29.370990019598196 0 0 0 0 1557.5478800882488 409.7827352858078 0 409.7827352858078 -66.064918910883989 0 0 0 0 16.05207305948165 -5.5985453849004525 0 -5.5985453849004525 -9.0943255345386049 0 0 0 0 596.86421056561085 421.0894673263017 0 421.0894673263017 369.21093183318339 0 0 0 0 826.40100374794565 584.75046584953589 0 584.75046584953589 356.24986989452839 0 0 0 0 582.60178341494623 245.41706981831948 0 245.41706981831948 169.6461857387194 0 0 0 0 570.9524703680454 383.60978241485145 0 383.60978241485145 274.13289631805037 0 0 0 0 628.16785982034344 291.21358434781905 0 291.21358434781905 171.34239612842794 0 0 0 0 743.80406147348913 423.48496750257436 0 423.48496750257436 222.19916967319477 0 0 0 0 907.87958992200674 678.96743321178906 0 678.96743321178906 437.11909857929334 0 0 0 0 690.90633208282634 430.34221728405805 0 430.34221728405805 345.89286055092225 0 0 0 0 854.84754060368437 421.59637139631246 0 421.59637139631246 250.02820413290647 0 0 0 0 670.82911743512432 302.91438175069607 0 302.91438175069607 221.93571619546492 0 0 0 0 61.724106882413139 -194.80076151608691 0 -194.80076151608691 -338.07575646993655 0 0 0 0 10.949135101774113 -3.4677792493821862 0 -3.4677792493821862 -6.6768348162076494 0 0 0 0 -314.83144888892548 -551.66006025522506 0 -551.66006025522506 -538.38735907892988 0 0 0 0 4.0735617536179802 -0.92617512380222156 0 -0.92617512380222156 -2.7348000730722699 0 0 0 0 -183.9760320407313 -273.84746904240887 0 -273.84746904240887 -342.90323381270565 0 0 0 0 -200.89922561690264 -262.00414439028714 0 -262.00414439028714 -345.22748018945572 0 0 0 0 1013.7403196832202 352.23872621422203 0 352.23872621422203 43.436369185281592 0 0 0 0 523.84078587918293 280.84003654448884 0 280.84003654448884 288.45632621325831 0 0 0 0 -0.053607107540800669 -9.6026801225575973 0 -9.6026801225575973 46.124455875576096 0 0 0 0 1204.6493905128264 869.01132429044094 0 869.01132429044094 374.58179431645249 0 0 0 0 787.44200366648784 224.7216109627243 0 224.7216109627243 20.252166996579945 0 0 0 0 799.06486493191824 479.07746262023966 0 479.07746262023966 432.09110808572581 0 0 0 0 1.0645667235704295 -6.514098537432508 0 -6.514098537432508 42.748492737344876 0 0 0 0 -33.453335161297673 20.661309792263637 0 20.661309792263637 51.102521478835115 0 0 0 0 451.75956857988967 158.09635669877002 0 158.09635669877002 269.48152447135908 0 0 0 0 514.36281552927812 389.74386563547296 0 389.74386563547296 225.22717841647045 0 0 0 0 569.86069633581428 323.07835883254756 0 323.07835883254756 296.54135173820669 0 0 0 0 400.67491267892365 -14.271318483908772 0 -14.271318483908772 52.717062528902545 0 0 0 0 399.69560817547608 293.84354894937564 0 293.84354894937564 204.57847268630803 0 0 0 0 610.96361074830929 327.00320778833566 0 327.00320778833566 213.08672649499431 0 0 0 0 648.58980069741847 349.15716828703307 0 349.15716828703307 65.735015307678623 0 0 0 0 0.40052506907891683 -0.99740894511190614 0 -0.99740894511190614 12.216746174639759 0 0 0 0 -5.4554831702625961 43.170757830491311 0 43.170757830491311 14.860451087576166 0 0 0 0 31.434509835336939 -15.497555789147555 0 -15.497555789147555 11.043964095596493 0 0 0 0 25.467423788397227 4.510914691584107 0 4.510914691584107 7.5965569743181645 0 0 0 0 30.258092268449218 -26.122956727231895 0 -26.122956727231895 22.955578876107211 0 0 0 0 6.052586565612728 -6.9411645294658229 0 -6.9411645294658229 55.807803046057643 0 0 0 0 21.104537903725941 -27.274469400852013 0 -27.274469400852013 51.087164565196872 0 0 0 0 5.0799251388871198 0.53665844832312359 0 0.53665844832312359 39.310970798411518 0 0 0 0 16.759304203926149 -13.109061809595914 0 -13.109061809595914 44.112594957566216 0 0 0 0 12.317605486852152 -14.061709353640206 0 -14.061709353640206 32.387843979710411 0 0 0 0 99.620214053265954 104.62722909959052 0 104.62722909959052 271.79950008828564 0 0 0 0 16.029982056747031 -17.282429294320082 0 -17.282429294320082 31.790965103746203 0 0 0 0 26.65562587205568 -13.854315462965133 0 -13.854315462965133 31.523813652780518 0 0 0 0 12.714635844675371 -13.976905983862906 0 -13.976905983862906 34.227828085228381 0 0 0 0 571.4359193068758 327.83672134800895 0 327.83672134800895 260.56341505170576 0 0 0 0 505.94808573004593 277.04317271683271 0 277.04317271683271 242.56215951628451 0 0 0 0 520.65142237574946 212.44101571234546 0 212.44101571234546 3.7105994486337295 0 0 0 0 668.90532994861223 353.65905339543167 0 353.65905339543167 201.52914108087953 0 0 0 0 506.67685647823055 346.00303253459037 0 346.00303253459037 310.52909736396282 0 0 0 0 544.78676986882328 325.07876260473017 0 325.07876260473017 154.42620308800315 0 0 0 0 224.4136897827957 52.475355937485205 0 52.475355937485205 123.44780943876785 0 0 0 0 431.42615755778752 237.77936387030718 0 237.77936387030718 230.04662842604768 0 0 0 0 570.9871025693119 237.48833781573296 0 237.48833781573296 27.599922381670694 0 0 0 0 6.3408986802842584 -6.3788557116208757 0 -6.3788557116208757 6.4094182136105671 0 0 0 0 14.148931401769914 -17.491573670953223 0 -17.491573670953223 12.862654410670711 0 0 0 0 436.28968168908341 230.08600331585905 0 230.08600331585905 84.691141061425924 0 0 0 0 305.70151814653582 243.71412667468729 0 243.71412667468729 205.55581898976834 0 0 0 0 151.40214480884788 50.122775261811285 0 50.122775261811285 158.69647974800495 0 0 0 0 60.160279659876323 11.10417526106221 0 11.10417526106221 8.9261473031488094 0 0 0 0 29.076519126761816 -14.708811511586593 0 -14.708811511586593 9.0417707304979054 0 0 0 0 36.811469282805774 -3.0354840457202954 0 -3.0354840457202954 24.221083352623168 0 0 0 0 32.534571672040329 3.7185971922006047 0 3.7185971922006047 15.817866067502564 0 0 0 0 11.836846332474401 11.023178754073754 0 11.023178754073754 15.443392120009811 0 0 0 0 9.7339227474149084 34.249852250695767 0 34.249852250695767 38.096938886125827 0 0 0 0 20.944034864816786 -8.8604449759218369 0 -8.8604449759218369 38.912332397676437 0 0 0 0 49.961025908193733 4.7627708963494797 0 4.7627708963494797 21.245819347830093 0 0 0 0 12.42890530390326 8.9250833950956547 0 8.9250833950956547 20.949795836299685 0 0 0 0 167.19377765623904 34.92000327013011 0 34.92000327013011 38.963635304214904 0 0 0 0 153.41748499640744 -47.968188278203797 0 -47.968188278203797 77.62624232949895 0 0 0 0 29.149443306415378 35.209838097499414 0 35.209838097499414 -27.801557153112299 0 0 0 0 -17.470460665312203 36.099590462798915 0 36.099590462798915 92.003112280911296 0 0 0 0 14.696354952623579 3.1444756443293223 0 3.1444756443293223 4.8519473525397956 0 0 0 0 5.431392855721235 0.30124296885421131 0 0.30124296885421131 -0.41953167545954262 0 0 0 0 522.99333218710308 454.18027425679429 0 454.18027425679429 264.75515830581389 0 0 0 0 213.44911709455027 -143.82700584544364 0 -143.82700584544364 18.503033961813344 0 0 0 0 742.48764786911124 12.788237318071879 0 12.788237318071879 -78.291034802685317 0 0 0 0 285.22163564372568 189.93053705957936 0 189.93053705957936 277.96551654805648 0 0 0 0 564.18915249869133 419.06395077102206 0 419.06395077102206 221.47319974506991 0 0 0 0 -56.527183903583136 -244.25698208254198 0 -244.25698208254198 88.588667669350798 0 0 0 0 642.36140512468955 -46.025122286689111 0 -46.025122286689111 -46.40480649359597 0 0 0 0 268.56705539604809 180.07818663451917 0 180.07818663451917 90.90821481140847 0 0 0 0 742.16180593362515 74.315226523412093 0 74.315226523412093 -3.9466673196329793 0 0 0 0 418.30351544247605 172.15277857784895 0 172.15277857784895 88.355265387560053 0 0 0 0 434.61091557381224 163.08524051156428 0 163.08524051156428 63.271019929960858 0 0 0 0 451.0585069836161 146.15082838249918 0 146.15082838249918 -173.85662903554112 0 0 0 0 710.07698370977596 527.12133951947044 0 527.12133951947044 -96.410487982541781 0 0 0 0 7.0097875408875794 1.9908245339609412 0 1.9908245339609412 0.66726711003254069 0 0 0 0 294.83936229676237 444.54099061642728 0 444.54099061642728 537.9523269626543 0 0 0 0 46.725093108701003 72.58156724479295 0 72.58156724479295 82.619402194309259 0 0 0 0 115.55076828162055 48.763267771488245 0 48.763267771488245 1.3329204803849279 0 0 0 0 29.62661137594705 11.961551008369156 0 11.961551008369156 81.576382478062442 0 0 0 0 33.775966758392315 -40.38657529737975 0 -40.38657529737975 67.80250460360287 0 0 0 0 17.957333728837959 4.6371998888663999 0 4.6371998888663999 -0.02912205305760196 0 0 0 0 3.6248714908442707 82.015232100843605 0 82.015232100843605 -75.733588951131765 0 0 0 0 -29.520981582095374 35.554711831403438 0 35.554711831403438 97.236201897645969 0 0 0 0 -0.64779597025653857 60.056135629858545 0 60.056135629858545 60.525791490037591 0 0 0 0 -102.39273455613966 -24.197111454552214 0 -24.197111454552214 74.465026156742397 0 0 0 0 -53.891041340451466 35.463295094392151 0 35.463295094392151 84.388955054547296 0 0 0 0 -32.840519101663403 -13.518495374613622 0 -13.518495374613622 168.86241475176394 0 0 0 0 140.04840286829756 -81.716734912922448 0 -81.716734912922448 187.57734671782055 0 0 0 0 119.37324897717008 18.155623130020103 0 18.155623130020103 28.789275936856939 0 0 0 0 268.02341285369494 65.811478965483275 0 65.811478965483275 149.91728117913863 0 0 0 0 52.300713927661178 -26.654667598635584 0 -26.654667598635584 151.69507838935533 0 0 0 0 -3.2085582092149707 142.42894190667585 0 142.42894190667585 146.74961520838406 0 0 0 0 49.061745542038807 53.677226900472306 0 53.677226900472306 72.95007013756549 0 0 0 0 422.06519203294283 230.6081561646829 0 230.6081561646829 56.01837793911568 0 0 0 0 141.59221044209676 -59.268185380973364 0 -59.268185380973364 -241.80841810925449 0 0 0 0 429.98842369590511 383.3942612916403 0 383.3942612916403 392.43330758919001 0 0 0 0 189.73543722778322 555.27512624223448 0 555.27512624223448 307.0021326154183 0 0 0 0 22.508244853330325 328.49054674847139 0 328.49054674847139 674.8618175527821 0 0 0 0 357.63010173309885 5.9014739158785687 0 5.9014739158785687 673.69197510042068 0 0 0 0 271.18797696935962 200.00454837208554 0 200.00454837208554 240.62218740865592 0 0 0 0 280.1452502712541 8.5150559578928551 0 8.5150559578928551 399.84911188241313 0 0 0 0 450.08261616704021 -111.52232194083172 0 -111.52232194083172 223.01984335228462 0 0 0 0 393.11294990373381 -127.53916172220829 0 -127.53916172220829 242.32041945854871 0 0 0 0 337.0297746988881 -10.723774514814977 0 -10.723774514814977 74.165076512527321 0 0 0 0 818.89311086277667 -208.39622598171172 0 -208.39622598171172 158.1322584896738 0 0 0 0 601.45032928783803 -172.68208153650812 0 -172.68208153650812 156.92923829468782 0 0 0 0 498.74284075203013 -249.1077766842925 0 -249.1077766842925 598.23281939515982 0 0 0 0 660.4122195136124 -87.75214136566774 0 -87.75214136566774 486.39295538201986 0 0 0 0 1547.6795194687165 -16.99885277125486 0 -16.99885277125486 485.34412523665634 0 0 0 0 625.15417019533106 -347.27914269923076 0 -347.27914269923076 1318.4372645568465 0 0 0 0 435.26133377301721 42.647442834291724 0 42.647442834291724 560.99012077294003 0 0 0 0 293.76889806534041 379.29738420660306 0 379.29738420660306 205.44407352493545 0 0 0 0 205.38121559967658 -130.17038008400459 0 -130.17038008400459 367.94141330185084 0 0 0 0 1362.9072043761125 606.16145580857119 0 606.16145580857119 -1.8244057512511063 0 0 0 0 1235.4682908484174 603.64276950874137 0 603.64276950874137 873.62783144168452 0 0 0 0 9.2815391345378373 -5.4115048840886324 0 -5.4115048840886324 0.77903082081162545 0 0 0 0 2109.9549225169922 753.34117852041891 0 753.34117852041891 -15.479169843617001 0 0 0 0 2515.7268074118474 -1745.1011189953024 0 -1745.1011189953024 -3482.3169460103982 0 0 0 0 2125.6142735939652 -290.62048187501034 0 -290.62048187501034 -213.07158956182502 0 0 0 0 31.961099869731811 -2.3149152129834363 0 -2.3149152129834363 -2.625794329378115 0 0 0 0 -157.57430395822303 1340.5235082740382 0 1340.5235082740382 3327.412318258112 0 0 0 0 638.29141110376077 2245.7826907791268 0 2245.7826907791268 3087.2177925780652 0 0 0 0 -47.673383896348241 536.80965569595651 0 536.80965569595651 2759.688787335147 0 0 0 0 577.96073524597887 611.9852921357633 0 611.9852921357633 1081.7535076812946 0 0 0 0 860.80236416574917 1766.2499195683204 0 1766.2499195683204 2060.324518209396 0 0 0 0 78.904333925577191 -7.4956839528879478 0 -7.4956839528879478 -14.751394076783946 0 0 0 0 665.36321998776111 1361.2151289560497 0 1361.2151289560497 1183.2443385271561 0 0 0 0 66.200258743763698 -328.24009250675954 0 -328.24009250675954 -1832.3977739370353 0 0 0 0 1308.2420191911588 994.30259439318013 0 994.30259439318013 817.54181022810576 0 0 0 0 -513.79794209831562 871.33332084373069 0 871.33332084373069 -957.40989495500162 0 0 0 0 -1515.7264157660138 -1218.2220747181459 0 -1218.2220747181459 -153.53907208322835 0 0 0 0 -215.485592281555 93.28524143044433 0 93.28524143044433 108.78157356517067 0 0 0 0 62.180642517778324 563.89109102118209 0 563.89109102118209 -467.66780141069285 0 0 0 0 131.44611099959366 242.39434052896104 0 242.39434052896104 353.78240515502296 0 0 0 0 732.26278264545044 192.65655122157409 0 192.65655122157409 -372.10655515449616 0 0 0 0 176.56901070616368 267.574579529738 0 267.574579529738 -274.28164982435919 0 0 0 0 -58.289937032779562 -166.9175845325617 0 -166.9175845325617 -433.4832566241804 0 0 0 0 -8.7168301985628318 -20.727112464643405 0 -20.727112464643405 0.28003476433216612 0 0 0 0 77.908530971244659 -112.55536394980774 0 -112.55536394980774 -1065.5237811006027 0 0 0 0 835.2341758500861 992.03485741896179 0 992.03485741896179 1034.6768253769987 0 0 0 0 85.028249533034014 -29.705566801055241 0 -29.705566801055241 -13.692691067617002 0 0 0 0 28.128421808793064 -121.643735028847 0 -121.643735028847 -65.568287691420664 0 0 0 0 1029.0359278714895 374.31881424676112 0 374.31881424676112 913.93939064331607 0 0 0 0 -185.89291299383694 9.0396965580739561 0 9.0396965580739561 96.592530597695259 0 0 0 0 531.58471904550697 124.74429414353403 0 124.74429414353403 -465.95636645608465 0 0 0 0 2.6516832982058816 -1.4043352220393679 0 -1.4043352220393679 -1.3582283994782998 0 0 0 0 100.74695767283062 -48.31821434202952 0 -48.31821434202952 -3.9203274058376252 0 0 0 0 918.17592709488599 694.41468433522687 0 694.41468433522687 353.10612806708741 0 0 0 0 820.16933670337312 825.5670784396807 0 825.5670784396807 395.54049589682836 0 0 0 0 801.66545621299883 740.43249268543968 0 740.43249268543968 295.99925303622149 0 0 0 0 1140.0016865676407 162.9119878855962 0 162.9119878855962 2.2400846324380836 0 0 0 0 1099.454827337584 1118.6871951295398 0 1118.6871951295398 711.38928381249411 0 0 0 0 280.20862023154041 -161.88336620685004 0 -161.88336620685004 105.6340182455624 0 0 0 0 6.8582882168484502 78.155258984963439 0 78.155258984963439 150.08789940729457 0 0 0 0 48.830262406139809 -243.34398329091891 0 -243.34398329091891 -50.041330590021062 0 0 0 0 -111.83844302134094 34.29036831196936 0 34.29036831196936 112.84515978990476 0 0 0 0 39.381313086578302 -15.357924060100231 0 -15.357924060100231 -5.9229402835480869 0 0 0 0 18.190352651766332 -15.688083345307767 0 -15.688083345307767 6.6103207059733364 0 0 0 0 482.40608259116561 552.53353043912693 0 552.53353043912693 -1532.3593441515468 0 0 0 0 38.577217440662054 -2.8999942232803093 0 -2.8999942232803093 -1.2062633397604641 0 0 0 0 750.49845916452614 47.728864786953181 0 47.728864786953181 -381.36105113993017 0 0 0 0 94.710739814705448 905.0134304731655 0 905.0134304731655 953.88850053269789 0 0 0 0 23.286932159862772 -14.578931867847132 0 -14.578931867847132 -476.84824199241848 0 0 0 0 3.3415073978357839 -4.9404277448058096 0 -4.9404277448058096 2.9851773152014616 0 0 0 0 -697.74843426922598 1216.1061703547093 0 1216.1061703547093 883.71239518097889 0 0 0 0 1202.2856089541601 1010.5561031492284 0 1010.5561031492284 893.27979944638446 0 0 0 0 7.2082302729238279 5.4885994125223894 0 5.4885994125223894 2.9146416908056643 0 0 0 0 1063.6297697051414 966.48748450821085 0 966.48748450821085 895.35593915583377 0 0 0 0 962.8210982051678 1112.8853560935049 0 1112.8853560935049 1073.1966369344041 0 0 0 0 2.3806963991373777 129.96254548733305 0 129.96254548733305 -156.56520210731196 0 0 0 0 41.863309246269637 58.390809816306501 0 58.390809816306501 -133.85565336677018 0 0 0 0 5.5751387374766637 61.595091022283668 0 61.595091022283668 -85.56728482082417 0 0 0 0 6.3742000234342413 109.30810452939204 0 109.30810452939204 -54.677581329092391 0 0 0 0 14.977278011952876 59.304538233832318 0 59.304538233832318 -95.725534448916733 0 0 0 0 37.755618198216268 -1.6008583404069121 0 -1.6008583404069121 -0.16942325580942663 0 0 0 0 26.018270259170095 -24.630243279081697 0 -24.630243279081697 -6.8632362292955804 0 0 0 0 40.472977110872307 -12.457846583898572 0 -12.457846583898572 -11.471876495095785 0 0 0 0 10.737771697270063 -12.636048965093792 0 -12.636048965093792 5.8643322679524843 0 0 0 0 45.784132630346789 -16.265749327763416 0 -16.265749327763416 1.5880435688017833 0 0 0 0 42.351306059234048 -7.7510506823496144 0 -7.7510506823496144 -42.314242747479511 0 0 0 0 29.574910117415129 -10.669885481924211 0 -10.669885481924211 -1.3901612172485329 0 0 0 0 37.312689446105168 -9.0249375096438769 0 -9.0249375096438769 -0.7380106713532042 0 0 0 0 37.698783902025781 0.47780578850721867 0 0.47780578850721867 -5.0164536815196001 0 0 0 0 192.66844175190636 524.04945536511832 0 524.04945536511832 583.501892200773 0 0 0 0 571.04800806841376 50.450761518882246 0 50.450761518882246 -195.61423159992046 0 0 0 0 621.23565305385273 962.20939075880688 0 962.20939075880688 987.10004151208341 0 0 0 0 796.89005060636555 -4.924438759288023 0 -4.924438759288023 -4.5284967481652529 0 0 0 0 5.7580414849303736 -2.4114204657505915 0 -2.4114204657505915 -0.48849058362526043 0 0 0 0 1106.0122727125417 880.74967929518061 0 880.74967929518061 406.18631100823632 0 0 0 0 131.49015479291847 26.059168700616283 0 26.059168700616283 -677.49991202867568 0 0 0 0 41.358026264141728 -4.6868151831357494 0 -4.6868151831357494 -2.5858676998114589 0 0 0 0 -156.80359363926254 -69.832236306768209 0 -69.832236306768209 -348.97612828450656 0 0 0 0 76.389939819993742 82.952526260857667 0 82.952526260857667 -233.42265576855425 0 0 0 0 61.744715987581003 0.47572846277580538 0 0.47572846277580538 -362.67082217809002 0 0 0 0 65.217253178296232 50.899158036859262 0 50.899158036859262 -283.85715177616294 0 0 0 0 79.381829022080638 139.13581534887089 0 139.13581534887089 -273.45653873375977 0 0 0 0 118.82085244054178 221.51913639829718 0 221.51913639829718 -139.86296475991185 0 0 0 0 405.12799800450739 -61.375567075242543 0 -61.375567075242543 -375.75600469297569 0 0 0 0 192.26068330873386 166.1879702946826 0 166.1879702946826 -361.10161084531495 0 0 0 0 155.31444376843137 187.48841896643171 0 187.48841896643171 -157.45849123357766 0 0 0 0 465.23334889057878 270.11749301037162 0 270.11749301037162 -13.378568287274902 0 0 0 0 328.51584601699142 114.9672725147575 0 114.9672725147575 -144.27936234024719 0 0 0 0 122.4239811081643 193.26892926357323 0 193.26892926357323 -131.01224164757832 0 0 0 0 195.38043525167086 281.1580102383291 0 281.1580102383291 -25.790011892768234 0 0 0 0 63.855142858028557 255.46663763578272 0 255.46663763578272 -39.787613837761455 0 0 0 0 -14.836777048956719 216.7121402669718 0 216.7121402669718 -12.382827790092051 0 0 0 0 -4.4568481562746456 201.41660628813224 0 201.41660628813224 -16.176565486871823 0 0 0 0 54.476573581647244 180.68876854782593 0 180.68876854782593 -107.36200290074703 0 0 0 0 -5.7525688706737128 186.3910668345743 0 186.3910668345743 -107.82451766704617 0 0 0 0 -92.73776375874877 133.87606395686817 0 133.87606395686817 -56.250490208986776 0 0 0 0 -118.99203842463612 168.20835389667445 0 168.20835389667445 -23.867545766438525 0 0 0 0 -9.3438741634490725 176.09265184608512 0 176.09265184608512 -35.589850836769983 0 0 0 0 -106.74266678452841 152.78381357610033 0 152.78381357610033 -7.4852840681014641 0 0 0 0 -182.05515607456618 140.25280928052416 0 140.25280928052416 -6.3204111166828625 0 0 0 0 -122.85495448157963 152.40118380429431 0 152.40118380429431 -41.190235557711276 0 0 0 0 -183.46959933530889 173.57163132818096 0 173.57163132818096 -46.053729168375867 0 0 0 0 -143.79423099562337 183.94793284840489 0 183.94793284840489 16.834021303104237 0 0 0 0 -16.079239121478167 210.34327790274074 0 210.34327790274074 -31.721229578402927 0 0 0 0 -12.877230430642157 191.98257432690684 0 191.98257432690684 72.576351829295163 0 0 0 0 44.05836375488434 221.001070960996 0 221.001070960996 -52.862000910550705 0 0 0 0 -147.36255202787288 128.61343578328524 0 128.61343578328524 -7.5424528712455867 0 0 0 0 -191.56815678227576 129.82186978925165 0 129.82186978925165 -71.069896596673971 0 0 0 0 -122.89913184112811 159.28524279940393 0 159.28524279940393 -203.58504646642905 0 0 0 0 -201.60140634431446 231.4391500164329 0 231.4391500164329 -204.85177493061471 0 0 0 0 -208.86316910865571 187.45997624614802 0 187.45997624614802 -157.34815622714814 0 0 0 0 -199.3190710098861 175.88946160883643 0 175.88946160883643 -171.17183063488483 0 0 0 0 1.4970453798189283 -2.5667163832416335 0 -2.5667163832416335 -3.4003883753548507 0 0 0 0 -0.96354490609985533 -0.41615414232977344 0 -0.41615414232977344 -0.54724239718034084 0 0 0 0 -13.770861234595941 78.588681215630459 0 78.588681215630459 -13.316293897121795 0 0 0 0 57.691167839198897 -27.542419629270171 0 -27.542419629270171 1.3093746647227817 0 0 0 0 -35.726527381062624 -12.000713768686182 0 -12.000713768686182 35.0951607046145 0 0 0 0 54.576535083971976 18.91790591062545 0 18.91790591062545 4.4807095328687865 0 0 0 0 -50.582225041864149 16.942854615396755 0 16.942854615396755 -11.00837613972908 0 0 0 0 -54.682108715467621 -45.81995622636714 0 -45.81995622636714 15.335947316337297 0 0 0 0 431.59095544960292 -17.106385668857001 0 -17.106385668857001 32.161307167360064 0 0 0 0 404.65515696159127 -74.594971603059093 0 -74.594971603059093 38.511840732151541 0 0 0 0 244.23547670628614 47.254016216332275 0 47.254016216332275 18.775642550452176 0 0 0 0 85.018540063247201 -39.934274166695104 0 -39.934274166695104 102.45549513172773 0 0 0 0 208.67779657624487 51.490591265399416 0 51.490591265399416 119.74983174196768 0 0 0 0 208.83602174303815 47.187453442498736 0 47.187453442498736 -13.369852728465048 0 0 0 0 385.62170333004906 -58.070628448348543 0 -58.070628448348543 127.34484966509626 0 0 0 0 408.2352268898685 146.82715590756197 0 146.82715590756197 71.96452026237057 0 0 0 0 191.66820501607435 148.08478461546474 0 148.08478461546474 -46.726299346912128 0 0 0 0 192.16548642861824 89.573283650636299 0 89.573283650636299 167.2882709701189 0 0 0 0 159.86028516045189 176.13026649104359 0 176.13026649104359 16.013647230053266 0 0 0 0 122.39110953903582 269.96395198622213 0 269.96395198622213 3.6000206602438993 0 0 0 0 423.31493430727642 129.68621475815735 0 129.68621475815735 31.828860991672627 0 0 0 0 341.21960730732098 295.76357500832273 0 295.76357500832273 60.919363591721776 0 0 0 0 686.35339394911716 317.795783331645 0 317.795783331645 146.17297956916036 0 0 0 0 684.53925622154202 345.08090145765163 0 345.08090145765163 445.5361623961071 0 0 0 0 1247.3819839516364 -134.10333036037628 0 -134.10333036037628 -153.04267532314771 0 0 0 0 1243.9436298287392 389.58832696910702 0 389.58832696910702 -129.35636056076692 0 0 0 0 1278.10594115606 247.33212560938773 0 247.33212560938773 -59.85114969346796 0 0 0 0 1048.5833773920458 -169.46193080061857 0 -169.46193080061857 471.4250989761203 0 0 0 0 729.00386720576353 169.30808948913318 0 169.30808948913318 155.59706794441263 0 0 0 0 537.31085478160821 -47.746622064288204 0 -47.746622064288204 280.97916918652891 0 0 0 0 539.51077965083095 98.606744310520753 0 98.606744310520753 139.05227766921416 0 0 0 0 608.74079886580876 25.565311296906657 0 25.565311296906657 197.31611247248838 0 0 0 0 1077.544564996846 374.11706338395379 0 374.11706338395379 -74.370194934070241 0 0 0 0 1021.8518872147179 355.08884335330504 0 355.08884335330504 258.50086492931223 0 0 0 0 0.35592680858635362 0.33941604005327974 0 0.33941604005327974 3.5730083293148667 0 0 0 0 375.87793547917681 127.61100424405322 0 127.61100424405322 394.76314021114376 0 0 0 0 153.45900148470537 -68.214113931874635 0 -68.214113931874635 226.11572272344347 0 0 0 0 492.22764328007906 -102.20752979063218 0 -102.20752979063218 149.1287733751451 0 0 0 0 583.6168530570576 -44.408706630580127 0 -44.408706630580127 56.82868761896421 0 0 0 0 1112.7999840229022 132.66295107039969 0 132.66295107039969 200.21322539477114 0 0 0 0 625.23278522182954 274.2664771791533 0 274.2664771791533 283.74368964490714 0 0 0 0 613.37358906136433 36.146548113558197 0 36.146548113558197 100.60942057895591 0 0 0 0 392.54413284995826 98.858903106509388 0 98.858903106509388 257.35207377801271 0 0 0 0 1217.8291308386688 562.32757278010558 0 562.32757278010558 256.44893238814791 0 0 0 0 801.45209838361188 326.43314710931827 0 326.43314710931827 291.31156513542624 0 0 0 0 863.08796705396162 177.82690819879804 0 177.82690819879804 59.351344634258567 0 0 0 0 457.49978055877727 265.73968217118454 0 265.73968217118454 166.5513803394806 0 0 0 0 206.90338578329829 -105.93474580458223 0 -105.93474580458223 122.91023344171845 0 0 0 0 1.2182917925456422 3.1968578078913197 0 3.1968578078913197 78.003086753536536 0 0 0 0 195.94020937356618 -210.57340457270902 0 -210.57340457270902 -250.37089995686983 0 0 0 0 685.40194160540705 578.66307591841723 0 578.66307591841723 5.5801943805372503 0 0 0 0 11.38217720048786 2.3869802378531624 0 2.3869802378531624 1.25330083747426 0 0 0 0 429.47224591594568 -374.61422758035951 0 -374.61422758035951 354.83923286715458 0 0 0 0 25.271458237715706 15.317829696603894 0 15.317829696603894 49.091044516202601 0 0 0 0 96.002238480854658 -46.300384587788749 0 -46.300384587788749 -5.0432087938004599 0 0 0 0 196.08552166138179 -298.02167419810257 0 -298.02167419810257 -59.320576984240688 0 0 0 0 -60.733293998198405 -322.0813502678858 0 -322.0813502678858 3.9932251066784374 0 0 0 0 332.73389707853494 262.27254557719061 0 262.27254557719061 -0.24295128075391403 0 0 0 0 188.82209745196087 448.28683026132967 0 448.28683026132967 534.35221468279815 0 0 0 0 1229.5244855173951 912.9522158879081 0 912.9522158879081 -266.01391921644245 0 0 0 0 137.897891626817 -235.55820913264506 0 -235.55820913264506 -170.54507127009242 0 0 0 0 -36.834639293906548 -45.717175748947284 0 -45.717175748947284 967.14618880732178 0 0 0 0 190.33622763634776 134.15090299923395 0 134.15090299923395 -229.08531648934513 0 0 0 0 77.774108595767757 1.4421771699235251 0 1.4421771699235251 -27.148516845249105 0 0 0 0 -78.124419011946884 101.54939993916196 0 101.54939993916196 -43.222213975612249 0 0 0 0 340.76604830994165 290.8016708267852 0 290.8016708267852 173.63881746216794 0 0 0 0 372.59604417538503 26.92210261377295 0 26.92210261377295 -203.68630319852309 0 0 0 0 467.01038802370022 55.019525376666024 0 55.019525376666024 -178.78551327833338 0 0 0 0 453.33145119134861 45.233255811577692 0 45.233255811577692 -61.463990690876017 0 0 0 0 844.50176742039184 28.382335707245147 0 28.382335707245147 -287.15379765897887 0 0 0 0 937.64127462304896 186.31439392516404 0 186.31439392516404 -253.32430499819566 0 0 0 0 459.88095496482856 16.298915217235844 0 16.298915217235844 -283.2814606137249 0 0 0 0 1443.4855421201501 -271.19371015694469 0 -271.19371015694469 -810.95872079662149 0 0 0 0 -8.6794729893517797 -135.73949652360534 0 -135.73949652360534 86.837736008606726 0 0 0 0 1011.6915554127045 208.21443427833037 0 208.21443427833037 -192.42915827443176 0 0 0 0 1022.3904845509387 292.64904591908817 0 292.64904591908817 -496.82418806559144 0 0 0 0 1793.5902556391666 591.94601869606595 0 591.94601869606595 -380.92351766079992 0 0 0 0 2849.4883497762639 852.0554270523462 0 852.0554270523462 -261.84863526253139 0 0 0 0 107.41997894714223 735.28123379861768 0 735.28123379861768 1129.6458097006398 0 0 0 0 15.701804519339078 -1.7934897654620983 0 -1.7934897654620983 -0.71586600406049428 0 0 0 0 421.51218062525004 -675.2680485619685 0 -675.2680485619685 -970.49066058750759 0 0 0 0 1181.1862607119401 1841.24648693983 0 1841.24648693983 1659.4880528435369 0 0 0 0 509.8006433660812 1051.4075924146709 0 1051.4075924146709 1221.8186091465868 0 0 0 0 824.2921470850124 -154.74546337217907 0 -154.74546337217907 220.47102902169217 0 0 0 0 717.46804329486622 994.02313554023567 0 994.02313554023567 1236.7328460121435 0 0 0 0 1134.7210431240565 699.62990930961712 0 699.62990930961712 345.40450383815914 0 0 0 0 294.78452017276686 -84.438899736019266 0 -84.438899736019266 -42.877866389624614 0 0 0 0 113.18421408511225 -58.198747969215979 0 -58.198747969215979 4.1060106202485862 0 0 0 0 343.92973282396633 283.36588016139558 0 283.36588016139558 124.77012018118421 0 0 0 0 472.07015705207778 255.09591761352203 0 255.09591761352203 40.434879015243496 0 0 0 0 181.19674425354151 -51.184015272579472 0 -51.184015272579472 7.8108125148864929 0 0 0 0 92.765665192502638 42.732516449134891 0 42.732516449134891 41.951768562357302 0 0 0 0 737.29178746321122 94.907165200888812 0 94.907165200888812 27.501718675026495 0 0 0 0 -0.23627309797642226 2.8958369573029916 0 2.8958369573029916 9.9127802190644729 0 0 0 0 -135.18524477810206 114.65154855961191 0 114.65154855961191 373.60669898975721 0 0 0 0 623.07780281290979 332.66352961294797 0 332.66352961294797 61.5385932682766 0 0 0 0 110.5719051101742 -58.019025852637533 0 -58.019025852637533 5.7928435392161504 0 0 0 0 129.91935477045263 -0.52500821900230221 0 -0.52500821900230221 -45.724502758351264 0 0 0 0 46.662984381018759 40.91089142943656 0 40.91089142943656 97.717054585884455 0 0 0 0 69.451708488635632 -13.228789972110008 0 -13.228789972110008 -84.700106515327207 0 0 0 0 -1.708297854205739 95.07120720839248 0 95.07120720839248 -61.982417983450432 0 0 0 0 9.1306849445074505 10.240466467395986 0 10.240466467395986 20.398442845143357 0 0 0 0 59.175110019377826 15.192154614678543 0 15.192154614678543 -65.17901193477519 0 0 0 0 30.984273960769443 7.4015629762681066 0 7.4015629762681066 2.7692480952232881 0 0 0 0 49.875221705413423 20.282876009159509 0 20.282876009159509 -50.256377439724929 0 0 0 0 62.890206748424134 -39.007506944919868 0 -39.007506944919868 -59.078485636984624 0 0 0 0 46.54136536061273 -0.66111247431863518 0 -0.66111247431863518 0.61154489058628236 0 0 0 0 16.896317340208 -2.2639104791400939 0 -2.2639104791400939 18.415284870157194 0 0 0 0 26.426034590283962 -92.997692100850145 0 -92.997692100850145 -53.153054260932549 0 0 0 0 73.7809354844685 -17.14472618291984 0 -17.14472618291984 -36.916783859558564 0 0 0 0 62.436808811758965 -27.98269315028665 0 -27.98269315028665 -1.3941750166031852 0 0 0 0 160.11748643961619 83.949846918131698 0 83.949846918131698 67.490834593998443 0 0 0 0 177.42231271984929 54.779286053762917 0 54.779286053762917 -5.17125290521642 0 0 0 0 187.66710229938326 -86.608794079247673 0 -86.608794079247673 -98.658571773485164 0 0 0 0 -23.488531641552981 -15.077943254580532 0 -15.077943254580532 -33.531001041342734 0 0 0 0 -223.95620444151245 -270.44260837920638 0 -270.44260837920638 -36.845454667240119 0 0 0 0 129.34887881354371 -201.62030804552933 0 -201.62030804552933 -216.0438789387008 0 0 0 0 59.264246082277168 -6.1613829171324141 0 -6.1613829171324141 13.627566787999967 0 0 0 0 321.41147323284531 -37.704258847899837 0 -37.704258847899837 -31.33155122491371 0 0 0 0 325.73815512530564 142.64359329652871 0 142.64359329652871 154.82466019493222 0 0 0 0 276.26513793165486 -268.90974627438368 0 -268.90974627438368 37.402618158426776 0 0 0 0 330.47515963867471 287.52369163001413 0 287.52369163001413 225.56384063701626 0 0 0 0 150.62270560779871 78.062079245019049 0 78.062079245019049 75.600570593915108 0 0 0 0 75.785090606397716 56.430751714310645 0 56.430751714310645 129.18579152920211 0 0 0 0 202.45794451678375 159.29080098173063 0 159.29080098173063 140.75907112149071 0 0 0 0 332.92039193143501 228.85076577354084 0 228.85076577354084 197.34835086551811 0 0 0 0 -26.302004424780534 170.5116057726882 0 170.5116057726882 210.8422035949643 0 0 0 0 164.3945871762262 113.34464474624838 0 113.34464474624838 100.23173889612912 0 0 0 0 133.55003336503614 137.0781098237394 0 137.0781098237394 259.02234647778823 0 0 0 0 30.520196476055617 -9.8467865286983702 0 -9.8467865286983702 -6.9181414095339555 0 0 0 0 84.146806748232336 -24.157137175268325 0 -24.157137175268325 -20.574363164402897 0 0 0 0 176.06912284675127 164.96574155449343 0 164.96574155449343 261.04752091214368 0 0 0 0 -48.592455080080981 -70.96627058525155 0 -70.96627058525155 -1.068572477237467 0 0 0 0 22.989409450544613 -13.433122287263554 0 -13.433122287263554 -11.76128838823244 0 0 0 0 130.47155584360735 108.59461569264204 0 108.59461569264204 297.50083235120474 0 0 0 0 74.106043922792992 -21.598292992854056 0 -21.598292992854056 -26.432321578509338 0 0 0 0 0.94118681266445492 -151.15501198495394 0 -151.15501198495394 -114.70577090030929 0 0 0 0 -70.548114553312189 -118.98096869102119 0 -118.98096869102119 -35.182771217328991 0 0 0 0 -15.393624737909704 -70.83355850126577 0 -70.83355850126577 -165.21440285967037 0 0 0 0 180.5531186326989 -76.013833198323482 0 -76.013833198323482 -390.94801175808402 0 0 0 0 110.77890228679462 -142.25691201998416 0 -142.25691201998416 -134.4300378147409 0 0 0 0 60.136171780264704 -98.39555842145819 0 -98.39555842145819 -12.672651048575062 0 0 0 0 232.14393359675159 -81.627371385269726 0 -81.627371385269726 -24.604727509817167 0 0 0 0 43.209441379585769 -104.99182459025178 0 -104.99182459025178 108.3629996145919 0 0 0 0 -8.7851202531601302 -112.78786384930299 0 -112.78786384930299 12.888256119726066 0 0 0 0 -3.770192736556055 -91.08505076873189 0 -91.08505076873189 -120.73700141013978 0 0 0 0 52.250094006783911 -124.69295988418162 0 -124.69295988418162 9.6575469790932402 0 0 0 0 -45.288038497164962 -53.020086467038254 0 -53.020086467038254 36.426243427817099 0 0 0 0 -20.945035476470821 -14.62458664351119 0 -14.62458664351119 -8.7480003648787665 0 0 0 0 -45.439741281748866 -41.878909849198408 0 -41.878909849198408 108.16485544633542 0 0 0 0 38.61972182073805 -82.189477607505978 0 -82.189477607505978 50.670622302313859 0 0 0 0 16.628076780543779 -115.98306275501818 0 -115.98306275501818 137.69706585446693 0 0 0 0 297.49816195407766 -61.801982757224323 0 -61.801982757224323 42.195076830072139 0 0 0 0 260.70235895626536 -103.66624607812753 0 -103.66624607812753 68.030032664370083 0 0 0 0 262.65555749445048 63.141442665539216 0 63.141442665539216 212.45763466930202 0 0 0 0 148.94677525467705 -173.50210313518619 0 -173.50210313518619 105.09360775183086 0 0 0 0 70.30382153604296 -104.11152595960266 0 -104.11152595960266 89.181084609055688 0 0 0 0 116.80350487638498 -31.074093879336942 0 -31.074093879336942 16.650956807315197 0 0 0 0 125.82532707230712 -56.151567616697321 0 -56.151567616697321 -60.097634138986905 0 0 0 0 176.56929599196155 -116.00612769046893 0 -116.00612769046893 -10.982875628367765 0 0 0 0 58.002083115818095 -75.904147071782063 0 -75.904147071782063 45.765186937616818 0 0 0 0 58.571666705516691 -74.310756488159313 0 -74.310756488159313 -1.1967353808759071 0 0 0 0 -20.710524148612393 -30.932742813759141 0 -30.932742813759141 -18.329690052733081 0 0 0 0 -31.941052243870217 -125.48564353141956 0 -125.48564353141956 -44.158707400711137 0 0 0 0 90.53304675437721 -129.44657896145384 0 -129.44657896145384 -130.24947515262829 0 0 0 0 63.243153820592482 -19.065459549029498 0 -19.065459549029498 -27.578747208232627 0 0 0 0 9.2125399257129175 -76.462625718413165 0 -76.462625718413165 -71.908420383504563 0 0 0 0 -16.563061311171623 -44.191743304301781 0 -44.191743304301781 17.721127196007728 0 0 0 0 -52.131650618204731 -94.27806946432429 0 -94.27806946432429 9.0457672365605504 0 0 0 0 120.89748504470481 103.71405592839983 0 103.71405592839983 -187.32767612028329 0 0 0 0 40.385230316153056 11.619648496963986 0 11.619648496963986 -6.0179621217337456 0 0 0 0 176.1824052601005 -247.59179421561748 0 -247.59179421561748 281.28221514555844 0 0 0 0 336.53440762200626 -136.47471540163406 0 -136.47471540163406 -11.432205695105949 0 0 0 0 -29.897664042233373 40.381520413477119 0 40.381520413477119 70.852977720380295 0 0 0 0 381.68819792129943 324.41729953588401 0 324.41729953588401 147.99501485348446 0 0 0 0 1017.7907832213969 218.53339601449989 0 218.53339601449989 -9.8793963543580503 0 0 0 0 161.51915691168324 79.934509555927434 0 79.934509555927434 23.579235261015128 0 0 0 0 2.1166101812123088 494.48910034857545 0 494.48910034857545 198.15144449473155 0 0 0 0 252.8456395599278 426.55574372824685 0 426.55574372824685 169.77705244346726 0 0 0 0 361.11885004925716 6.7641189907371881 0 6.7641189907371881 -156.78444660012883 0 0 0 0 -68.222305141323886 -29.821188260528288 0 -29.821188260528288 155.31325072251639 0 0 0 0 6.2669570972260544 7.4434348287655965 0 7.4434348287655965 1.2459362775827438 0 0 0 0 319.33713593766151 488.68524667424026 0 488.68524667424026 907.07511284516295 0 0 0 0 95.30728446716239 130.71975592418494 0 130.71975592418494 350.90541550048329 0 0 0 0 318.23349003605108 -194.96341397144533 0 -194.96341397144533 145.42912566380255 0 0 0 0 367.01959426423855 671.34201953390584 0 671.34201953390584 650.68916762561275 0 0 0 0 240.92095795850037 -104.00144251247184 0 -104.00144251247184 963.38167850979698 0 0 0 0 1063.7665791202307 118.06665382761639 0 118.06665382761639 110.91774115731096 0 0 0 0 227.26924883539687 53.230907033102994 0 53.230907033102994 53.423645802504325 0 0 0 0 -60.125476308043289 -58.916300967682119 0 -58.916300967682119 542.6345980511029 0 0 0 0 -200.94800226895313 -47.005449080374092 0 -47.005449080374092 297.31113013189315 0 0 0 0 -196.52224618342007 -384.69991054958518 0 -384.69991054958518 -249.38621313441035 0 0 0 0 16.907472223741934 244.60570806297619 0 244.60570806297619 -515.5907359325065 0 0 0 0 -23.698511923706974 348.98718605691829 0 348.98718605691829 502.1648024473543 0 0 0 0 1241.0218806162156 338.54580261473427 0 338.54580261473427 -595.08858635499666 0 0 0 0 1442.5506298278451 -119.52578668654144 0 -119.52578668654144 -129.92761838476758 0 0 0 0 297.20011173386592 523.56483825595285 0 523.56483825595285 -44.187621318939023 0 0 0 0 8.1103634708947681 -6.2135585069738113 0 -6.2135585069738113 10.87309829491193 0 0 0 0 391.55663391008602 788.27941748647868 0 788.27941748647868 570.01135836943195 0 0 0 0 -347.13598625617374 -1181.0623670335917 0 -1181.0623670335917 1344.4424873096432 0 0 0 0 8.66622981718956 -16.56537845448409 0 -16.56537845448409 61.61480728627982 0 0 0 0 148.86174324336025 18.569067064064257 0 18.569067064064257 -287.9802670737472 0 0 0 0 334.64592085042386 -33.229145507653925 0 -33.229145507653925 232.0043605458709 0 0 0 0 66.644934753479902 10.419120536054834 0 10.419120536054834 67.468777146947104 0 0 0 0 -192.56160015246132 359.24377565378745 0 359.24377565378745 598.39917713783871 0 0 0 0 -26.324933434982086 112.70175624030162 0 112.70175624030162 576.39569428246614 0 0 0 0 -404.00663452917308 724.94252486221149 0 724.94252486221149 222.29763578528582 0 0 0 0 419.64340565077146 -653.10186540919676 0 -653.10186540919676 445.77721880725585 0 0 0 0 12.591572705569462 5.9858472789327966 0 5.9858472789327966 3.2250684553927798 0 0 0 0 143.20832349653938 39.739697873526893 0 39.739697873526893 181.2920986668978 0 0 0 0 -303.61009761353489 615.51618832671375 0 615.51618832671375 -146.63536306228707 0 0 0 0 1228.4981936285803 126.19608553002035 0 126.19608553002035 -1086.2781632632177 0 0 0 0 28.228730123202695 5.2154754205121208 0 5.2154754205121208 19.621928494585518 0 0 0 0 68.753401643472898 8.7221166200174594 0 8.7221166200174594 5.7535536178857001 0 0 0 0 21.024693738288491 19.801550377525807 0 19.801550377525807 28.973408694279186 0 0 0 0 22.111416269613144 -60.029973813244894 0 -60.029973813244894 53.903026497596613 0 0 0 0 19.694228321389474 -6.8978699111801092 0 -6.8978699111801092 14.395502026919083 0 0 0 0 69.55592853979033 11.130423857574897 0 11.130423857574897 8.125504703644765 0 0 0 0 185.10776169331075 -35.62348205660237 0 -35.62348205660237 -190.76167760289536 0 0 0 0 -61.261123111067718 -133.46645616181149 0 -133.46645616181149 36.123926608335751 0 0 0 0 3073.2634401363466 811.81799629317425 0 811.81799629317425 -13.099698229380394 0 0 0 0 3499.5302643092582 795.42762797102466 0 795.42762797102466 -194.24973914240965 0 0 0 0 11.091283386469627 -17.195893360520287 0 -17.195893360520287 38.970287653911463 0 0 0 0 2485.6902570376915 722.32040284837512 0 722.32040284837512 223.19530217623367 0 0 0 0 5.240995123230249 -1.618064651668746 0 -1.618064651668746 -1.0911624565665861 0 0 0 0 1758.0970987177716 180.40342790588147 0 180.40342790588147 222.20379511425307 0 0 0 0 2103.4449795106339 767.36795312470758 0 767.36795312470758 218.2243078786008 0 0 0 0 14.807431664803531 -11.476926969173903 0 -11.476926969173903 28.091097511555379 0 0 0 0 2116.5308097418747 250.94395199615536 0 250.94395199615536 -68.777911761517714 0 0 0 0 2923.4156114465568 485.37407032491484 0 485.37407032491484 -125.59762838180637 0 0 0 0 2928.842959345714 471.76005527696464 0 471.76005527696464 -194.01676832500618 0 0 0 0 2851.5763145601086 391.97691221803564 0 391.97691221803564 -177.12254920697785 0 0 0 0 3498.8376416155988 36.723701362890665 0 36.723701362890665 -403.9994614122898 0 0 0 0 2896.4676463631258 239.4196303349608 0 239.4196303349608 -68.60831084222481 0 0 0 0 2784.1994388585517 225.88012589719796 0 225.88012589719796 151.45059551806756 0 0 0 0 6.8165730891746534 -4.5173068528107478 0 -4.5173068528107478 8.6137331624131548 0 0 0 0 2119.0435360516231 -140.34672341520175 0 -140.34672341520175 -2.0522321377596882 0 0 0 0 2145.3389382464084 308.0446738076746 0 308.0446738076746 -478.56473443563425 0 0 0 0 2763.6110732616035 -217.41194810049436 0 -217.41194810049436 -445.47088289634263 0 0 0 0 2758.7205028545504 -253.17569163937827 0 -253.17569163937827 -505.86129020188179 0 0 0 0 3501.0413397281627 -544.34889519367641 0 -544.34889519367641 -710.08444804283488 0 0 0 0 3492.6825637048059 -1526.6519634783951 0 -1526.6519634783951 -160.37002855252936 0 0 0 0 2364.6669797663708 -980.39683836957727 0 -980.39683836957727 -375.56087261275411 0 0 0 0 1119.9166685086311 -891.84189112710214 0 -891.84189112710214 637.28961558896799 0 0 0 0 2214.032084834781 -445.465694690443 0 -445.465694690443 -224.09846195898285 0 0 0 0 1664.2308929996434 -291.40499218045375 0 -291.40499218045375 -200.06669112145039 0 0 0 0 1668.5649903695235 -135.95601518622823 0 -135.95601518622823 -53.209801882024067 0 0 0 0 971.54939382820157 282.81201168665802 0 282.81201168665802 -149.65303336298192 0 0 0 0 201.73021879718726 1.5256030987087392 0 1.5256030987087392 421.23595569561894 0 0 0 0 971.30754381131226 16.039230605026695 0 16.039230605026695 242.32781108902554 0 0 0 0 342.58643929303798 47.105736745749368 0 47.105736745749368 389.36452126755319 0 0 0 0 362.14418454817314 -98.902114828755572 0 -98.902114828755572 353.22472603425285 0 0 0 0 539.92633832087449 26.873960874190068 0 26.873960874190068 315.43745870977318 0 0 0 0 709.35599243726756 -263.53125056875001 0 -263.53125056875001 360.8869819578162 0 0 0 0 7.1672859600042287 -22.612334543755367 0 -22.612334543755367 58.099253944905954 0 0 0 0 -659.62062539265753 -413.63584143681328 0 -413.63584143681328 118.23865224529072 0 0 0 0 321.00271325532958 99.269338118190603 0 99.269338118190603 -858.45639352235446 0 0 0 0 0.3823759949793768 -1.8106453379381406 0 -1.8106453379381406 5.4442217050014188 0 0 0 0 -270.69784767909732 -4.1916418700438953 0 -4.1916418700438953 -54.521115204664966 0 0 0 0 -356.1537845031562 -325.57054881418605 0 -325.57054881418605 1255.161321393651 0 0 0 0 3.1755093285849441 -16.088780734273129 0 -16.088780734273129 43.490374536441287 0 0 0 0 193.09336331494706 -90.51735399959864 0 -90.51735399959864 -73.860003064999319 0 0 0 0 545.9501546018364 -81.168546881272562 0 -81.168546881272562 239.81158100388325 0 0 0 0 460.93357087497134 -95.45392481363713 0 -95.45392481363713 280.81901094161054 0 0 0 0 196.71074326225789 -54.103624593958273 0 -54.103624593958273 283.38893345170163 0 0 0 0 488.58059024462636 -184.3073891794692 0 -184.3073891794692 83.57910135318582 0 0 0 0 441.07212350212649 -24.582469227333377 0 -24.582469227333377 -423.19391261379133 0 0 0 0 93.735069612637744 6.4571096825397944 0 6.4571096825397944 74.141526191319258 0 0 0 0 100.72110075130331 189.12872568846922 0 189.12872568846922 -102.51560295701336 0 0 0 0 330.58661465100613 139.76578455284914 0 139.76578455284914 113.13530644317484 0 0 0 0 83.315303762342012 -6.8025888576923901 0 -6.8025888576923901 0.89876267887224404 0 0 0 0 7.5490650401879975 130.04065810683204 0 130.04065810683204 -105.21899877929422 0 0 0 0 63.217651328871611 -3.7054346700490246 0 -3.7054346700490246 0.1201246636402109 0 0 0 0 560.30287860048884 577.79045543693235 0 577.79045543693235 629.37117366381403 0 0 0 0 2592.3959228284039 2225.9873694120929 0 2225.9873694120929 1919.5046038295438 0 0 0 0 1282.6887952758934 -1729.6407523292107 0 -1729.6407523292107 1493.5158557668774 0 0 0 0 25.57930961014263 -1.5223014540402335 0 -1.5223014540402335 3.1832165979901283 0 0 0 0 40.392094302456826 -115.97443562261196 0 -115.97443562261196 361.42326515832394 0 0 0 0 398.18491380880005 380.18573055262181 0 380.18573055262181 421.48978239828404 0 0 0 0 927.12669940305932 -277.57023281790316 0 -277.57023281790316 -171.10932931903167 0 0 0 0 3495.3950661267954 517.39933895620732 0 517.39933895620732 -341.49514557477841 0 0 0 0 18.089011856464083 0.17186211885216807 0 0.17186211885216807 1.6462172893250913 0 0 0 0 822.19348791675293 919.78280445137852 0 919.78280445137852 426.62302011544404 0 0 0 0 16.700204656975984 -260.76793710950346 0 -260.76793710950346 181.54506174991917 0 0 0 0 21.505289314552403 -10.070731917610971 0 -10.070731917610971 -4.8921590325968261 0 0 0 0 100.67596313312242 -103.5710685964994 0 -103.5710685964994 -287.86115161929376 0 0 0 0 -43.122541846081731 -55.839900055336244 0 -55.839900055336244 159.40839175828461 0 0 0 0 68.949907095855451 -3.6784684537665271 0 -3.6784684537665271 -35.832735203473248 0 0 0 0 76.924486397787405 8.8725609099219014 0 8.8725609099219014 -17.36255290026952 0 0 0 0 46.529444855772425 13.018691454364621 0 13.018691454364621 0.89747386113664507 0 0 0 0 126.9036636233941 100.22980990366385 0 100.22980990366385 3.5775560732104026 0 0 0 0 182.85207327386161 4.3041163686492112 0 4.3041163686492112 -76.215039651547741 0 0 0 0 26.108660787143663 9.9657607257262839 0 9.9657607257262839 3.4462700134049369 0 0 0 0 10.768499583854695 2.5305850873337619 0 2.5305850873337619 -1.8989022164751903 0 0 0 0 179.51792029132048 -344.94334873195021 0 -344.94334873195021 209.51063706286254 0 0 0 0 50.098903881273145 27.358022170978259 0 27.358022170978259 35.276713347046325 0 0 0 0 31.197602696287504 -76.287194464330341 0 -76.287194464330341 108.36696275028567 0 0 0 0 189.65328357048566 95.140679156167494 0 95.140679156167494 279.72152428333567 0 0 0 0 235.63841618465813 -167.31170389821602 0 -167.31170389821602 373.39545972592941 0 0 0 0 -215.285339684473 -26.178241887561171 0 -26.178241887561171 1196.5904912491953 0 0 0 0 -112.86724977127597 70.714605402758053 0 70.714605402758053 781.52812122226123 0 0 0 0 93.817242519973661 -248.60157475896369 0 -248.60157475896369 1104.0623389336279 0 0 0 0 25.637776362505974 -202.72223932618181 0 -202.72223932618181 958.42366425149294 0 0 0 0 247.4591813384468 217.83775859449071 0 217.83775859449071 1276.2764706340679 0 0 0 0 12.851504598644993 4.5551830175749615 0 4.5551830175749615 3.130043325232851 0 0 0 0 3493.3400144385669 -917.34523235024619 0 -917.34523235024619 -77.176892134990595 0 0 0 0 3491.9398311669138 444.81219748772236 0 444.81219748772236 115.63531376426447 0 0 0 0 972.45849170192378 964.19527054682055 0 964.19527054682055 1030.926272512484 0 0 0 0 1808.203681050556 -403.05251968972573 0 -403.05251968972573 454.00878262253639 0 0 0 0 1732.7195311590967 44.01234594123229 0 44.01234594123229 870.08711967220302 0 0 0 0 337.65691531792982 -358.5088536875777 0 -358.5088536875777 1016.4818086943902 0 0 0 0 344.17736386854835 -20.191889632737524 0 -20.191889632737524 930.07722754787392 0 0 0 0 327.31063217639894 366.91224221146211 0 366.91224221146211 -44.09532124827615 0 0 0 0 321.59176491298422 -377.68808510789995 0 -377.68808510789995 285.60016827948311 0 0 0 0 552.43775695364457 -9.512420359733369 0 -9.512420359733369 787.90069406962687 0 0 0 0 3503.29166927607 -661.5327339602045 0 -661.5327339602045 1441.2500116059884 0 0 0 0 -262.25171943900932 -304.11136536107438 0 -304.11136536107438 850.70778547579403 0 0 0 0 3446.8690520262462 -357.04991731625432 0 -357.04991731625432 438.40048066621256 0 0 0 0 1238.5617821488449 -1104.1387817592122 0 -1104.1387817592122 1048.9749078021252 0 0 0 0 4395.4788017543706 318.07797901478608 0 318.07797901478608 257.9649942988309 0 0 0 0 4354.7059064460555 563.49766980325091 0 563.49766980325091 379.61417701774326 0 0 0 0 9.114248785818944 -0.77133798956880639 0 -0.77133798956880639 8.5626573885407762 0 0 0 0 3498.004725502542 852.52443270726735 0 852.52443270726735 1548.2904789287891 0 0 0 0 4824.5852681456308 1094.619152885813 0 1094.619152885813 765.70571831995426 0 0 0 0 2836.4852109443163 2459.6667635805456 0 2459.6667635805456 1483.0942240465115 0 0 0 0 4.163746182817647 -1.4812379656805561 0 -1.4812379656805561 7.5266714748439476 0 0 0 0 4943.9743303276155 637.16866412033778 0 637.16866412033778 -310.48346488163111 0 0 0 0 529.40162624472578 365.27365258755344 0 365.27365258755344 -75.754365638412423 0 0 0 0 24.531967673176808 15.572947801481497 0 15.572947801481497 15.59852141598607 0 0 0 0 480.7758181038007 -71.293957797368421 0 -71.293957797368421 -11.28552728815157 0 0 0 0 22.300909204248455 -420.9045419334434 0 -420.9045419334434 -98.749150157753775 0 0 0 0 38.604251341796044 -33.471279226382649 0 -33.471279226382649 11.503847761392535 0 0 0 0 -237.49889641167829 19.699740954834851 0 19.699740954834851 -109.98908417306666 0 0 0 0 11.707606552956904 -10.623760564600644 0 -10.623760564600644 34.804057133211856 0 0 0 0 -84.271284828835633 -467.68050037839021 0 -467.68050037839021 225.62281275990244 0 0 0 0 131.18485117868113 -55.857720196907394 0 -55.857720196907394 -11.675122409969845 0 0 0 0 2155.9198223856729 1067.2298422025331 0 1067.2298422025331 600.95595102536345 0 0 0 0 2849.3193149002327 1226.4296771490644 0 1226.4296771490644 291.53155607745947 0 0 0 0 3499.8859050190367 1232.1377124500943 0 1232.1377124500943 340.62511709734815 0 0 0 0 19.223443897246369 15.65859034118003 0 15.65859034118003 6.4231348782921742 0 0 0 0 24.894334722670465 27.610329459556851 0 27.610329459556851 33.213211801361467 0 0 0 0 11.886003206025634 100.03532564499665 0 100.03532564499665 -118.03684857379267 0 0 0 0 32.75237720158475 16.480151634925278 0 16.480151634925278 11.578085607297908 0 0 0 0 111.78017501828344 66.870621630926507 0 66.870621630926507 40.02424190516831 0 0 0 0 9.6649758862768067 34.5154401106156 0 34.5154401106156 74.500867982827003 0 0 0 0 104.08013526417199 -160.71500335914197 0 -160.71500335914197 15.120548282000527 0 0 0 0 -331.0576507015212 -33.986413982001977 0 -33.986413982001977 577.80357862222854 0 0 0 0 3.6784404056716085 -2.4231173413852005 0 -2.4231173413852005 0.75593990869724692 0 0 0 0 135.87779596466862 102.94462632364684 0 102.94462632364684 90.595821067579891 0 0 0 0 15.740721581656544 -2.7745697243415748 0 -2.7745697243415748 -2.7207645056496403 0 0 0 0 -17.465007925289683 -81.447071362943461 0 -81.447071362943461 260.89713839084834 0 0 0 0 12.913461275623149 -1.1305305814875624 0 -1.1305305814875624 0.94298306450707248 0 0 0 0 11.738421514041789 -0.333241272674897 0 -0.333241272674897 -2.6852516200442906 0 0 0 0 106.67542840028182 -131.3178282794679 0 -131.3178282794679 88.44329840708815 0 0 0 0 -31.672573745192494 -142.70025218849696 0 -142.70025218849696 109.51321701022971 0 0 0 0 -39.609808418408647 -110.27036183267887 0 -110.27036183267887 159.09164559688179 0 0 0 0 -121.46025685725908 86.382501498957026 0 86.382501498957026 834.89568904612383 0 0 0 0 -9.461149194014979 28.294171372258404 0 28.294171372258404 -51.838210721536598 0 0 0 0 17.766323588297524 13.791184302750679 0 13.791184302750679 10.055131267534172 0 0 0 0 -235.98066045089217 -202.92566570140787 0 -202.92566570140787 872.86983302537465 0 0 0 0 -74.437774650265055 -122.04046108300213 0 -122.04046108300213 895.7749090613454 0 0 0 0 -96.736531412447221 -80.925116133176743 0 -80.925116133176743 1258.070979513634 0 0 0 0 -52.963433982495189 -410.38354299896605 0 -410.38354299896605 2027.8965342802894 0 0 0 0 29.546622655703686 -268.93925180304132 0 -268.93925180304132 1101.9816689076893 0 0 0 0 197.78423360564921 60.012776216175553 0 60.012776216175553 -40.130665542703355 0 0 0 0 7.0484395316731252 4.0121420511375803 0 4.0121420511375803 4.0042738559489788 0 0 0 0 86.419478662071924 133.05665560932789 0 133.05665560932789 1332.6980737220711 0 0 0 0 127.90526338798372 480.97406717416811 0 480.97406717416811 969.22260851598458 0 0 0 0 133.93507397244684 -161.57678537911306 0 -161.57678537911306 585.66678915057764 0 0 0 0 17.468771520856535 -31.245008275074724 0 -31.245008275074724 279.09026960757501 0 0 0 0 311.58712551665667 232.03159186433004 0 232.03159186433004 182.25022160256231 0 0 0 0 52.977456291897397 -211.00463655222302 0 -211.00463655222302 36.60508522852524 0 0 0 0 71.530043072707485 1.8908422910226363 0 1.8908422910226363 -79.110375853034839 0 0 0 0 15.480045864162093 -60.932085242172889 0 -60.932085242172889 -107.96206287613313 0 0 0 0 37.208808553780273 -6.9658614887626555 0 -6.9658614887626555 0.35063468310514168 0 0 0 0 365.82053824600735 -71.622279812916531 0 -71.622279812916531 -370.33305312136144 0 0 0 0 14.52359715023249 135.08647381249369 0 135.08647381249369 272.0153554108856 0 0 0 0 27.055004133032639 -6.5480685769515716 0 -6.5480685769515716 0.64377372474058703 0 0 0 0 34.335424408023755 -1.0713950962515355 0 -1.0713950962515355 -55.770239385976311 0 0 0 0 51.740200351814565 -54.753278640088865 0 -54.753278640088865 -23.912411484321638 0 0 0 0 40.536220670794137 -64.336872499567107 0 -64.336872499567107 5.779210917364253 0 0 0 0 84.312947115402494 -5.7124882799871557 0 -5.7124882799871557 -74.869734249194153 0 0 0 0 60.438141447375529 -18.58058362155316 0 -18.58058362155316 -44.218006358585626 0 0 0 0 337.93220217629278 60.894015844132809 0 60.894015844132809 73.395551403831632 0 0 0 0 27.582090430063545 -10.071202327751962 0 -10.071202327751962 23.478952062035205 0 0 0 0 384.07851872663014 -434.06309151429377 0 -434.06309151429377 250.60751592335509 0 0 0 0 -5.0409145656643943 -5.6415271068935198 0 -5.6415271068935198 -4.7168028277792082 0 0 0 0 10.286286596897497 -3.2951093877705411 0 -3.2951093877705411 0.62240288910556352 0 0 0 0 32.138273268035846 -49.509065276745787 0 -49.509065276745787 8.3152698610865627 0 0 0 0 -29.282999607370584 2.7597362370665905 0 2.7597362370665905 327.3192110468226 0 0 0 0 775.46091028618685 462.49960713936798 0 462.49960713936798 74.873741723331477 0 0 0 0 501.18267229026242 581.16955669142044 0 581.16955669142044 269.76042817551661 0 0 0 0 924.87855856691021 280.13990179641587 0 280.13990179641587 292.6057211908801 0 0 0 0 655.40564929896937 411.79101804746188 0 411.79101804746188 382.33468456888659 0 0 0 0 857.38854682221427 449.69928213390449 0 449.69928213390449 220.00416975931876 0 0 0 0 374.62518905596517 209.98983152004575 0 209.98983152004575 1178.3289950990702 0 0 0 0 663.83740712370491 154.50103018773189 0 154.50103018773189 533.151299201656 0 0 0 0 702.99876917809888 443.74603010219016 0 443.74603010219016 539.88673939573255 0 0 0 0 1.1716491769200275 2.6864150567423479 0 2.6864150567423479 7.6324407084149328 0 0 0 0 288.60507428774145 -469.9473731960743 0 -469.9473731960743 866.24901797668372 0 0 0 0 699.09337839832006 -645.39272499494882 0 -645.39272499494882 427.9682990383526 0 0 0 0 601.94891246748011 230.62279989577974 0 230.62279989577974 318.24537716466966 0 0 0 0 -125.91617448222314 88.699340857498555 0 88.699340857498555 457.50256359430205 0 0 0 0 1.354074749824548 4.2562055432829311 0 4.2562055432829311 14.200006271424993 0 0 0 0 -104.00786432890891 -186.02446537689917 0 -186.02446537689917 223.72699687700208 0 0 0 0 253.70657588323957 -432.43256728734821 0 -432.43256728734821 320.56150120778716 0 0 0 0 18.78505860902078 470.46596195851305 0 470.46596195851305 151.69359395459969 0 0 0 0 657.50342757251201 -78.26560873959852 0 -78.26560873959852 294.73686428460996 0 0 0 0 393.69328674513235 351.62985181784984 0 351.62985181784984 1280.5323354877385 0 0 0 0 390.45432085499488 -233.15232619352656 0 -233.15232619352656 131.41189310301741 0 0 0 0 249.40037503435451 -140.67352066777676 0 -140.67352066777676 373.75947496875438 0 0 0 0 116.0552818383876 -138.63818473221329 0 -138.63818473221329 115.37315171656996 0 0 0 0 242.73338511426846 -272.26489238479803 0 -272.26489238479803 179.99993291383424 0 0 0 0 121.51043193793157 -157.9221627473807 0 -157.9221627473807 81.672725270204666 0 0 0 0 109.57739859279536 -21.538785759857149 0 -21.538785759857149 10.073889484317931 0 0 0 0 60.951584669528529 68.152463710263248 0 68.152463710263248 -103.5385026323554 0 0 0 0 41.713371743408857 12.594175837979741 0 12.594175837979741 0.69542367604252453 0 0 0 0 30.302954732309445 19.346354874157782 0 19.346354874157782 -25.343773441084522 0 0 0 0 33.407389443538705 -131.96831329274562 0 -131.96831329274562 251.63427099964321 0 0 0 0 9.950712267185736 -5.8663949690594563 0 -5.8663949690594563 120.99713138884249 0 0 0 0 -11.483305756293703 -266.25333785455587 0 -266.25333785455587 504.71205045669967 0 0 0 0 1.9623803629449128 3.0530880361138912 0 3.0530880361138912 5.5150641687973847 0 0 0 0 477.1335572402968 -536.82023558198853 0 -536.82023558198853 371.60056421276261 0 0 0 0 -58.808630217470636 -220.52331271051264 0 -220.52331271051264 739.37484577702674 0 0 0 0 201.87123125124344 -292.37096918237455 0 -292.37096918237455 198.99772029048836 0 0 0 0 752.1172001776431 -437.09719406325485 0 -437.09719406325485 168.66709992116375 0 0 0 0 863.18092597997747 -369.35386612375896 0 -369.35386612375896 115.39658580073319 0 0 0 0 690.60800367716729 -18.919636387055561 0 -18.919636387055561 -153.73351716704155 0 0 0 0 116.2555708630498 62.662876587633605 0 62.662876587633605 233.11000052530608 0 0 0 0 429.47354241001449 -306.76729942946974 0 -306.76729942946974 668.82749867198061 0 0 0 0 753.86185935651883 -416.89427231108198 0 -416.89427231108198 124.05895421459661 0 0 0 0 407.1515861897642 -400.23943655835234 0 -400.23943655835234 409.40511845694698 0 0 0 0 754.15150410843489 -420.7944077657553 0 -420.7944077657553 52.15083480632461 0 0 0 0 915.4051344802283 -404.74094547400955 0 -404.74094547400955 -24.937649172269388 0 0 0 0 126.77698634384797 13.919696636442779 0 13.919696636442779 -81.46260392349086 0 0 0 0 436.47678216321219 -82.887923877650792 0 -82.887923877650792 -6.5178322279072347 0 0 0 0 11.709430657801136 -3.9831209504578169 0 -3.9831209504578169 4.5483330889249292 0 0 0 0 59.296470049517353 25.463672843410691 0 25.463672843410691 11.087979529909735 0 0 0 0 649.28782911776216 -355.17669952694223 0 -355.17669952694223 130.80944180590996 0 0 0 0 656.21494737441026 -340.71919590866446 0 -340.71919590866446 154.17638942270787 0 0 0 0 29.801677238437662 9.2808204781304653 0 9.2808204781304653 6.0504548154399203 0 0 0 0 624.78754460546043 -313.78678208038718 0 -313.78678208038718 144.88481033928838 0 0 0 0 47.151563247811282 -25.546706308319699 0 -25.546706308319699 -43.118404459563862 0 0 0 0 14.468716323339848 8.5415022415029398 0 8.5415022415029398 24.920226427046849 0 0 0 0 1097.2331531035597 -69.050445682794816 0 -69.050445682794816 -439.46707512436478 0 0 0 0 -884.4448529232086 402.05164771403997 0 402.05164771403997 943.86993058830194 0 0 0 0 1293.7034639928315 -792.4790192797409 0 -792.4790192797409 43.857674355902418 0 0 0 0 -568.43914777731698 -431.90995381736866 0 -431.90995381736866 23.385481670564332 0 0 0 0 289.95599929048331 -878.51542897650506 0 -878.51542897650506 119.13139597100781 0 0 0 0 83.676261585686007 -88.464410032102023 0 -88.464410032102023 14.172292306821873 0 0 0 0 -102.55498543796421 -13.30548090222328 0 -13.30548090222328 130.67041209902982 0 0 0 0 64.914052077530869 148.27119719492899 0 148.27119719492899 122.13713270744847 0 0 0 0 11.771315501773842 2.8329019143722718 0 2.8329019143722718 0.083803374143073484 0 0 0 0 580.80841309711832 -412.52589050694803 0 -412.52589050694803 193.69101020026665 0 0 0 0 1262.7578111320399 -1045.9546703497954 0 -1045.9546703497954 727.93778479541197 0 0 0 0 1556.935008978704 -155.98717255933207 0 -155.98717255933207 -90.492316849476083 0 0 0 0 638.54655881575309 -392.52104257898691 0 -392.52104257898691 1.964861712514903 0 0 0 0 1209.4848417732574 -393.47350561951771 0 -393.47350561951771 188.74388011179144 0 0 0 0 921.81582273973618 -191.01116452785027 0 -191.01116452785027 327.36955479232984 0 0 0 0 1209.9462573352439 -136.614046795213 0 -136.614046795213 14.607277621229514 0 0 0 0 533.55248591427517 265.62989194311285 0 265.62989194311285 63.189658391643206 0 0 0 0 936.22594849251618 125.18633250079074 0 125.18633250079074 -64.738077964082095 0 0 0 0 472.63525694865575 20.678016794139467 0 20.678016794139467 -51.936817273133784 0 0 0 0 473.55449780115975 60.693092460349277 0 60.693092460349277 66.915928397251264 0 0 0 0 898.20725743321236 40.291264229426815 0 40.291264229426815 -54.559639383400281 0 0 0 0 710.47378060415213 27.394019501430193 0 27.394019501430193 145.94757196025148 0 0 0 0 880.90073652825959 127.93680915891673 0 127.93680915891673 191.7915159899494 0 0 0 0 888.23525569975027 290.51186113623953 0 290.51186113623953 261.39508572910563 0 0 0 0 972.07173417763261 297.5898995747084 0 297.5898995747084 171.30484306113794 0 0 0 0 898.64648765517632 196.32464997273564 0 196.32464997273564 706.91965542594698 0 0 0 0 963.5715334994311 402.82311621554982 0 402.82311621554982 339.38383962091575 0 0 0 0 1043.5614609099866 492.94240260109473 0 492.94240260109473 393.15254170847038 0 0 0 0 964.61277890795327 363.20918808309943 0 363.20918808309943 212.2337891244606 0 0 0 0 991.0229689682601 331.92545354018512 0 331.92545354018512 226.43976983287848 0 0 0 0 1046.5908683563102 129.9748652175299 0 129.9748652175299 -72.414603013217857 0 0 0 0 772.63641804797226 182.17983957364777 0 182.17983957364777 1.8946582390180993 0 0 0 0 330.80241059444234 -161.7696042447551 0 -161.7696042447551 121.2792567746983 0 0 0 0 925.44422112552274 -141.28437327250867 0 -141.28437327250867 -117.94693428673781 0 0 0 0 1329.3902241412434 374.72561412404684 0 374.72561412404684 22.666171725057211 0 0 0 0 -8.4534518934669904 -22.588973401483599 0 -22.588973401483599 206.12777290481972 0 0 0 0 966.80125546355703 688.59034524321396 0 688.59034524321396 385.16860005053422 0 0 0 0 1801.2525084110821 135.74567750222195 0 135.74567750222195 -48.594935901547615 0 0 0 0 1308.858221671464 872.55107136603601 0 872.55107136603601 519.33262876241861 0 0 0 0 4.7684007634537977 3.1090557933978431 0 3.1090557933978431 2.09879113899283 0 0 0 0 858.24762126732094 373.98344121088121 0 373.98344121088121 700.53876567556654 0 0 0 0 804.11092999526591 161.02939598942248 0 161.02939598942248 24.633930078616686 0 0 0 0 366.06378740171203 -79.012084324313037 0 -79.012084324313037 -52.790992097950948 0 0 0 0 691.95909140122239 213.55050557382856 0 213.55050557382856 155.1279233842979 0 0 0 0 1002.4977815895545 611.57823144510485 0 611.57823144510485 468.53139888381702 0 0 0 0 866.96441176152439 110.86086390985292 0 110.86086390985292 -764.43890879846731 0 0 0 0 1281.9203892637743 1461.2407124047349 0 1461.2407124047349 -171.0498421383254 0 0 0 0 728.91006104118424 820.75383605654315 0 820.75383605654315 1218.4141499863763 0 0 0 0 870.19742579900776 761.85193850091673 0 761.85193850091673 394.76499816129945 0 0 0 0 952.64816774026258 627.85651595024683 0 627.85651595024683 384.22274517992491 0 0 0 0 455.67913183009659 -107.35824557265187 0 -107.35824557265187 3.8220303711423185 0 0 0 0 546.56534669613393 -128.7666212178674 0 -128.7666212178674 -17.890082233410794 0 0 0 0 457.16664120687346 -103.14833839263338 0 -103.14833839263338 56.009045470214062 0 0 0 0 423.50525056521292 -160.86187092334512 0 -160.86187092334512 -42.822694608097663 0 0 0 0 463.78347766278603 -74.251617719997739 0 -74.251617719997739 -78.531296980389016 0 0 0 0 45.271273545207805 13.825761342886835 0 13.825761342886835 3.7381400197464245 0 0 0 0 4.392690818806976 1.9867892682174215 0 1.9867892682174215 6.3274598242632791 0 0 0 0 110.86184743209014 -34.425306771608348 0 -34.425306771608348 66.737985283773014 0 0 0 0 149.01225639762197 146.72590457611068 0 146.72590457611068 -44.692780119519739 0 0 0 0 7.7109928415206639 6.8419864239954791 0 6.8419864239954791 10.918661754203718 0 0 0 0 546.0750575536149 -165.47208693530047 0 -165.47208693530047 37.134232362272087 0 0 0 0 442.50042663728527 -200.00230058223042 0 -200.00230058223042 29.33825325266298 0 0 0 0 576.50983782932235 15.439498138868203 0 15.439498138868203 98.692458813457051 0 0 0 0 445.4865123389859 -160.72653901775851 0 -160.72653901775851 114.90515692780173 0 0 0 0 1.281770874034919 -45.509155751424714 0 -45.509155751424714 -51.219827502514818 0 0 0 0 8.1947360377094753 3.7294237854133172 0 3.7294237854133172 2.1228482925497403 0 0 0 0 447.68045070122753 -14.217628721491565 0 -14.217628721491565 56.661626588214403 0 0 0 0 -171.48757956756162 88.200097464273767 0 88.200097464273767 179.98368165206011 0 0 0 0 3.9969694489895673 4.1215153384809327 0 4.1215153384809327 22.827953605621268 0 0 0 0 98.325032415668829 -113.46285521296522 0 -113.46285521296522 57.80779195382047 0 0 0 0 -1.3984215515294522 3.6133533180295103 0 3.6133533180295103 29.445446362421741 0 0 0 0 138.71846666745114 177.14724045715593 0 177.14724045715593 54.305052065979908 0 0 0 0 169.05135931177574 -134.74962988085872 0 -134.74962988085872 50.007198563131169 0 0 0 0 -718.59141656576685 -189.30785121116151 0 -189.30785121116151 141.22923509845714 0 0 0 0 252.2822868327421 473.26154666135835 0 473.26154666135835 -459.41254511559964 0 0 0 0 -283.62585311854491 -66.464438551345665 0 -66.464438551345665 -23.485858689809902 0 0 0 0 -0.079103601532551693 -362.17885675913794 0 -362.17885675913794 -78.271232529812551 0 0 0 0 1613.1308911812812 -646.14170725278746 0 -646.14170725278746 80.744084538624975 0 0 0 0 4.2522237611069613 1.6882497441397248 0 1.6882497441397248 -0.31677951695758821 0 0 0 0 1656.5390350106936 1177.7588435798091 0 1177.7588435798091 -10.447170862054918 0 0 0 0 72.44960842798946 -97.228179830907266 0 -97.228179830907266 -283.46596957294241 0 0 0 0 29.470412623408365 5.6565833290100471 0 5.6565833290100471 -36.517564995498013 0 0 0 0 22.923359064759381 -21.121665244939308 0 -21.121665244939308 15.381004985134297 0 0 0 0 847.86114352168806 -182.59411715970782 0 -182.59411715970782 76.448672816661656 0 0 0 0 11.168670938927391 1.6164381017643308 0 1.6164381017643308 -18.283975634574126 0 0 0 0 29.680262293226406 -4.6384860864231996 0 -4.6384860864231996 -69.596093802752875 0 0 0 0 10.064425288635235 1.8529629286284859 0 1.8529629286284859 2.1141437623359423 0 0 0 0 553.58650414571457 106.34978581641735 0 106.34978581641735 24.92304730946671 0 0 0 0 755.41125821096648 -361.91033780717589 0 -361.91033780717589 168.29091151536068 0 0 0 0 842.77580230004969 -309.87101190437352 0 -309.87101190437352 -23.867638747800811 0 0 0 0 -29.488525939501415 130.58264327978122 0 130.58264327978122 -43.269128982370603 0 0 0 0 1004.5679808970017 -111.69939286056797 0 -111.69939286056797 -13.113805010189026 0 0 0 0 1078.3353098288499 -378.6445590052499 0 -378.6445590052499 -5.6845921599392568 0 0 0 0 1.1175711010342297 0.81830764411219548 0 0.81830764411219548 1.8120860728082278 0 0 0 0 107.49337797171029 -7.6323556295569688 0 -7.6323556295569688 -72.41316306830231 0 0 0 0 141.22305077512283 -16.42376250360212 0 -16.42376250360212 52.064416543935295 0 0 0 0 125.49183083636672 19.79830527152717 0 19.79830527152717 -29.646008522016928 0 0 0 0 564.29292933058241 -97.30596115774415 0 -97.30596115774415 -54.324002239354741 0 0 0 0 490.21343292792153 132.32057759381314 0 132.32057759381314 -56.031932726294599 0 0 0 0 648.92651977022615 -126.04200984407998 0 -126.04200984407998 -45.44949822077615 0 0 0 0 10.919663978008842 -3.4423816030468686 0 -3.4423816030468686 -8.8603126329311408 0 0 0 0 -24.895603128637958 6.8225856169283361 0 6.8225856169283361 -54.884468053049204 0 0 0 0 7.3081851980678039 -53.752345430586502 0 -53.752345430586502 58.602741625441922 0 0 0 0 -34.321122695328086 -99.723950936751862 0 -99.723950936751862 2.0173945063907013 0 0 0 0 7.5416365481477357 -1.6454830817951773 0 -1.6454830817951773 -11.413254296772877 0 0 0 0 -25.053583920729579 -7.728142021680469 0 -7.728142021680469 -0.72782194977116887 0 0 0 0 -12.609327699781716 -95.241350821203469 0 -95.241350821203469 -142.52012688160175 0 0 0 0 -41.379391092763399 -145.2306911978585 0 -145.2306911978585 -57.064217696592095 0 0 0 0 -120.90782324576867 -39.978238682265328 0 -39.978238682265328 5.683836615187829 0 0 0 0 -122.60770284394675 -40.283705933729834 0 -40.283705933729834 6.6012011953844194 0 0 0 0 -125.91739534812223 -56.121708892172137 0 -56.121708892172137 0.7072475967270293 0 0 0 0 -125.88886717796413 53.127242695167297 0 53.127242695167297 -44.520041811277224 0 0 0 0 -129.07375310847419 55.020972499628442 0 55.020972499628442 123.81264573742828 0 0 0 0 -70.29031481461061 223.76626458550891 0 223.76626458550891 273.36538743805795 0 0 0 0 -116.6413248831268 -92.354932325892378 0 -92.354932325892378 318.41735569994853 0 0 0 0 -81.74994107220482 143.43481637594778 0 143.43481637594778 -92.749421340484332 0 0 0 0 -39.386162434857397 118.76313953305225 0 118.76313953305225 -96.965453269824138 0 0 0 0 51.515341383648774 22.310445369657373 0 22.310445369657373 -75.233057362718682 0 0 0 0 -44.582894516119268 133.0800244130387 0 133.0800244130387 68.630767467214355 0 0 0 0 28.3674647319244 16.017238883359994 0 16.017238883359994 -25.416687436401261 0 0 0 0 16.890094904738362 -17.517124729562056 0 -17.517124729562056 -34.70953430384634 0 0 0 0 48.43280861200401 -36.615714362876133 0 -36.615714362876133 -103.60981282289504 0 0 0 0 82.116812947075232 73.228936478093601 0 73.228936478093601 -84.695590614581306 0 0 0 0 139.97917113122821 119.52320191946092 0 119.52320191946092 161.13573567102867 0 0 0 0 -40.11228261271026 59.354099151674745 0 59.354099151674745 -119.42435938772178 0 0 0 0 534.52747150865616 -228.39231559291875 0 -228.39231559291875 16.416927532147383 0 0 0 0 -82.921415133954724 -531.16189346622195 0 -531.16189346622195 455.62559290570789 0 0 0 0 1389.6117995163586 591.76024666559078 0 591.76024666559078 -480.7858018960178 0 0 0 0 2327.2349437612284 743.0748601874584 0 743.0748601874584 252.97188905158691 0 0 0 0 5.6433924481120528 -6.3447782130425594 0 -6.3447782130425594 9.7099640112998529 0 0 0 0 -239.54097777829156 -417.40810820701972 0 -417.40810820701972 382.54553454468987 0 0 0 0 2929.8172612052149 482.4540130900823 0 482.4540130900823 -554.37645857913776 0 0 0 0 965.03920770117838 -963.968785973786 0 -963.968785973786 426.37335768316848 0 0 0 0 900.66574267590113 -835.81566834753403 0 -835.81566834753403 722.25249054902815 0 0 0 0 634.66492093008128 8.5373284495253756 0 8.5373284495253756 -37.639874130542012 0 0 0 0 102.27071238635108 88.105459411191987 0 88.105459411191987 -15.316185627162668 0 0 0 0 17.266866638237218 -2.3257653864942753 0 -2.3257653864942753 -3.0865942265376027 0 0 0 0 664.97398882433481 -1110.5490459713228 0 -1110.5490459713228 689.63792051632481 0 0 0 0 1138.8302777331264 -934.99247702697585 0 -934.99247702697585 -98.042078037631654 0 0 0 0 527.14848161686677 842.748714558541 0 842.748714558541 -576.8415017959112 0 0 0 0 -50.251655157757341 229.35758074061778 0 229.35758074061778 511.98981754196461 0 0 0 0 77.170116540306481 -54.988555872285815 0 -54.988555872285815 -8.4591904028325189 0 0 0 0 46.2653559867951 16.275350106047817 0 16.275350106047817 1.7527002096650577 0 0 0 0 84.089068871020572 39.659508985667571 0 39.659508985667571 -391.69133606445143 0 0 0 0 774.59275392090785 -298.13196556988123 0 -298.13196556988123 -303.43968379039165 0 0 0 0 1040.5677068659279 -1255.5556820103293 0 -1255.5556820103293 834.79410869564697 0 0 0 0 243.15048909952748 -358.89070149599684 0 -358.89070149599684 549.78388240785534 0 0 0 0 795.03441137501795 9.3173142713449124 0 9.3173142713449124 -492.1727931372734 0 0 0 0 20.687116738045006 -465.59196930151938 0 -465.59196930151938 115.20961617377816 0 0 0 0 35.368679930201324 96.686173301934105 0 96.686173301934105 -56.598152240885156 0 0 0 0 31.221995348916948 12.534377833100017 0 12.534377833100017 -2.7869514793992991 0 0 0 0 -21.569219910190441 8.3090105196042714 0 8.3090105196042714 -45.367286946989225 0 0 0 0 45.54112419142686 20.252969570241447 0 20.252969570241447 -17.130314040731943 0 0 0 0 457.03972586619784 -566.35115342048312 0 -566.35115342048312 436.5872481440656 0 0 0 0 730.721307449101 100.36612091648919 0 100.36612091648919 -289.87132569333977 0 0 0 0 859.73879998197663 453.48873960230901 0 453.48873960230901 -544.4636918117576 0 0 0 0 511.18090362547082 278.9108521061687 0 278.9108521061687 -225.3126513803237 0 0 0 0 605.45749523478298 -50.243248361341244 0 -50.243248361341244 97.546691074595628 0 0 0 0 555.84407476006163 91.301059531024436 0 91.301059531024436 -40.19647445154169 0 0 0 0 651.1608984710474 -80.16909866407596 0 -80.16909866407596 106.36011400108333 0 0 0 0 681.67303478406393 6.7880264017986747 0 6.7880264017986747 -86.767470886943372 0 0 0 0 770.69116254334222 -32.899491261501396 0 -32.899491261501396 -134.71118840669169 0 0 0 0 984.44871591241099 -478.00037567201099 0 -478.00037567201099 -1004.6943913809214 0 0 0 0 428.63683195564954 -115.20626790791559 0 -115.20626790791559 -202.21850544749546 0 0 0 0 185.50381054864556 162.27311840845596 0 162.27311840845596 115.95242484775031 0 0 0 0 685.59390904329484 -120.34839259115004 0 -120.34839259115004 -97.225880249706989 0 0 0 0 773.43120385502334 -68.324207102634915 0 -68.324207102634915 -105.52068033577086 0 0 0 0 -300.95666946351412 -331.05301918253258 0 -331.05301918253258 161.53280325320611 0 0 0 0 1226.446850904671 417.27375760156701 0 417.27375760156701 -924.37999910808969 0 0 0 0 1820.6243118296043 19.512229314095293 0 19.512229314095293 62.222418567203022 0 0 0 0 952.78225209129232 627.979693591809 0 627.979693591809 -443.16946086322741 0 0 0 0 1293.3137732808627 -1130.2523837424922 0 -1130.2523837424922 559.81353424831423 0 0 0 0 231.53458030769252 387.99129304948724 0 387.99129304948724 915.72556806416969 0 0 0 0 357.96186623998801 665.36893366385061 0 665.36893366385061 -412.78733351699384 0 0 0 0 -122.383669575167 314.73276450063349 0 314.73276450063349 -144.71467759914549 0 0 0 0 19.22361022739824 3.8931507832858472 0 3.8931507832858472 -1.5368316120068193 0 0 0 0 573.27309648196388 207.36341158208268 0 207.36341158208268 -147.03262371201799 0 0 0 0 302.50370389372983 -33.245077547463552 0 -33.245077547463552 -158.37105303655164 0 0 0 0 124.76767547189593 -161.01928934148782 0 -161.01928934148782 -245.15750633117432 0 0 0 0 162.47232808679109 -259.54030079740471 0 -259.54030079740471 -63.724468711319105 0 0 0 0 119.00386327262095 -172.01311131746877 0 -172.01311131746877 -209.27912519760548 0 0 0 0 -1016.3723237470476 -310.70023036163775 0 -310.70023036163775 807.28107320538857 0 0 0 0 -33.959380681753373 -17.618471160908321 0 -17.618471160908321 -87.835647469593823 0 0 0 0 -29.594825671898434 -105.62617148329736 0 -105.62617148329736 142.32628828662854 0 0 0 0 494.61796188764856 -418.93523761608003 0 -418.93523761608003 329.41614383237606 0 0 0 0 183.4821017405684 -349.06225362238132 0 -349.06225362238132 883.13317644816448 0 0 0 0 106.01041611432811 -1249.6811223797802 0 -1249.6811223797802 1424.4141768146837 0 0 0 0 301.50306309200823 160.24619982426213 0 160.24619982426213 -13.322548652321188 0 0 0 0 379.3374905208766 -186.53852590945337 0 -186.53852590945337 4.7816763608959718 0 0 0 0 383.16693212951941 -142.49383744188077 0 -142.49383744188077 468.84802902233076 0 0 0 0 551.42864263345837 -96.937046174033355 0 -96.937046174033355 47.115317525446628 0 0 0 0 524.33429264547885 -250.19612172315851 0 -250.19612172315851 507.04638976212954 0 0 0 0 575.63038466198486 -39.226648950908384 0 -39.226648950908384 129.15871309253646 0 0 0 0 714.21285273076865 -269.45276856204009 0 -269.45276856204009 319.8551732446507 0 0 0 0 743.34216901009495 -553.67138555823283 0 -553.67138555823283 696.57720769071682 0 0 0 0 612.75496698619099 -250.8312810262139 0 -250.8312810262139 440.66496287106531 0 0 0 0 1060.9463013765926 -693.2806125248901 0 -693.2806125248901 587.14659077561896 0 0 0 0 662.96094020063174 -446.96521019119848 0 -446.96521019119848 696.69424462266716 0 0 0 0 2504.673476984739 -1768.882241966865 0 -1768.882241966865 732.70164622722223 0 0 0 0 903.50738904272293 -1740.2125828544949 0 -1740.2125828544949 1505.2518823138353 0 0 0 0 660.44870564129087 -554.24458788192828 0 -554.24458788192828 963.52457484274464 0 0 0 0 1240.7350733625935 -844.84196021159494 0 -844.84196021159494 876.34766823485666 0 0 0 0 1800.4002038777835 -843.28013406947025 0 -843.28013406947025 675.47183151638308 0 0 0 0 -4.930775175987236 -4.0550619131528549 0 -4.0550619131528549 14.134855279233072 0 0 0 0 1340.726442007639 -895.91797890746318 0 -895.91797890746318 584.97992387483873 0 0 0 0 -20.478858462578501 -83.587219834382722 0 -83.587219834382722 8.4195527540632611 0 0 0 0 1062.8824204569537 -671.86140329951775 0 -671.86140329951775 698.75600651693571 0 0 0 0 973.18299511395162 -643.52115994760607 0 -643.52115994760607 533.5487802506409 0 0 0 0 1143.896846829768 -660.50836750363067 0 -660.50836750363067 418.85933544216596 0 0 0 0 831.10228032465966 -466.86672883542701 0 -466.86672883542701 450.50836168794251 0 0 0 0 783.45549820244196 -404.85509098107195 0 -404.85509098107195 467.01619795094177 0 0 0 0 827.66655901986815 -303.67371003194319 0 -303.67371003194319 202.71676294630618 0 0 0 0 732.40162993819104 -422.65710054637918 0 -422.65710054637918 528.18854868254436 0 0 0 0 726.31029870477505 -206.89908782875332 0 -206.89908782875332 164.40845706825178 0 0 0 0 663.09870795646566 -161.55888303692058 0 -161.55888303692058 264.26757031537181 0 0 0 0 694.22697234968655 -71.749728812653956 0 -71.749728812653956 45.401400752656897 0 0 0 0 714.69040014852362 -119.61107794007546 0 -119.61107794007546 17.27811911976346 0 0 0 0 634.42892683343962 -206.40801779689315 0 -206.40801779689315 384.71671141347974 0 0 0 0 683.47113207439543 -79.349100608088236 0 -79.349100608088236 98.837573508389255 0 0 0 0 329.87066245917231 -7.8012869334435209 0 -7.8012869334435209 44.316372197316468 0 0 0 0 752.49021371611161 -105.16280240213121 0 -105.16280240213121 -89.867711315416315 0 0 0 0 565.41309364652261 25.40188780337855 0 25.40188780337855 -57.986864186800361 0 0 0 0 684.4538748243649 -218.87559599155128 0 -218.87559599155128 162.66392966229665 0 0 0 0 883.67600416954156 -137.32582671664323 0 -137.32582671664323 -16.105971150863866 0 0 0 0 800.8491285386408 -487.56178914285869 0 -487.56178914285869 335.32310048549664 0 0 0 0 1027.7637638739106 -383.67409646763122 0 -383.67409646763122 423.87973306073934 0 0 0 0 982.48572394447183 -258.9313879588567 0 -258.9313879588567 272.55909403104624 0 0 0 0 1119.2512021914008 -447.4899932223401 0 -447.4899932223401 468.37056611003743 0 0 0 0 1806.5657337059674 -487.45901694742543 0 -487.45901694742543 295.47660034110669 0 0 0 0 1126.2564220587446 -396.18192197432927 0 -396.18192197432927 309.11096594151559 0 0 0 0 631.79826892356505 -391.36608996070606 0 -391.36608996070606 465.38151144126039 0 0 0 0 1013.6297023715615 -479.20220274872747 0 -479.20220274872747 178.73037669937924 0 0 0 0 688.30840496707242 -376.05654969160184 0 -376.05654969160184 172.64486975805937 0 0 0 0 1029.8455398573824 -366.80077595231813 0 -366.80077595231813 674.06714899407302 0 0 0 0 553.51463470296585 148.94789232766493 0 148.94789232766493 -357.91397714151356 0 0 0 0 2111.9168136628723 -212.92988123072951 0 -212.92988123072951 -759.80528174511642 0 0 0 0 1476.34653150331 -815.50973863968386 0 -815.50973863968386 36.179165307415815 0 0 0 0 1187.0775550154067 -165.23910230276419 0 -165.23910230276419 -267.78469993492138 0 0 0 0 588.42000877353712 -166.74786419890256 0 -166.74786419890256 -0.21912039189109445 0 0 0 0 1013.3872244860686 -348.64312196794043 0 -348.64312196794043 -104.32215894788389 0 0 0 0 1042.4306921298848 -437.13810400249611 0 -437.13810400249611 44.366984799122065 0 0 0 0 114.43261302612518 -108.39282908124406 0 -108.39282908124406 0.020710102546211064 0 0 0 0 242.31719284505016 -40.251121842314944 0 -40.251121842314944 -92.605434870399563 0 0 0 0 221.87714898580452 11.391644384664176 0 11.391644384664176 -40.457457022528217 0 0 0 0 460.7735159843869 -95.831791803933299 0 -95.831791803933299 -146.45447420927729 0 0 0 0 55.068067366082687 21.13892457879416 0 21.13892457879416 -138.38056866950723 0 0 0 0 265.37868061666086 77.203976812528111 0 77.203976812528111 -299.506202196598 0 0 0 0 357.98426005402871 263.31662251560874 0 263.31662251560874 258.58064507362496 0 0 0 0 6.8378044578215906 -7.0069631230569485 0 -7.0069631230569485 0.27711384192927246 0 0 0 0 -122.3133485330909 236.29292716125406 0 236.29292716125406 -260.99505071718301 0 0 0 0 105.87132054542826 -65.054683345844168 0 -65.054683345844168 -65.831074559201738 0 0 0 0 108.71282258120482 -2.2058035058304029 0 -2.2058035058304029 -189.15910849665642 0 0 0 0 116.89882411452709 -76.729059210272908 0 -76.729059210272908 -101.06337671768864 0 0 0 0 77.834758506651269 31.663412225845121 0 31.663412225845121 -147.1773963994745 0 0 0 0 49.171024011389818 -46.533560244595492 0 -46.533560244595492 43.800610614278412 0 0 0 0 39.785628501398776 -8.2478282945757257 0 -8.2478282945757257 -13.96491421816155 0 0 0 0 909.27470223431737 -659.94892569524154 0 -659.94892569524154 512.49304134082456 0 0 0 0 -2.5974199323480889 -6.0347451489713819 0 -6.0347451489713819 24.748867774035773 0 0 0 0 1489.135470920337 -1018.9289853333291 0 -1018.9289853333291 719.07501023638906 0 0 0 0 9.5470473573470258 -1.8135565239369669 0 -1.8135565239369669 5.0862929048169896 0 0 0 0 1026.7523351200689 -595.64437163278308 0 -595.64437163278308 384.27979819009943 0 0 0 0 1305.4360575519495 -606.62918115248044 0 -606.62918115248044 376.43255310109748 0 0 0 0 64.314869155365159 -38.899527383648547 0 -38.899527383648547 31.08137113701423 0 0 0 0 71.248633997282013 -45.396370104685047 0 -45.396370104685047 -68.658200359971943 0 0 0 0 50.74907381674808 -1.3054660838929237 0 -1.3054660838929237 -13.343892560178729 0 0 0 0 70.428035258672026 -10.80468599871022 0 -10.80468599871022 -65.847937630957347 0 0 0 0 66.897616603273491 -8.1382571999171631 0 -8.1382571999171631 -35.856694722671023 0 0 0 0 73.533954645623453 -39.370620323332986 0 -39.370620323332986 -29.885338314723583 0 0 0 0 37.025273644372646 10.255506059085768 0 10.255506059085768 -97.488539442304386 0 0 0 0 60.218098359808209 -32.009849407334656 0 -32.009849407334656 -48.669360256418472 0 0 0 0 75.597946844878606 -55.140713977099736 0 -55.140713977099736 -48.455692767741454 0 0 0 0 63.332464052073192 -27.357793931369457 0 -27.357793931369457 -41.73290207573487 0 0 0 0 72.933731229713885 -57.933318320685672 0 -57.933318320685672 -1.056999389830878 0 0 0 0 66.471167444942694 -70.59215180392701 0 -70.59215180392701 0.058221980056670647 0 0 0 0 73.949762719028513 -60.715548230648416 0 -60.715548230648416 -53.280920327669669 0 0 0 0 74.850251598356408 -75.784575465407414 0 -75.784575465407414 -17.591794097255459 0 0 0 0 52.480804921074196 -36.675473574167285 0 -36.675473574167285 29.202019162654935 0 0 0 0 0.1375576292695655 -0.12910943510959783 0 -0.12910943510959783 -0.055107220598247131 0 0 0 0 -0.71897852821936681 -0.050245248337205339 0 -0.050245248337205339 0.10775592807429418 0 0 0 0 51.916713488244568 -25.407055591398418 0 -25.407055591398418 0.14400444244420108 0 0 0 0 74.366926855099337 -78.30258083831491 0 -78.30258083831491 19.978761597319277 0 0 0 0 73.410678950574948 -70.331405902070557 0 -70.331405902070557 -7.0704292802319628 0 0 0 0 73.335118781324127 -48.418900196670172 0 -48.418900196670172 -19.76654281825364 0 0 0 0 66.008538804584532 -43.528441316512293 0 -43.528441316512293 29.578392463587562 0 0 0 0 64.298631046029186 -11.997150976695359 0 -11.997150976695359 -13.450112418832191 0 0 0 0 63.251271147106308 -23.502037292988931 0 -23.502037292988931 -2.9757618596453312 0 0 0 0 79.955022469861433 -28.588221540821166 0 -28.588221540821166 -11.060915583557659 0 0 0 0 71.754958919234923 -23.604402867409433 0 -23.604402867409433 -13.30957993244823 0 0 0 0 76.2338365947071 -32.75096950806963 0 -32.75096950806963 -16.501330055475059 0 0 0 0 80.304496031552844 -31.181880227355208 0 -31.181880227355208 -24.324260686965204 0 0 0 0 78.394047192210564 -18.555609361586306 0 -18.555609361586306 -20.305630437917415 0 0 0 0 72.054672236190527 -23.742589686355572 0 -23.742589686355572 0.21411515962711292 0 0 0 0 71.551172761741327 -20.12991752876539 0 -20.12991752876539 -5.2788374547361059 0 0 0 0 84.363185586305917 -23.285222049258834 0 -23.285222049258834 -0.099320099703646747 0 0 0 0 71.740265171567444 -19.470105791588978 0 -19.470105791588978 5.5011845592262603 0 0 0 0 82.770651941405958 -18.403264652561958 0 -18.403264652561958 -10.986873050217895 0 0 0 0 82.263281507970532 -25.680949419809892 0 -25.680949419809892 -10.496864317703881 0 0 0 0 94.460370906464959 -4.2689489800802036 0 -4.2689489800802036 4.7103866783341459 0 0 0 0 48.838696005087229 -30.065886648133812 0 -30.065886648133812 1.2733398807268492 0 0 0 0 -18.952726282936055 -12.136494215152197 0 -12.136494215152197 -46.364632747467112 0 0 0 0 -159.27641147875693 -173.34640845855029 0 -173.34640845855029 -135.97028669628708 0 0 0 0 79.909913529554615 -55.030215117051739 0 -55.030215117051739 -2.8898990968823455 0 0 0 0 10.712549225777707 -9.9596876508320662 0 -9.9596876508320662 -5.1085459924768255 0 0 0 0 -100.14574254119361 -302.33340410377741 0 -302.33340410377741 -544.51967336545385 0 0 0 0 142.37564406971796 -113.69674515565566 0 -113.69674515565566 -232.5651057618652 0 0 0 0 114.28990924668324 -84.363942112980567 0 -84.363942112980567 -173.29002870024851 0 0 0 0 242.20801136502996 6.4173759823170258 0 6.4173759823170258 -216.28450314505426 0 0 0 0 105.10045330936555 -77.195079967206766 0 -77.195079967206766 -156.29197663604646 0 0 0 0 -167.40007867819259 -251.44080332270488 0 -251.44080332270488 -149.04610935807432 0 0 0 0 -16.958631158442586 -253.79666949446482 0 -253.79666949446482 -309.3598800920372 0 0 0 0 143.16367084707599 -58.197149513447584 0 -58.197149513447584 -340.28683083249189 0 0 0 0 39.828287737094797 -123.24965858872929 0 -123.24965858872929 -325.88293787484508 0 0 0 0 -7.3289569900371134 286.52076416234922 0 286.52076416234922 -513.58173629355133 0 0 0 0 74.427805478277151 62.202030467980876 0 62.202030467980876 64.630998706139508 0 0 0 0 84.368938163170242 21.632879315185164 0 21.632879315185164 -50.681457131093339 0 0 0 0 226.17543851118535 30.389039484757632 0 30.389039484757632 -192.82320470800551 0 0 0 0 210.17726552888053 -30.462642017206235 0 -30.462642017206235 2.8067816630173184 0 0 0 0 272.81551679436234 84.818641736239442 0 84.818641736239442 -55.448770343067736 0 0 0 0 118.32294180159806 -85.196114782916084 0 -85.196114782916084 -171.72792073396704 0 0 0 0 12.730763523289966 -0.84255960732113522 0 -0.84255960732113522 -0.86558315834729527 0 0 0 0 -145.12599266986945 10.299467239889054 0 10.299467239889054 18.101890329793605 0 0 0 0 508.55192729027476 296.25340283760443 0 296.25340283760443 -67.616980895570123 0 0 0 0 -187.03933964438693 203.65012802298162 0 203.65012802298162 72.260720939269959 0 0 0 0 42.067499239637982 115.34845625254275 0 115.34845625254275 -1149.6867160850998 0 0 0 0 -227.2760312629398 1084.6236302447851 0 1084.6236302447851 -1441.478565436807 0 0 0 0 -119.83830729339388 470.03722960059713 0 470.03722960059713 -40.394335869868883 0 0 0 0 63.119758794884547 200.88694912163055 0 200.88694912163055 12.784796834488589 0 0 0 0 60.846627816412365 62.22334134426228 0 62.22334134426228 -64.930995183201048 0 0 0 0 64.520352545358008 1.2699957526338466 0 1.2699957526338466 -10.473442996471556 0 0 0 0 -68.113148581964197 28.637671857482928 0 28.637671857482928 -44.392515145127618 0 0 0 0 204.36590038859867 -66.511276008482582 0 -66.511276008482582 -67.828318433999812 0 0 0 0 84.709893346567696 83.148054826029465 0 83.148054826029465 -68.914667675822784 0 0 0 0 80.597153269772747 -138.06771506654184 0 -138.06771506654184 -59.49880656057303 0 0 0 0 80.647304538346361 -119.04118305320844 0 -119.04118305320844 -14.008411261832407 0 0 0 0 0.25209074151035793 -1.9306484817163891 0 -1.9306484817163891 4.0330508608109801 0 0 0 0 -436.84477710095234 102.00346049718587 0 102.00346049718587 149.35622829921056 0 0 0 0 -310.90438561039628 -376.37055020601099 0 -376.37055020601099 582.33984412190102 0 0 0 0 2283.4410630696511 -2154.27123036493 0 -2154.27123036493 1470.1911238078637 0 0 0 0 287.31866950890981 -78.032326513855423 0 -78.032326513855423 -67.536800338286412 0 0 0 0 314.10864870558726 46.861106430997552 0 46.861106430997552 -65.049076276520282 0 0 0 0 437.17990721653769 95.356349791551224 0 95.356349791551224 -77.301120328551406 0 0 0 0 383.05125142670295 -222.1902157620566 0 -222.1902157620566 149.2473378695604 0 0 0 0 400.48049362711026 -188.40974650865701 0 -188.40974650865701 157.18494046798583 0 0 0 0 626.99129654807621 -142.48900347647532 0 -142.48900347647532 63.755387370097651 0 0 0 0 0.22662803488501027 -3.7880572111908606 0 -3.7880572111908606 7.7565606387729611 0 0 0 0 1088.0417194361507 -128.58974412265934 0 -128.58974412265934 137.10798687348699 0 0 0 0 1356.4563173498609 -664.6611987421843 0 -664.6611987421843 484.09838915444391 0 0 0 0 1045.7543206733244 -824.02658992107786 0 -824.02658992107786 529.94075736566947 0 0 0 0 707.74348930371343 -106.11829881378389 0 -106.11829881378389 55.280145431664096 0 0 0 0 752.60055563804417 -645.38497233590044 0 -645.38497233590044 734.20623793112009 0 0 0 0 1252.7468330048287 -1029.1806151837141 0 -1029.1806151837141 733.01771906378985 0 0 0 0 2349.758157341741 -2081.769838990725 0 -2081.769838990725 1542.7788544680002 0 0 0 0 2085.2266923972784 -1090.4246902237883 0 -1090.4246902237883 664.31709344869387 0 0 0 0 0.8699265141671475 -1.4649469697260713 0 -1.4649469697260713 4.3753079008002471 0 0 0 0 342.5868257227703 -971.07688590845942 0 -971.07688590845942 1088.4150578650879 0 0 0 0 1083.126045854413 -1516.7890056117492 0 -1516.7890056117492 1128.1370431379505 0 0 0 0 -2.150478434372836 -5.8128460707060299 0 -5.8128460707060299 8.891006778879353 0 0 0 0 39.749330005375668 -182.38696244828861 0 -182.38696244828861 -172.70461635695165 0 0 0 0 574.96982284872865 -195.06871707521867 0 -195.06871707521867 546.05724060152954 0 0 0 0 1042.1017670990113 -246.53949423796581 0 -246.53949423796581 -7.9917175847789395 0 0 0 0 1076.9045967911679 -747.54386114742215 0 -747.54386114742215 1297.4889443234485 0 0 0 0 1103.0995838710451 -682.85032997216524 0 -682.85032997216524 244.94468120605154 0 0 0 0 1063.0000782824718 -212.51169096294319 0 -212.51169096294319 221.091099937021 0 0 0 0 624.08724489551969 -741.49072490702565 0 -741.49072490702565 631.55040963704892 0 0 0 0 385.36624661268434 -478.09540330382333 0 -478.09540330382333 474.69499496813842 0 0 0 0 453.92098722276569 -472.63884788601035 0 -472.63884788601035 456.1592073451036 0 0 0 0 382.030264422443 -520.21278238926766 0 -520.21278238926766 444.25051505294118 0 0 0 0 379.97772447603347 -384.13608763307957 0 -384.13608763307957 250.35732592292425 0 0 0 0 370.12994812557008 -335.1136442359998 0 -335.1136442359998 215.15119449211124 0 0 0 0 15.422082254932633 3.3260394552790693 0 3.3260394552790693 -1.2897321932254942 0 0 0 0 -606.14543889393099 86.766653195732943 0 86.766653195732943 1297.6820124908656 0 0 0 0 126.40060529725451 -389.18288564047134 0 -389.18288564047134 279.85574531183011 0 0 0 0 311.69064169173362 -409.50227044808526 0 -409.50227044808526 614.26228769149338 0 0 0 0 507.29121967148967 -346.54530798582709 0 -346.54530798582709 158.75544833454478 0 0 0 0 588.24864559617708 -218.34067151449381 0 -218.34067151449381 138.99991996029712 0 0 0 0 212.80296195467236 -198.62116133880045 0 -198.62116133880045 480.08483130852164 0 0 0 0 80.064356397720985 -95.839877177320886 0 -95.839877177320886 531.25881138608747 0 0 0 0 -8.3995762745034881 -22.927603452226322 0 -22.927603452226322 478.16212868502771 0 0 0 0 113.08343752793735 -9.796720043114874 0 -9.796720043114874 261.47439663607656 0 0 0 0 109.7757148828241 24.722690533398236 0 24.722690533398236 89.393106706862454 0 0 0 0 270.69046104192967 9.6304315541419783 0 9.6304315541419783 9.498774759162643 0 0 0 0 163.70592593943002 -101.81363664175296 0 -101.81363664175296 309.14377680240432 0 0 0 0 446.98210378841031 -98.935348584253006 0 -98.935348584253006 144.9573055767687 0 0 0 0 267.46889286808437 -35.276519826653384 0 -35.276519826653384 170.85262519619573 0 0 0 0 -291.80997504887637 26.490939003182575 0 26.490939003182575 887.0931737367755 0 0 0 0 -8.3261553209640624 -25.740398612246167 0 -25.740398612246167 442.80015907688357 0 0 0 0 5.4098999333800748 100.3318624925123 0 100.3318624925123 469.39544938645395 0 0 0 0 -21.324788969592191 251.38557240335012 0 251.38557240335012 -30.018786035339872 0 0 0 0 -365.79598279716447 424.96574449206128 0 424.96574449206128 643.4858476262707 0 0 0 0 -1362.8576213773631 1380.9840593980189 0 1380.9840593980189 1207.3536737457962 0 0 0 0 524.28194838535273 -1085.8950000882251 0 -1085.8950000882251 1685.0651303963641 0 0 0 0 -1116.5353318316047 759.62679449764801 0 759.62679449764801 1351.412770408544 0 0 0 0 -546.3948061062838 798.63384376648628 0 798.63384376648628 -127.6274371853433 0 0 0 0 -1463.3064489527897 2306.1202174110513 0 2306.1202174110513 116.4739281666516 0 0 0 0 313.03393576179224 -469.89897771052438 0 -469.89897771052438 619.80689998953585 0 0 0 0 369.68468055450649 -273.86872030620725 0 -273.86872030620725 306.0263336245016 0 0 0 0 1.964538825638158 -0.18182341834027582 0 -0.18182341834027582 -0.11610748634803536 0 0 0 0 -306.09139866550686 -94.259087562592867 0 -94.259087562592867 -59.464234377449259 0 0 0 0 22.036097315547522 89.670981717920768 0 89.670981717920768 50.350088700537526 0 0 0 0 -55.158275008900091 -7.745103884657965 0 -7.745103884657965 0.91940977359445242 0 0 0 0 32.664424826158211 49.140583132610118 0 49.140583132610118 8.2806902271634044 0 0 0 0 -21.76708268620132 68.440007729465378 0 68.440007729465378 56.238143245900574 0 0 0 0 109.97647837840486 123.90508254446377 0 123.90508254446377 38.495642129924818 0 0 0 0 56.594061573268846 75.960283240592616 0 75.960283240592616 18.073706988910999 0 0 0 0 523.91633007628843 228.47459317606626 0 228.47459317606626 -29.82469492460541 0 0 0 0 152.77750438422663 85.171365726791919 0 85.171365726791919 30.626106507488657 0 0 0 0 562.46604424298857 295.6154363794235 0 295.6154363794235 -1.6714786850895962 0 0 0 0 28.688554435287074 3.2386215005861487 0 3.2386215005861487 -5.5934626172115962 0 0 0 0 11.827125736470975 13.942266936590379 0 13.942266936590379 3.7754830526016665 0 0 0 0 167.2157945264189 97.37894032748045 0 97.37894032748045 28.239541905129954 0 0 0 0 204.27705679193605 131.37790716748714 0 131.37790716748714 65.704371845196874 0 0 0 0 399.29465282225283 65.280521261267495 0 65.280521261267495 30.418250981933852 0 0 0 0 328.74433781197877 -5.163470383040476 0 -5.163470383040476 89.966488209500312 0 0 0 0 370.85215669084573 20.395110122517508 0 20.395110122517508 101.34531991505355 0 0 0 0 306.58740129743819 134.48302055317436 0 134.48302055317436 14.799432997422628 0 0 0 0 366.75844726857031 58.451760441959777 0 58.451760441959777 47.468787042795157 0 0 0 0 637.5377408550703 -94.563690723411128 0 -94.563690723411128 101.39349600947298 0 0 0 0 538.2936360007152 -137.9915122051716 0 -137.9915122051716 204.37334323981486 0 0 0 0 368.11201250733575 61.587430256644438 0 61.587430256644438 52.4840193907512 0 0 0 0 666.08448820683407 -232.58169656750033 0 -232.58169656750033 140.70258774166541 0 0 0 0 209.15610897215083 290.74979797620381 0 290.74979797620381 -158.36774985774264 0 0 0 0 -204.44291922004777 -69.414540382763107 0 -69.414540382763107 330.92460996206455 0 0 0 0 233.98982699196495 120.00167207772506 0 120.00167207772506 614.71197079726028 0 0 0 0 621.52218455519323 -76.35140218632597 0 -76.35140218632597 141.98241822696264 0 0 0 0 140.46692859056202 -205.98194710255029 0 -205.98194710255029 -20.721631912818793 0 0 0 0 -318.41375500141294 -87.869794536197446 0 -87.869794536197446 49.030547031980632 0 0 0 0 35.865141613379734 10.070134802697567 0 10.070134802697567 -0.30803084207221243 0 0 0 0 168.38460437359754 63.222305039794492 0 63.222305039794492 -14.57002341518114 0 0 0 0 -30.398522747738753 0.37316589772854059 0 0.37316589772854059 -11.140805503532135 0 0 0 0 127.2244629998022 148.6283691087865 0 148.6283691087865 -119.71437836284804 0 0 0 0 -28.903304782899795 -1.869939188521812 0 -1.869939188521812 92.096295649723288 0 0 0 0 3.5136818879174143 7.5158202216018921 0 7.5158202216018921 2.5411833026127026 0 0 0 0 -41.397028150095139 -47.480127695054534 0 -47.480127695054534 35.991667456641608 0 0 0 0 59.464231915624623 56.445667360520865 0 56.445667360520865 4.0003171636510615 0 0 0 0 76.741995167423738 -20.890068735823661 0 -20.890068735823661 -101.8491733287666 0 0 0 0 8.1066748771918355 -34.44940517515888 0 -34.44940517515888 -42.482067773372108 0 0 0 0 87.00616017145876 -20.037102401379997 0 -20.037102401379997 -17.532444402293095 0 0 0 0 73.0310253193893 40.856735926495276 0 40.856735926495276 -19.583830221227345 0 0 0 0 108.868474644667 -30.442757024938146 0 -30.442757024938146 26.966350757484179 0 0 0 0 -6.0106632007461371 21.571896085089271 0 21.571896085089271 -1.510661465901896 0 0 0 0 50.643140983644344 25.418423248783057 0 25.418423248783057 -8.5278256616638881 0 0 0 0 -40.400529901584378 117.20870261826323 0 117.20870261826323 48.049147839118177 0 0 0 0 68.408833635272288 18.464305194662096 0 18.464305194662096 -6.4162287509955647 0 0 0 0 165.74299669085303 99.041432032945863 0 99.041432032945863 -173.84606455038642 0 0 0 0 -24.381510490649816 44.032256295219739 0 44.032256295219739 35.621611913102953 0 0 0 0 118.02613856281823 -50.16674275583393 0 -50.16674275583393 -24.054044884089507 0 0 0 0 78.710066388885025 -70.825705054099359 0 -70.825705054099359 -28.311821270141195 0 0 0 0 44.513051093497779 3.3767617691262046 0 3.3767617691262046 106.32927960003227 0 0 0 0 18.395318446530155 17.833834105837674 0 17.833834105837674 1.3742148370338061 0 0 0 0 -4.595054837904172 19.716970079959083 0 19.716970079959083 -34.64195446382746 0 0 0 0 26.921180637082244 13.315401461123514 0 13.315401461123514 -20.712179954652886 0 0 0 0 -1.7121279689308722 -0.84118005818345409 0 -0.84118005818345409 -65.232527415386585 0 0 0 0 -13.038268886455626 21.833015560740932 0 21.833015560740932 -3.043858184129931 0 0 0 0 1.1664791628828652 0.87049990422556789 0 0.87049990422556789 0.27982224426742219 0 0 0 0 86.162040918701678 7.9797165571134308 0 7.9797165571134308 21.601281029145813 0 0 0 0 64.737563657283317 2.742451843165179 0 2.742451843165179 -5.4842814923557981 0 0 0 0 101.85903811817116 -17.829643467587385 0 -17.829643467587385 -18.830802245183264 0 0 0 0 22.176686456913444 20.174098169228245 0 20.174098169228245 -9.7299692284592645 0 0 0 0 129.21413771794323 -59.653954430673885 0 -59.653954430673885 17.213952362659786 0 0 0 0 46.477163983872742 47.735094674676247 0 47.735094674676247 -9.5760977330046444 0 0 0 0 94.271611759468215 -3.6225911230654901 0 -3.6225911230654901 -10.039233774160721 0 0 0 0 52.650088115609833 18.536021171730226 0 18.536021171730226 -21.210688191808003 0 0 0 0 114.07441445186851 43.146533703360546 0 43.146533703360546 -26.138189561968829 0 0 0 0 60.401751674857223 50.653104896467994 0 50.653104896467994 -11.017805376238357 0 0 0 0 60.653983722859266 51.001718568214187 0 51.001718568214187 -27.054538945133572 0 0 0 0 124.36505099572241 86.198806381770737 0 86.198806381770737 -18.885974043571423 0 0 0 0 27.826676736352965 85.524966729760308 0 85.524966729760308 29.925316437881065 0 0 0 0 118.30536817209213 86.140874676490967 0 86.140874676490967 -18.818527983070453 0 0 0 0 265.31595023970294 61.321916980292372 0 61.321916980292372 -122.5854651756872 0 0 0 0 224.89458066303632 -7.7842999591421176 0 -7.7842999591421176 -125.03326738041142 0 0 0 0 202.52979449694976 87.224103234186259 0 87.224103234186259 -39.534182772334589 0 0 0 0 353.16698013237328 29.684759698002836 0 29.684759698002836 -30.405654113808851 0 0 0 0 229.87310815707315 72.686207762923004 0 72.686207762923004 -34.823066824892521 0 0 0 0 206.0928001110733 139.83635456748016 0 139.83635456748016 11.860732638825993 0 0 0 0 120.33739496945054 91.726786545314098 0 91.726786545314098 -13.610384775287457 0 0 0 0 212.60513841168722 103.09911178262428 0 103.09911178262428 -45.09342073157768 0 0 0 0 137.04519587176037 54.569202061393298 0 54.569202061393298 -74.988998570457625 0 0 0 0 183.28722253031447 36.127752644597422 0 36.127752644597422 -67.649136792935224 0 0 0 0 175.49748915835517 -16.504014640980131 0 -16.504014640980131 -153.33721519335268 0 0 0 0 116.61814769479679 -36.912093721090059 0 -36.912093721090059 -78.233381887142059 0 0 0 0 164.75562896829069 -44.148703758377565 0 -44.148703758377565 -85.137029344139592 0 0 0 0 126.65640040420112 -5.5319270676741326 0 -5.5319270676741326 -46.159791839387708 0 0 0 0 116.24822413723541 16.443027486432186 0 16.443027486432186 -69.326571254826376 0 0 0 0 97.208912211790448 -1.5934861369396458 0 -1.5934861369396458 -41.306289769502428 0 0 0 0 83.841328699942096 -25.454808777729454 0 -25.454808777729454 -17.562617262017852 0 0 0 0 94.858918862242717 12.28970943998911 0 12.28970943998911 13.144354563583704 0 0 0 0 87.724292275343032 -13.601036392720431 0 -13.601036392720431 -6.4270509280936494 0 0 0 0 45.376294794643258 -24.083325313675687 0 -24.083325313675687 -1.8454608886903197 0 0 0 0 31.541154423850543 24.707737077347531 0 24.707737077347531 -0.39963533690143033 0 0 0 0 96.61396161034645 1.1676577708902869 0 1.1676577708902869 -7.3613520404266524 0 0 0 0 132.04860775724956 57.54798241956167 0 57.54798241956167 40.431050023846936 0 0 0 0 9.1767871739710927 2.8317817637263545 0 2.8317817637263545 -0.22013523407678881 0 0 0 0 146.69796042662347 3.4633441494282096 0 3.4633441494282096 -12.68610736093571 0 0 0 0 143.73936374176265 8.5136474607425434 0 8.5136474607425434 -15.120090561678538 0 0 0 0 66.11104302800959 -21.304996395589228 0 -21.304996395589228 6.2982740236774362 0 0 0 0 97.946187571607879 -37.006859066714298 0 -37.006859066714298 -2.7361258771706538 0 0 0 0 70.801029188682151 -24.535788013998413 0 -24.535788013998413 -11.204862465894763 0 0 0 0 76.382034443238808 -18.660310042563495 0 -18.660310042563495 -18.256314136783487 0 0 0 0 67.757133129976864 -12.325225236200044 0 -12.325225236200044 -16.987508819471376 0 0 0 0 84.359786884189816 -58.186749257034677 0 -58.186749257034677 26.659560681658917 0 0 0 0 0.11877462403541017 -0.098574078826317191 0 -0.098574078826317191 -0.092216194819274455 0 0 0 0 8.7052336849821472 -1.9185614570935172 0 -1.9185614570935172 -0.99258652141207004 0 0 0 0 32.196156148936097 1.1146567467684714 0 1.1146567467684714 16.639801177212931 0 0 0 0 77.123522346664686 -42.852656664921028 0 -42.852656664921028 18.858424783905356 0 0 0 0 32.648782015982761 -6.8925328761854887 0 -6.8925328761854887 -0.1569715628677173 0 0 0 0 111.28302141025051 5.9454804246976876 0 5.9454804246976876 -0.036578783031206499 0 0 0 0 30.354154372667836 5.5196739623667446 0 5.5196739623667446 0.043975377117993528 0 0 0 0 103.67357902014555 -2.7149059654670116 0 -2.7149059654670116 0.019920112284521299 0 0 0 0 106.29650641884655 3.4362531153016631 0 3.4362531153016631 14.432751772695278 0 0 0 0 104.16846073527995 -7.1683267123729291 0 -7.1683267123729291 18.150448056657172 0 0 0 0 99.400497553899186 -2.8274594366385157 0 -2.8274594366385157 14.830124160744306 0 0 0 0 68.320594992459519 -5.7605900972527415 0 -5.7605900972527415 15.17182136019288 0 0 0 0 105.94948569789267 26.866206706716888 0 26.866206706716888 -8.9536255080069012 0 0 0 0 146.22628380687183 -1.0298473428302033 0 -1.0298473428302033 -7.1693108146180577 0 0 0 0 142.27948686350646 4.2411730499599303 0 4.2411730499599303 -8.3494498137141981 0 0 0 0 0.63001556402068104 0.38067739332151973 0 0.38067739332151973 0.10365190844312991 0 0 0 0 188.38104615644261 -83.168724926803066 0 -83.168724926803066 -12.389056449782778 0 0 0 0 13.85612873773789 38.699104140022406 0 38.699104140022406 -0.087187649806558909 0 0 0 0 95.539798403973691 -20.679759130903093 0 -20.679759130903093 -3.0326457843190227 0 0 0 0 41.809692790138797 -19.975117069490238 0 -19.975117069490238 2.7919017482717337 0 0 0 0 106.73085051021189 -16.1025112276246 0 -16.1025112276246 4.1624707686392544 0 0 0 0 4.2052609171847948 -15.191024992876436 0 -15.191024992876436 0.75391253112572942 0 0 0 0 5.4315467822592751 -3.2653962250320774 0 -3.2653962250320774 0.058635850892917452 0 0 0 0 146.58121340461366 -8.9638326548949241 0 -8.9638326548949241 -8.0032004225976756 0 0 0 0 772.31371265766211 753.72108178906888 0 753.72108178906888 282.52463841427834 0 0 0 0 5.1847926719675925 -11.552096615225906 0 -11.552096615225906 0.28292600358471132 0 0 0 0 126.74357073589636 -10.589342094038431 0 -10.589342094038431 0.13507505634682104 0 0 0 0 2529.9603308153019 -1152.9252301345086 0 -1152.9252301345086 -232.9434243712443 0 0 0 0 100.46859611637046 -10.607132828786934 0 -10.607132828786934 6.5644929993462746 0 0 0 0 105.04049247776857 -14.405073972408438 0 -14.405073972408438 5.4687451258799946 0 0 0 0 94.365445364077459 -10.197773239673099 0 -10.197773239673099 7.6365254580047317 0 0 0 0 107.54110474212757 -5.6402892460489458 0 -5.6402892460489458 3.6751503665578475 0 0 0 0 102.04977882965795 -7.274962052414832 0 -7.274962052414832 -0.0056475162197018626 0 0 0 0 95.776897580362856 -6.6995957637756165 0 -6.6995957637756165 3.831076743954041 0 0 0 0 102.31421414601209 -5.8258322107228713 0 -5.8258322107228713 7.9089495164794048 0 0 0 0 3498.6948731989323 6.4920709844837186 0 6.4920709844837186 -115.34468847802864 0 0 0 0 3633.6852447309939 2.8535622518917867 0 2.8535622518917867 0.17559309249836852 0 0 0 0 3425.8783502324368 32.641109124353619 0 32.641109124353619 71.585272726486778 0 0 0 0 3927.43457181556 183.58887438319016 0 183.58887438319016 -94.454591135613839 0 0 0 0 5.0091491296729345 -4.6665127059753502 0 -4.6665127059753502 0.072735083857024374 0 0 0 0 3527.7078690615599 325.22557132902944 0 325.22557132902944 -51.639373072516037 0 0 0 0 3313.6041875432657 -156.69006016658489 0 -156.69006016658489 -143.22036080985083 0 0 0 0 3261.4751052915672 -8.2438407814438364 0 -8.2438407814438364 63.215986799655568 0 0 0 0 2682.2753552499198 204.31250601741402 0 204.31250601741402 15.1439628198412 0 0 0 0 3294.633146128821 -56.547474993961785 0 -56.547474993961785 -101.9098246287827 0 0 0 0 3346.8424878545884 52.316796810251731 0 52.316796810251731 -151.98996496718541 0 0 0 0 3015.4083264078363 -16.84348786528966 0 -16.84348786528966 -53.448471000869915 0 0 0 0 3072.4801029315859 -302.9620405232979 0 -302.9620405232979 -196.60190353879511 0 0 0 0 3500.7146194278102 -574.05949388477416 0 -574.05949388477416 -556.99279613363808 0 0 0 0 3015.9674882661202 -259.07463952160799 0 -259.07463952160799 -226.19994015410924 0 0 0 0 2128.2235681329112 -285.7979889131197 0 -285.7979889131197 -224.71789621587683 0 0 0 0 2052.4926631724084 204.67647153677311 0 204.67647153677311 -62.560954507252404 0 0 0 0 2705.4508188414038 -532.70128214210399 0 -532.70128214210399 -137.93243300035803 0 0 0 0 3173.285706835064 126.67196314911013 0 126.67196314911013 -57.247014902454055 0 0 0 0 874.64801552912104 -263.02559566206111 0 -263.02559566206111 -61.194859824528976 0 0 0 0 98.966025127876492 -15.99260681248545 0 -15.99260681248545 2.3157493113950718 0 0 0 0 145.75270405493211 1.3103867532764788 0 1.3103867532764788 -2.8501738051147001 0 0 0 0 74.850144169260602 -26.018313533911751 0 -26.018313533911751 10.244484467746673 0 0 0 0 159.28661633917363 5.805292474196051 0 5.805292474196051 -10.93084246262363 0 0 0 0 165.98397386286524 -46.739096843900342 0 -46.739096843900342 11.329558530122654 0 0 0 0 8.9967977234251748 -16.280369264594526 0 -16.280369264594526 2.0407641058570016 0 0 0 0 153.62343139566656 2.53282414190911 0 2.53282414190911 -12.685200895533882 0 0 0 0 -1.6179621791114229 -7.9421472478921373 0 -7.9421472478921373 0.039891548517951181 0 0 0 0 1550.5707171505346 -309.06771940520719 0 -309.06771940520719 89.01366040700475 0 0 0 0 397.84245176891272 253.71138396021587 0 253.71138396021587 80.88298662501029 0 0 0 0 20.500967598599885 -24.2746805197161 0 -24.2746805197161 -0.82601891839612196 0 0 0 0 423.27805266035466 -199.17848888516124 0 -199.17848888516124 282.34850830373489 0 0 0 0 0.62858404736897455 0.43326760095177974 0 0.43326760095177974 0.21085076461367103 0 0 0 0 211.04494947587955 -14.101509725591228 0 -14.101509725591228 -6.9070521954573749 0 0 0 0 211.93300422104949 -56.186412804125439 0 -56.186412804125439 1.9323512750570657 0 0 0 0 78.041505928384481 1.0135060324762541 0 1.0135060324762541 -5.0297031211348564 0 0 0 0 240.53984687151387 10.666172166367062 0 10.666172166367062 -42.629201217018043 0 0 0 0 60.186949496899615 -19.766080122765516 0 -19.766080122765516 3.1259167858920591 0 0 0 0 52.706377079339291 -13.314159557778225 0 -13.314159557778225 2.2647561170253994 0 0 0 0 75.215391915757209 -9.7586699608109484 0 -9.7586699608109484 -24.721034236525682 0 0 0 0 44.589219017719444 -3.1779501563524377 0 -3.1779501563524377 -1.8156000268736459 0 0 0 0 91.552960585846449 56.02135397729694 0 56.02135397729694 49.596105577304201 0 0 0 0 1032.2562814837729 -241.94505948150496 0 -241.94505948150496 43.717986838928212 0 0 0 0 3494.1380921940663 -1352.8727232608594 0 -1352.8727232608594 -200.3490514709008 0 0 0 0 1190.0221692063642 -1994.4495597868097 0 -1994.4495597868097 1831.6101200585047 0 0 0 0 2575.1029196151285 -1119.4134326887279 0 -1119.4134326887279 -258.76273063097591 0 0 0 0 2039.6700797806043 -418.95056828370855 0 -418.95056828370855 -243.43233296024655 0 0 0 0 6.4895580124031937 8.2080137338241315 0 8.2080137338241315 0.52622518482823111 0 0 0 0 171.90994313876035 -155.73224971471211 0 -155.73224971471211 -81.143107975849603 0 0 0 0 19.002943895684439 66.292868275216279 0 66.292868275216279 -30.84121170790813 0 0 0 0 95.707440315727581 -20.715654908510487 0 -20.715654908510487 -35.014665368369606 0 0 0 0 1.540752500402661 7.6432505899065291 0 7.6432505899065291 -39.436250930365354 0 0 0 0 -39.18681143703725 2.4745550672600984 0 2.4745550672600984 -27.063581219237761 0 0 0 0 270.02509100347379 -225.02158249154945 0 -225.02158249154945 9.1195536484292461 0 0 0 0 5.121015635348158 -105.88879917312715 0 -105.88879917312715 68.974084578159818 0 0 0 0 70.40309789479943 -67.190995194643165 0 -67.190995194643165 -94.587729076274627 0 0 0 0 43.734727537070285 -90.71761508081272 0 -90.71761508081272 205.95541646279844 0 0 0 0 399.00658502678198 87.549241987795995 0 87.549241987795995 101.68861568071588 0 0 0 0 0.83314673437359232 7.0554593813995581 0 7.0554593813995581 -29.274763216665942 0 0 0 0 653.80158609292994 -221.7636528750354 0 -221.7636528750354 82.278949583844224 0 0 0 0 587.40556254408148 -337.03622817757514 0 -337.03622817757514 89.558014883034048 0 0 0 0 725.10338463722292 -132.18019996184012 0 -132.18019996184012 -79.141709276198526 0 0 0 0 1171.5508720660873 -108.94550954897932 0 -108.94550954897932 -24.273034481316699 0 0 0 0 584.69527391108568 -31.5205402196043 0 -31.5205402196043 -31.297718929850362 0 0 0 0 574.05441179431364 539.14710749817459 0 539.14710749817459 11.472710999514675 0 0 0 0 4.8965150165420539 5.0056458638072812 0 5.0056458638072812 -9.1544682331857175 0 0 0 0 1390.6913108883309 -1337.8090581592878 0 -1337.8090581592878 1295.5275563230098 0 0 0 0 827.96869722801057 -490.30893116056723 0 -490.30893116056723 493.3539671009712 0 0 0 0 1881.4705793818139 -894.29260145438093 0 -894.29260145438093 640.32582783917314 0 0 0 0 1193.3638498182409 249.71021764799661 0 249.71021764799661 513.85717885578288 0 0 0 0 757.53306524317304 -241.67773986968496 0 -241.67773986968496 187.65444880336872 0 0 0 0 217.55397063691635 -11.50931067921556 0 -11.50931067921556 365.61809443879611 0 0 0 0 621.02258594374871 220.95780620035976 0 220.95780620035976 -144.27055739371281 0 0 0 0 705.51079928383115 -247.85858047605507 0 -247.85858047605507 77.644221991744416 0 0 0 0 1093.0018858552503 -438.87808267665514 0 -438.87808267665514 76.574633073636505 0 0 0 0 707.58295655433903 -305.4868694799261 0 -305.4868694799261 117.65034990824824 0 0 0 0 1288.8720151393209 -313.51054365548771 0 -313.51054365548771 258.46012493460876 0 0 0 0 854.44372936373111 -50.580324660659244 0 -50.580324660659244 300.97028255320765 0 0 0 0 963.49517363907944 -910.86238687306832 0 -910.86238687306832 1363.4244413913693 0 0 0 0 721.07550309106591 -352.58289727229203 0 -352.58289727229203 665.12047084472215 0 0 0 0 541.85042538020934 -48.750986977778666 0 -48.750986977778666 -262.35027956786143 0 0 0 0 713.95212668334716 38.5309268593046 0 38.5309268593046 -418.73051081408539 0 0 0 0 870.35951300955639 -82.790026159690569 0 -82.790026159690569 -440.88173431673204 0 0 0 0 679.34328508297949 -552.90292444769864 0 -552.90292444769864 85.884010623680297 0 0 0 0 55.345870635544998 130.93402579919677 0 130.93402579919677 -73.241487639926476 0 0 0 0 17.819112819979267 -5.2487032656255224 0 -5.2487032656255224 -29.93109609233634 0 0 0 0 26.125456654743175 93.193107970784354 0 93.193107970784354 43.841097698904264 0 0 0 0 424.7290820543858 -612.65087987645711 0 -612.65087987645711 139.60254137786069 0 0 0 0 -227.50463359161222 -37.929536451556487 0 -37.929536451556487 281.50219506604481 0 0 0 0 -126.42253431798599 19.886899974250809 0 19.886899974250809 310.67652232977707 0 0 0 0 627.34001727265422 122.42044616054409 0 122.42044616054409 -56.567283101830981 0 0 0 0 86.049545994257642 -316.07485365224034 0 -316.07485365224034 -403.64446830035558 0 0 0 0 445.21714563378191 -188.88699380427806 0 -188.88699380427806 -600.40607979394372 0 0 0 0 117.69972634701256 34.918811854355198 0 34.918811854355198 3.4391223455260533 0 0 0 0 245.56288756520371 188.94574775329784 0 188.94574775329784 -215.2154244239091 0 0 0 0 332.223548152484 460.63337990333844 0 460.63337990333844 -819.17584857735528 0 0 0 0 302.34434610337485 37.259759132854469 0 37.259759132854469 -46.724461647284897 0 0 0 0 548.19212762954703 -52.783135135563498 0 -52.783135135563498 -183.84907140269934 0 0 0 0 12.357311914645834 244.95382523637386 0 244.95382523637386 -209.81267371270405 0 0 0 0 -171.17218254998443 -46.782941580336683 0 -46.782941580336683 182.50870899391975 0 0 0 0 111.73077936843038 66.006426266930248 0 66.006426266930248 -79.696910206069333 0 0 0 0 76.727304710249882 -155.70438905277479 0 -155.70438905277479 77.27905927658594 0 0 0 0 -180.1590597550603 168.36269620902738 0 168.36269620902738 44.745339198621878 0 0 0 0 107.47767466679699 26.981455117228172 0 26.981455117228172 -0.44396600246120244 0 0 0 0 262.68137026092154 179.06896760635755 0 179.06896760635755 -397.77644427564701 0 0 0 0 -234.94246012576332 37.170284995637758 0 37.170284995637758 345.6285900982075 0 0 0 0 283.19109893170389 -339.24796743983461 0 -339.24796743983461 -41.000199645901375 0 0 0 0 211.01154684061476 75.216981360148452 0 75.216981360148452 -43.172074371993801 0 0 0 0 23.196603623842833 -0.54929490712696349 0 -0.54929490712696349 -28.13041092660557 0 0 0 0 120.74858998821583 367.65902008200464 0 367.65902008200464 574.32052732581724 0 0 0 0 41.990733160448144 -82.639976937763777 0 -82.639976937763777 172.26021692380846 0 0 0 0 13.534394327298031 4.2461330441027911 0 4.2461330441027911 -34.451801648834255 0 0 0 0 50.274700860674784 21.135909384535807 0 21.135909384535807 -42.899311272243722 0 0 0 0 105.00193831964862 -20.221437165037059 0 -20.221437165037059 -42.580738019718517 0 0 0 0 3.4939037683957466 -1.1732394547392317 0 -1.1732394547392317 3.092156081179362 0 0 0 0 186.89745213896094 10.552983532254075 0 10.552983532254075 -133.37590751567768 0 0 0 0 254.82657066857792 -47.834508457589209 0 -47.834508457589209 -170.70246417777639 0 0 0 0 43.333890938479726 -5.6504285297709345 0 -5.6504285297709345 -23.853071358228043 0 0 0 0 -388.58993895881576 -1049.1817546613274 0 -1049.1817546613274 -187.13545558971509 0 0 0 0 75.497668505908223 6.7142881772306282 0 6.7142881772306282 -41.940883792369277 0 0 0 0 36.868713919430604 2.1772997242637189 0 2.1772997242637189 -21.091751019269076 0 0 0 0 56.311388658446958 0.91281250061183528 0 0.91281250061183528 -41.301316019602382 0 0 0 0 85.342801736405818 -11.762718810330625 0 -11.762718810330625 -43.374176080319671 0 0 0 0 83.470824291784083 -20.995710099179632 0 -20.995710099179632 1.1010018804045103 0 0 0 0 113.56569144246168 -10.977890335996562 0 -10.977890335996562 -36.653425518990844 0 0 0 0 53.820931226247922 -18.603109380965179 0 -18.603109380965179 -41.730066417911075 0 0 0 0 76.769920531087337 -24.154260008088102 0 -24.154260008088102 -41.305285449969233 0 0 0 0 307.16967838618439 -42.544857117954962 0 -42.544857117954962 -153.49315745153035 0 0 0 0 76.913244158953688 -33.021913364345991 0 -33.021913364345991 -2.2094128365170072 0 0 0 0 5.6298296940076398 -107.09538122712274 0 -107.09538122712274 -41.461086940118548 0 0 0 0 138.68403211128316 -96.11635851282881 0 -96.11635851282881 -117.16735313711979 0 0 0 0 -16.031817176757613 -96.211617860002661 0 -96.211617860002661 -25.844490932364351 0 0 0 0 -1.3767338111065328 -106.43735838015709 0 -106.43735838015709 -19.524879773653083 0 0 0 0 -1.8026204922934994 -90.710896783773933 0 -90.710896783773933 -29.309572229598416 0 0 0 0 -20.259682315991085 -82.136393307671824 0 -82.136393307671824 -31.443330225680256 0 0 0 0 247.21426295363926 -118.43041539220758 0 -118.43041539220758 10.693811181813714 0 0 0 0 853.68181050437852 475.48654662951412 0 475.48654662951412 29.738037004270154 0 0 0 0 109.96511680166441 -22.413029260735584 0 -22.413029260735584 18.151349913758168 0 0 0 0 162.65920116676716 -58.957248615666686 0 -58.957248615666686 -4.3611079870415779 0 0 0 0 179.41428425436607 -32.254496822320107 0 -32.254496822320107 6.3205108310830838 0 0 0 0 183.95249396009604 -69.941900368419738 0 -69.941900368419738 -0.81650521314963953 0 0 0 0 366.28815320257854 -59.57488517231377 0 -59.57488517231377 -55.660740829232964 0 0 0 0 190.4372826632316 -47.345689622392456 0 -47.345689622392456 -29.659949152005538 0 0 0 0 245.18090245882922 -14.569592179281244 0 -14.569592179281244 -18.847704775098464 0 0 0 0 235.69872745861358 53.467280655853756 0 53.467280655853756 -4.6288578136100114 0 0 0 0 172.2395920795534 -45.870850437036552 0 -45.870850437036552 -25.663259904835286 0 0 0 0 136.81544910023513 -39.147036289444259 0 -39.147036289444259 -39.284909523904389 0 0 0 0 70.664241300768481 -26.519194875440007 0 -26.519194875440007 -12.603285846311337 0 0 0 0 138.15825653115462 -49.287891199785008 0 -49.287891199785008 -17.142634197558436 0 0 0 0 86.874502133592614 -10.502130499466148 0 -10.502130499466148 -15.65753756873346 0 0 0 0 121.4858744242083 -30.498479472454164 0 -30.498479472454164 6.0922702454518003 0 0 0 0 119.05257996928412 -38.173552707280123 0 -38.173552707280123 -14.666649748280179 0 0 0 0 79.569787926593563 -73.575354632571361 0 -73.575354632571361 -61.971045720687471 0 0 0 0 3.5030137698631734 25.142164686209071 0 25.142164686209071 8.7329662437914521 0 0 0 0 -85.407048793276772 -79.650644208501035 0 -79.650644208501035 -48.815932099722886 0 0 0 0 -93.25854138493014 -29.492796194245784 0 -29.492796194245784 -12.543457511445013 0 0 0 0 -10.486343708224013 -139.65689281474442 0 -139.65689281474442 -123.54224132597074 0 0 0 0 28.96804647470708 -88.870766205684049 0 -88.870766205684049 -63.287643365749318 0 0 0 0 12.567032647959422 -60.897916449586774 0 -60.897916449586774 -80.283838444023786 0 0 0 0 0.71849099636892788 -107.00381793362249 0 -107.00381793362249 10.246069786280714 0 0 0 0 66.000172226912127 -25.953920952698958 0 -25.953920952698958 -1.3279447702040272 0 0 0 0 -241.02667328693497 -187.44232815359805 0 -187.44232815359805 -87.894458163724266 0 0 0 0 -0.76615458464274866 -0.62944344503659977 0 -0.62944344503659977 4.7647087495110867 0 0 0 0 368.98905631702496 57.244781533432217 0 57.244781533432217 -53.404701984069106 0 0 0 0 -398.37256322685425 -50.653559314234371 0 -50.653559314234371 189.57368434426689 0 0 0 0 -73.9644835595318 -12.249937829182159 0 -12.249937829182159 -69.294867251479445 0 0 0 0 -64.080857974782703 -26.948093015954328 0 -26.948093015954328 -110.71086908784127 0 0 0 0 -13.538323519713231 -26.555611092763399 0 -26.555611092763399 -38.034442670635144 0 0 0 0 -4.3162504635365622 -41.751826976109442 0 -41.751826976109442 -24.074414891269953 0 0 0 0 128.66988334903726 2.6725324167578037 0 2.6725324167578037 -28.430729828355652 0 0 0 0 0.97927464080015625 -4.0972059440749717 0 -4.0972059440749717 10.873446008921571 0 0 0 0 83.882114655702026 -68.72684594049565 0 -68.72684594049565 -126.07361216901518 0 0 0 0 -42.262573682673974 -128.15729989219165 0 -128.15729989219165 -71.178196930572597 0 0 0 0 -96.917070588892784 -186.72847778045957 0 -186.72847778045957 -288.17680891016789 0 0 0 0 123.11282592997304 18.940094974649355 0 18.940094974649355 -125.11617140392241 0 0 0 0 3.757803562822744 -8.5051708228398439 0 -8.5051708228398439 14.969333227310186 0 0 0 0 15.419623050547671 -44.640623135018359 0 -44.640623135018359 -34.204668375025932 0 0 0 0 -48.848727248740033 -458.83668380352583 0 -458.83668380352583 -455.4122648534576 0 0 0 0 157.64324585944996 -35.159381502129236 0 -35.159381502129236 -49.472330404446211 0 0 0 0 120.5567772688737 -7.2135997230982412 0 -7.2135997230982412 -61.417623283098692 0 0 0 0 104.36309983124283 -26.365081427630003 0 -26.365081427630003 -38.906680385229265 0 0 0 0 189.82087836080609 -39.181923555086541 0 -39.181923555086541 -54.374444973121172 0 0 0 0 157.61516991737881 -35.655728034469121 0 -35.655728034469121 -54.661810804691072 0 0 0 0 172.78917923754852 -50.323555725653932 0 -50.323555725653932 -97.846504522234682 0 0 0 0 174.13024905679049 8.4490421809832696 0 8.4490421809832696 -96.753865822423876 0 0 0 0 147.25356103589729 -17.545935974399981 0 -17.545935974399981 -116.18492373523031 0 0 0 0 204.87893648353202 27.613533379552337 0 27.613533379552337 -58.242122315050381 0 0 0 0 180.50221884595157 -2.6276039031767482 0 -2.6276039031767482 -78.941942610411843 0 0 0 0 164.19985696773165 55.410383570386131 0 55.410383570386131 -17.611989494490899 0 0 0 0 166.88163997475203 55.049534480890429 0 55.049534480890429 -123.74253363358957 0 0 0 0 245.09169531807129 44.787788248620245 0 44.787788248620245 -22.610212154422925 0 0 0 0 -1.2543465740483626 7.3582006142635947 0 7.3582006142635947 -31.943094330020774 0 0 0 0 -921.00369238879648 -304.94808535202583 0 -304.94808535202583 -256.07850960968517 0 0 0 0 197.72577554773306 -280.42114271044352 0 -280.42114271044352 -603.01449744850447 0 0 0 0 165.82369594729244 147.94925870975567 0 147.94925870975567 114.22563090703375 0 0 0 0 174.99167601810768 113.29392785471964 0 113.29392785471964 -230.14067128677516 0 0 0 0 305.81590911775311 86.073610854297954 0 86.073610854297954 -244.66807204121596 0 0 0 0 111.488476114886 -40.742985720407205 0 -40.742985720407205 52.27631167248353 0 0 0 0 377.84698678058339 -173.92182384464058 0 -173.92182384464058 417.4691692375855 0 0 0 0 539.50595881094341 516.82822154717076 0 516.82822154717076 140.20526592362853 0 0 0 0 -551.49237049464136 -1081.8642616650864 0 -1081.8642616650864 -132.55770595919427 0 0 0 0 1075.2368284118202 -685.68145316375274 0 -685.68145316375274 -298.58860147670612 0 0 0 0 349.63681053258915 106.2012116727692 0 106.2012116727692 -154.94367656736165 0 0 0 0 322.16137727659225 183.30314104404476 0 183.30314104404476 -210.05206321260403 0 0 0 0 219.80817783492967 292.51348145714076 0 292.51348145714076 -309.10794552951506 0 0 0 0 364.86144320084577 123.26936921103859 0 123.26936921103859 -368.71561546773785 0 0 0 0 131.61536892359436 193.29179810270381 0 193.29179810270381 -110.78273009941108 0 0 0 0 279.70955124847569 93.358659693230976 0 93.358659693230976 -79.481893189076345 0 0 0 0 -0.1656541924498498 3.009081104440483 0 3.009081104440483 -2.2273670416869944 0 0 0 0 -205.17956404386041 99.687893080900579 0 99.687893080900579 56.412213599996903 0 0 0 0 149.90645596941613 50.179923357332427 0 50.179923357332427 -219.7272098849794 0 0 0 0 151.05492760578636 24.550829783999802 0 24.550829783999802 18.268594889801079 0 0 0 0 70.744052386922704 80.610387876170989 0 80.610387876170989 95.222284690496963 0 0 0 0 113.12617298184341 76.103651358057959 0 76.103651358057959 -6.0767088300693786 0 0 0 0 -1.1705490707813482 6.668024802855939 0 6.668024802855939 -26.378494487256049 0 0 0 0 321.22651898979711 79.447269899811545 0 79.447269899811545 -148.57602840597383 0 0 0 0 22.770545874129311 6.8157492557284058 0 6.8157492557284058 -4.3615241150691872 0 0 0 0 23.867420369595493 8.050364990629987 0 8.050364990629987 -17.803194451851596 0 0 0 0 12.013800924043608 24.46723284043901 0 24.46723284043901 -34.298323703362257 0 0 0 0 40.982273651083233 34.738837644010346 0 34.738837644010346 0.40348994908947589 0 0 0 0 123.88307298994187 35.037207469883015 0 35.037207469883015 -35.821174565199726 0 0 0 0 25.522112684200692 7.1592058418941633 0 7.1592058418941633 -23.508842240207741 0 0 0 0 2.6061548547077109 50.540296252146163 0 50.540296252146163 -28.486864362082201 0 0 0 0 17.521228013829386 56.135684441766443 0 56.135684441766443 -100.68146386645822 0 0 0 0 -73.658910156986167 119.01380432305029 0 119.01380432305029 -44.338660577445808 0 0 0 0 29.282312744628143 13.700295168297316 0 13.700295168297316 -22.366473156180291 0 0 0 0 90.985405876410368 55.212176306624769 0 55.212176306624769 -55.167493403862863 0 0 0 0 -1.9092310124598271 8.2867262945603102 0 8.2867262945603102 -35.823684069202628 0 0 0 0 243.12757787245209 49.75487426872678 0 49.75487426872678 -97.178280833215013 0 0 0 0 371.42039024099358 -141.18728492590344 0 -141.18728492590344 -98.406627163962185 0 0 0 0 558.30962274038757 -187.74526583800071 0 -187.74526583800071 -88.425426559755579 0 0 0 0 481.38233025067893 -130.47511462403054 0 -130.47511462403054 -78.39101056013169 0 0 0 0 590.08530918929318 -25.148790320677108 0 -25.148790320677108 -86.326858612101205 0 0 0 0 507.95403788286603 19.612265030162007 0 19.612265030162007 -106.75880805886482 0 0 0 0 304.60316613297982 205.96024253174619 0 205.96024253174619 -425.55880357219939 0 0 0 0 2.951329719021146 1.9129393509598742 0 1.9129393509598742 0.18017483186296701 0 0 0 0 173.09653268942566 -27.831912662812556 0 -27.831912662812556 -25.182835290259391 0 0 0 0 -0.92749677155308063 3.9498488489551846 0 3.9498488489551846 -18.075060301886822 0 0 0 0 19.634996109227359 26.046604723802375 0 26.046604723802375 -39.881789381553972 0 0 0 0 26.81477968661784 -100.80237039403619 0 -100.80237039403619 185.62678768329442 0 0 0 0 233.64281892583494 -61.166060532366828 0 -61.166060532366828 -49.269109963493975 0 0 0 0 209.96505654838984 -51.118541667992758 0 -51.118541667992758 -51.778005036983814 0 0 0 0 348.97994372037647 -40.026501364523938 0 -40.026501364523938 -80.900927302835044 0 0 0 0 326.02820818098189 -135.58578106934897 0 -135.58578106934897 -70.037510714133532 0 0 0 0 209.00154415280849 -117.99491963102241 0 -117.99491963102241 -31.168058296290837 0 0 0 0 168.54743925323783 -125.39129732735159 0 -125.39129732735159 -6.7226903837981808 0 0 0 0 124.40416329074651 -24.828085374198963 0 -24.828085374198963 -44.036413303530253 0 0 0 0 14.290303953283001 1.1358198937659836 0 1.1358198937659836 -17.432905120596388 0 0 0 0 -0.45458802888251171 2.1397111179329471 0 2.1397111179329471 -10.449316536804595 0 0 0 0 -6.2530830944051559 -80.285967462439203 0 -80.285967462439203 -10.619632476051265 0 0 0 0 67.933772545373358 -32.490972781689379 0 -32.490972781689379 -64.608085313130687 0 0 0 0 92.159498421870012 -114.79395487623742 0 -114.79395487623742 -26.086211427709713 0 0 0 0 233.03538598334899 -106.9434245814756 0 -106.9434245814756 12.748703121942526 0 0 0 0 230.84807738272502 -78.772048200605241 0 -78.772048200605241 -58.796825290322886 0 0 0 0 247.27147799592785 -124.76366153472009 0 -124.76366153472009 -42.443939031798436 0 0 0 0 246.7349747865228 -133.71286905259421 0 -133.71286905259421 27.349499557472882 0 0 0 0 335.49523228385442 -120.28335994412566 0 -120.28335994412566 49.656110064024688 0 0 0 0 331.78264942999522 -97.801158836823561 0 -97.801158836823561 -27.628200811176612 0 0 0 0 354.57132401625859 -95.464963655991596 0 -95.464963655991596 -57.664420979642273 0 0 0 0 376.60138052040929 -32.095633035303081 0 -32.095633035303081 21.38324951229697 0 0 0 0 906.44601307475386 27.601813580191447 0 27.601813580191447 -7.0125006709222362 0 0 0 0 510.01684409508016 -88.925650532544751 0 -88.925650532544751 56.215643195129815 0 0 0 0 449.29173387330229 -230.04326262730228 0 -230.04326262730228 -192.18139812814297 0 0 0 0 487.26222195635637 -102.10217625883251 0 -102.10217625883251 -21.586422879619931 0 0 0 0 514.64056023441663 -26.065502612907494 0 -26.065502612907494 -163.87208303798616 0 0 0 0 716.51948401334812 91.938481245088951 0 91.938481245088951 -105.32260431825262 0 0 0 0 694.67737381727784 -31.162480167209083 0 -31.162480167209083 -359.39155453653257 0 0 0 0 5.5054612644995302 5.5640545897393849 0 5.5640545897393849 4.3055878828904568 0 0 0 0 331.1022982089562 261.52658138831066 0 261.52658138831066 179.34242733662359 0 0 0 0 -127.32999774313066 -42.356085728571998 0 -42.356085728571998 152.21539650350746 0 0 0 0 139.82893804188643 -190.6797726485911 0 -190.6797726485911 12.60694494951349 0 0 0 0 183.76993156905519 -117.67611592657886 0 -117.67611592657886 26.659249567380812 0 0 0 0 -2.4419903764355695 -88.106725383055164 0 -88.106725383055164 22.392078711789509 0 0 0 0 115.15450452190998 -241.20616614041683 0 -241.20616614041683 -21.469899674295448 0 0 0 0 152.0993442734034 -201.52336167590875 0 -201.52336167590875 17.114082228144071 0 0 0 0 192.2228737599944 -304.50338551690947 0 -304.50338551690947 50.732112869307457 0 0 0 0 385.490275297474 -260.90617893578383 0 -260.90617893578383 -7.1408804498132668 0 0 0 0 363.95015044117463 -243.33825429413264 0 -243.33825429413264 -14.424030646959181 0 0 0 0 375.20860814701882 -211.17743875384622 0 -211.17743875384622 -40.841900945481029 0 0 0 0 257.97791146032978 -242.40764851686072 0 -242.40764851686072 -13.274791742516754 0 0 0 0 258.56357403827133 -232.32220663595581 0 -232.32220663595581 5.6474155941077697 0 0 0 0 250.13081263931417 -174.18586253373451 0 -174.18586253373451 8.6919512153945107 0 0 0 0 316.13051957579592 -142.08647008687694 0 -142.08647008687694 -49.52404352249323 0 0 0 0 255.00916253287869 -185.85100274335127 0 -185.85100274335127 -46.15424475661257 0 0 0 0 149.2924076103991 -92.967230158277289 0 -92.967230158277289 27.933176830691082 0 0 0 0 274.66892857063795 -50.006510072731544 0 -50.006510072731544 40.838109042993892 0 0 0 0 262.26004017554078 -158.25591933901342 0 -158.25591933901342 -11.778143969004304 0 0 0 0 117.55170619292767 -257.65069385809511 0 -257.65069385809511 55.17768415521823 0 0 0 0 14.309490020175872 -19.90083221065106 0 -19.90083221065106 -90.309177841611017 0 0 0 0 57.375530008612259 -24.348670288747599 0 -24.348670288747599 -92.01668861183407 0 0 0 0 14.46790863829429 12.757396372108623 0 12.757396372108623 8.5883151483597686 0 0 0 0 24.121023421899736 73.498337039368153 0 73.498337039368153 -301.40629761089076 0 0 0 0 -402.69714051634946 226.92077536381476 0 226.92077536381476 -278.19975051207803 0 0 0 0 23.360419187083608 59.716188076428807 0 59.716188076428807 1.3087927554370253 0 0 0 0 -683.13039189606206 94.400199999472534 0 94.400199999472534 -337.15350866599715 0 0 0 0 1.5207838475403435 -3.4040025069069344 0 -3.4040025069069344 -5.9687570187416554 0 0 0 0 265.03163279431465 -121.33313518856812 0 -121.33313518856812 -460.16458924078415 0 0 0 0 -108.64174042273225 528.31837296409026 0 528.31837296409026 -823.18356562286863 0 0 0 0 -1.3669170158869406 -0.76831865591603332 0 -0.76831865591603332 -1.040715242541534 0 0 0 0 9.7336206860200036 29.328826639364706 0 29.328826639364706 -262.73246379761986 0 0 0 0 570.23254659345548 -58.49433001153011 0 -58.49433001153011 -788.26107820234665 0 0 0 0 -64.48609778349055 485.46907657898828 0 485.46907657898828 -340.36164652554635 0 0 0 0 14.049753138690846 12.129631287866225 0 12.129631287866225 7.8336235076500031 0 0 0 0 -83.452949591948709 687.57265431288124 0 687.57265431288124 -648.41125848126831 0 0 0 0 -298.45086543435173 238.07423612242474 0 238.07423612242474 -239.76038116607378 0 0 0 0 -384.63533481201739 -241.28284058129066 0 -241.28284058129066 -217.06225770550373 0 0 0 0 -265.75987490965053 298.82984955385837 0 298.82984955385837 -292.25121383856094 0 0 0 0 -373.26683242811123 294.79541811565468 0 294.79541811565468 -239.88896945521265 0 0 0 0 -223.68617208738578 404.69570977480362 0 404.69570977480362 -298.49139589968036 0 0 0 0 -77.489312275247357 233.76157920292826 0 233.76157920292826 -271.70155244650232 0 0 0 0 -217.27288023089568 219.32842107081524 0 219.32842107081524 -276.00544019066729 0 0 0 0 3.0898258230500772 3.1076728843404879 0 3.1076728843404879 2.9672767077069722 0 0 0 0 -178.41911186664947 300.28625330449177 0 300.28625330449177 -109.59667566291319 0 0 0 0 1176.4122410963901 -359.8952306564006 0 -359.8952306564006 17.486907687724852 0 0 0 0 -263.0140088390508 224.99386240217609 0 224.99386240217609 -168.38156533719666 0 0 0 0 -9.7837825283349957 599.73958037263947 0 599.73958037263947 -124.60768273887533 0 0 0 0 -464.06945195260778 469.55671972977234 0 469.55671972977234 -235.76378315330112 0 0 0 0 17.79870297451663 5.7536185320857278 0 5.7536185320857278 2.479841645580219 0 0 0 0 -432.41917601505702 305.46636783903068 0 305.46636783903068 104.02350823710549 0 0 0 0 -226.48895753647957 775.69727303044237 0 775.69727303044237 -475.49518475181321 0 0 0 0 764.80934811671614 584.17165084881162 0 584.17165084881162 -497.37197110668865 0 0 0 0 964.26089227874763 -639.08667493386747 0 -639.08667493386747 -247.27364687146337 0 0 0 0 47.99408306217083 -578.3571559959114 0 -578.3571559959114 1099.8384191659898 0 0 0 0 149.82640513232764 -173.96444764178341 0 -173.96444764178341 -155.33718052053337 0 0 0 0 -213.16838962944166 401.4588118383117 0 401.4588118383117 965.02867078112115 0 0 0 0 -101.27600928845641 -183.64327643332581 0 -183.64327643332581 56.251022237087312 0 0 0 0 155.44792589191275 115.18021690877413 0 115.18021690877413 -238.33120921909358 0 0 0 0 307.37311099174985 -76.667194361091333 0 -76.667194361091333 -77.183252456285118 0 0 0 0 -93.161103103571804 406.82952985896054 0 406.82952985896054 -221.09642363292733 0 0 0 0 996.09087286058639 53.064561915614377 0 53.064561915614377 -591.06613447540258 0 0 0 0 -557.52832707769267 520.59129204640385 0 520.59129204640385 85.738343678536012 0 0 0 0 -0.85880022981787363 0.92268066463083187 0 0.92268066463083187 -10.022186863026938 0 0 0 0 124.60972462437348 -5.0201518021607399 0 -5.0201518021607399 36.734192899943537 0 0 0 0 625.64529320805013 -841.36888985347321 0 -841.36888985347321 1123.4972135638636 0 0 0 0 359.53465523661544 -610.38668623160174 0 -610.38668623160174 900.50170778220672 0 0 0 0 429.93249220799044 -119.50590874660929 0 -119.50590874660929 -93.024687306432497 0 0 0 0 111.35351325637248 -275.76445552590292 0 -275.76445552590292 65.711596252192976 0 0 0 0 139.81556168581074 114.78865931869068 0 114.78865931869068 -290.35661689021254 0 0 0 0 1.6567262148964801 -19.481549890852648 0 -19.481549890852648 8.6526447865614955 0 0 0 0 80.531545237958198 7.0491872557388433 0 7.0491872557388433 -345.32508296423248 0 0 0 0 35.896402716738805 -15.921301789221395 0 -15.921301789221395 7.6463845149329135 0 0 0 0 54.210624612576794 7.9384926630729069 0 7.9384926630729069 -43.157890896891331 0 0 0 0 48.846190109806003 -8.7733405087212546 0 -8.7733405087212546 -23.875654718448605 0 0 0 0 27.329155938350596 0.53714734788991336 0 0.53714734788991336 -22.880772627951046 0 0 0 0 168.19503046348473 140.14979631706422 0 140.14979631706422 -287.93381745837269 0 0 0 0 87.229408546991181 76.726691199511151 0 76.726691199511151 -28.38031509058419 0 0 0 0 -29.954607165906054 131.26494322454562 0 131.26494322454562 -215.71456186161299 0 0 0 0 43.202041425349307 32.74285488945452 0 32.74285488945452 -21.040252482535834 0 0 0 0 13.709445923240622 -4.2965438530686839 0 -4.2965438530686839 -28.202223860259899 0 0 0 0 164.61209695908474 -14.894403221329867 0 -14.894403221329867 -66.426360350051254 0 0 0 0 63.31718401736569 1.2200279228544275 0 1.2200279228544275 -17.825327373136389 0 0 0 0 53.966032608187419 13.392523490900896 0 13.392523490900896 -4.7048460199198594 0 0 0 0 -320.42680417857628 666.23279245725985 0 666.23279245725985 285.373025891 0 0 0 0 42.773688464178122 25.27450246385979 0 25.27450246385979 -22.917441648385193 0 0 0 0 41.746411950610764 25.604087524537981 0 25.604087524537981 1.5558619787368926 0 0 0 0 89.98420201902627 71.332955717165532 0 71.332955717165532 -83.177081516037106 0 0 0 0 41.09444823867193 26.671854142464269 0 26.671854142464269 -2.8542162986248236 0 0 0 0 65.509367951373861 37.138948451799479 0 37.138948451799479 -33.546667395978147 0 0 0 0 61.746390291984426 44.908666660789095 0 44.908666660789095 16.601791432852224 0 0 0 0 207.96953109208334 634.18323456549228 0 634.18323456549228 1018.5056336783227 0 0 0 0 -90.236607451428426 204.42656694669131 0 204.42656694669131 -797.28914352283755 0 0 0 0 -198.619190199679 94.839541256802477 0 94.839541256802477 -886.46382840153092 0 0 0 0 -81.042867642718193 278.00098033888389 0 278.00098033888389 -403.09359955690161 0 0 0 0 -211.82346904522274 87.005281965699396 0 87.005281965699396 -407.2286795357104 0 0 0 0 -241.59525897671119 276.16410742572043 0 276.16410742572043 -559.67191712278873 0 0 0 0 -491.25120823378529 345.08166396212619 0 345.08166396212619 -563.47729959779099 0 0 0 0 -406.26142894299119 114.22463920371592 0 114.22463920371592 -710.17912615080058 0 0 0 0 360.85408549510385 -1404.6981348278 0 -1404.6981348278 450.04377728378495 0 0 0 0 32.062218835926615 272.20050616107619 0 272.20050616107619 -959.24278853269789 0 0 0 0 113.64408944658922 36.297320234762694 0 36.297320234762694 6.3350401927216229 0 0 0 0 -7.1384373951586895 751.97729126592094 0 751.97729126592094 -869.66493467728787 0 0 0 0 -344.7471858124045 739.90253032114379 0 739.90253032114379 -391.42406477944633 0 0 0 0 -316.45644292846555 87.967677649707184 0 87.967677649707184 -120.41213327709465 0 0 0 0 83.994342273072107 247.49777125014225 0 247.49777125014225 -207.91195427450748 0 0 0 0 129.81978522696954 343.25660202277368 0 343.25660202277368 -44.80418545268185 0 0 0 0 20.554493913397891 378.79283841509823 0 378.79283841509823 -870.94290078029371 0 0 0 0 -56.188069835334318 405.17980729283045 0 405.17980729283045 -232.18867407517246 0 0 0 0 107.92604546232906 -247.71913588848838 0 -247.71913588848838 115.93467156775114 0 0 0 0 -74.939818294864381 113.70705286844168 0 113.70705286844168 -142.29493845755496 0 0 0 0 90.103937525302172 106.17337115072951 0 106.17337115072951 -25.681426109396853 0 0 0 0 66.715169986273395 20.844081849823851 0 20.844081849823851 -237.14928569797138 0 0 0 0 -123.48532340116799 -54.928385985353088 0 -54.928385985353088 -73.38618912504171 0 0 0 0 331.6327824601467 47.456949072622592 0 47.456949072622592 307.6231772478568 0 0 0 0 208.32228789295186 -86.810201210420928 0 -86.810201210420928 177.16083078136035 0 0 0 0 401.54538911546115 -376.27562211754775 0 -376.27562211754775 302.17563251214284 0 0 0 0 353.4102883062078 -341.9328334838583 0 -341.9328334838583 29.604709033024847 0 0 0 0 233.6131268600584 -168.71989723885872 0 -168.71989723885872 95.249772894811031 0 0 0 0 473.84246924647596 -226.10579400711504 0 -226.10579400711504 -13.961747646746062 0 0 0 0 86.094755431866361 -76.260801942463104 0 -76.260801942463104 -150.31632262834319 0 0 0 0 -60.436105932400096 -160.17444806178901 0 -160.17444806178901 13.034145858754528 0 0 0 0 26.88715909198072 -72.607040099883307 0 -72.607040099883307 -265.54468820691181 0 0 0 0 -63.748121506723692 -33.827499434964011 0 -33.827499434964011 -230.06183860830788 0 0 0 0 -112.03329515722726 117.65768592487166 0 117.65768592487166 -417.15606079417921 0 0 0 0 -33.738698401575675 98.352636899206118 0 98.352636899206118 -481.18989458705437 0 0 0 0 -193.58238498741412 54.965571881151845 0 54.965571881151845 -255.62327789206029 0 0 0 0 -262.45841398310586 352.01382014120895 0 352.01382014120895 -631.54584185831482 0 0 0 0 -40.386856132899993 142.90484060975268 0 142.90484060975268 -555.29260299605812 0 0 0 0 -32.983588925329968 -143.42585318780402 0 -143.42585318780402 -42.097590267854684 0 0 0 0 220.47776278050151 178.46433130764854 0 178.46433130764854 -1127.38441460576 0 0 0 0 72.134181277397147 14.207680251508009 0 14.207680251508009 -421.57800780529942 0 0 0 0 160.91268744411354 -260.68242790591921 0 -260.68242790591921 -517.96635565809629 0 0 0 0 -115.20896078982332 118.2178551411962 0 118.2178551411962 -335.98060096374502 0 0 0 0 54.163941861717376 18.031828192221077 0 18.031828192221077 4.5878142546108869 0 0 0 0 150.80431645229692 973.02617638869197 0 973.02617638869197 -593.05056721034634 0 0 0 0 160.76875256444328 131.25656320971757 0 131.25656320971757 73.095709166616871 0 0 0 0 766.36335599527229 -534.90919657725999 0 -534.90919657725999 293.87096504696092 0 0 0 0 -408.11235421268793 -332.43666778334682 0 -332.43666778334682 286.00774977693192 0 0 0 0 -57.097667681453458 578.15439669328771 0 578.15439669328771 -1021.4302934768384 0 0 0 0 238.89641672658036 -921.7299047669203 0 -921.7299047669203 381.234767699023 0 0 0 0 91.407920423609255 28.958648641007791 0 28.958648641007791 5.4369478950628682 0 0 0 0 63.553199614907498 -830.51572649925038 0 -830.51572649925038 507.63019618826365 0 0 0 0 79.101635270606494 97.433405320582779 0 97.433405320582779 32.269407195284202 0 0 0 0 560.88912924103352 86.072851810509974 0 86.072851810509974 -11.554147743177055 0 0 0 0 7.1376779650997833 -7.3577476934467683 0 -7.3577476934467683 5.7928252500418553 0 0 0 0 216.51839107875276 -140.98414770520708 0 -140.98414770520708 -735.8285139314803 0 0 0 0 22.041269618321792 -15.528251173817878 0 -15.528251173817878 9.5511378442107731 0 0 0 0 11.516300550400047 -76.942158113456799 0 -76.942158113456799 0.49769637199460703 0 0 0 0 4.6063072857650695 -4.6955146649904691 0 -4.6955146649904691 51.880805844210897 0 0 0 0 381.97522022938938 -116.02040644972931 0 -116.02040644972931 -7.4282943372727459 0 0 0 0 305.89218761623488 -95.609382343400057 0 -95.609382343400057 -12.771550433142806 0 0 0 0 544.4814968635983 -356.23157989866263 0 -356.23157989866263 104.09160340234575 0 0 0 0 784.19077572884999 -193.94468645667303 0 -193.94468645667303 -73.046616374154837 0 0 0 0 441.87493973461096 -117.24823423458793 0 -117.24823423458793 -89.816112553247876 0 0 0 0 168.67172072838002 -225.86031622144446 0 -225.86031622144446 62.446014433009395 0 0 0 0 513.89988405436452 -232.80629274620242 0 -232.80629274620242 -44.186125685022489 0 0 0 0 494.68400078601917 -227.93164763942582 0 -227.93164763942582 -45.422261846265428 0 0 0 0 729.78663152735135 120.77607884823699 0 120.77607884823699 -10.865989417642595 0 0 0 0 746.20183007219521 -429.71530234746763 0 -429.71530234746763 102.97238865608188 0 0 0 0 1146.4678488535792 -269.6391227265496 0 -269.6391227265496 -53.748323195549915 0 0 0 0 1171.4856977139279 -182.33987675492679 0 -182.33987675492679 28.889993826256969 0 0 0 0 2.6951895654732425 -2.1586095581009914 0 -2.1586095581009914 3.0562405497888605 0 0 0 0 -46.480495716969017 -170.59379263768301 0 -170.59379263768301 355.9883691658099 0 0 0 0 135.27005724660194 23.079008385364233 0 23.079008385364233 -28.920770239138079 0 0 0 0 13.568482174282963 -2.8166032581386915 0 -2.8166032581386915 -3.2798957440927854 0 0 0 0 338.80685759574408 -226.71762686496055 0 -226.71762686496055 14.397903913393066 0 0 0 0 28.075526577027631 -114.76025331692585 0 -114.76025331692585 128.87938241273093 0 0 0 0 43.320046594679297 25.663859408342212 0 25.663859408342212 4.1278348612108857 0 0 0 0 18.366885667005988 1.239086833234424 0 1.239086833234424 -3.1704634570152912 0 0 0 0 93.664028231331031 78.221897672328168 0 78.221897672328168 -122.5804290932299 0 0 0 0 27.130333353255992 -79.293008843966547 0 -79.293008843966547 159.11237620693811 0 0 0 0 229.48075037822127 -37.595195972562948 0 -37.595195972562948 -84.534238589386533 0 0 0 0 -69.978755693533458 51.140566702038839 0 51.140566702038839 107.46923910440685 0 0 0 0 -38.99694718196406 59.599094615322912 0 59.599094615322912 -33.789447668398878 0 0 0 0 51.560695544321788 -95.248622835466165 0 -95.248622835466165 82.512120805924368 0 0 0 0 -28.069664546841523 -4.5745737255139147 0 -4.5745737255139147 -17.283012229510064 0 0 0 0 153.52845524267468 17.150951936266466 0 17.150951936266466 -21.119901272887773 0 0 0 0 1.7898475758531163 -1.0956557246651393 0 -1.0956557246651393 -0.060554864453714205 0 0 0 0 51.131166592538648 7.5806166207040633 0 7.5806166207040633 -44.028974545376968 0 0 0 0 23.342236363518168 2.8362960660551835 0 2.8362960660551835 -22.668642379630739 0 0 0 0 20.631101163307903 -70.175622425365304 0 -70.175622425365304 -4.2427007444840115 0 0 0 0 -24.282834606012329 22.209395617084738 0 22.209395617084738 -10.867337329984593 0 0 0 0 7.8478332346489879 -3.4256246796797001 0 -3.4256246796797001 2.6240041804199987 0 0 0 0 24.593263825285248 75.189649890879082 0 75.189649890879082 21.748612018086874 0 0 0 0 102.5837931845017 -109.76950352932954 0 -109.76950352932954 97.332357429132912 0 0 0 0 126.67939269530143 219.7150029011903 0 219.7150029011903 47.624574460007778 0 0 0 0 724.7773405538901 13.101681275129053 0 13.101681275129053 -101.99952858481379 0 0 0 0 800.41678573179888 -227.94188656284314 0 -227.94188656284314 -127.16083098559039 0 0 0 0 4.1650628089059296 -0.98407555766291921 0 -0.98407555766291921 -0.39261730347574453 0 0 0 0 -39.215121400935459 -22.354325396060688 0 -22.354325396060688 7.2920099428732215 0 0 0 0 77.139472844355623 -138.17841352075521 0 -138.17841352075521 43.477377166100212 0 0 0 0 4.6120406325520378 -2.1465960292072452 0 -2.1465960292072452 0.3048660963149471 0 0 0 0 3.589165002792754 -0.20625419848575 0 -0.20625419848575 -0.096984050525891777 0 0 0 0 13.329847531203995 7.0122447767189868 0 7.0122447767189868 15.211728759754074 0 0 0 0 -5.4474762536020762 8.3197888996892431 0 8.3197888996892431 0.87425088685173891 0 0 0 0 340.79074328407296 -637.09732259033137 0 -637.09732259033137 -338.24824187065587 0 0 0 0 205.04830016801861 140.6666630068874 0 140.6666630068874 -409.49077342468718 0 0 0 0 37.470074942655629 10.379490831607541 0 10.379490831607541 -2.9320765041228469 0 0 0 0 28.158685463705041 9.1400189264476381 0 9.1400189264476381 -4.4717389193231121 0 0 0 0 32.706539780774619 23.618635910872399 0 23.618635910872399 0.59814453052604222 0 0 0 0 8.3075678146684027 4.0105262767507632 0 4.0105262767507632 -0.06132348661541108 0 0 0 0 11.569607429988906 9.8710397554848441 0 9.8710397554848441 1.5730023556638666 0 0 0 0 18.908254874811973 11.284832277764281 0 11.284832277764281 -0.12925537807950604 0 0 0 0 9.0818659488613775 15.355917683166936 0 15.355917683166936 7.1620449557337338 0 0 0 0 2.7398083290825639 1.9148576257643697 0 1.9148576257643697 -0.40646985819078241 0 0 0 0 24.153506707574707 5.5700655224950424 0 5.5700655224950424 -2.4360062174114034 0 0 0 0 3.8454677434483528 5.4989143118134747 0 5.4989143118134747 1.3788536669458893 0 0 0 0 40.406499197379162 -26.891400102781688 0 -26.891400102781688 11.214927942406575 0 0 0 0 15.759505258164779 2.0545538898083748 0 2.0545538898083748 0.92782499854798317 0 0 0 0 25.812012564181884 -2.5721788476766676 0 -2.5721788476766676 -1.5734086036544195 0 0 0 0 56.647957644134294 -24.42062358304463 0 -24.42062358304463 -0.37938936036084669 0 0 0 0 59.794029726420376 -8.7184732562228504 0 -8.7184732562228504 -39.236079034558998 0 0 0 0 37.717173152522577 -1.7337092515503087 0 -1.7337092515503087 -7.4389205970022516 0 0 0 0 7.3605166862107581 -35.384383755243789 0 -35.384383755243789 47.467217598057658 0 0 0 0 21.211803136189701 -56.598790812898073 0 -56.598790812898073 -9.7144899790785075 0 0 0 0 -18.962092688896519 -38.127888733247403 0 -38.127888733247403 35.136581849389358 0 0 0 0 23.733928746194579 -20.565419381525231 0 -20.565419381525231 38.208621835291972 0 0 0 0 13.691087173909182 5.796967917017696 0 5.796967917017696 -3.0007482770752176 0 0 0 0 5.1093143726023982 -1.5264904503223597 0 -1.5264904503223597 -0.71755528224186971 0 0 0 0 38.394142697405186 54.439830766544333 0 54.439830766544333 81.26797916989787 0 0 0 0 1.6783455230179243 14.522671494234658 0 14.522671494234658 26.750683023684587 0 0 0 0 20.740356804613839 13.324766383879705 0 13.324766383879705 4.2517440630890633 0 0 0 0 13.320883639491512 33.992030493443849 0 33.992030493443849 -2.1612632948299648 0 0 0 0 -6.3942599017609609 -10.166826716040561 0 -10.166826716040561 -11.989497520375664 0 0 0 0 15.24740747737016 5.9565042765732414 0 5.9565042765732414 -2.0098439878327934 0 0 0 0 12.617434959258532 8.8468929169850981 0 8.8468929169850981 -0.46044781155233561 0 0 0 0 -5.5509382230520714 20.327721464214051 0 20.327721464214051 0.71256921672217999 0 0 0 0 -6.8608533964143135 4.9679548335809613 0 4.9679548335809613 16.347931226248988 0 0 0 0 -5.6471979597845348 63.688238151182674 0 63.688238151182674 -101.27731098905821 0 0 0 0 -20.174730355880456 49.13677237682424 0 49.13677237682424 34.74031631744873 0 0 0 0 -52.014786325249588 -8.4412071053295108 0 -8.4412071053295108 15.147815281755555 0 0 0 0 -51.028006797350827 -19.378323259174863 0 -19.378323259174863 126.00136390726941 0 0 0 0 261.85419398395607 110.60971468089076 0 110.60971468089076 47.331940921050091 0 0 0 0 4.8091601113209208 -1.2427538098454747 0 -1.2427538098454747 0.23268511538199116 0 0 0 0 -1.7899403768824413 138.61207095100309 0 138.61207095100309 75.448311331391437 0 0 0 0 110.32532485785487 -167.53646891179102 0 -167.53646891179102 21.795265063603779 0 0 0 0 628.69567464651482 -351.05876989073477 0 -351.05876989073477 199.10098528743436 0 0 0 0 560.88749904590804 -456.71903837563826 0 -456.71903837563826 422.31055996628714 0 0 0 0 63.116143301696866 -287.89402788336776 0 -287.89402788336776 478.33298451113933 0 0 0 0 25.088242521209395 16.048420538345248 0 16.048420538345248 135.38883263767383 0 0 0 0 78.702338585993857 -156.70756173426895 0 -156.70756173426895 307.59206338010074 0 0 0 0 44.532989152154187 -84.755666606831028 0 -84.755666606831028 169.44842787617876 0 0 0 0 85.20647156496716 -46.550832778248783 0 -46.550832778248783 88.752020437257329 0 0 0 0 2.9191536831349367 -56.937508940761859 0 -56.937508940761859 93.968817309762755 0 0 0 0 104.77841313548561 -18.602277929052068 0 -18.602277929052068 -27.620001841116867 0 0 0 0 9.6740896444392206 -0.06697330111277644 0 -0.06697330111277644 -0.39657073808016879 0 0 0 0 32.273887395480415 -23.440844256258998 0 -23.440844256258998 -20.31260205555418 0 0 0 0 2.9479014555925005 -1.8906157305439422 0 -1.8906157305439422 -0.68117235422318745 0 0 0 0 -23.173593249595797 27.842786195364493 0 27.842786195364493 66.650084801023013 0 0 0 0 70.185984320971329 -33.794649931222907 0 -33.794649931222907 15.843485179763093 0 0 0 0 51.599036054496537 -104.78860770558583 0 -104.78860770558583 82.340905916490811 0 0 0 0 80.34437299608544 -90.01098506410068 0 -90.01098506410068 81.237698116204314 0 0 0 0 110.47176456234592 -96.393105066561745 0 -96.393105066561745 0.10451691630981004 0 0 0 0 190.41304255083378 -172.95502918394084 0 -172.95502918394084 72.829071183527105 0 0 0 0 202.15844931573065 -242.74670814581961 0 -242.74670814581961 155.2725985549273 0 0 0 0 175.82917713177449 -157.88863435263505 0 -157.88863435263505 155.87501799196056 0 0 0 0 164.83163316428545 -175.91670848437377 0 -175.91670848437377 126.36078173839479 0 0 0 0 315.44791000199439 -315.4992394345108 0 -315.4992394345108 280.69107608605736 0 0 0 0 336.59994369580818 -260.86803741904151 0 -260.86803741904151 172.96195866632729 0 0 0 0 414.05018582181947 -223.38520727009993 0 -223.38520727009993 0.20651504619303349 0 0 0 0 570.25966369279922 -406.11258525482378 0 -406.11258525482378 141.40881658977679 0 0 0 0 803.03619293698284 -318.53207768567995 0 -318.53207768567995 -0.109760267724578 0 0 0 0 687.01101636482053 -363.54172601195955 0 -363.54172601195955 115.45246630143799 0 0 0 0 11.2058956209803 -44.493618366548787 0 -44.493618366548787 47.916526477271134 0 0 0 0 282.27348109956074 193.34002202098824 0 193.34002202098824 -12.276324420817787 0 0 0 0 453.81769263495516 -302.72034623952311 0 -302.72034623952311 142.06125508373566 0 0 0 0 4.8922219679405998 0.18837281245899362 0 0.18837281245899362 -0.0078304121421081396 0 0 0 0 54.421322223512107 -50.716435830113824 0 -50.716435830113824 -67.597023764833466 0 0 0 0 11.7896427899787 -0.95833900830686503 0 -0.95833900830686503 0.48390906004357614 0 0 0 0 40.745786897896323 -14.152741851109965 0 -14.152741851109965 -97.653509009955542 0 0 0 0 43.956315316958353 -6.2118464704363987 0 -6.2118464704363987 -0.48620756184124758 0 0 0 0 26.807378860302265 -1.0233915683840991 0 -1.0233915683840991 -1.1028606622320893 0 0 0 0 -19.776096333298483 -42.669571937742489 0 -42.669571937742489 -36.538538755363959 0 0 0 0 6.3209745808698585 1.3332652592349916 0 1.3332652592349916 -2.062801639041453 0 0 0 0 19.925011626910418 -38.091549017733712 0 -38.091549017733712 -37.309253871161921 0 0 0 0 0.44616452683112584 -32.922692008335645 0 -32.922692008335645 18.489977255383963 0 0 0 0 24.458808985771611 -6.9355392052802642 0 -6.9355392052802642 5.0775279161842946 0 0 0 0 -1.4360332706419285 -41.121113350928013 0 -41.121113350928013 18.656982700624269 0 0 0 0 11.878078161273152 -19.990022415812803 0 -19.990022415812803 22.351346383357608 0 0 0 0 48.019334300493938 -41.492506652284838 0 -41.492506652284838 32.619673657555253 0 0 0 0 -6.5207745529132808 -31.866498050030092 0 -31.866498050030092 66.626660623978609 0 0 0 0 -0.89985125786904518 -0.17142971905730064 0 -0.17142971905730064 0.15344983964733472 0 0 0 0 -10.75993455920252 -11.74244479757477 0 -11.74244479757477 37.74977050760608 0 0 0 0 39.948708819018066 -75.687010377833531 0 -75.687010377833531 78.911989046974909 0 0 0 0 91.463556762450025 -96.786059503434217 0 -96.786059503434217 65.783723263091289 0 0 0 0 63.605094230122631 -53.35498029481019 0 -53.35498029481019 0.071246519712300116 0 0 0 0 126.5744816774386 -19.015889028502922 0 -19.015889028502922 17.943009295732935 0 0 0 0 144.40138228216165 34.686687251604425 0 34.686687251604425 34.607895300534025 0 0 0 0 87.008765780730755 52.456982003718984 0 52.456982003718984 74.891591920001858 0 0 0 0 269.0638887421228 20.003893643010162 0 20.003893643010162 15.688513869402016 0 0 0 0 269.28652077487686 15.869137528157291 0 15.869137528157291 18.407456220754753 0 0 0 0 389.39616453876079 28.653903312346355 0 28.653903312346355 -17.459469280800107 0 0 0 0 274.78631813111861 -22.902722828026651 0 -22.902722828026651 0.01877086135440072 0 0 0 0 393.37821829653694 -16.048922483777822 0 -16.048922483777822 -14.881030998678341 0 0 0 0 355.7582999294973 -75.324266806587261 0 -75.324266806587261 17.188830770267344 0 0 0 0 422.51081650963897 -38.418489060875267 0 -38.418489060875267 -0.15046609046901052 0 0 0 0 475.50350480598718 -135.88539073014326 0 -135.88539073014326 42.2985470618367 0 0 0 0 493.82130782404602 -16.602937897144646 0 -16.602937897144646 -31.170011649782452 0 0 0 0 167.82265096616175 -141.86670498435279 0 -141.86670498435279 -29.528057895472536 0 0 0 0 191.37236425180163 -37.013875148218716 0 -37.013875148218716 0.1691096618849981 0 0 0 0 0.48801653187530292 -0.073791885575474225 0 -0.073791885575474225 0.069154693656225522 0 0 0 0 314.13420039549237 -58.111763759557007 0 -58.111763759557007 89.49727246997027 0 0 0 0 366.39779606675074 -153.95985476164037 0 -153.95985476164037 -17.241830845632848 0 0 0 0 86.431767235466396 -46.84941656095129 0 -46.84941656095129 59.997666399751338 0 0 0 0 74.463030460145092 -107.09898496842393 0 -107.09898496842393 70.940462802340292 0 0 0 0 68.556526326603489 24.699117402790151 0 24.699117402790151 94.634786353796528 0 0 0 0 149.26828805878222 -75.242277191108869 0 -75.242277191108869 30.33940315548665 0 0 0 0 148.875126851608 -83.67486839474536 0 -83.67486839474536 155.91732081083725 0 0 0 0 0.61552899455611509 0.0028343821111320722 0 0.0028343821111320722 -0.087073437927592479 0 0 0 0 213.27143265621271 54.438695919340205 0 54.438695919340205 124.23327073964793 0 0 0 0 300.60015486889642 -178.21793956328995 0 -178.21793956328995 321.62542117970906 0 0 0 0 300.19650954145618 13.509061720820874 0 13.509061720820874 194.86522957236124 0 0 0 0 190.89140734898683 30.941546759926837 0 30.941546759926837 38.657875898263285 0 0 0 0 305.2993052278398 28.785563528315627 0 28.785563528315627 57.124122129880334 0 0 0 0 146.33928320240375 24.680515136204988 0 24.680515136204988 114.40974102520534 0 0 0 0 237.14304515469121 -6.1941826987965101 0 -6.1941826987965101 44.002116500161044 0 0 0 0 136.40269760961382 -3.7219345191559228 0 -3.7219345191559228 50.896143659189079 0 0 0 0 92.602992550848285 45.686504640114094 0 45.686504640114094 48.125564763099845 0 0 0 0 700.84101276144793 -104.27015565564631 0 -104.27015565564631 18.496641481328396 0 0 0 0 456.95547980017727 44.819718842896464 0 44.819718842896464 -47.217759510572762 0 0 0 0 548.39415109065885 -108.77808003175645 0 -108.77808003175645 49.166513832999527 0 0 0 0 466.12714667932596 -102.06426474606958 0 -102.06426474606958 219.07172307957654 0 0 0 0 540.32694254323724 -85.142849129582231 0 -85.142849129582231 56.607125177221874 0 0 0 0 436.16574830858735 -193.10377634119905 0 -193.10377634119905 206.46284364846102 0 0 0 0 0.67357277606875954 0.30033768819907891 0 0.30033768819907891 2.1630106306223187 0 0 0 0 345.36297169387399 -8.7756769665338368 0 -8.7756769665338368 31.099138022960688 0 0 0 0 484.13793782496941 -250.2732547327272 0 -250.2732547327272 247.02606292168258 0 0 0 0 747.27104677697935 -215.29860815462899 0 -215.29860815462899 -124.02681361567659 0 0 0 0 719.88112089495735 -11.738051299039373 0 -11.738051299039373 -31.554995438670403 0 0 0 0 600.53497093659826 -117.89275159442045 0 -117.89275159442045 -119.05181196935965 0 0 0 0 594.13293919264106 -175.67175492754399 0 -175.67175492754399 237.17147132508208 0 0 0 0 164.0255576648633 11.786949243347863 0 11.786949243347863 12.990212620180898 0 0 0 0 162.66584430076182 -50.444743357755556 0 -50.444743357755556 26.173232916342386 0 0 0 0 0.80320523830981472 0.85215801566843652 0 0.85215801566843652 4.9651079384532553 0 0 0 0 258.35298416510341 -37.921612421362752 0 -37.921612421362752 -8.6740165150562234 0 0 0 0 319.40069160294661 -136.42687088848123 0 -136.42687088848123 45.866250068896932 0 0 0 0 252.36725510870747 -58.19410974521594 0 -58.19410974521594 14.223231826337383 0 0 0 0 176.65254420429119 7.1599452281887181 0 7.1599452281887181 8.3201772795814577 0 0 0 0 96.479594913311303 29.87189963962976 0 29.87189963962976 21.807937335222562 0 0 0 0 86.158278190458077 23.378183247854636 0 23.378183247854636 12.675623854620198 0 0 0 0 91.399663412303198 15.693297797198056 0 15.693297797198056 -14.68999650179444 0 0 0 0 45.257359568873653 56.568643691551586 0 56.568643691551586 14.374815402196418 0 0 0 0 49.78767136335955 71.611456647670366 0 71.611456647670366 -20.595666579066801 0 0 0 0 64.604977308626985 47.294701318904004 0 47.294701318904004 -102.89276274574013 0 0 0 0 182.68938141071703 -0.037260865873008697 0 -0.037260865873008697 -22.774440381640943 0 0 0 0 53.438698180063511 -6.7961845066215574 0 -6.7961845066215574 3.5610375542332804 0 0 0 0 121.6994501540903 58.84124912032712 0 58.84124912032712 -44.660066802017127 0 0 0 0 143.33571671041136 -21.952889269439765 0 -21.952889269439765 -41.707218040952057 0 0 0 0 13.773253516409284 6.4634336262947301 0 6.4634336262947301 -7.2323741440577756 0 0 0 0 60.841772341082105 -9.8456421631105968 0 -9.8456421631105968 -110.16263348939083 0 0 0 0 59.906673757919634 118.72847326857686 0 118.72847326857686 -23.162221813637643 0 0 0 0 52.970589391319663 116.51950906365369 0 116.51950906365369 -56.413886990985247 0 0 0 0 73.271509452475584 99.361674271803622 0 99.361674271803622 -43.610380400067697 0 0 0 0 81.760479112082407 20.664920126041608 0 20.664920126041608 -8.6367820045514776 0 0 0 0 45.801235961029306 -14.369458387111081 0 -14.369458387111081 -34.984866953396022 0 0 0 0 32.94349895769119 54.099281460392945 0 54.099281460392945 -9.5018611132081787 0 0 0 0 5.0656072281126399 91.973127426431802 0 91.973127426431802 -43.324685917967145 0 0 0 0 31.148191118933028 30.948526464559563 0 30.948526464559563 -148.18363105421736 0 0 0 0 78.66187553772761 104.42793055415609 0 104.42793055415609 -75.206460312370837 0 0 0 0 62.091098092114407 13.082821254109831 0 13.082821254109831 13.499293836382094 0 0 0 0 147.41967353595828 54.491304363337804 0 54.491304363337804 18.534641361110971 0 0 0 0 468.26127703893872 -20.297035568416504 0 -20.297035568416504 -28.494875076571589 0 0 0 0 0.97767216366041509 1.7332649212138165 0 1.7332649212138165 1.8969269019679231 0 0 0 0 284.90408647364529 168.27066874043146 0 168.27066874043146 149.17027516274061 0 0 0 0 305.53598990447063 -74.083740859378167 0 -74.083740859378167 -51.111569849313128 0 0 0 0 91.979325744727248 -60.745645747567281 0 -60.745645747567281 317.94454874111443 0 0 0 0 541.99840772421157 -147.15586522120731 0 -147.15586522120731 -207.96325707378602 0 0 0 0 522.42433685885044 -181.91713246706973 0 -181.91713246706973 524.25014940924552 0 0 0 0 0.827284423196609 1.4540769856560303 0 1.4540769856560303 5.0124898343658399 0 0 0 0 271.31243287138204 -39.842003571574082 0 -39.842003571574082 -18.164136616520409 0 0 0 0 126.39488899284333 -39.476168322966259 0 -39.476168322966259 52.834588317193379 0 0 0 0 29.826917135593249 -33.025288623121014 0 -33.025288623121014 6.9339497154644505 0 0 0 0 21.056984648465004 -1.4893175340489506 0 -1.4893175340489506 71.769540079007129 0 0 0 0 7.0172890482017181 -3.2659470865209244 0 -3.2659470865209244 -1.8731810783763763 0 0 0 0 14.477144542026508 -19.610648062550354 0 -19.610648062550354 23.078510324274248 0 0 0 0 16.188785698518814 -11.201482903955892 0 -11.201482903955892 -13.186545401223421 0 0 0 0 -23.981727179379959 -65.277802330015675 0 -65.277802330015675 23.556975812711244 0 0 0 0 33.878363997631823 -23.597987152767018 0 -23.597987152767018 -5.5341686162464612 0 0 0 0 124.65626244540908 -24.296493632020429 0 -24.296493632020429 -13.282849882802111 0 0 0 0 63.315602338996541 -77.620353705862726 0 -77.620353705862726 11.850972320740766 0 0 0 0 -77.155778238302446 -6.9807546871988961 0 -6.9807546871988961 90.685898863551756 0 0 0 0 38.208666226491914 -124.08810401800065 0 -124.08810401800065 17.636136120319861 0 0 0 0 -0.88065231333894189 -74.270787853735783 0 -74.270787853735783 10.999666048686777 0 0 0 0 -6.7819171130831819 -71.082627959251113 0 -71.082627959251113 100.3457101885715 0 0 0 0 26.773358143007499 -92.557162642473486 0 -92.557162642473486 -62.614338221857906 0 0 0 0 12.92065428107162 -75.156475277344725 0 -75.156475277344725 -15.159129475607187 0 0 0 0 2.3478715447708964 -90.441362697176373 0 -90.441362697176373 -3.3854268563154619 0 0 0 0 3.115376513931551 -93.774938535793581 0 -93.774938535793581 -20.540468709259585 0 0 0 0 12.940287686593365 -79.739986473256067 0 -79.739986473256067 -35.794333372636174 0 0 0 0 10.532934637158178 -60.458781867535436 0 -60.458781867535436 -1.7848529131279065 0 0 0 0 11.749787666252814 -51.810414173925892 0 -51.810414173925892 -4.8446691123613164 0 0 0 0 21.481487555429339 -27.624048908524856 0 -27.624048908524856 32.186199506890262 0 0 0 0 -3.1955822716990951 -74.578085250779623 0 -74.578085250779623 20.416914492612705 0 0 0 0 126.05303295142949 -80.040560598661614 0 -80.040560598661614 4.0077567144580826 0 0 0 0 38.588361787726171 -30.951482905591547 0 -30.951482905591547 -77.142458122261814 0 0 0 0 54.751859880401753 -35.375561885312891 0 -35.375561885312891 24.309723927152845 0 0 0 0 52.457948305236641 7.0153029504026563 0 7.0153029504026563 -45.969071104374962 0 0 0 0 50.416840952727028 -38.076994723206582 0 -38.076994723206582 -18.960558854768458 0 0 0 0 26.891383691393855 8.4072937909977483 0 8.4072937909977483 -27.281530354613146 0 0 0 0 157.864435540454 -22.795586834512505 0 -22.795586834512505 -21.069185334737995 0 0 0 0 98.567599673400565 0.21200101299518082 0 0.21200101299518082 -31.915619837660305 0 0 0 0 127.63906149269209 5.3468373558244053 0 5.3468373558244053 -35.696258318209694 0 0 0 0 61.023385112110191 -13.19106721808302 0 -13.19106721808302 -50.084152289124177 0 0 0 0 40.485776854038704 30.569294776018296 0 30.569294776018296 -55.447272186801797 0 0 0 0 53.788759915507399 -57.12498503435927 0 -57.12498503435927 -14.685148433760332 0 0 0 0 32.005681452462881 -1.6833341906148149 0 -1.6833341906148149 -16.065499289691971 0 0 0 0 7.8192643795501908 -4.8756537653657404 0 -4.8756537653657404 2.9582363610129914 0 0 0 0 2.8973174801794812 4.1403740983087118 0 4.1403740983087118 13.298136171376427 0 0 0 0 111.30478289036546 -25.499862611132812 0 -25.499862611132812 -31.985243446631898 0 0 0 0 14.28446931216962 -14.871650437612786 0 -14.871650437612786 -17.634113191611949 0 0 0 0 37.694138648628723 -37.403527214691167 0 -37.403527214691167 -31.50227858265589 0 0 0 0 16.142903453568579 26.028289766489735 0 26.028289766489735 -27.319246044074362 0 0 0 0 17.833260107610499 -2.1483807953521534 0 -2.1483807953521534 -19.864320274058905 0 0 0 0 15.601368688061484 27.151446632949387 0 27.151446632949387 -28.823763943726362 0 0 0 0 57.205957394297002 50.1423586396362 0 50.1423586396362 -36.768980234836818 0 0 0 0 26.160762026600423 44.145054867325825 0 44.145054867325825 -12.265992401428775 0 0 0 0 36.641706011811038 38.836348088651448 0 38.836348088651448 -16.475834971159031 0 0 0 0 6.8951254805870121 46.571256085404627 0 46.571256085404627 9.0467074690036497 0 0 0 0 12.563148534827633 16.1916377456958 0 16.1916377456958 4.8453855454443442 0 0 0 0 1.828447338716316 2.1370738022493185 0 2.1370738022493185 -10.29829482213221 0 0 0 0 -11.693578624650399 11.557693492723729 0 11.557693492723729 -18.080206164230503 0 0 0 0 -38.07650036746054 14.953235786704511 0 14.953235786704511 -0.40208777376835769 0 0 0 0 0.21951606850780081 -10.974476931555841 0 -10.974476931555841 -58.484114650049378 0 0 0 0 -11.576642400410492 -39.211231165080704 0 -39.211231165080704 -57.198952026262987 0 0 0 0 26.891398228835897 -21.166918218350929 0 -21.166918218350929 -63.680442620058784 0 0 0 0 1.8241671734643887 -0.5290185109480916 0 -0.5290185109480916 -1.1512357930194979 0 0 0 0 33.321342383984302 -24.418900229686358 0 -24.418900229686358 3.4327534174626635 0 0 0 0 14.665248858161419 -15.376442085554629 0 -15.376442085554629 5.3414082417462847 0 0 0 0 26.578077159952954 -29.816461294353303 0 -29.816461294353303 4.170259485402994 0 0 0 0 24.671251901168318 -9.7916089843024707 0 -9.7916089843024707 -12.206261149979493 0 0 0 0 81.446797314507421 -26.393758278328278 0 -26.393758278328278 -35.842066767099254 0 0 0 0 37.599723987135803 20.146901645480398 0 20.146901645480398 -6.7899060926054062 0 0 0 0 0.17591268563752749 -0.31114303613782113 0 -0.31114303613782113 -2.4383732991829881 0 0 0 0 104.31983465853045 28.861459468895546 0 28.861459468895546 -54.449315540522093 0 0 0 0 17.085277848353144 -17.453869296663697 0 -17.453869296663697 -54.013159982473326 0 0 0 0 83.699651696639194 -9.5474891071935417 0 -9.5474891071935417 -61.506140954689876 0 0 0 0 37.134748599259183 -38.292544906845592 0 -38.292544906845592 -69.9566378774025 0 0 0 0 67.911947449574654 -113.70651756818363 0 -113.70651756818363 -64.716217216145822 0 0 0 0 -0.05187960004413128 -0.41386451431299065 0 -0.41386451431299065 0.67659140834388776 0 0 0 0 77.317109659801645 6.0177725958349519 0 6.0177725958349519 -73.508411094213898 0 0 0 0 239.74773172292043 -142.03412281182884 0 -142.03412281182884 43.25757723155602 0 0 0 0 18.361866555220331 22.580002787054319 0 22.580002787054319 12.691159997418737 0 0 0 0 47.665298916996107 -15.181844857359067 0 -15.181844857359067 34.971400016560466 0 0 0 0 25.827942794887349 48.558282056439737 0 48.558282056439737 34.0802303392461 0 0 0 0 -13.562653416447574 26.746179103048348 0 26.746179103048348 14.444343115708762 0 0 0 0 -37.38816542873974 -21.066694581287607 0 -21.066694581287607 20.9547331905992 0 0 0 0 -34.359489769587526 31.142612788328393 0 31.142612788328393 -21.482777517651016 0 0 0 0 -26.667589509910613 -30.998573762633981 0 -30.998573762633981 -20.121599798857233 0 0 0 0 -7.9937003403501876 13.354878744393943 0 13.354878744393943 -37.00119427227537 0 0 0 0 -0.56823629365216277 0.73150798781409776 0 0.73150798781409776 -3.7625872614259985 0 0 0 0 -88.917786920166691 -35.922541861059969 0 -35.922541861059969 32.769369967301259 0 0 0 0 -106.67989794094319 -122.69410615273534 0 -122.69410615273534 26.999188940495117 0 0 0 0 89.740653056564042 -40.461350400701768 0 -40.461350400701768 -55.70369568034058 0 0 0 0 -63.812233791464678 27.213678748784012 0 27.213678748784012 39.831286577350028 0 0 0 0 -196.06199171150365 -98.040958224957947 0 -98.040958224957947 49.063807043571913 0 0 0 0 81.582801374839619 -95.877119753908829 0 -95.877119753908829 29.058428621815157 0 0 0 0 0.10545626091392535 -0.20015957717845367 0 -0.20015957717845367 -0.88720256681481491 0 0 0 0 -57.244011850270908 -87.834372403830614 0 -87.834372403830614 101.11552784458001 0 0 0 0 -99.36577818141086 4.4796077415950464 0 4.4796077415950464 -98.742270143660022 0 0 0 0 -55.89811837713205 -102.10161209769841 0 -102.10161209769841 -25.469900786158561 0 0 0 0 -14.354231815474122 21.14606424466675 0 21.14606424466675 -9.9646563173869538 0 0 0 0 -16.367046013940126 -58.785048971433838 0 -58.785048971433838 0.34853308587292575 0 0 0 0 574.76583434340137 150.19326218469976 0 150.19326218469976 18.08220625684136 0 0 0 0 132.21540681329498 -96.429555338802317 0 -96.429555338802317 -0.18473408001821026 0 0 0 0 0.34290604545621761 -0.022464274798807082 0 -0.022464274798807082 0.46809752284409151 0 0 0 0 279.55084465091568 163.91089343829395 0 163.91089343829395 196.88334212287387 0 0 0 0 687.03218087743153 126.82120586795486 0 126.82120586795486 -0.31343988812571494 0 0 0 0 1197.3577632157539 390.155570842793 0 390.155570842793 95.543828963042571 0 0 0 0 570.29654443228151 247.13132520848436 0 247.13132520848436 428.98717952713565 0 0 0 0 971.07871046851506 -101.11689368497471 0 -101.11689368497471 240.19069649209558 0 0 0 0 1415.5453964551198 65.702230815392568 0 65.702230815392568 -246.84675210682036 0 0 0 0 830.20298304175958 23.85782479930328 0 23.85782479930328 -0.10791627429979225 0 0 0 0 154.18849156147917 -123.24472565318453 0 -123.24472565318453 87.965729352824951 0 0 0 0 55.607691484910902 -15.637700775544147 0 -15.637700775544147 68.922099570633122 0 0 0 0 39.790590994685772 63.346479247592676 0 63.346479247592676 0.080008615542066924 0 0 0 0 182.3858770754523 3.2581999479032024 0 3.2581999479032024 -51.927637866243174 0 0 0 0 76.945696603419492 112.97412974518537 0 112.97412974518537 -71.30242220773286 0 0 0 0 -230.863889076747 46.359509510247406 0 46.359509510247406 75.33914221253545 0 0 0 0 109.49769200236187 74.404719388367454 0 74.404719388367454 -153.71617662919374 0 0 0 0 -1.7511996371757164 -0.19916970773440923 0 -0.19916970773440923 0.4313526955091101 0 0 0 0 672.46338502329309 536.76651066143427 0 536.76651066143427 223.89281198801891 0 0 0 0 309.5152242318145 -90.00741713238267 0 -90.00741713238267 -20.174955034261217 0 0 0 0 889.71770536561962 -319.70604255061187 0 -319.70604255061187 -93.647876138357333 0 0 0 0 12.170068499162596 0.085321378158369043 0 0.085321378158369043 0.19915377344448013 0 0 0 0 704.45548863905424 341.73939348300939 0 341.73939348300939 -121.71012392043951 0 0 0 0 735.35199116781587 264.44860344464269 0 264.44860344464269 27.093071423222568 0 0 0 0 -40.996109219648133 -259.40719288462026 0 -259.40719288462026 -55.358881084405311 0 0 0 0 -107.93839807141921 198.05235677527867 0 198.05235677527867 155.50470553981665 0 0 0 0 159.26623235392981 48.375350994045732 0 48.375350994045732 97.308007509141589 0 0 0 0 217.32722584608564 -78.62576451455692 0 -78.62576451455692 62.833181538585904 0 0 0 0 38.02407650378882 -15.644101225393115 0 -15.644101225393115 68.076667405135936 0 0 0 0 45.300344592076726 16.274506283455139 0 16.274506283455139 98.498380110176186 0 0 0 0 382.00912636852445 105.16513351076543 0 105.16513351076543 84.187340964730993 0 0 0 0 391.8735294524522 -59.374889771704147 0 -59.374889771704147 85.636999263181679 0 0 0 0 208.20808724756353 -95.530820466485238 0 -95.530820466485238 158.94364351324111 0 0 0 0 97.841704526101239 19.046721298820557 0 19.046721298820557 147.41309047421493 0 0 0 0 1226.58429091172 255.32373885126981 0 255.32373885126981 -177.30232657444412 0 0 0 0 809.74146539226058 -100.37981404288507 0 -100.37981404288507 37.66846448022261 0 0 0 0 840.22653066500061 149.04792258115981 0 149.04792258115981 -90.406633027883345 0 0 0 0 886.61326670332346 295.04266182582001 0 295.04266182582001 -48.043665631210615 0 0 0 0 1185.6776249331306 358.22686759972765 0 358.22686759972765 -203.28895157488739 0 0 0 0 953.4535475691664 250.93098100984764 0 250.93098100984764 -259.1107499651464 0 0 0 0 765.93394667637767 73.296052213442408 0 73.296052213442408 -226.55665143739395 0 0 0 0 103.30922095896676 215.39295693699424 0 215.39295693699424 175.40552176247547 0 0 0 0 382.94441334035218 261.53418594468855 0 261.53418594468855 58.683740309857171 0 0 0 0 1360.8231257585285 493.76530729384342 0 493.76530729384342 -95.218840469602242 0 0 0 0 1507.0744681889337 189.681307802638 0 189.681307802638 -190.94632146649565 0 0 0 0 961.02169535477879 228.41257849095825 0 228.41257849095825 -193.04554008140417 0 0 0 0 32.263477165281074 -4.3638466202018833 0 -4.3638466202018833 -28.305272361312802 0 0 0 0 18.465561098710168 1.3779298887476727 0 1.3779298887476727 -13.880518801175796 0 0 0 0 52.262353816840914 -33.330053540002517 0 -33.330053540002517 4.7437502535728413 0 0 0 0 65.825111915819434 19.573959749817469 0 19.573959749817469 -17.701453263220415 0 0 0 0 47.567002946176217 -5.0563289344099083 0 -5.0563289344099083 -0.022836123313425116 0 0 0 0 0.80244800418711293 -0.24098973925819678 0 -0.24098973925819678 0.042340536876368844 0 0 0 0 9.7952970247133635 14.372404754821194 0 14.372404754821194 -8.3258557394349229 0 0 0 0 11.758400769671425 -31.942442338462754 0 -31.942442338462754 38.602632574221751 0 0 0 0 2.0845371084869839 -12.478042893563497 0 -12.478042893563497 24.591759775767258 0 0 0 0 11.951467574734124 -4.5333175743181524 0 -4.5333175743181524 0.45937482648705341 0 0 0 0 2.0154284660092117 0.66560786973597175 0 0.66560786973597175 -0.77834481809269906 0 0 0 0 11.04568888817505 -4.0092206633541743 0 -4.0092206633541743 0.44578545593845503 0 0 0 0 7.6276718714871095 -9.3702741165839569 0 -9.3702741165839569 -4.944893568140742 0 0 0 0 -28.365118580753915 33.284543117320275 0 33.284543117320275 -33.88820442697331 0 0 0 0 -11.487973019167839 3.9925655803524913 0 3.9925655803524913 -0.047287717679665518 0 0 0 0 -50.909654345043236 -0.18288708020823918 0 -0.18288708020823918 -42.703216738001082 0 0 0 0 65.517986601538723 1.6499659733705982 0 1.6499659733705982 -41.125195659259894 0 0 0 0 96.118723257881356 -164.4660959757698 0 -164.4660959757698 -306.92533247049408 0 0 0 0 29.613810029953584 -2.5609973045794341 0 -2.5609973045794341 -1.157621227182823 0 0 0 0 0.22485296761308859 4.9045014482816214 0 4.9045014482816214 -2.4300218547120167 0 0 0 0 10.013471455924446 -21.008678872046175 0 -21.008678872046175 -158.49128498197172 0 0 0 0 32.719151473866077 -109.3468471097691 0 -109.3468471097691 -91.855969500783999 0 0 0 0 -26.779528765764553 -47.141908292946709 0 -47.141908292946709 78.214562341580404 0 0 0 0 -28.849118851532694 -4.9331709585192129 0 -4.9331709585192129 58.206213481149007 0 0 0 0 41.099689962894445 -39.604826661364939 0 -39.604826661364939 55.474905577847494 0 0 0 0 -29.048665445865481 -19.315893254810589 0 -19.315893254810589 122.80728844535793 0 0 0 0 -29.844853087221054 -90.762142380753318 0 -90.762142380753318 4.9984232526808228 0 0 0 0 -26.051875321616535 -22.729391552363722 0 -22.729391552363722 -34.569893639774151 0 0 0 0 -44.383082709828159 -34.70710880345041 0 -34.70710880345041 39.767463731063799 0 0 0 0 17.218529048652385 -4.7815795951249527 0 -4.7815795951249527 -2.2424523113220385 0 0 0 0 -59.983143790335816 -98.399662504748591 0 -98.399662504748591 -31.698508796303486 0 0 0 0 -72.945648143519065 -38.246695000912382 0 -38.246695000912382 -53.904044900817098 0 0 0 0 13.865808996401029 -3.4797753970441363 0 -3.4797753970441363 -8.5861099945260548 0 0 0 0 11.146711394194426 -9.3159705472878329 0 -9.3159705472878329 0.68823870475580406 0 0 0 0 -39.380791591465822 -39.100528412186691 0 -39.100528412186691 3.3800900447922686 0 0 0 0 17.852433082953212 -9.5225288846730791 0 -9.5225288846730791 2.5494295033369383 0 0 0 0 14.522750165226171 -7.124216924320308 0 -7.124216924320308 2.0794981796398133 0 0 0 0 5.1799638010943454 -8.6817842312441371 0 -8.6817842312441371 3.1101351243690356 0 0 0 0 14.301650655742009 -9.196968124314651 0 -9.196968124314651 0.822652289033595 0 0 0 0 20.18874576757662 -7.6507332328159237 0 -7.6507332328159237 -2.4698082623237951 0 0 0 0 16.812706996526686 -9.8424868557868876 0 -9.8424868557868876 -3.8610677372082591 0 0 0 0 13.000813034914643 -3.7313884778360062 0 -3.7313884778360062 0.15056818783870696 0 0 0 0 49.010891121437453 -25.818696858225223 0 -25.818696858225223 -2.0101131115006865 0 0 0 0 4.4660121336994507 -4.0579880909412225 0 -4.0579880909412225 -1.3673314257878442 0 0 0 0 -19.740492412733147 -8.5500044542241085 0 -8.5500044542241085 10.253162593955039 0 0 0 0 -18.429970638695522 -15.065008504474918 0 -15.065008504474918 -0.50205195083975696 0 0 0 0 -29.282061921607237 -13.008564860266006 0 -13.008564860266006 18.988470127949768 0 0 0 0 -16.917160232733295 -8.7421883469373824 0 -8.7421883469373824 6.2154479837467989 0 0 0 0 -7.2420098582369974 5.0821120316700217 0 5.0821120316700217 19.579301335131959 0 0 0 0 -8.2019425363978371 5.6131156124451991 0 5.6131156124451991 21.227962440961164 0 0 0 0 7.4557785551587585 19.91878796477522 0 19.91878796477522 28.928383646587918 0 0 0 0 1.600404664844973 6.8308224003249052 0 6.8308224003249052 22.811654259647639 0 0 0 0 -21.917814542324777 7.7448536053881298 0 7.7448536053881298 31.139490897323412 0 0 0 0 -3.8366996546974406 11.764259331574522 0 11.764259331574522 28.503206772661997 0 0 0 0 18.469790098839439 43.513735655071287 0 43.513735655071287 68.957176359187997 0 0 0 0 -4.1025324299698696 11.878395479978963 0 11.878395479978963 29.325023822653748 0 0 0 0 11.555356758181006 34.464598404696517 0 34.464598404696517 64.561056238763285 0 0 0 0 34.438681641069707 46.764200220015937 0 46.764200220015937 4.6636228298020797 0 0 0 0 44.874990660020558 34.043014531631172 0 34.043014531631172 13.560387810727207 0 0 0 0 3.8393077691698636 1.0791012388062313 0 1.0791012388062313 -1.7306007423503686 0 0 0 0 12.760296581160219 24.722149454345981 0 24.722149454345981 34.567051986338811 0 0 0 0 42.584494838694809 20.271098066708873 0 20.271098066708873 22.670406761057166 0 0 0 0 17.235100595105905 12.452812283222102 0 12.452812283222102 28.047541512370117 0 0 0 0 390.65385691155916 -22.316401742205073 0 -22.316401742205073 176.8130368374932 0 0 0 0 9.5009900452907345 -7.1284167749979019 0 -7.1284167749979019 8.5503144366880797 0 0 0 0 527.28966988331376 923.93761644312292 0 923.93761644312292 -36.262989971301067 0 0 0 0 570.29759952268796 74.714982469723054 0 74.714982469723054 -18.215530368128384 0 0 0 0 456.69932599251479 183.16504643349663 0 183.16504643349663 -14.052996506758973 0 0 0 0 370.04645257670199 213.67916321085431 0 213.67916321085431 -5.4668861464667771 0 0 0 0 367.48121504837763 83.394260005844444 0 83.394260005844444 -0.44789437613417249 0 0 0 0 -3.8144642183906399 -3.2411173576952024 0 -3.2411173576952024 -28.474057001866093 0 0 0 0 43.01546093064826 27.496088103217176 0 27.496088103217176 -29.011738987657282 0 0 0 0 4.8375071314039815 0.43940251640339056 0 0.43940251640339056 -3.0357907384562921 0 0 0 0 -10.804019374583731 -1.3832199056281524 0 -1.3832199056281524 32.450645582619472 0 0 0 0 13.737791576510062 24.353826191530061 0 24.353826191530061 27.6754731638066 0 0 0 0 19.488806700668647 19.519569718683215 0 19.519569718683215 13.535997684666654 0 0 0 0 11.521738439158071 18.283370731461673 0 18.283370731461673 19.660608456537375 0 0 0 0 -7.3956419093592558 11.116886084250382 0 11.116886084250382 3.6946179968126671 0 0 0 0 -9.381393767776899 9.650939374842892 0 9.650939374842892 20.734195145421836 0 0 0 0 10.530772134428844 8.099238805988989 0 8.099238805988989 16.170860808908401 0 0 0 0 -46.013418138289126 -33.509051990723947 0 -33.509051990723947 -1.0485290398025882 0 0 0 0 0.37385998853085312 4.579259744728148 0 4.579259744728148 -5.2512186418675455 0 0 0 0 -6.0809143701189896 56.338894304985956 0 56.338894304985956 30.36761447054414 0 0 0 0 -10.319636539919884 12.736041607319294 0 12.736041607319294 17.62800221419036 0 0 0 0 -28.193358054049895 35.896373987733682 0 35.896373987733682 44.443458052061942 0 0 0 0 -26.835272958269343 35.739536206680668 0 35.739536206680668 43.821997241858298 0 0 0 0 169.13404615357285 43.985825416245461 0 43.985825416245461 38.287097312004107 0 0 0 0 72.715594124761992 3.2339344554043237 0 3.2339344554043237 -19.517348695534338 0 0 0 0 -33.017775206681108 28.751005958682526 0 28.751005958682526 51.276524355196671 0 0 0 0 -1.4001470137380352 0.64910365639117629 0 0.64910365639117629 2.3838925868680692 0 0 0 0 0.38383208743766062 2.4283645683638326 0 2.4283645683638326 -0.78688262608297244 0 0 0 0 118.21258086143644 79.65019145080305 0 79.65019145080305 -23.338668624462571 0 0 0 0 11.392396269548044 139.80953658668443 0 139.80953658668443 7.7081223902164311 0 0 0 0 -12.281642561101762 15.601466483479385 0 15.601466483479385 15.543395014177804 0 0 0 0 73.034054337931593 8.6542209665700511 0 8.6542209665700511 -86.186297643005673 0 0 0 0 -1.4234122182965052 0.50439712538886283 0 0.50439712538886283 6.8884695377951655 0 0 0 0 1185.1346717975393 -62.211338580824304 0 -62.211338580824304 -89.870682812207178 0 0 0 0 1302.744543688561 141.75324566420022 0 141.75324566420022 77.950664218958082 0 0 0 0 5.1569780056645982 1.3868963967558869 0 1.3868963967558869 4.051590504628507 0 0 0 0 1003.305495762208 -335.85684893002804 0 -335.85684893002804 153.53044034575964 0 0 0 0 -11.708571727935123 -87.199446223681406 0 -87.199446223681406 66.462082935494436 0 0 0 0 418.63015076259035 377.10828370567356 0 377.10828370567356 311.60672486146086 0 0 0 0 6.6130322390455234 -3.014774494204886 0 -3.014774494204886 -8.6247818853753326 0 0 0 0 1172.5478307608864 173.26636394955051 0 173.26636394955051 705.20118709263897 0 0 0 0 1395.4059484315949 209.12542817925305 0 209.12542817925305 -177.52375549041767 0 0 0 0 1197.9592547857828 61.121354504551505 0 61.121354504551505 654.98075072211532 0 0 0 0 8.0040807728555592 -1.7059580401353713 0 -1.7059580401353713 -0.17971341629025073 0 0 0 0 1471.2009349297441 201.33936736126407 0 201.33936736126407 -115.48104526144323 0 0 0 0 1060.4534490296064 -379.7855390837716 0 -379.7855390837716 39.636517873916091 0 0 0 0 217.46876561598037 -236.28993883900966 0 -236.28993883900966 200.46093988207986 0 0 0 0 23.406052152597113 -6.3107708897044859 0 -6.3107708897044859 179.78237999186695 0 0 0 0 -5.0724355544080026 116.46229573564506 0 116.46229573564506 79.37247864729261 0 0 0 0 355.79256250709295 -140.22392057434649 0 -140.22392057434649 155.89767471415962 0 0 0 0 -16.723707763216225 -68.006843632394975 0 -68.006843632394975 252.94747623304966 0 0 0 0 22.278537355043227 91.454303397195872 0 91.454303397195872 49.306177280710472 0 0 0 0 -0.15137575240805745 43.031901376569522 0 43.031901376569522 -37.203373646886575 0 0 0 0 1051.6675613238476 -334.44857030139246 0 -334.44857030139246 728.63473704866738 0 0 0 0 15.74251578059102 -6.5459125180409075 0 -6.5459125180409075 2.2909392296899149 0 0 0 0 24.625714157140465 516.20135654533851 0 516.20135654533851 279.15626175347552 0 0 0 0 280.97505270144029 753.11499668913802 0 753.11499668913802 403.52999062451181 0 0 0 0 1232.0935781904554 886.04418260997545 0 886.04418260997545 421.43345930674695 0 0 0 0 1555.9473137996538 196.90235295980938 0 196.90235295980938 150.15850944313661 0 0 0 0 1042.6563983347442 350.51059920159378 0 350.51059920159378 6.8034684101885432 0 0 0 0 899.55882404994918 262.4127779296914 0 262.4127779296914 170.64260547399476 0 0 0 0 211.96999573646463 101.4489649781799 0 101.4489649781799 -63.353933097440859 0 0 0 0 932.37041236854566 163.70181484190653 0 163.70181484190653 -230.11668375401314 0 0 0 0 967.98182272245322 89.587739578292258 0 89.587739578292258 -206.45942442440173 0 0 0 0 1.8816673424961436 2.915480509278126 0 2.915480509278126 5.6916549721815457 0 0 0 0 1392.842389518788 -88.893073001753919 0 -88.893073001753919 -77.8533211918284 0 0 0 0 -447.12731488926511 263.24006657824521 0 263.24006657824521 257.68467698577751 0 0 0 0 245.72221809328767 632.00843369421636 0 632.00843369421636 318.49550963144884 0 0 0 0 506.49086775921751 -19.222588245262955 0 -19.222588245262955 100.7745755539845 0 0 0 0 490.04659418400843 99.219015819534434 0 99.219015819534434 30.530988418502375 0 0 0 0 1139.0209360571753 551.17075677152025 0 551.17075677152025 -117.43322728883459 0 0 0 0 136.23484679842659 -308.74359064600731 0 -308.74359064600731 -410.18876303429533 0 0 0 0 1328.9910061355913 -51.062661262308211 0 -51.062661262308211 -706.46039500014194 0 0 0 0 732.88144269371389 27.919798975748638 0 27.919798975748638 -108.97796298752655 0 0 0 0 730.37043432416976 244.54173216149411 0 244.54173216149411 -301.82813292856054 0 0 0 0 780.32373183508753 89.710338614259854 0 89.710338614259854 -146.47138871947573 0 0 0 0 4.883226103717341 -8.6396544443053074 0 -8.6396544443053074 22.126193415241005 0 0 0 0 845.90038203146833 -5.5265020683102648 0 -5.5265020683102648 -128.23861866945299 0 0 0 0 308.04144209701917 -222.02382162046979 0 -222.02382162046979 157.38394154054254 0 0 0 0 607.34035935794236 4.6435519803030729 0 4.6435519803030729 -49.428134401039642 0 0 0 0 1.0250318024982263 -4.0585285317220894 0 -4.0585285317220894 13.558625618656691 0 0 0 0 637.76789750883472 133.92516850752781 0 133.92516850752781 -41.608516313142559 0 0 0 0 442.9452030530083 -39.822768969531353 0 -39.822768969531353 -13.860030541442029 0 0 0 0 -106.16410452782657 511.73954143509565 0 511.73954143509565 219.43002604991125 0 0 0 0 325.34312445322939 493.24112555977439 0 493.24112555977439 153.96295463058959 0 0 0 0 68.716449294575796 -347.8240409338099 0 -347.8240409338099 -251.77388296750905 0 0 0 0 0.79831648823211765 -1.7430412286983312 0 -1.7430412286983312 4.106512162039337 0 0 0 0 -85.496525668670074 -38.534351431482719 0 -38.534351431482719 -62.871524709424193 0 0 0 0 57.429478514580808 -15.265588858078488 0 -15.265588858078488 -10.418872228618845 0 0 0 0 -84.88376454290119 357.05985997495281 0 357.05985997495281 177.73346067872535 0 0 0 0 118.04748545131588 -316.71267466424069 0 -316.71267466424069 -92.398014564886807 0 0 0 0 665.70316900038597 442.51547168883246 0 442.51547168883246 226.03302782029232 0 0 0 0 24.250755483546669 13.983797769385092 0 13.983797769385092 13.751652347059977 0 0 0 0 211.79307854862418 -221.80001936441681 0 -221.80001936441681 182.41811560514225 0 0 0 0 38.455234170367476 -32.769193541432287 0 -32.769193541432287 57.89117836873811 0 0 0 0 25.129412544687455 -18.097254094431534 0 -18.097254094431534 14.621008404965993 0 0 0 0 17.514781598609034 -7.8828751416990031 0 -7.8828751416990031 -28.4377051245297 0 0 0 0 14.366347557018344 -51.724969189076376 0 -51.724969189076376 -35.798000732800119 0 0 0 0 65.58185736545056 -90.927743079993434 0 -90.927743079993434 -7.4959138804460963 0 0 0 0 78.169489154650364 -58.670744474728053 0 -58.670744474728053 -2.2679829615644849 0 0 0 0 696.56877287647512 240.50007151922455 0 240.50007151922455 127.68733641513245 0 0 0 0 677.64892966188199 287.35025257557936 0 287.35025257557936 51.779180575980718 0 0 0 0 752.34537212537543 333.09225806279892 0 333.09225806279892 147.46865068769387 0 0 0 0 948.79130677199282 504.07479572532702 0 504.07479572532702 25.470142769764834 0 0 0 0 937.52045611888752 523.60907410644575 0 523.60907410644575 -6.5901024235954537 0 0 0 0 3.5965585812484875 4.7777663835096291 0 4.7777663835096291 3.8887997310970039 0 0 0 0 -83.702513717231341 335.63960082241078 0 335.63960082241078 36.474165786148205 0 0 0 0 575.87599672502256 500.26432421065829 0 500.26432421065829 18.311037022183427 0 0 0 0 398.64067365538358 123.77643418790774 0 123.77643418790774 -13.877958124867291 0 0 0 0 481.52768416413164 8.3833288418168195 0 8.3833288418168195 -135.40136848875363 0 0 0 0 368.84974075466744 31.254202684236475 0 31.254202684236475 -140.04010664100952 0 0 0 0 1679.3593314050013 -344.96075808041451 0 -344.96075808041451 -201.94130760534608 0 0 0 0 5.3855923087780013 6.5589635334171419 0 6.5589635334171419 6.4537050626406405 0 0 0 0 1776.2259850378177 -656.87776819377359 0 -656.87776819377359 -387.06185134972338 0 0 0 0 754.78564260318672 732.139241401052 0 732.139241401052 891.62403645166705 0 0 0 0 566.69266663786402 50.114560886662048 0 50.114560886662048 -120.93811936353632 0 0 0 0 4.9632585401080007 8.2325736442949449 0 8.2325736442949449 9.3169805136463459 0 0 0 0 513.02419045670831 84.546367611562346 0 84.546367611562346 -104.83623518437344 0 0 0 0 462.98985386156528 100.52137588565614 0 100.52137588565614 -148.75725957356735 0 0 0 0 394.19116712392133 75.308420954635039 0 75.308420954635039 -91.821772256479562 0 0 0 0 394.50171318254161 91.991700794992511 0 91.991700794992511 -101.68449664225409 0 0 0 0 104.4040745048078 -11.92858245810578 0 -11.92858245810578 -44.416552462230356 0 0 0 0 7.641253080271099 -10.25094249042769 0 -10.25094249042769 11.380050694835742 0 0 0 0 125.53107099104091 124.24429183014672 0 124.24429183014672 6.0355575688763565 0 0 0 0 222.1055112345166 27.76689743529289 0 27.76689743529289 -102.40706785367638 0 0 0 0 230.21416984418465 -47.539545026287669 0 -47.539545026287669 -149.71586858218006 0 0 0 0 218.94548810689594 37.262625688892513 0 37.262625688892513 -108.59636893855168 0 0 0 0 117.42373810386925 37.901583415768982 0 37.901583415768982 -79.216618114589892 0 0 0 0 427.80101684838883 94.111421358606549 0 94.111421358606549 -176.55022620860018 0 0 0 0 426.31789388932521 28.146864958269362 0 28.146864958269362 -155.64297541812721 0 0 0 0 428.16165233741049 83.510142081462163 0 83.510142081462163 -156.97610489785166 0 0 0 0 -55.373812446603552 71.839773346805032 0 71.839773346805032 241.17355320164415 0 0 0 0 215.25709108932642 -192.04750139114913 0 -192.04750139114913 216.60240572126628 0 0 0 0 37.542338263105194 -28.787294790762076 0 -28.787294790762076 -56.626164680993497 0 0 0 0 166.52993791666813 86.154609283821969 0 86.154609283821969 43.85219423969852 0 0 0 0 -96.833175933541497 173.24786063648833 0 173.24786063648833 81.115126770505412 0 0 0 0 41.585099392774282 154.21258241098485 0 154.21258241098485 -55.653359626684505 0 0 0 0 -1.4601451442576945 8.5206211227755375 0 8.5206211227755375 -62.145824034964789 0 0 0 0 47.935443934227806 50.334637963992236 0 50.334637963992236 124.6916139701234 0 0 0 0 -173.29990900146367 -29.733345556584823 0 -29.733345556584823 73.798871926750735 0 0 0 0 33.066646293194935 103.39720910535667 0 103.39720910535667 33.374891512033173 0 0 0 0 -84.634558912483044 122.30181343926222 0 122.30181343926222 42.882866579297001 0 0 0 0 -81.299472635142592 77.557711337992856 0 77.557711337992856 76.343377284185408 0 0 0 0 87.538203671691008 90.073966754529465 0 90.073966754529465 32.340629607863519 0 0 0 0 -100.90684010909172 -2.9100367508367526 0 -2.9100367508367526 68.098884387563089 0 0 0 0 8.0374631018367211 -10.199057656240271 0 -10.199057656240271 10.428051586268806 0 0 0 0 -35.07125981739955 -243.88724052896345 0 -243.88724052896345 108.37233740863303 0 0 0 0 91.721354551467812 5.1986610286536461 0 5.1986610286536461 -43.478220724025277 0 0 0 0 601.5483525373711 -275.46412025519442 0 -275.46412025519442 111.31687163285005 0 0 0 0 354.68796271020256 -110.61774852463128 0 -110.61774852463128 96.215954114977194 0 0 0 0 129.87754031396616 109.71018532926638 0 109.71018532926638 146.18991309441708 0 0 0 0 825.40767700770812 53.034569075804256 0 53.034569075804256 -114.77049700857197 0 0 0 0 -42.294513235399791 -249.25183357172227 0 -249.25183357172227 -167.76701550858797 0 0 0 0 137.38840639503906 -18.095710806780971 0 -18.095710806780971 -267.61120594370914 0 0 0 0 233.85831579041405 -148.033598873546 0 -148.033598873546 -94.136477634418043 0 0 0 0 137.10145652119536 -290.67744874734831 0 -290.67744874734831 181.37424046457818 0 0 0 0 -291.27903361669451 -17.68202191752448 0 -17.68202191752448 48.958411422549943 0 0 0 0 280.26526919135358 13.449290732103236 0 13.449290732103236 5.2123271168889005 0 0 0 0 3.6922967364423585 -4.4757619356261529 0 -4.4757619356261529 4.8504481283179803 0 0 0 0 -365.14899474123285 -431.25348078391886 0 -431.25348078391886 243.12729374974242 0 0 0 0 969.70573976873129 94.726496250572154 0 94.726496250572154 -240.77518571354085 0 0 0 0 545.32977571003721 102.30890506672768 0 102.30890506672768 -176.83135279275814 0 0 0 0 441.80362356240948 71.901900651021833 0 71.901900651021833 -46.068594565075728 0 0 0 0 486.46979171309795 -7.8805191322139763 0 -7.8805191322139763 -177.06967824214962 0 0 0 0 299.05180501915675 20.842214484106137 0 20.842214484106137 -29.739730152789889 0 0 0 0 648.20301533100428 2.674019881693539 0 2.674019881693539 -69.590076337764344 0 0 0 0 649.12667569308542 221.82193330991663 0 221.82193330991663 126.14460230689133 0 0 0 0 604.97818524035392 51.839253505371232 0 51.839253505371232 -50.937835039268975 0 0 0 0 704.56171580821683 107.50195376529291 0 107.50195376529291 283.82601124413895 0 0 0 0 602.71887735146447 462.94249763380867 0 462.94249763380867 248.09558010101298 0 0 0 0 381.70906227641535 -88.041527483341497 0 -88.041527483341497 89.470831222079141 0 0 0 0 807.93398005333438 -42.438968183486622 0 -42.438968183486622 94.105392845748611 0 0 0 0 1339.457946493596 -315.38167110763459 0 -315.38167110763459 183.96886989691961 0 0 0 0 712.13891580830386 -520.88200670480944 0 -520.88200670480944 652.95018248444546 0 0 0 0 1240.9731324072691 463.48145764081414 0 463.48145764081414 -69.400967568477427 0 0 0 0 17.88468539149477 -4.6349659820251805 0 -4.6349659820251805 0.045133787255073776 0 0 0 0 1008.9291773655568 815.23982056968316 0 815.23982056968316 -517.78310540212192 0 0 0 0 69.813788167055463 -453.22381400577564 0 -453.22381400577564 208.2722135742406 0 0 0 0 448.96673688695591 -354.59235027028922 0 -354.59235027028922 114.62347639571499 0 0 0 0 167.26334246373153 -217.21278872624225 0 -217.21278872624225 265.85040699887929 0 0 0 0 -47.254000610340881 -229.89717108046625 0 -229.89717108046625 320.35785604328885 0 0 0 0 180.11046884560346 -282.11882223550424 0 -282.11882223550424 582.66892276107444 0 0 0 0 22.903806372865802 13.702056407026305 0 13.702056407026305 330.92228793290769 0 0 0 0 145.52753310350818 -222.19302995912847 0 -222.19302995912847 283.20647509263051 0 0 0 0 111.73000090449932 -120.41498550006611 0 -120.41498550006611 -12.021399902903113 0 0 0 0 98.810311108310998 19.197531865138032 0 19.197531865138032 43.718308268389592 0 0 0 0 53.037575804228254 174.71986341746515 0 174.71986341746515 54.548825506450953 0 0 0 0 96.167966716559022 188.58398619067668 0 188.58398619067668 -125.05635200031656 0 0 0 0 48.059986970300088 51.743097814995508 0 51.743097814995508 92.601327577905749 0 0 0 0 258.21311132227129 111.99613122717136 0 111.99613122717136 107.95946521508574 0 0 0 0 -33.328165112470742 -294.93223470178691 0 -294.93223470178691 -803.94830500512307 0 0 0 0 385.42696145949594 439.10569079175207 0 439.10569079175207 -486.29888977908672 0 0 0 0 98.566019339094055 79.007613743340698 0 79.007613743340698 -219.14888371000939 0 0 0 0 140.24929849676846 163.04215834773322 0 163.04215834773322 -208.47326893425588 0 0 0 0 1002.9767213844029 -1057.8112505323902 0 -1057.8112505323902 -194.97427653991372 0 0 0 0 1133.6769089931695 278.022027877092 0 278.022027877092 50.481160306078436 0 0 0 0 96.502432573168335 95.516404673995169 0 95.516404673995169 870.40966618286541 0 0 0 0 158.12952044812846 117.94004366483477 0 117.94004366483477 -664.53423605930629 0 0 0 0 -159.71514208496228 -234.86845622930036 0 -234.86845622930036 -142.27159327337358 0 0 0 0 96.301334766758373 -826.02151945997275 0 -826.02151945997275 -159.67140659878146 0 0 0 0 828.51589980485005 -1088.2739814933764 0 -1088.2739814933764 -84.431583474471154 0 0 0 0 376.37964675952389 -59.073340747193072 0 -59.073340747193072 -1003.7431563915105 0 0 0 0 162.93883182903664 282.54075438903794 0 282.54075438903794 -39.576141368784647 0 0 0 0 448.27429150718672 -458.90583316887569 0 -458.90583316887569 457.27943782496436 0 0 0 0 175.37118841766642 9.2948015659961811 0 9.2948015659961811 -130.52018243831048 0 0 0 0 190.91088141858199 112.96961847013131 0 112.96961847013131 58.365929731789038 0 0 0 0 170.1394001760782 230.64085029358739 0 230.64085029358739 -1.2091263512699015 0 0 0 0 206.76651429529738 256.11185831921193 0 256.11185831921193 -147.23153642665648 0 0 0 0 -41.813942959721317 334.12385400550875 0 334.12385400550875 -322.45291166795909 0 0 0 0 230.95661079639376 167.52270868807409 0 167.52270868807409 -223.20966188984539 0 0 0 0 -117.20879781235999 71.974901854234133 0 71.974901854234133 -140.23580629153724 0 0 0 0 136.75340113234415 -77.642594338042954 0 -77.642594338042954 -728.7888084814781 0 0 0 0 -107.93151895260962 30.163866920193868 0 30.163866920193868 -118.65452338871455 0 0 0 0 -543.50407473079395 -211.32801850789838 0 -211.32801850789838 -142.16481164958014 0 0 0 0 12.018583967551734 -5.1210755241005952 0 -5.1210755241005952 0.17986490294582641 0 0 0 0 286.20756869456818 254.62788033330412 0 254.62788033330412 -534.33851538694103 0 0 0 0 272.12302343730698 -79.318697829836765 0 -79.318697829836765 -176.45201429600911 0 0 0 0 21.491226491663838 -183.94432061567295 0 -183.94432061567295 -186.07764657311714 0 0 0 0 -2.2410469762685352 -0.028858231900429132 0 -0.028858231900429132 -2.247820970181559 0 0 0 0 -853.87567817559193 -1167.13950960272 0 -1167.13950960272 112.29855750777597 0 0 0 0 313.11683362380427 61.298614722989441 0 61.298614722989441 -73.204390109303858 0 0 0 0 27.446104572096374 -116.11096579366676 0 -116.11096579366676 -29.077122586535552 0 0 0 0 123.05710314568933 -79.236654679824767 0 -79.236654679824767 -26.843986693975239 0 0 0 0 126.72808365737728 -23.597878086695346 0 -23.597878086695346 19.856300664024275 0 0 0 0 -53.819184129572022 -125.72625937672416 0 -125.72625937672416 -9.9897203562513823 0 0 0 0 35.59595293282473 -62.824886043016704 0 -62.824886043016704 -148.92440143175713 0 0 0 0 6.6169592820827461 -7.0124749152080312 0 -7.0124749152080312 8.1339213195400895 0 0 0 0 -21.174897468644303 79.461402261232365 0 79.461402261232365 455.40615922969619 0 0 0 0 -38.930779532209272 -604.28360290772434 0 -604.28360290772434 384.34938801735478 0 0 0 0 1088.3072665782383 465.13626571887676 0 465.13626571887676 18.632317892266315 0 0 0 0 1099.6080106431473 12.245720136072805 0 12.245720136072805 441.57540429841856 0 0 0 0 611.95011724164942 382.30522387131305 0 382.30522387131305 881.03555652719479 0 0 0 0 261.60169780178023 1103.4313303796146 0 1103.4313303796146 401.0350309738501 0 0 0 0 30.332328853203848 -7.6862829665462664 0 -7.6862829665462664 -0.76990804752411612 0 0 0 0 508.63865882722894 -640.16420639574289 0 -640.16420639574289 -1130.6009172569675 0 0 0 0 222.08458691977569 -1105.7959638657287 0 -1105.7959638657287 -332.58037158292063 0 0 0 0 340.6875873743993 227.57027354994659 0 227.57027354994659 -100.51221956237782 0 0 0 0 266.70308317132003 181.34317526906403 0 181.34317526906403 -71.459678135450474 0 0 0 0 266.21987343351793 235.27122881568437 0 235.27122881568437 68.740762670472122 0 0 0 0 498.39930892121629 235.27009558114605 0 235.27009558114605 54.968350568637106 0 0 0 0 253.5054842734462 318.62373883579573 0 318.62373883579573 277.94851467016997 0 0 0 0 262.01446806339663 237.09585194613669 0 237.09585194613669 107.57461486100419 0 0 0 0 217.8635637640873 145.72781601031005 0 145.72781601031005 11.462532640136487 0 0 0 0 243.28078467218438 281.43815573643133 0 281.43815573643133 143.11063163169592 0 0 0 0 4.4643749372335151 -24.759293124856413 0 -24.759293124856413 -3.4362784433160414 0 0 0 0 67.12626280747736 -43.822286886032686 0 -43.822286886032686 -64.364690533858266 0 0 0 0 66.075625262994436 -36.995897052924647 0 -36.995897052924647 -32.140104743039956 0 0 0 0 75.019512118975399 -24.539585669878306 0 -24.539585669878306 -47.091225766154366 0 0 0 0 12.463202942598315 -16.247997992326134 0 -16.247997992326134 -21.579052816343939 0 0 0 0 400.48893240941834 155.16271569825244 0 155.16271569825244 -51.68726505996807 0 0 0 0 72.505155017679499 -28.716690452080684 0 -28.716690452080684 -53.842197095936172 0 0 0 0 410.23995479158839 61.055630093114928 0 61.055630093114928 -73.331156793663922 0 0 0 0 75.716822792732273 19.039325905627265 0 19.039325905627265 -37.934794088380841 0 0 0 0 14.885400849939145 -15.037131620277449 0 -15.037131620277449 -22.193921550760464 0 0 0 0 369.69431923059165 19.379919653754484 0 19.379919653754484 -58.700459637029212 0 0 0 0 302.9671353806043 2.9159092105121545 0 2.9159092105121545 -99.195692946716918 0 0 0 0 304.60484155778249 43.674203861459546 0 43.674203861459546 -53.949843685373935 0 0 0 0 337.79520129803859 129.72402885118248 0 129.72402885118248 1.9087639701738794 0 0 0 0 344.66146097390629 124.41660863117185 0 124.41660863117185 -242.03677809052863 0 0 0 0 295.75810696759982 32.398527239882021 0 32.398527239882021 -377.98802434323693 0 0 0 0 298.46083570981864 4.7283949685323705 0 4.7283949685323705 -94.730013514678262 0 0 0 0 26.992159638917656 -14.165652407373955 0 -14.165652407373955 -97.407370395372254 0 0 0 0 11.468476061849231 6.8940865122114303 0 6.8940865122114303 -7.82023562258947 0 0 0 0 5.7912309555837851 -6.724007257182393 0 -6.724007257182393 -6.9363966041912679 0 0 0 0 -52.79217602564313 -203.57839544376486 0 -203.57839544376486 -386.74212422343351 0 0 0 0 -317.35072504757409 152.36703520451829 0 152.36703520451829 -35.526253280313085 0 0 0 0 14.775671890791273 223.04572056218467 0 223.04572056218467 -230.51506756809522 0 0 0 0 -112.51603754445023 502.91672272329475 0 502.91672272329475 -237.59210596461617 0 0 0 0 -26.340570582178771 -515.45389966993298 0 -515.45389966993298 -344.02351468059038 0 0 0 0 -528.61547437398985 280.73762634593845 0 280.73762634593845 -199.62746565392035 0 0 0 0 152.45063752410351 58.243361573957259 0 58.243361573957259 -241.49164458014988 0 0 0 0 167.053168811879 101.88849043988299 0 101.88849043988299 -688.08163337121221 0 0 0 0 88.648284270806471 124.11442605440971 0 124.11442605440971 -193.35554880314203 0 0 0 0 171.09964180222596 78.189974809040223 0 78.189974809040223 -179.93744744776927 0 0 0 0 137.2025496395654 105.903938553231 0 105.903938553231 -268.32680221465216 0 0 0 0 55.848572498303838 233.35979626060725 0 233.35979626060725 -239.8967441404983 0 0 0 0 335.58823097239656 232.06043510392749 0 232.06043510392749 -241.94411199906284 0 0 0 0 212.51807150657987 20.312552055137758 0 20.312552055137758 -99.759887588375932 0 0 0 0 185.90246679828851 119.7967330208312 0 119.7967330208312 -262.78232041471074 0 0 0 0 180.36041053757071 223.63211492876235 0 223.63211492876235 -274.30861863894006 0 0 0 0 103.46038701120415 70.732845312351287 0 70.732845312351287 -13.378001255132261 0 0 0 0 -222.76228497813281 21.024174697263334 0 21.024174697263334 46.397365306220081 0 0 0 0 71.181633481319295 114.36267197755669 0 114.36267197755669 -71.682754198643551 0 0 0 0 69.066333644455881 103.98427234843665 0 103.98427234843665 -90.771592806474587 0 0 0 0 66.004956194959959 201.49289473686486 0 201.49289473686486 58.790626001925148 0 0 0 0 142.86680306661583 -35.679512922480399 0 -35.679512922480399 102.4515694656734 0 0 0 0 0.33905542193831195 -0.96695219416437794 0 -0.96695219416437794 4.5636046443541396 0 0 0 0 572.86069862574368 -108.75013818308933 0 -108.75013818308933 -217.03054111046663 0 0 0 0 -331.34212343745457 -158.23963052080512 0 -158.23963052080512 98.417723922420919 0 0 0 0 0.56179948664423307 -3.8702623054865057 0 -3.8702623054865057 12.207757316872373 0 0 0 0 -2.5793605403669062 -200.05640406416342 0 -200.05640406416342 50.469831918546333 0 0 0 0 167.3470717104683 353.48735777341329 0 353.48735777341329 412.59007249260867 0 0 0 0 274.31983832758124 201.73457782180935 0 201.73457782180935 -342.11655298187742 0 0 0 0 -8.8908132382057374 138.71810667715977 0 138.71810667715977 -52.164779873790621 0 0 0 0 74.162410170098156 -20.93872675021845 0 -20.93872675021845 -55.925920671261338 0 0 0 0 18.619654495283612 -181.25220099943147 0 -181.25220099943147 20.861808946073666 0 0 0 0 82.129651534880395 17.095779349759255 0 17.095779349759255 -15.489470900955666 0 0 0 0 81.425951235098182 -117.736684646193 0 -117.736684646193 66.229325760391816 0 0 0 0 158.28216577262356 -193.32655559885836 0 -193.32655559885836 104.31020980081348 0 0 0 0 163.84634027512948 -53.651624711417867 0 -53.651624711417867 41.213776043573944 0 0 0 0 371.82642560092791 47.126371323448893 0 47.126371323448893 87.251337765052085 0 0 0 0 359.78567116580962 133.07749493741119 0 133.07749493741119 -52.904028881156577 0 0 0 0 692.49827768875912 369.03736345046707 0 369.03736345046707 147.10326172469104 0 0 0 0 716.62100571182191 -126.61328304075614 0 -126.61328304075614 106.29844648238395 0 0 0 0 375.96885374336853 -54.954069175255199 0 -54.954069175255199 393.9441834013428 0 0 0 0 212.76263554868638 17.26131471526628 0 17.26131471526628 210.02858652252314 0 0 0 0 48.196521453326568 -94.363593521471444 0 -94.363593521471444 268.29147232518653 0 0 0 0 361.80684599651431 -98.730027329310815 0 -98.730027329310815 283.93133740510893 0 0 0 0 293.36734278938093 143.77114214574146 0 143.77114214574146 495.30020125178089 0 0 0 0 246.62463536838186 8.068247235698891 0 8.068247235698891 118.96800995387002 0 0 0 0 214.0327787589049 202.74553625708018 0 202.74553625708018 229.15644853945457 0 0 0 0 52.243101736006793 18.181917012369695 0 18.181917012369695 41.528211318237027 0 0 0 0 499.46529518210446 -2.3311007857585082 0 -2.3311007857585082 -109.02007419641859 0 0 0 0 1111.1511534840247 348.84693466375381 0 348.84693466375381 -451.79304571164789 0 0 0 0 847.78117623171238 -193.34127186166188 0 -193.34127186166188 -184.70014875567085 0 0 0 0 944.89596624681144 312.10086198024169 0 312.10086198024169 101.62706991548748 0 0 0 0 1079.6755470337012 -422.35853302679197 0 -422.35853302679197 -245.56409915051336 0 0 0 0 -63.938255110682803 -138.9165085581368 0 -138.9165085581368 -209.70913145538771 0 0 0 0 15.794694232097754 33.650247657825247 0 33.650247657825247 3.2705517318559032 0 0 0 0 2.2408089129566306 -5.0631063037683361 0 -5.0631063037683361 13.501262559111687 0 0 0 0 -228.08195214721491 -49.587200550262537 0 -49.587200550262537 134.87743783970814 0 0 0 0 11.94576433770635 120.26073866795025 0 120.26073866795025 -66.207749198694728 0 0 0 0 2.5338630890524598 -2.0326774688976599 0 -2.0326774688976599 2.7938253704363869 0 0 0 0 743.13599071845238 -41.369449751532329 0 -41.369449751532329 34.429737410582561 0 0 0 0 880.5600658536714 -305.74858111837966 0 -305.74858111837966 125.22352922034702 0 0 0 0 -88.489469614080008 -582.9111783414121 0 -582.9111783414121 37.831760052109985 0 0 0 0 1.956201398640097 -2.2646363507146248 0 -2.2646363507146248 6.6829913223128301 0 0 0 0 1079.7299061536323 -221.38180789039239 0 -221.38180789039239 -67.742525990743502 0 0 0 0 -67.618635897291824 204.24455230787009 0 204.24455230787009 -27.088606210319369 0 0 0 0 -140.74807708190247 129.82158660453018 0 129.82158660453018 -21.326737391131815 0 0 0 0 8.2887598271779552 1.3185553055384531 0 1.3185553055384531 0.85068510152667898 0 0 0 0 1065.1261286434019 -453.52925396478355 0 -453.52925396478355 -104.95793504897546 0 0 0 0 238.82865336470422 -486.28195344498351 0 -486.28195344498351 345.389454405376 0 0 0 0 -0.099264398562205258 -0.62457842539660646 0 -0.62457842539660646 2.655955772074976 0 0 0 0 8.4563649055708083 169.44547716367606 0 169.44547716367606 17.168522460636723 0 0 0 0 -551.40320058024372 -429.70176540601983 0 -429.70176540601983 663.24667100887973 0 0 0 0 73.853038693341659 -118.80422792599188 0 -118.80422792599188 547.89419566860181 0 0 0 0 699.50949933708762 -555.12991522627624 0 -555.12991522627624 307.61831798605112 0 0 0 0 348.05121243926988 -100.24084551549723 0 -100.24084551549723 -147.75736533467335 0 0 0 0 447.80320261913585 -251.17515023239343 0 -251.17515023239343 -172.95822885793586 0 0 0 0 628.92734888724226 -144.89238806279315 0 -144.89238806279315 -143.53639888876069 0 0 0 0 407.01337625415181 42.54006069854222 0 42.54006069854222 -116.45924252015993 0 0 0 0 359.99314266434521 -13.467142314802757 0 -13.467142314802757 -140.40828317777687 0 0 0 0 264.65643045018078 -54.444518401617358 0 -54.444518401617358 -125.98196971472362 0 0 0 0 -95.255059233415523 121.25879507265529 0 121.25879507265529 67.712335686927872 0 0 0 0 -19.943194617193512 179.47883274769035 0 179.47883274769035 -101.29028682266005 0 0 0 0 387.76937595859636 -260.98445863087295 0 -260.98445863087295 -65.331690387635092 0 0 0 0 8.1411958955412445 4.3243309763203115 0 4.3243309763203115 0.14937775357934246 0 0 0 0 377.72969356006797 -177.95540206331958 0 -177.95540206331958 8.5204080025352482 0 0 0 0 776.92593897109327 -298.22605859133245 0 -298.22605859133245 40.614575949179141 0 0 0 0 436.33023526048055 138.1193479376671 0 138.1193479376671 223.37604118452495 0 0 0 0 78.041582591315091 19.805394913992274 0 19.805394913992274 129.09508509876071 0 0 0 0 -28.035525662504369 -47.943747321939043 0 -47.943747321939043 269.53030625475543 0 0 0 0 109.6797236585553 -78.916272120552037 0 -78.916272120552037 93.657920308450969 0 0 0 0 -19.082205604092451 -79.52002082421302 0 -79.52002082421302 33.577822937227381 0 0 0 0 62.921744131450396 -116.3620863361753 0 -116.3620863361753 -101.45266717785262 0 0 0 0 28.588105332295527 47.499711000994523 0 47.499711000994523 -152.52600586546782 0 0 0 0 261.56822138147254 5.5717411382977389 0 5.5717411382977389 -30.257050708783026 0 0 0 0 360.25856125884457 -244.41634007711372 0 -244.41634007711372 -143.46727985284997 0 0 0 0 423.01483685235144 -190.03705612114686 0 -190.03705612114686 -164.49143648535664 0 0 0 0 -247.50016691986821 42.225334905076124 0 42.225334905076124 -465.16380507618828 0 0 0 0 3.3483964454495663 -1.2415427782403228 0 -1.2415427782403228 -0.8575134572304044 0 0 0 0 440.9433299772063 -311.55513154932873 0 -311.55513154932873 -90.255281314412969 0 0 0 0 33.887320115711191 -245.34161156144671 0 -245.34161156144671 -41.454013920096713 0 0 0 0 -72.307110661145998 123.70359265614252 0 123.70359265614252 -241.85157416706318 0 0 0 0 4.9340343481159721 -1.3971395438460128 0 -1.3971395438460128 -1.4624650163039692 0 0 0 0 81.735593040910317 -14.931715826203515 0 -14.931715826203515 -505.21111756796967 0 0 0 0 107.33947982765676 62.612569721509033 0 62.612569721509033 -549.2732724620854 0 0 0 0 -192.52192636707332 -75.691784764836996 0 -75.691784764836996 -478.49535892586692 0 0 0 0 120.17286352226802 97.495560768850851 0 97.495560768850851 147.63391728234637 0 0 0 0 39.393595788762468 94.08716720877743 0 94.08716720877743 275.7552091327907 0 0 0 0 -15.612109764275374 -129.96728883947162 0 -129.96728883947162 -208.52822234415254 0 0 0 0 18.168125244490625 -4.9379161373769112 0 -4.9379161373769112 -9.5281675742284353 0 0 0 0 21.880708137090551 161.43520205195091 0 161.43520205195091 306.53414909421326 0 0 0 0 7.7135952274837791 2.0050117223665556 0 2.0050117223665556 -1.0592290807874469 0 0 0 0 480.84242362406803 437.28493021571217 0 437.28493021571217 332.12780188391366 0 0 0 0 180.45633834984619 286.33673494313462 0 286.33673494313462 514.0360205014955 0 0 0 0 22.880559600351262 -29.859016952825755 0 -29.859016952825755 -4.3475652970009833 0 0 0 0 26.191754984101863 -45.388507017000876 0 -45.388507017000876 41.046979484657186 0 0 0 0 12.803417051469026 -15.092998276014697 0 -15.092998276014697 -18.217347441450769 0 0 0 0 127.0199177175673 120.18336320590242 0 120.18336320590242 158.33608338491058 0 0 0 0 8.383275142943603 -39.085771220398101 0 -39.085771220398101 2.1629249366293379 0 0 0 0 -3.8846616515365895 -35.393579689901571 0 -35.393579689901571 4.5348032504425646 0 0 0 0 296.34586538176518 82.17173205621279 0 82.17173205621279 -593.0754911107656 0 0 0 0 -12.253429274215534 -5.966427427477786 0 -5.966427427477786 -1.3908236998104107 0 0 0 0 -12.520507246459601 -90.573068356672707 0 -90.573068356672707 -359.99628501295513 0 0 0 0 -498.7689899973484 -85.136122675453237 0 -85.136122675453237 -208.98135401108848 0 0 0 0 1.6601238490197829 -0.42691421329030987 0 -0.42691421329030987 -0.83971135462283408 0 0 0 0 182.17127211419574 41.00906700958204 0 41.00906700958204 -645.77958345987906 0 0 0 0 8.887926964838698 -74.093497549876048 0 -74.093497549876048 -91.849852856557504 0 0 0 0 65.293998605804518 -164.97716105974257 0 -164.97716105974257 -342.00488208382518 0 0 0 0 155.03353061147209 47.168530319758787 0 47.168530319758787 -210.97276045692934 0 0 0 0 -124.71492741632392 -24.571673666119523 0 -24.571673666119523 -134.87372472658524 0 0 0 0 -35.433412622165633 137.07932782400655 0 137.07932782400655 -373.89886076430469 0 0 0 0 5.3270959620422218 16.244434335845312 0 16.244434335845312 -122.11907558252599 0 0 0 0 -43.239608128526015 -16.14995450155881 0 -16.14995450155881 286.54110082521527 0 0 0 0 -55.552590644379961 -51.750730547974399 0 -51.750730547974399 137.77326323060743 0 0 0 0 16.642583587468835 -43.31098240339611 0 -43.31098240339611 137.92881232874367 0 0 0 0 31.810632432578132 41.247944027492963 0 41.247944027492963 -17.496150788717955 0 0 0 0 100.03460006212481 14.515427851961348 0 14.515427851961348 186.80924378282043 0 0 0 0 121.90286016534083 -86.15655955190914 0 -86.15655955190914 93.943654771036677 0 0 0 0 -19.944915513318847 -20.195437459422749 0 -20.195437459422749 256.66957236920121 0 0 0 0 131.80206217482919 -90.800851431042986 0 -90.800851431042986 380.30458812156621 0 0 0 0 111.96852063880215 -40.269743899602844 0 -40.269743899602844 258.50705344423341 0 0 0 0 249.00119463034207 40.861471542798597 0 40.861471542798597 355.32388385424531 0 0 0 0 16.130664044889272 17.869484682408981 0 17.869484682408981 317.47109635735762 0 0 0 0 69.716048623697134 -65.933658316743447 0 -65.933658316743447 376.72949580532185 0 0 0 0 26.261525576817803 -33.154685266507684 0 -33.154685266507684 181.39306571786494 0 0 0 0 210.12093894489226 69.082772183417575 0 69.082772183417575 237.86797331944706 0 0 0 0 -26.377941982849734 88.80505013133228 0 88.80505013133228 207.2062128374809 0 0 0 0 -27.679244421742624 -37.903293843819256 0 -37.903293843819256 247.39552620772596 0 0 0 0 -66.398485870195145 5.4372064285294925 0 5.4372064285294925 286.83396770695987 0 0 0 0 -23.385936396603938 -34.95104509001456 0 -34.95104509001456 306.4704179606058 0 0 0 0 -38.099482561272453 -53.402411188745873 0 -53.402411188745873 366.0166642103303 0 0 0 0 -40.191365536891681 -41.894504441102939 0 -41.894504441102939 307.53671413741279 0 0 0 0 113.77306979130663 13.314198120575124 0 13.314198120575124 287.26064528653234 0 0 0 0 -34.715655176725704 7.8038086474340957 0 7.8038086474340957 328.71531582274173 0 0 0 0 81.615377604313835 38.488697032739523 0 38.488697032739523 414.99184694157083 0 0 0 0 549.39760351731093 -89.954899877148108 0 -89.954899877148108 286.28549223326957 0 0 0 0 73.690810269064968 54.577515736300356 0 54.577515736300356 251.21560558557158 0 0 0 0 587.61420121349511 168.77134115690663 0 168.77134115690663 56.600870608055374 0 0 0 0 -32.869467600074131 112.29473490796083 0 112.29473490796083 91.093172363024578 0 0 0 0 132.96494297699246 5.9343435133017337 0 5.9343435133017337 114.40580829128422 0 0 0 0 -13.356702027434949 -45.179476016223319 0 -45.179476016223319 294.50202833483905 0 0 0 0 -88.340674592793221 -6.3276762063241847 0 -6.3276762063241847 171.38887225574749 0 0 0 0 -9.2736735134822084 1.9495925686721556 0 1.9495925686721556 172.25535480181628 0 0 0 0 5.7028383009164827 -93.320899748641267 0 -93.320899748641267 34.730177359848199 0 0 0 0 -0.93289345392429368 -0.18272219311320725 0 -0.18272219311320725 0.098259372068136397 0 0 0 0 41.342544945378904 31.15082860770724 0 31.15082860770724 -35.616764723437143 0 0 0 0 95.439360874690465 157.11184525664655 0 157.11184525664655 99.78540993455627 0 0 0 0 662.77311415916483 -54.663718373662121 0 -54.663718373662121 -20.150185320572689 0 0 0 0 1.0647139215336097 0.98272543617117947 0 0.98272543617117947 0.98135514931178047 0 0 0 0 143.47809047338524 67.150332650264943 0 67.150332650264943 36.965946008038799 0 0 0 0 3.2580606917967998 -1.5240255551329795 0 -1.5240255551329795 0.36703291433722807 0 0 0 0 398.25370633983403 -167.13587198582985 0 -167.13587198582985 12.411444332936476 0 0 0 0 4.8017052084384773 0.53156625735707053 0 0.53156625735707053 0.9951082003250814 0 0 0 0 22.762019979403703 -28.730429358785976 0 -28.730429358785976 -2.9442901360189353 0 0 0 0 20.608983573314617 -30.100448582759746 0 -30.100448582759746 4.3111549973425873 0 0 0 0 16.655869789726864 -2.1322531574502008 0 -2.1322531574502008 -1.6681142015997996 0 0 0 0 -32.871013392490568 -81.910788580147226 0 -81.910788580147226 -15.035197695127742 0 0 0 0 4.986845484650587 -0.50367241503420246 0 -0.50367241503420246 -0.58981175805062924 0 0 0 0 11.78114694878866 -2.1301602914253479 0 -2.1301602914253479 -0.46368537171302915 0 0 0 0 -4.2254529220517725 51.000388886137856 0 51.000388886137856 40.186405241618019 0 0 0 0 40.290149768918127 168.75473818025046 0 168.75473818025046 11.376109367597124 0 0 0 0 60.364901375141926 -10.246871810453097 0 -10.246871810453097 -219.69557112817819 0 0 0 0 7.4878099343550275 -5.7406105324958885 0 -5.7406105324958885 -23.71512907945824 0 0 0 0 1.9651409367829729 -3.0741370438143178 0 -3.0741370438143178 -2.0165833639999775 0 0 0 0 -8.7122633487160783 108.73759013743896 0 108.73759013743896 -51.383465275932984 0 0 0 0 -42.81070652782364 -42.421866156209717 0 -42.421866156209717 -6.6192165202078286 0 0 0 0 42.60286226021708 -3.3826260685971192 0 -3.3826260685971192 -1.9418255955539507 0 0 0 0 12.339963185331726 -65.313723864472934 0 -65.313723864472934 -111.8858876541799 0 0 0 0 105.03323295029259 18.699761042034567 0 18.699761042034567 -182.4928200121999 0 0 0 0 486.57702816433448 -159.79409523011233 0 -159.79409523011233 33.117263368273257 0 0 0 0 629.74582004798867 -230.30537825754999 0 -230.30537825754999 44.384409166765749 0 0 0 0 3.4074986571613195 -3.5513055698171172 0 -3.5513055698171172 6.6002283397382167 0 0 0 0 213.98317906628654 -247.47623409854367 0 -247.47623409854367 305.31506334784996 0 0 0 0 712.4061061235534 77.678610219776317 0 77.678610219776317 -2.0075316746410294 0 0 0 0 2.5865899688967602 -0.30661969550190804 0 -0.30661969550190804 2.7532387787583419 0 0 0 0 700.88211732274794 -154.27150684032256 0 -154.27150684032256 144.98279357568674 0 0 0 0 460.83734569344961 -128.04040750055432 0 -128.04040750055432 354.2629991476183 0 0 0 0 -29.166964609707065 -125.28054713497811 0 -125.28054713497811 215.20254762599251 0 0 0 0 341.59019181768963 61.455179253790277 0 61.455179253790277 280.15277105249419 0 0 0 0 85.485868083225796 393.64540416909006 0 393.64540416909006 56.134340625194 0 0 0 0 3.7322911126584017 1.812166902331299 0 1.812166902331299 0.51861817738232685 0 0 0 0 607.33532296401609 180.44008301826662 0 180.44008301826662 137.67810277618213 0 0 0 0 390.65319007587095 4.7751775754707637 0 4.7751775754707637 223.2905883623925 0 0 0 0 626.40078740747413 109.62898406866671 0 109.62898406866671 105.18470221651609 0 0 0 0 577.03248992828594 49.782733576042631 0 49.782733576042631 212.14597942668888 0 0 0 0 569.97295216108614 -24.850375437180986 0 -24.850375437180986 32.925390139779836 0 0 0 0 540.82439523346693 -5.9778842871803732 0 -5.9778842871803732 121.75304740804535 0 0 0 0 559.91527733246039 14.04574579549281 0 14.04574579549281 34.002096106392216 0 0 0 0 559.38151273406038 2.1313927083418349 0 2.1313927083418349 -43.276694745523685 0 0 0 0 654.46783607226098 58.574355049384621 0 58.574355049384621 -24.40174698969264 0 0 0 0 552.16328474886541 3.7292448759228272 0 3.7292448759228272 44.60634957918262 0 0 0 0 343.10356150646112 99.862529079284258 0 99.862529079284258 69.841049500219569 0 0 0 0 49.353811646224131 -9.7139878467916105 0 -9.7139878467916105 0.098338906179606056 0 0 0 0 4.9039627325025634 4.7394453749109005 0 4.7394453749109005 4.2825036103868515 0 0 0 0 510.16851349840726 -35.709300488086541 0 -35.709300488086541 7.6403749693891143 0 0 0 0 31.632850652182242 -22.937853170639585 0 -22.937853170639585 4.3680713389625225 0 0 0 0 34.441216192528373 -6.6925304557328218 0 -6.6925304557328218 15.372145488921888 0 0 0 0 18.794486504954534 -16.084682573279466 0 -16.084682573279466 7.3322682321213852 0 0 0 0 9.5870441859296989 -33.948757926567396 0 -33.948757926567396 13.844515440462828 0 0 0 0 9.9424647856649244 -12.96269021946523 0 -12.96269021946523 9.7435889965427123 0 0 0 0 19.560819442280263 -12.049227369622898 0 -12.049227369622898 6.8608264181973375 0 0 0 0 23.631030364544131 -10.367445960763945 0 -10.367445960763945 16.956026186774807 0 0 0 0 78.274657379413838 1.8827037716035022 0 1.8827037716035022 11.394629378725426 0 0 0 0 -1.6832700668175988 -6.889634588183867 0 -6.889634588183867 3.2189738617880304 0 0 0 0 31.655293553281808 -14.775076495213511 0 -14.775076495213511 -3.6350037680194305 0 0 0 0 -0.37683219211464802 -1.6925461483493365 0 -1.6925461483493365 0.57173105578003414 0 0 0 0 38.771581875043921 -28.445695152862697 0 -28.445695152862697 -0.89708362274008735 0 0 0 0 72.981368905748241 -2.8965827970893656 0 -2.8965827970893656 -2.1395677979384935 0 0 0 0 24.825868320829613 -16.538558450705963 0 -16.538558450705963 15.941122601984034 0 0 0 0 49.938215321935786 -21.165657741641322 0 -21.165657741641322 14.725848884688617 0 0 0 0 48.59396007876785 -13.81872455995989 0 -13.81872455995989 -6.3844816929370154 0 0 0 0 1.3213149451369901 5.1797062580595536 0 5.1797062580595536 3.5594058670767197 0 0 0 0 483.59158155270416 -4.5894297451394692 0 -4.5894297451394692 35.533757082695956 0 0 0 0 83.806990242184838 -12.921605909571554 0 -12.921605909571554 -1.5575648774407682 0 0 0 0 1.762332662524841 3.7037520732441465 0 3.7037520732441465 1.9042763282256523 0 0 0 0 851.81135267060017 135.68395779280235 0 135.68395779280235 0.12682725859436061 0 0 0 0 124.4070853979938 -19.406420357537272 0 -19.406420357537272 -13.365740565137486 0 0 0 0 829.39270427817246 195.25172227954056 0 195.25172227954056 152.06368795470803 0 0 0 0 911.45389142610657 106.51536899465258 0 106.51536899465258 -53.25971514677299 0 0 0 0 544.7350294435164 131.67122000577655 0 131.67122000577655 -61.377007619966975 0 0 0 0 895.90820312375581 113.85290365027345 0 113.85290365027345 -77.961016016903386 0 0 0 0 636.43852538656211 -80.661692971060518 0 -80.661692971060518 63.247657805409233 0 0 0 0 467.73506038867345 156.39592621646122 0 156.39592621646122 172.43476711166971 0 0 0 0 398.34435946140002 -132.778469514059 0 -132.778469514059 100.28186952603841 0 0 0 0 513.3445332932024 303.1110590069643 0 303.1110590069643 -161.5848902352069 0 0 0 0 4.2168001283180274 -0.18500357337910067 0 -0.18500357337910067 -0.16851009699305991 0 0 0 0 92.629622169188224 -117.88859117276664 0 -117.88859117276664 125.64254503948361 0 0 0 0 326.48701484575577 64.84110821369876 0 64.84110821369876 54.690442799179252 0 0 0 0 392.41845396630379 153.82230148549399 0 153.82230148549399 69.903705828624567 0 0 0 0 -295.79432940230549 74.629334395186135 0 74.629334395186135 90.256409229682703 0 0 0 0 -48.934165172398934 -136.03598967745754 0 -136.03598967745754 16.724621190951552 0 0 0 0 -7.87024463437956 165.89134429379862 0 165.89134429379862 100.50722248783723 0 0 0 0 56.839618217683892 -73.110660458298753 0 -73.110660458298753 6.6060204212273135 0 0 0 0 -300.12727911424645 -253.81527703544435 0 -253.81527703544435 -51.510287068016012 0 0 0 0 -97.347580312285572 -130.72599952426691 0 -130.72599952426691 17.099182742433065 0 0 0 0 1316.8600168310804 47.794365342893904 0 47.794365342893904 -0.31825454391144553 0 0 0 0 3.2956055589585276 0.32216801054225108 0 0.32216801054225108 -0.027303389793583828 0 0 0 0 860.58136321709753 348.57558330016747 0 348.57558330016747 -86.710300364444549 0 0 0 0 441.14011448649399 286.27008375599831 0 286.27008375599831 -13.343230931412593 0 0 0 0 1447.6188642526831 62.515506277005265 0 62.515506277005265 -148.91366839665031 0 0 0 0 869.54395755620499 189.54530633921695 0 189.54530633921695 -90.075790879989071 0 0 0 0 738.98465756740188 57.529768117512759 0 57.529768117512759 -62.458831406596026 0 0 0 0 79.179949781770119 -32.881662576006335 0 -32.881662576006335 11.041579969965312 0 0 0 0 93.080331227363786 9.2596860142337079 0 9.2596860142337079 29.251679011632547 0 0 0 0 1.7833154274878922 1.4341344238767419 0 1.4341344238767419 0.37128632798315869 0 0 0 0 94.914548631713842 -43.884917289798366 0 -43.884917289798366 0.029027708861539023 0 0 0 0 1364.4397552117298 -115.00602461867426 0 -115.00602461867426 167.15906176908567 0 0 0 0 152.70911588727176 -24.287605148817129 0 -24.287605148817129 -28.855776286374763 0 0 0 0 19.478148296198924 -6.2310618716638899 0 -6.2310618716638899 15.449645892172342 0 0 0 0 -39.716003683846793 -3.3912780542416421 0 -3.3912780542416421 43.398012506868312 0 0 0 0 0.0019309965734919388 0.04921224537758917 0 0.04921224537758917 -0.2718792744901869 0 0 0 0 2.693891487435593 -1.1514795492035432 0 -1.1514795492035432 -0.8426551880056169 0 0 0 0 -14.263025390449911 15.496359736040464 0 15.496359736040464 -8.1486407469646451 0 0 0 0 24.641545370657695 -6.8950961008294058 0 -6.8950961008294058 2.2671318031632257 0 0 0 0 23.628468432842055 -11.71892287236717 0 -11.71892287236717 24.396529836080333 0 0 0 0 78.147022181481589 -21.682105453191042 0 -21.682105453191042 -15.180078984907539 0 0 0 0 162.6555110689078 74.072328530375273 0 74.072328530375273 -177.91647595154993 0 0 0 0 -44.282854906210559 -169.90830030597192 0 -169.90830030597192 243.11664219709576 0 0 0 0 501.72434832897852 111.65223611650049 0 111.65223611650049 42.782267756487784 0 0 0 0 3.030134881254412 -0.83937624792288901 0 -0.83937624792288901 -0.16309059831560346 0 0 0 0 -0.94581155786119098 -0.91106766869447142 0 -0.91106766869447142 -0.92617320445840035 0 0 0 0 -150.91575619028299 -60.746739492462751 0 -60.746739492462751 85.02232802283234 0 0 0 0 61.052134641773591 13.249148486737827 0 13.249148486737827 -64.798265197163829 0 0 0 0 -0.88544127032719189 -3.9422280315582015 0 -3.9422280315582015 -2.524388006200994 0 0 0 0 4.7668964352196781 -109.010598334652 0 -109.010598334652 111.95706108587274 0 0 0 0 46.926234309998108 -125.57056886126247 0 -125.57056886126247 105.70152410027094 0 0 0 0 67.949926611909177 -88.515380637598852 0 -88.515380637598852 84.825626791151876 0 0 0 0 -39.51610566610907 -50.292004521044134 0 -50.292004521044134 403.02033529845227 0 0 0 0 13.13689505072216 -65.148052269205351 0 -65.148052269205351 81.508234033863118 0 0 0 0 229.38827256782679 336.82550355830051 0 336.82550355830051 40.856736952074442 0 0 0 0 0.82588881693664007 -289.01115480790571 0 -289.01115480790571 150.07335410914797 0 0 0 0 -69.019912082556402 -33.619073742208244 0 -33.619073742208244 173.27346355801654 0 0 0 0 -75.985909664712381 -1.5211140512034831 0 -1.5211140512034831 63.080927994492754 0 0 0 0 134.05029874126922 -127.803318846682 0 -127.803318846682 -205.01977144208666 0 0 0 0 -44.216459558956558 -43.908540793860141 0 -43.908540793860141 -66.36215881628317 0 0 0 0 7.2504606243539911 -1.0355660167168814 0 -1.0355660167168814 -0.46613941888441501 0 0 0 0 -39.882940856099594 -76.46173238148485 0 -76.46173238148485 3.9159731418230734 0 0 0 0 -47.848065786842199 -89.555659399679854 0 -89.555659399679854 2.6505763943748093 0 0 0 0 -85.031061374301316 -91.887594964114882 0 -91.887594964114882 25.398090678518628 0 0 0 0 -85.022389800282326 -91.327288875039429 0 -91.327288875039429 32.430400739467785 0 0 0 0 -30.220067043643212 -73.618496712949806 0 -73.618496712949806 19.098377377616405 0 0 0 0 -30.413311622196716 -58.400548641621349 0 -58.400548641621349 33.687916518171107 0 0 0 0 -23.240533025411423 -101.61494340577005 0 -101.61494340577005 41.415099028587377 0 0 0 0 -97.050464062427636 -102.77364857381019 0 -102.77364857381019 67.291204226559358 0 0 0 0 -87.934870357392356 -117.182152154937 0 -117.182152154937 17.408940222986416 0 0 0 0 -86.696579326904612 -103.72082132916675 0 -103.72082132916675 30.201400448155226 0 0 0 0 -83.653535229444969 -113.09402609199503 0 -113.09402609199503 37.398384812330278 0 0 0 0 -112.77479200536618 -157.54436996395015 0 -157.54436996395015 85.246435140621088 0 0 0 0 -73.100366085884161 -47.367005861768597 0 -47.367005861768597 130.93322448168598 0 0 0 0 -73.345773096487392 -225.83441035183696 0 -225.83441035183696 -202.48820001474016 0 0 0 0 5.1402361226476501 -0.43251036105990792 0 -0.43251036105990792 -0.22630093727020037 0 0 0 0 -28.104425565266865 66.429627508199061 0 66.429627508199061 0.14129301646711534 0 0 0 0 4.616535865701735 -98.116592150896622 0 -98.116592150896622 -228.02345727322432 0 0 0 0 -11.742800998385064 6.8760090570060983 0 6.8760090570060983 -20.667084819224918 0 0 0 0 -30.397750437259674 -152.30087847042361 0 -152.30087847042361 -171.50270001102569 0 0 0 0 -178.7289189217845 -229.24046963650105 0 -229.24046963650105 -53.653858387535067 0 0 0 0 -78.011076766357291 -125.50732910103488 0 -125.50732910103488 -8.9593610653520415 0 0 0 0 -39.252767404454062 -103.25745528199079 0 -103.25745528199079 -101.37123081995151 0 0 0 0 -95.198809629568132 -170.95837010086993 0 -170.95837010086993 -39.646594157651982 0 0 0 0 -39.527110899951367 -101.50386943584141 0 -101.50386943584141 -67.09746890487645 0 0 0 0 -3.7952643909666222 2.1313726955588095 0 2.1313726955588095 59.479673972087056 0 0 0 0 -65.628648449957836 -91.121076808414685 0 -91.121076808414685 15.461111747742308 0 0 0 0 -64.868771340698004 -2.5043185409471107 0 -2.5043185409471107 11.437045702743312 0 0 0 0 -68.736907279526349 -74.287807935212726 0 -74.287807935212726 -44.588570054988281 0 0 0 0 -31.23682385601569 -56.337093967721785 0 -56.337093967721785 -157.9140026326852 0 0 0 0 -32.509908446809277 -40.427807193601552 0 -40.427807193601552 -70.379219533117976 0 0 0 0 -2.9369849034701474 10.675300719553547 0 10.675300719553547 -175.58647560956197 0 0 0 0 -13.591351517883595 38.822259889750967 0 38.822259889750967 -134.72203151073637 0 0 0 0 -50.559920694038738 18.882053990791746 0 18.882053990791746 174.48980290147853 0 0 0 0 -41.247278953556815 32.23585361868161 0 32.23585361868161 140.86630787195634 0 0 0 0 -42.093376323406119 45.691116688935267 0 45.691116688935267 -73.023420734039291 0 0 0 0 280.363823186839 -61.427666997048455 0 -61.427666997048455 -19.48290771621026 0 0 0 0 99.381454309215769 -105.8123350871542 0 -105.8123350871542 227.06707101546732 0 0 0 0 -11.816350918787066 -41.983941988976397 0 -41.983941988976397 219.18115901472854 0 0 0 0 1.8239110479338478 -0.54069764512962415 0 -0.54069764512962415 0.080541741070030065 0 0 0 0 -10.009821191852097 -0.53146145356180829 0 -0.53146145356180829 -0.19310365323905571 0 0 0 0 115.04990623192862 -108.70637742352035 0 -108.70637742352035 163.84056648532805 0 0 0 0 164.45275684143417 -105.32637962227784 0 -105.32637962227784 144.86386458846232 0 0 0 0 147.53396842753864 -86.816297931591635 0 -86.816297931591635 129.31207753219846 0 0 0 0 111.04973062817589 -70.229808426818224 0 -70.229808426818224 90.368551188387499 0 0 0 0 185.82817287289072 -113.8275002920351 0 -113.8275002920351 115.66962709364239 0 0 0 0 20.365524198597996 -96.88671465778846 0 -96.88671465778846 55.18371007210127 0 0 0 0 113.25369310917449 -101.360961423571 0 -101.360961423571 92.816294924527512 0 0 0 0 16.748435078945477 -64.132468263092875 0 -64.132468263092875 158.50713610315304 0 0 0 0 26.440613000304438 -40.517319453538136 0 -40.517319453538136 123.11056356415772 0 0 0 0 76.679305808531353 -77.343436726144319 0 -77.343436726144319 17.294559337560116 0 0 0 0 36.947023615946819 -33.523746113107698 0 -33.523746113107698 33.261580430358947 0 0 0 0 81.116414393396553 -12.481948583942073 0 -12.481948583942073 -6.5816589911109418 0 0 0 0 200.56342128565302 -36.393346420505566 0 -36.393346420505566 -1.9457897791569678 0 0 0 0 -86.568960471297032 -14.26471909941575 0 -14.26471909941575 -6.210635538344718 0 0 0 0 26.182036713471462 -37.020984137673352 0 -37.020984137673352 -2.3397368258819711 0 0 0 0 353.84905641910154 -6.2694226887694811 0 -6.2694226887694811 -147.2832424209634 0 0 0 0 449.69600827124668 -63.920116803812491 0 -63.920116803812491 -144.76925115423964 0 0 0 0 357.46518751033 -55.788386865376836 0 -55.788386865376836 -145.31057450170516 0 0 0 0 369.02655924056307 -36.65234247129932 0 -36.65234247129932 -116.32916483657823 0 0 0 0 291.19323990936391 20.069926173795693 0 20.069926173795693 -142.8514986552604 0 0 0 0 200.23446485830937 44.662094772727798 0 44.662094772727798 -101.6626993837845 0 0 0 0 298.3782913548348 -30.705874162217299 0 -30.705874162217299 -58.097466510658535 0 0 0 0 304.54076797812013 -27.04267513469452 0 -27.04267513469452 -58.514066977178018 0 0 0 0 348.79230048687896 -15.718787802330233 0 -15.718787802330233 -66.756866528943064 0 0 0 0 333.72303259623004 -16.512415376567439 0 -16.512415376567439 -112.12046386838699 0 0 0 0 332.29804420878645 -37.624366676979371 0 -37.624366676979371 -75.153481739246573 0 0 0 0 372.41391790757189 -9.984001176635946 0 -9.984001176635946 -23.408260626405017 0 0 0 0 323.33884903660419 -26.982322403251686 0 -26.982322403251686 -26.804687960460839 0 0 0 0 355.30221175131737 -19.818092999328382 0 -19.818092999328382 -5.524786560546354 0 0 0 0 228.86577102975571 -82.682468542949024 0 -82.682468542949024 43.900257176402313 0 0 0 0 310.9653859800892 -43.14472954882693 0 -43.14472954882693 -20.272187230387615 0 0 0 0 395.93583451694576 -69.272757841883944 0 -69.272757841883944 -12.243038889851684 0 0 0 0 297.23112984934414 -95.729164622073824 0 -95.729164622073824 57.864477398641228 0 0 0 0 213.35942641858128 -72.792724942459714 0 -72.792724942459714 44.852745781278706 0 0 0 0 316.85121812246507 -141.01288047855692 0 -141.01288047855692 89.472850171963032 0 0 0 0 296.7615828520502 -181.54845018702224 0 -181.54845018702224 184.16671855659936 0 0 0 0 246.32167007727548 -167.08093075284313 0 -167.08093075284313 181.74558720648878 0 0 0 0 457.57197947776876 -178.54308995650339 0 -178.54308995650339 97.65720563433014 0 0 0 0 354.64226067977143 -117.38257036986457 0 -117.38257036986457 61.391836735279639 0 0 0 0 389.89493989967741 5.124337692382074 0 5.124337692382074 5.6447613505792873 0 0 0 0 474.36332196125295 -67.577880031462925 0 -67.577880031462925 13.549570913678775 0 0 0 0 316.66761128556391 22.506681409005594 0 22.506681409005594 16.795751838863893 0 0 0 0 324.81054834253155 -91.558411699081432 0 -91.558411699081432 0.16268920113794658 0 0 0 0 302.60634990998369 17.425644066995545 0 17.425644066995545 18.701689450741689 0 0 0 0 335.88848921655153 18.530146666299039 0 18.530146666299039 2.4621751541217733 0 0 0 0 322.21160528325572 9.0947672554984944 0 9.0947672554984944 -1.7580844626628647 0 0 0 0 311.65328491762193 39.254530724626925 0 39.254530724626925 30.103566282921577 0 0 0 0 316.72063754523697 0.41705379905069861 0 0.41705379905069861 7.6889993773928964 0 0 0 0 340.47439263778506 -24.542808216250172 0 -24.542808216250172 29.504575794675482 0 0 0 0 341.13507521945576 -22.266221254801003 0 -22.266221254801003 -50.264036362330145 0 0 0 0 273.71753849057131 -27.344789477208366 0 -27.344789477208366 -27.664575863385323 0 0 0 0 283.67783529816006 22.753513267801456 0 22.753513267801456 25.630904845717183 0 0 0 0 149.99169914258528 -23.181022082871149 0 -23.181022082871149 15.754959378332229 0 0 0 0 294.92861534345138 107.45840582326747 0 107.45840582326747 -24.648030709459174 0 0 0 0 225.31656599231064 -157.59180641929854 0 -157.59180641929854 -73.935767563265955 0 0 0 0 334.74828408611938 -68.611317718327413 0 -68.611317718327413 -75.847044963577233 0 0 0 0 160.96617106394842 -66.912181518258237 0 -66.912181518258237 51.678222274292139 0 0 0 0 384.6809896630657 -176.46184703997142 0 -176.46184703997142 -103.69768336574646 0 0 0 0 295.65120259957621 145.9112395944295 0 145.9112395944295 -31.908669147368023 0 0 0 0 340.71429709275253 140.60271966612373 0 140.60271966612373 -87.648164405159534 0 0 0 0 328.16319956928783 66.270278195950269 0 66.270278195950269 -20.717869356525448 0 0 0 0 510.25056076803594 115.10969425406597 0 115.10969425406597 -84.349261539997457 0 0 0 0 498.2982969917939 -161.78895954644446 0 -161.78895954644446 67.252495668240968 0 0 0 0 293.23977630672744 -54.693403880240211 0 -54.693403880240211 11.62968660621388 0 0 0 0 240.22381510483683 -173.83952317972978 0 -173.83952317972978 -44.54970919909654 0 0 0 0 335.83337076130556 -26.470266172547788 0 -26.470266172547788 159.34909227660214 0 0 0 0 -456.7774775041762 -72.563161056823049 0 -72.563161056823049 101.09348104366882 0 0 0 0 0.64399362001798721 -1.9634018485116371 0 -1.9634018485116371 -0.14330113930221966 0 0 0 0 702.18882206472335 -211.44057840364587 0 -211.44057840364587 89.67686795862609 0 0 0 0 607.43353706703056 -154.52828927646803 0 -154.52828927646803 145.26445889753433 0 0 0 0 1031.173206675754 -104.96092996142823 0 -104.96092996142823 -188.13318319135067 0 0 0 0 -69.840162894659443 -259.35238020376431 0 -259.35238020376431 -1.0023627854179296 0 0 0 0 656.55829337565228 -112.61057804229249 0 -112.61057804229249 41.592139866415124 0 0 0 0 695.11157551733777 -157.12270807262985 0 -157.12270807262985 5.7123509887579829 0 0 0 0 137.38758553257503 167.02151945785286 0 167.02151945785286 -53.580722386410798 0 0 0 0 1.4168751594709192 0.80041787559787281 0 0.80041787559787281 0.23892172142722318 0 0 0 0 93.625940216938034 -124.39068275893634 0 -124.39068275893634 22.125571778275791 0 0 0 0 326.20053641704726 112.03598587917844 0 112.03598587917844 2.1150431076946745 0 0 0 0 213.62508248780796 175.04775863127438 0 175.04775863127438 76.061163676258886 0 0 0 0 120.94829072603898 46.781335741419312 0 46.781335741419312 97.986123278260465 0 0 0 0 -110.86965391426929 69.538310888782391 0 69.538310888782391 45.921662296490396 0 0 0 0 175.58285769540817 19.514025862618354 0 19.514025862618354 14.372173144197117 0 0 0 0 229.89351480732148 110.04668923550136 0 110.04668923550136 81.398292294630835 0 0 0 0 42.074222920418833 26.367114167205855 0 26.367114167205855 99.361146323749281 0 0 0 0 218.81689314448158 -22.783451593385472 0 -22.783451593385472 107.75825404903941 0 0 0 0 276.41533082305978 -21.754958013631438 0 -21.754958013631438 82.753377785394576 0 0 0 0 418.17089064566244 163.47895182800636 0 163.47895182800636 37.155145373989328 0 0 0 0 254.61181906656566 84.749465718524789 0 84.749465718524789 104.17427223117423 0 0 0 0 419.38713343951167 112.9791982661106 0 112.9791982661106 83.347670729646595 0 0 0 0 291.51422882637416 56.781392107125328 0 56.781392107125328 73.383613996103776 0 0 0 0 327.80403087745071 26.188879730639449 0 26.188879730639449 61.316515063055618 0 0 0 0 438.52084111329168 116.92597078175594 0 116.92597078175594 56.056905329916063 0 0 0 0 338.59315532404435 39.818449596068049 0 39.818449596068049 0.12932332115743109 0 0 0 0 485.58402982164262 82.34510373301481 0 82.34510373301481 -0.32593382135136462 0 0 0 0 677.8868954112113 179.78257289516728 0 179.78257289516728 26.865872262672013 0 0 0 0 940.39818187641504 128.77235072430037 0 128.77235072430037 1.7780257029226783 0 0 0 0 712.88417030082928 295.21526731044452 0 295.21526731044452 83.221766288072388 0 0 0 0 629.78761148340709 180.03249738047055 0 180.03249738047055 90.658964101631014 0 0 0 0 412.40696734875382 125.33660020308081 0 125.33660020308081 79.119144092362745 0 0 0 0 1179.9388322100276 871.77288447104797 0 871.77288447104797 527.88919744145494 0 0 0 0 159.6053903735301 44.473880078075332 0 44.473880078075332 2.6455700197193375 0 0 0 0 5.0052437241895973 -0.16566937205043075 0 -0.16566937205043075 -0.40870070021727378 0 0 0 0 1324.9769257505686 393.78511346764117 0 393.78511346764117 -53.118937407368378 0 0 0 0 664.30859084174153 390.07363501999851 0 390.07363501999851 80.748396400564573 0 0 0 0 959.39088147298389 402.81911699226112 0 402.81911699226112 -70.26945899517824 0 0 0 0 967.30094989064673 374.66029720794006 0 374.66029720794006 -26.117199900687211 0 0 0 0 830.64832193960319 311.40576243078306 0 311.40576243078306 52.987862502166337 0 0 0 0 878.30941619696387 378.71416674715874 0 378.71416674715874 -26.281811670683755 0 0 0 0 908.31184602573194 440.02730200573353 0 440.02730200573353 -1.0427058130359086 0 0 0 0 952.92976061991067 417.06067557961148 0 417.06067557961148 -47.672447114380702 0 0 0 0 618.12043107875797 210.19459705816405 0 210.19459705816405 49.454887731800454 0 0 0 0 410.74540691447328 181.49424701880531 0 181.49424701880531 90.297202257568557 0 0 0 0 845.23806324735415 278.75009459007566 0 278.75009459007566 1.5328026730666124 0 0 0 0 640.06680251627404 259.04454796552602 0 259.04454796552602 22.492363639542276 0 0 0 0 587.09676914598094 288.52819988043461 0 288.52819988043461 61.530929459130192 0 0 0 0 598.0887705710611 232.75902769727276 0 232.75902769727276 28.797699440931567 0 0 0 0 313.93630390038015 192.10642802593006 0 192.10642802593006 93.822458710775493 0 0 0 0 504.15289974152984 312.30898514494697 0 312.30898514494697 119.49787160218608 0 0 0 0 469.1759240674437 172.30179722958616 0 172.30179722958616 90.19743982911524 0 0 0 0 246.32574216324429 200.85896837733588 0 200.85896837733588 167.63953800415209 0 0 0 0 1210.5896557762753 694.0789440065264 0 694.0789440065264 201.35019230583589 0 0 0 0 498.56342992533973 300.80034356122445 0 300.80034356122445 245.56165854843283 0 0 0 0 759.72514655370469 460.94128148988267 0 460.94128148988267 162.85348157389322 0 0 0 0 649.47147949464852 291.19839831125455 0 291.19839831125455 166.79252033248076 0 0 0 0 681.46260395415811 447.46454146907058 0 447.46454146907058 725.88384844483778 0 0 0 0 1020.4840446156959 90.393610830648925 0 90.393610830648925 360.39942063167007 0 0 0 0 539.80210726265796 324.11094901018623 0 324.11094901018623 288.38955379425147 0 0 0 0 445.06112229954488 37.543716086764192 0 37.543716086764192 144.62335006014791 0 0 0 0 746.42599324052571 218.25662540554526 0 218.25662540554526 149.5043503067443 0 0 0 0 211.78793539378967 22.450494200421304 0 22.450494200421304 134.29988433588039 0 0 0 0 127.20322335323726 84.618898893698429 0 84.618898893698429 104.35909213698619 0 0 0 0 352.71932320052292 235.3016545901088 0 235.3016545901088 327.39342355825477 0 0 0 0 148.95627213298576 48.625706270469891 0 48.625706270469891 189.70940377030638 0 0 0 0 138.1797069121094 -104.09161756301569 0 -104.09161756301569 -36.212717753631296 0 0 0 0 0.62862786285404582 -67.185862975089549 0 -67.185862975089549 116.29534219409288 0 0 0 0 -109.60456112594693 -102.66635728986807 0 -102.66635728986807 33.461219940183703 0 0 0 0 2.1811095511366148 -53.393553983699405 0 -53.393553983699405 -16.932203064363421 0 0 0 0 35.424955957576458 -64.709517411729792 0 -64.709517411729792 28.145669357834777 0 0 0 0 -85.93928284899448 -1.6441478612775882 0 -1.6441478612775882 35.680243029697522 0 0 0 0 -121.8203965203611 -82.025216835813552 0 -82.025216835813552 -24.13141455707887 0 0 0 0 -211.8345625828515 -79.471626571652109 0 -79.471626571652109 19.558936094686146 0 0 0 0 -145.40680361690465 -60.301156293934355 0 -60.301156293934355 -106.23210754940646 0 0 0 0 -108.04126144181646 -104.06218279557766 0 -104.06218279557766 -55.794301255084974 0 0 0 0 4.0036402513777709 2.3844526866335229 0 2.3844526866335229 0.76322751692438295 0 0 0 0 809.30267827649368 525.22120856416052 0 525.22120856416052 367.18583054615499 0 0 0 0 3.3185167491127174 -4.1542104418997639 0 -4.1542104418997639 0.41642005820939954 0 0 0 0 748.29169273888692 548.4509032905994 0 548.4509032905994 452.91563469072753 0 0 0 0 536.16269088743138 437.30640060853329 0 437.30640060853329 394.99584137414627 0 0 0 0 554.19425903033698 418.47402374402873 0 418.47402374402873 412.13173926063905 0 0 0 0 371.41731200009235 72.431000591168186 0 72.431000591168186 256.59697172849246 0 0 0 0 685.57751239417121 202.92750650159451 0 202.92750650159451 256.81241685874306 0 0 0 0 347.36877653148258 86.070489697421522 0 86.070489697421522 276.70257147005555 0 0 0 0 1008.9957941371249 111.37778890788229 0 111.37778890788229 231.62079779215736 0 0 0 0 453.28474890098732 -191.5549122248147 0 -191.5549122248147 410.88755445577726 0 0 0 0 827.77949478660594 -2.8005219064952769 0 -2.8005219064952769 126.74345108266255 0 0 0 0 199.90295521691587 -19.528559755077389 0 -19.528559755077389 472.06313416822059 0 0 0 0 43.727188919088803 -63.950910024582605 0 -63.950910024582605 56.924955545814527 0 0 0 0 4.4473377220059049 -3.8843616322855894 0 -3.8843616322855894 -13.661532427043014 0 0 0 0 -223.72273533219413 -63.456771224685667 0 -63.456771224685667 0.73903137669913121 0 0 0 0 846.26588559220545 -216.45996230367282 0 -216.45996230367282 -284.52169288985112 0 0 0 0 0.23517084826165302 -4.473654369720208 0 -4.473654369720208 -3.4257472384609322 0 0 0 0 -349.87770077156893 -61.778614298693689 0 -61.778614298693689 59.405522175268061 0 0 0 0 394.4689203461603 -177.18973737531255 0 -177.18973737531255 582.11721332303637 0 0 0 0 886.09898327113478 -333.68805036081869 0 -333.68805036081869 -224.23972590610742 0 0 0 0 13.945772257971839 -173.9984148778679 0 -173.9984148778679 91.320771127737373 0 0 0 0 5.0031834294339319 -1.2476724389098521 0 -1.2476724389098521 0.31303702729882721 0 0 0 0 572.38379610975971 -435.72351795696432 0 -435.72351795696432 -62.904503483098466 0 0 0 0 672.04344410789781 284.23055762460694 0 284.23055762460694 85.119351488295393 0 0 0 0 42.152535408298718 91.712492962805271 0 91.712492962805271 36.920130633930299 0 0 0 0 774.1274643064753 24.539383316614906 0 24.539383316614906 -29.2647910326165 0 0 0 0 990.7308944255783 116.91271755629863 0 116.91271755629863 -213.37490159779637 0 0 0 0 782.45179497290883 34.511454754769289 0 34.511454754769289 -215.61625765200003 0 0 0 0 -156.55647869342647 72.309969006077296 0 72.309969006077296 -68.462390632446045 0 0 0 0 -183.37031514986302 -99.451852685721065 0 -99.451852685721065 -61.207100634207244 0 0 0 0 12.417980347905541 -33.435236013227268 0 -33.435236013227268 -34.207283057738096 0 0 0 0 -74.989717868389562 -47.919286292349341 0 -47.919286292349341 15.750072345966075 0 0 0 0 127.62408771805349 88.807464484712625 0 88.807464484712625 -7.0014732811580416 0 0 0 0 60.489137200289406 62.463672722016554 0 62.463672722016554 93.325860559848863 0 0 0 0 100.80024846180459 147.49072129793353 0 147.49072129793353 81.855295240175394 0 0 0 0 -37.339344161882764 20.737213748146019 0 20.737213748146019 82.122745311479662 0 0 0 0 187.03338567006722 39.157346230769235 0 39.157346230769235 24.765836551986922 0 0 0 0 -66.691633781385462 -65.617140027297324 0 -65.617140027297324 5.1577611779830477 0 0 0 0 -206.97840874153189 17.533094471591426 0 17.533094471591426 -4.4042887901822496 0 0 0 0 -118.70955959905405 25.00622296062204 0 25.00622296062204 16.579938540362491 0 0 0 0 3499.6605236882388 -309.77025680831559 0 -309.77025680831559 -878.64912189661629 0 0 0 0 1879.2167816706788 -518.43668844525666 0 -518.43668844525666 -464.8148905124412 0 0 0 0 89.646921529463725 -250.21111248769779 0 -250.21111248769779 -76.919777508938921 0 0 0 0 1902.5286647268149 -177.31274784895493 0 -177.31274784895493 -1024.7666583853343 0 0 0 0 1104.3526327391446 48.398389091154769 0 48.398389091154769 -598.47345138622677 0 0 0 0 21.145414643535162 10.040721167763891 0 10.040721167763891 -0.19611641657976431 0 0 0 0 3496.6819748008493 -1664.6345096387654 0 -1664.6345096387654 183.75395697825562 0 0 0 0 1419.4662816425771 81.872619699930794 0 81.872619699930794 0.84953718027941316 0 0 0 0 -3.6741052830038825 940.95976134841112 0 940.95976134841112 -89.250723917980423 0 0 0 0 11.609958875236373 3.7415755391025556 0 3.7415755391025556 -0.096291688983762225 0 0 0 0 3484.2922264806261 855.99128945831592 0 855.99128945831592 -136.3030099866331 0 0 0 0 1069.1628457333354 -77.05202419938901 0 -77.05202419938901 45.16867323225182 0 0 0 0 794.70700022958044 -364.31594310059137 0 -364.31594310059137 -222.97923599499978 0 0 0 0 1891.9796760008612 -174.84519502235227 0 -174.84519502235227 -53.927912616216091 0 0 0 0 1696.2648421469348 -208.17933853320935 0 -208.17933853320935 -363.9084814093876 0 0 0 0 1712.7262370496755 -164.67440534514989 0 -164.67440534514989 -350.01927259135641 0 0 0 0 1462.5725782926384 39.967834851592649 0 39.967834851592649 281.1728452141553 0 0 0 0 1462.5931837877579 32.225248838752982 0 32.225248838752982 54.750063269650376 0 0 0 0 896.95719636102876 -587.66712613674395 0 -587.66712613674395 193.01771705054171 0 0 0 0 1910.9946709582437 -3.3833404566681224 0 -3.3833404566681224 -304.4950803926568 0 0 0 0 4.7608265392188969 -1.4929210126385861 0 -1.4929210126385861 0.24599792730053804 0 0 0 0 1054.8415658363174 117.28165489504639 0 117.28165489504639 -397.65968731945691 0 0 0 0 1040.4477323399042 721.07103363313922 0 721.07103363313922 -14.280272431212438 0 0 0 0 2194.2627018573548 218.30894494197645 0 218.30894494197645 -388.76724805122393 0 0 0 0 1904.4587935778691 -667.75753614816108 0 -667.75753614816108 -73.100083496932598 0 0 0 0 1105.639403583843 -114.77042643195213 0 -114.77042643195213 -256.66089157611839 0 0 0 0 395.77219875638548 2210.7450520724378 0 2210.7450520724378 -441.21609591091135 0 0 0 0 3579.0347704380838 -968.70970081087637 0 -968.70970081087637 -38.376309124497851 0 0 0 0 10.549679528632197 5.4373338437376049 0 5.4373338437376049 0.65862789352499584 0 0 0 0 934.64677167757327 1001.1239325471283 0 1001.1239325471283 502.98400736258225 0 0 0 0 4.1871159588880005 -0.058555997102871515 0 -0.058555997102871515 -0.27566362664700828 0 0 0 0 3135.3546507866995 616.86026180536214 0 616.86026180536214 -9.1129362992379512 0 0 0 0 1708.5557110897207 557.53118116398127 0 557.53118116398127 1285.9521757707007 0 0 0 0 417.52988478075713 287.34010930822728 0 287.34010930822728 440.64110190451436 0 0 0 0 4.9293015794618213 -1.4359917586037625 0 -1.4359917586037625 -0.45166495209749735 0 0 0 0 16.745138747708211 26.137618920474619 0 26.137618920474619 43.646793058319851 0 0 0 0 341.05185864341183 330.192025435804 0 330.192025435804 324.84739744305597 0 0 0 0 544.92909798739493 -42.641899095962032 0 -42.641899095962032 33.299580008557314 0 0 0 0 1.536021318100552 0.089830136749299072 0 0.089830136749299072 0.49154273645761237 0 0 0 0 486.61500660939782 522.56758379853375 0 522.56758379853375 466.00932132559035 0 0 0 0 1100.5808187793973 -92.750907497954259 0 -92.750907497954259 -53.834370176238735 0 0 0 0 23.581440808033221 94.573415709372341 0 94.573415709372341 117.68035560723027 0 0 0 0 363.48604269570205 -40.894400290986916 0 -40.894400290986916 -0.24734465310298442 0 0 0 0 9.1424867340829223 -0.80306652210531426 0 -0.80306652210531426 -3.6676161675119747 0 0 0 0 -4.1305111772162491 28.210160827222154 0 28.210160827222154 -16.325031243056799 0 0 0 0 -0.26031869816176822 3.8189699047129295 0 3.8189699047129295 -1.6796231870935419 0 0 0 0 11.841526615390308 -0.92755069706899995 0 -0.92755069706899995 -0.19492325038836078 0 0 0 0 13.819043284865273 4.1291821965496354 0 4.1291821965496354 -0.43596534301151496 0 0 0 0 263.54888620809652 293.16578732837991 0 293.16578732837991 325.07064346738235 0 0 0 0 333.67087528629054 370.91416273203708 0 370.91416273203708 325.1738255742211 0 0 0 0 2.9369470236514985 1.5049418564218744 0 1.5049418564218744 -0.21053486438293814 0 0 0 0 276.87324065700523 488.37156474080513 0 488.37156474080513 671.66304857485147 0 0 0 0 5.657426348181616 0.071279376844758074 0 0.071279376844758074 -0.0027870632630275739 0 0 0 0 270.01467416789092 339.28750296342423 0 339.28750296342423 413.95713822555621 0 0 0 0 567.55098887158238 451.56351163472726 0 451.56351163472726 202.26617927361687 0 0 0 0 9.2846316303505887 -2.0911108517157828 0 -2.0911108517157828 -1.3019213169749557 0 0 0 0 313.47233215589949 180.74816992845538 0 180.74816992845538 162.3127833986473 0 0 0 0 672.44444193092659 324.22777218808994 0 324.22777218808994 80.299934414802635 0 0 0 0 416.16731527365482 286.57148826255292 0 286.57148826255292 96.385665816506361 0 0 0 0 9.0510697123321506 -2.4760614838065749 0 -2.4760614838065749 -0.92634172217890798 0 0 0 0 333.10292182170451 350.51315293613715 0 350.51315293613715 301.87085913934038 0 0 0 0 16.750161556366947 26.997372315689432 0 26.997372315689432 163.43395971630281 0 0 0 0 339.83342011907371 -33.554810721741099 0 -33.554810721741099 6.42039280262739 0 0 0 0 828.61055853972721 82.90617585341883 0 82.90617585341883 -185.68637686749761 0 0 0 0 1428.4566686175385 327.45458768119823 0 327.45458768119823 -124.92838010798175 0 0 0 0 703.56315189148518 -393.68122603941794 0 -393.68122603941794 -37.519252755167969 0 0 0 0 139.00866991847579 157.65953588059836 0 157.65953588059836 58.97493777415481 0 0 0 0 185.97232822288061 881.85362002740317 0 881.85362002740317 597.89652812963902 0 0 0 0 12.509528073265699 2.7508210507267545 0 2.7508210507267545 0.54117891737013823 0 0 0 0 1486.2899556864395 622.29265303701072 0 622.29265303701072 109.23603085003901 0 0 0 0 1213.2317780727026 921.28030654419854 0 921.28030654419854 176.67766267705588 0 0 0 0 637.96210401583812 672.68402656469971 0 672.68402656469971 137.09148785169418 0 0 0 0 951.60998373536859 530.56137592515074 0 530.56137592515074 214.69844641396992 0 0 0 0 380.76236768477975 482.07026865090893 0 482.07026865090893 241.12271854804158 0 0 0 0 610.65422271641 423.73959674760687 0 423.73959674760687 14.351646340140746 0 0 0 0 98.948762746488228 -52.459012623535429 0 -52.459012623535429 28.558063293610644 0 0 0 0 161.86475871632865 71.412274851260349 0 71.412274851260349 377.92903723718302 0 0 0 0 590.16901782507193 182.23636630654937 0 182.23636630654937 392.31991919905062 0 0 0 0 518.53596534399549 -9.2829842354517496 0 -9.2829842354517496 282.3704195662649 0 0 0 0 456.5974106619833 -76.822154413753026 0 -76.822154413753026 101.88253864655348 0 0 0 0 120.24022476126265 85.068582900594379 0 85.068582900594379 56.271872712481581 0 0 0 0 -57.400003481583553 -258.56390369656629 0 -258.56390369656629 -249.73024403709212 0 0 0 0 365.81809879391221 -172.95700579751866 0 -172.95700579751866 -913.32323180470632 0 0 0 0 30.503931058228318 3.7555506872058508 0 3.7555506872058508 -0.33375588836923953 0 0 0 0 210.54795759049011 352.96188420398653 0 352.96188420398653 -680.58342200897357 0 0 0 0 96.866035017301328 56.226362701118475 0 56.226362701118475 -153.49520193064413 0 0 0 0 30.10785546671832 56.568418017693496 0 56.568418017693496 -30.792955453803046 0 0 0 0 -0.31544021541776601 15.779469779295567 0 15.779469779295567 40.460985664621134 0 0 0 0 678.63181637771777 39.972189767336431 0 39.972189767336431 975.27578093027842 0 0 0 0 3.3699979094462265 5.1081871209350709 0 5.1081871209350709 -3.2316115971257355 0 0 0 0 3339.3884393241024 1158.2159733450583 0 1158.2159733450583 -30.36831508076699 0 0 0 0 3136.9854067066699 1444.0045994949389 0 1444.0045994949389 -379.48804080011087 0 0 0 0 3455.6608713670212 640.35267802887938 0 640.35267802887938 601.11560241868187 0 0 0 0 2037.9004382489657 1445.5166286323824 0 1445.5166286323824 251.12487874102982 0 0 0 0 2686.1438274523243 1384.2121668083701 0 1384.2121668083701 -102.59278663259994 0 0 0 0 1489.0331857273122 2245.8677125223185 0 2245.8677125223185 1069.743123256711 0 0 0 0 4057.7369569151488 2023.1553194390169 0 2023.1553194390169 52.400690025979657 0 0 0 0 4.9857817004288449 2.189731389934769 0 2.189731389934769 -0.79702832960055359 0 0 0 0 2493.0532442809781 2788.3281157348865 0 2788.3281157348865 1129.2638146245749 0 0 0 0 13.043436084652171 0.47339287787215767 0 0.47339287787215767 -1.7944505419459107 0 0 0 0 4031.693013290329 1104.277545563795 0 1104.277545563795 294.22146870205415 0 0 0 0 3743.5626901331343 1542.7731242056302 0 1542.7731242056302 953.54282313340809 0 0 0 0 -109.97446694559767 -925.64448585036894 0 -925.64448585036894 -430.86697607949066 0 0 0 0 36.291248264621629 0.99491585030028773 0 0.99491585030028773 -1.524160452508708 0 0 0 0 477.87877942100749 69.253867655236718 0 69.253867655236718 -1099.8437396652325 0 0 0 0 149.08442525420105 290.28696692156871 0 290.28696692156871 -638.58846526693458 0 0 0 0 165.67929611771251 -43.466342575366809 0 -43.466342575366809 -164.94351098284722 0 0 0 0 448.6928345184424 -289.37022644826607 0 -289.37022644826607 -149.28194480000911 0 0 0 0 453.39561080907879 -146.80345205093107 0 -146.80345205093107 166.44621084997129 0 0 0 0 571.44964250015255 -410.18490255741926 0 -410.18490255741926 282.92782100887871 0 0 0 0 981.02944288161234 -308.26391468965886 0 -308.26391468965886 176.69780234263112 0 0 0 0 376.60339561651926 -69.368967948316936 0 -69.368967948316936 282.9963107968415 0 0 0 0 689.54491890000645 -215.19567490202826 0 -215.19567490202826 191.38709040154345 0 0 0 0 714.16341754184396 -137.1342954048032 0 -137.1342954048032 283.30820100430458 0 0 0 0 1006.3093234414391 -92.830076378915564 0 -92.830076378915564 334.52355942021609 0 0 0 0 902.83249609723862 -283.54782089478454 0 -283.54782089478454 192.02325086503106 0 0 0 0 1639.6370582358504 -73.689490480362338 0 -73.689490480362338 67.742356179596641 0 0 0 0 1589.2450521274222 39.256456445405405 0 39.256456445405405 187.56813360944477 0 0 0 0 1007.1392209479964 -797.44952095733333 0 -797.44952095733333 97.446374221067344 0 0 0 0 2055.4257534335775 -522.74918945275533 0 -522.74918945275533 -378.61223177623157 0 0 0 0 2911.7548949259508 394.21019729714334 0 394.21019729714334 -152.11225878316577 0 0 0 0 2431.0774960154376 854.30861367067132 0 854.30861367067132 417.25370578249567 0 0 0 0 2056.4219577798794 1032.1044693498211 0 1032.1044693498211 452.73911645662054 0 0 0 0 2336.465841123274 1046.7518965791601 0 1046.7518965791601 432.18517032447761 0 0 0 0 1454.7878819359757 674.11662622183042 0 674.11662622183042 663.18236542848126 0 0 0 0 1994.748655434174 633.44998897008941 0 633.44998897008941 357.70860826619014 0 0 0 0 1813.16867341951 924.89100489712814 0 924.89100489712814 744.99237554050592 0 0 0 0 562.47140877686616 361.71088706156343 0 361.71088706156343 624.1240884027211 0 0 0 0 1184.1628209371702 199.79750228317289 0 199.79750228317289 377.02232442125387 0 0 0 0 3503.854585159439 1531.7874136784424 0 1531.7874136784424 2237.203587757997 0 0 0 0 1623.6978837697243 1756.5866081699164 0 1756.5866081699164 1106.7196089056379 0 0 0 0 3582.6733066687302 1734.0285973888956 0 1734.0285973888956 374.10850451519764 0 0 0 0 2640.3891580059571 1412.5971547007516 0 1412.5971547007516 340.07177802516827 0 0 0 0 2305.4252844573057 1432.3007385413998 0 1432.3007385413998 357.90922402114296 0 0 0 0 2672.2918212767108 975.18393547808932 0 975.18393547808932 366.56409310154095 0 0 0 0 2651.4927247009764 436.04947195874939 0 436.04947195874939 -20.802672933102244 0 0 0 0 3497.7427111914249 957.49760598107991 0 957.49760598107991 73.355930930611976 0 0 0 0 2357.0921999070561 913.73054748978439 0 913.73054748978439 553.9179987396376 0 0 0 0 2347.4609130172466 766.1257447186623 0 766.1257447186623 661.7405774360592 0 0 0 0 2219.0452289010573 767.07644372903417 0 767.07644372903417 751.1183666952968 0 0 0 0 2385.5407076707925 828.13014870356517 0 828.13014870356517 752.88306851804487 0 0 0 0 2755.9118189545989 601.88372212422996 0 601.88372212422996 660.86842322010978 0 0 0 0 2312.0840097590626 261.08895323986712 0 261.08895323986712 -76.18314252376581 0 0 0 0 1785.4020285138831 203.41976450247506 0 203.41976450247506 444.34222678462635 0 0 0 0 2263.8757457640459 146.58234150010492 0 146.58234150010492 99.437260249316466 0 0 0 0 15.815439763670753 7.1247890464344579 0 7.1247890464344579 3.8164172405815817 0 0 0 0 3492.6303711391884 -995.03527382020752 0 -995.03527382020752 -786.84920833118622 0 0 0 0 -1973.7144005168157 -341.41017759908073 0 -341.41017759908073 1554.7133320223852 0 0 0 0 -1367.6225164270327 -942.99658319055413 0 -942.99658319055413 372.93722177792415 0 0 0 0 -1659.3234148868069 -1405.5980911902018 0 -1405.5980911902018 -212.18120610373526 0 0 0 0 -453.81790554803592 513.09537607822813 0 513.09537607822813 397.24306730866817 0 0 0 0 923.75958471224294 -738.19988325010956 0 -738.19988325010956 215.62796953920395 0 0 0 0 3493.2644153920119 853.2926877198189 0 853.2926877198189 -301.86248074689394 0 0 0 0 3978.8741170635185 -319.46019328595952 0 -319.46019328595952 176.53446725746022 0 0 0 0 -345.07502905253205 1078.5083235903978 0 1078.5083235903978 911.28026584491931 0 0 0 0 10.381017612607593 7.9177400170166408 0 7.9177400170166408 6.2785993294364815 0 0 0 0 928.55016698897816 -287.82722243712124 0 -287.82722243712124 -476.71869031197951 0 0 0 0 115.66005981506351 -391.5064164017258 0 -391.5064164017258 139.06638854672792 0 0 0 0 615.54863185061549 169.90659418263385 0 169.90659418263385 -511.6862193145007 0 0 0 0 942.80681962390099 311.31395805656109 0 311.31395805656109 198.32317303819815 0 0 0 0 21.72875277981683 18.012682032553172 0 18.012682032553172 10.703516300456151 0 0 0 0 324.12852257421764 355.3069250323997 0 355.3069250323997 -262.55235696344789 0 0 0 0 361.08427485059656 14.306960990516473 0 14.306960990516473 -34.165081679404693 0 0 0 0 1110.0108122969104 -272.91727236943234 0 -272.91727236943234 -198.01095877778721 0 0 0 0 1322.6987678284568 -41.019021066689106 0 -41.019021066689106 -154.52639158106876 0 0 0 0 890.63142571224307 -233.42734185706615 0 -233.42734185706615 -36.261077112234489 0 0 0 0 957.93105934117921 -162.71875973768101 0 -162.71875973768101 19.977348067103094 0 0 0 0 862.41386387641978 -1.0715684277981836 0 -1.0715684277981836 20.490303040564868 0 0 0 0 954.01142439465912 -134.39607235049675 0 -134.39607235049675 208.47362013664383 0 0 0 0 1112.6271556314823 132.60852905033482 0 132.60852905033482 86.207104539165812 0 0 0 0 1091.3053865174443 654.52581631706721 0 654.52581631706721 291.79414772501514 0 0 0 0 1439.0936606704927 334.80528706472114 0 334.80528706472114 -151.69762140881244 0 0 0 0 896.21176120842574 674.00909232581262 0 674.00909232581262 310.57071219220325 0 0 0 0 1554.9966746651507 981.13855102482796 0 981.13855102482796 420.72298988790499 0 0 0 0 1529.5819920515933 690.74924186021462 0 690.74924186021462 196.78571069035206 0 0 0 0 1963.300904325617 678.5235950047163 0 678.5235950047163 23.290626352695654 0 0 0 0 1636.783823192236 -539.6719198947294 0 -539.6719198947294 44.343570773723513 0 0 0 0 3682.1567691374803 -538.55663870935859 0 -538.55663870935859 -135.79899695717882 0 0 0 0 -2464.5371454960841 -901.9218784960276 0 -901.9218784960276 1129.568766487449 0 0 0 0 4612.4499266987259 4219.7221797273132 0 4219.7221797273132 -1553.0879146915795 0 0 0 0 5286.1621334355004 958.0596846162457 0 958.0596846162457 -504.90441010339873 0 0 0 0 10.23114035748398 8.6954970305975223 0 8.6954970305975223 7.1264015182192022 0 0 0 0 815.66601751782582 2656.9963515182467 0 2656.9963515182467 1131.7928819033018 0 0 0 0 20.185322145081557 16.268178784264165 0 16.268178784264165 10.364329351832058 0 0 0 0 207.08493411954259 2336.4011504319824 0 2336.4011504319824 -1060.5344019433142 0 0 0 0 3836.0129297396061 1600.9937583229867 0 1600.9937583229867 -121.93517547204283 0 0 0 0 -226.74394310299976 318.59402036148595 0 318.59402036148595 486.69800790916088 0 0 0 0 299.21918359327537 867.02400799487009 0 867.02400799487009 1036.6668561709057 0 0 0 0 432.9265056806471 225.03380399081152 0 225.03380399081152 224.94980880575258 0 0 0 0 -66.812918957031798 171.98805435817303 0 171.98805435817303 415.72169641091205 0 0 0 0 142.35854882438434 320.84604967181849 0 320.84604967181849 266.98245587298152 0 0 0 0 347.27066236894461 -322.39673463055556 0 -322.39673463055556 -327.55530482948598 0 0 0 0 952.92464685876621 134.19318792353715 0 134.19318792353715 -377.70873598273465 0 0 0 0 720.0240606629668 117.42137434561982 0 117.42137434561982 156.1610857608789 0 0 0 0 718.7088322397467 300.37877606682741 0 300.37877606682741 31.215301067832343 0 0 0 0 846.22393022118194 536.31167900819992 0 536.31167900819992 363.29373062931518 0 0 0 0 596.15802209243702 517.11225613432703 0 517.11225613432703 597.306929151232 0 0 0 0 909.28705387051741 564.12168009953029 0 564.12168009953029 386.02595911413846 0 0 0 0 761.48569241490623 542.26475713489708 0 542.26475713489708 384.44516313781276 0 0 0 0 953.87561351186378 444.64299871044341 0 444.64299871044341 305.75747819018443 0 0 0 0 706.86808313037909 242.16003764980451 0 242.16003764980451 430.11284379667677 0 0 0 0 661.1852035012198 180.90018479110529 0 180.90018479110529 353.30332721216428 0 0 0 0 889.41802901364281 88.918587553103919 0 88.918587553103919 286.3849722779396 0 0 0 0 563.76817668395233 271.46612867311535 0 271.46612867311535 801.29494832225373 0 0 0 0 764.03392505738066 477.61646618420718 0 477.61646618420718 487.43674450149319 0 0 0 0 791.52943012822652 445.16963497947336 0 445.16963497947336 437.59135734705615 0 0 0 0 1632.5910528034656 666.20488789117371 0 666.20488789117371 247.3506341704101 0 0 0 0 1349.683055622605 183.69780582525254 0 183.69780582525254 510.39310835076003 0 0 0 0 790.20142436466813 604.2048496471615 0 604.2048496471615 988.57706364682872 0 0 0 0 13.542149655942922 744.82196226511633 0 744.82196226511633 576.6559871566742 0 0 0 0 1153.599137320356 906.5918164964811 0 906.5918164964811 190.37523622394701 0 0 0 0 1341.7844607773059 -381.27091277178488 0 -381.27091277178488 119.36163922116248 0 0 0 0 8.8784736472062207 5.2388734932202539 0 5.2388734932202539 3.4679114979959973 0 0 0 0 150.91575762807042 -120.85387902142656 0 -120.85387902142656 170.25786362756298 0 0 0 0 592.23118934751983 -179.32733246830855 0 -179.32733246830855 4.3887451240270821 0 0 0 0 947.09118378460153 227.41420589452889 0 227.41420589452889 -19.167480218137825 0 0 0 0 869.56386231859506 284.88878381925542 0 284.88878381925542 -60.380577446294865 0 0 0 0 450.04956771103025 147.14846470103566 0 147.14846470103566 -96.043439137184578 0 0 0 0 957.18336115761485 335.30966899637588 0 335.30966899637588 -443.16926780547874 0 0 0 0 198.74442641565111 -39.34262363678863 0 -39.34262363678863 -33.016977213601422 0 0 0 0 626.83745013385487 62.927215492371261 0 62.927215492371261 -224.51200802413496 0 0 0 0 118.57166924866033 263.75456074921431 0 263.75456074921431 -289.99888382250583 0 0 0 0 -347.87898644919915 377.04608868729565 0 377.04608868729565 -80.750327172520656 0 0 0 0 494.10402853398773 324.44142731539978 0 324.44142731539978 7.4286013487417222 0 0 0 0 1266.7939641314006 341.01496124658161 0 341.01496124658161 -448.06958043273607 0 0 0 0 -170.64522578840842 -127.85118969755513 0 -127.85118969755513 143.62080575754226 0 0 0 0 352.44290708185508 598.3161462420062 0 598.3161462420062 197.6653913879245 0 0 0 0 582.26612451770779 91.670335991684624 0 91.670335991684624 190.57135124064189 0 0 0 0 33.425770409446216 15.338892655292213 0 15.338892655292213 6.2265162502037388 0 0 0 0 -2.0553332394380561 -1.4778257520451632 0 -1.4778257520451632 -2.6189146132800332 0 0 0 0 -87.817117054764822 -52.833109097288002 0 -52.833109097288002 -40.757771494629196 0 0 0 0 8.7945668925502787 -2.6953125892135006 0 -2.6953125892135006 -15.240853095245932 0 0 0 0 54.318559392252723 39.456631677522367 0 39.456631677522367 23.462231873680452 0 0 0 0 171.45996654970804 -33.863571350871553 0 -33.863571350871553 -279.75922822738357 0 0 0 0 457.21545129326114 1991.7799200722229 0 1991.7799200722229 -331.06115679197228 0 0 0 0 -311.59024677776324 -708.95096728272483 0 -708.95096728272483 -200.22710600096343 0 0 0 0 620.53584157628779 -129.8183832148278 0 -129.8183832148278 627.07013746799021 0 0 0 0 618.28860474606893 -283.37398958380032 0 -283.37398958380032 -139.29307359640734 0 0 0 0 1239.4978694014135 439.75807603284557 0 439.75807603284557 804.49969449712466 0 0 0 0 1787.149550259448 -91.955442155951005 0 -91.955442155951005 -85.825496927204767 0 0 0 0 2372.6939063183527 -350.16877240002759 0 -350.16877240002759 271.24817019906459 0 0 0 0 3099.3481569997821 1362.9317644606681 0 1362.9317644606681 728.34746690663849 0 0 0 0 -304.81328581948765 -1437.9383942498798 0 -1437.9383942498798 2897.7999054626489 0 0 0 0 23.506026976934493 -5.8139434980631393 0 -5.8139434980631393 -4.9366921400031707 0 0 0 0 2041.044195610215 1692.2160390496174 0 1692.2160390496174 1415.9249569094773 0 0 0 0 13.402344173167592 1.4428301179043785 0 1.4428301179043785 -5.7144226849704438 0 0 0 0 1882.6660567597573 -1318.7215691780116 0 -1318.7215691780116 -1500.5508135240461 0 0 0 0 247.21241389708302 -1043.7560317704101 0 -1043.7560317704101 937.98053009762953 0 0 0 0 -266.24734236548829 2446.1693772882873 0 2446.1693772882873 4218.9085581491727 0 0 0 0 765.28802692638419 -2860.6162705193733 0 -2860.6162705193733 547.98375412658652 0 0 0 0 1256.4363631292654 -1698.7388988367438 0 -1698.7388988367438 -1517.5172724320755 0 0 0 0 -80.136747645665309 12.255089284207259 0 12.255089284207259 -23.308582981540098 0 0 0 0 1044.7106056274642 605.99419952982839 0 605.99419952982839 -1430.3022464119522 0 0 0 0 38.374798478885623 10.660980406473811 0 10.660980406473811 -15.485184442420374 0 0 0 0 229.22133981369552 -273.67550027044763 0 -273.67550027044763 -906.53561602030459 0 0 0 0 -46.675267335289391 -57.912457142427115 0 -57.912457142427115 -77.987481776887478 0 0 0 0 43.210791228153681 14.761963372875293 0 14.761963372875293 -11.263855338925369 0 0 0 0 287.41482944739255 231.83540299044375 0 231.83540299044375 -112.9285909311684 0 0 0 0 -321.12719507320435 317.34193938739645 0 317.34193938739645 1600.8478305223043 0 0 0 0 1127.4169743245729 1296.5969892754617 0 1296.5969892754617 614.77049219144305 0 0 0 0 -26.001765215332853 -113.15447920932007 0 -113.15447920932007 61.939277603489927 0 0 0 0 308.71852432198648 -138.43230702093501 0 -138.43230702093501 -81.628346353981044 0 0 0 0 -80.810846422715713 -1.1471811316553246 0 -1.1471811316553246 53.81615235375682 0 0 0 0 -1212.1845457169911 1684.5414034278836 0 1684.5414034278836 -132.09896795747954 0 0 0 0 39.297651133578483 31.926934272674018 0 31.926934272674018 13.491601056478267 0 0 0 0 -321.08627546853677 347.22833355852578 0 347.22833355852578 371.70648366555338 0 0 0 0 -1680.2886756221706 230.599045136943 0 230.599045136943 2778.9273391938495 0 0 0 0 2944.4584787985077 296.99300861537085 0 296.99300861537085 -2031.1956352735829 0 0 0 0 1243.7210483866511 734.0671691189782 0 734.0671691189782 175.93078154940395 0 0 0 0 2522.574832482831 -738.60095875907973 0 -738.60095875907973 -1273.2356846105868 0 0 0 0 1747.206515654143 -904.68703391864142 0 -904.68703391864142 83.818642862912384 0 0 0 0 2355.6805737633258 431.31109545585423 0 431.31109545585423 -441.57270882534976 0 0 0 0 1165.5607426654315 113.80064319245866 0 113.80064319245866 -512.66749129431855 0 0 0 0 1107.3266629673635 97.910588169708149 0 97.910588169708149 -432.59432799220667 0 0 0 0 1018.6142936815031 -261.03268334850372 0 -261.03268334850372 -651.36959488561843 0 0 0 0 250.97103298987349 -59.238477936994514 0 -59.238477936994514 -1619.6218760760239 0 0 0 0 82.165809400816215 -8.7150784362129343 0 -8.7150784362129343 -288.52125714619797 0 0 0 0 4159.6153421169802 -533.37690982266372 0 -533.37690982266372 128.36500285955651 0 0 0 0 296.12237804883625 -1684.0189163431974 0 -1684.0189163431974 588.67854362155617 0 0 0 0 -1840.311701446888 -809.22786458531937 0 -809.22786458531937 -359.7941624047935 0 0 0 0 -1837.3645778734644 1687.3226554578905 0 1687.3226554578905 793.4673253833289 0 0 0 0 649.72359867210616 1579.8426863858776 0 1579.8426863858776 -199.01684903216437 0 0 0 0 15.852184674993964 7.5945678441394691 0 7.5945678441394691 2.22716191942368 0 0 0 0 2171.9248042561667 1415.0197164366937 0 1415.0197164366937 -185.76557817510786 0 0 0 0 1287.5719469756295 1183.3926656384974 0 1183.3926656384974 -3.3885469106033383 0 0 0 0 746.76961348101031 107.01290623282193 0 107.01290623282193 -251.92536991629902 0 0 0 0 749.22278330790868 50.563389537084618 0 50.563389537084618 -111.70914444918068 0 0 0 0 3292.478348225035 -66.715995441395336 0 -66.715995441395336 -340.50773309407509 0 0 0 0 1329.7148843970717 289.78944075226752 0 289.78944075226752 -219.25366234235446 0 0 0 0 662.00352995344292 365.40206999839762 0 365.40206999839762 114.18718699239759 0 0 0 0 59.92600703160744 5.0964374667738497 0 5.0964374667738497 -8.7820452218840988 0 0 0 0 370.0067214451883 88.874370714322254 0 88.874370714322254 -134.72404746788698 0 0 0 0 412.08975881867082 4.1656877080856702 0 4.1656877080856702 12.055881514011332 0 0 0 0 626.81253716858919 659.91879538199817 0 659.91879538199817 448.43076141616871 0 0 0 0 1308.8237498340666 953.95023912011447 0 953.95023912011447 186.34086827581075 0 0 0 0 1433.8948229423913 936.57744748317009 0 936.57744748317009 93.797927098307525 0 0 0 0 1428.7484257416545 932.97229925299996 0 932.97229925299996 284.94940680873788 0 0 0 0 1279.2056809788787 856.53012570139663 0 856.53012570139663 443.01455002388957 0 0 0 0 1262.8542770331987 998.09467150888963 0 998.09467150888963 604.75662788921841 0 0 0 0 2257.5620189462788 1488.9942605908557 0 1488.9942605908557 511.19808923993781 0 0 0 0 3501.4839540160683 1173.2192834056989 0 1173.2192834056989 -287.2927939046362 0 0 0 0 2207.6851977566766 515.40828652178288 0 515.40828652178288 -545.9049181759849 0 0 0 0 3500.1990915435672 354.54054654430576 0 354.54054654430576 -720.21436840674414 0 0 0 0 1363.6135859172718 772.1532034073449 0 772.1532034073449 109.04612407671755 0 0 0 0 2105.4322798467547 1058.0066434993919 0 1058.0066434993919 55.570187863763294 0 0 0 0 -64.509128211037023 309.84789875541901 0 309.84789875541901 -64.846597442734605 0 0 0 0 1450.5952688991238 818.66630282591336 0 818.66630282591336 55.519736047934657 0 0 0 0 2038.7512579819995 -491.93217657132516 0 -491.93217657132516 -756.21548943715402 0 0 0 0 1133.5237854927291 -620.58821646015792 0 -620.58821646015792 -763.47090307778069 0 0 0 0 201.24179583643854 133.32978631749924 0 133.32978631749924 87.443321504656382 0 0 0 0 283.57526564079308 130.02479211262062 0 130.02479211262062 -47.58368855009553 0 0 0 0 197.09693233504368 144.09977658009387 0 144.09977658009387 164.46800379261808 0 0 0 0 186.48609965277865 9.7239360209056258 0 9.7239360209056258 -103.40858121876272 0 0 0 0 176.16601498045202 -56.842618841329795 0 -56.842618841329795 -100.26724861827324 0 0 0 0 95.290433846690576 0.39764747028948477 0 0.39764747028948477 -8.191958153641508 0 0 0 0 109.77523182047298 -144.92040802379051 0 -144.92040802379051 -20.513747738269274 0 0 0 0 110.09226684425812 -121.80829906670544 0 -121.80829906670544 -158.33323449235945 0 0 0 0 26.918096069399326 -119.71498150487247 0 -119.71498150487247 164.39120422233839 0 0 0 0 76.581718368935981 -259.40154557245069 0 -259.40154557245069 -503.90756514969377 0 0 0 0 531.11764045641758 -2.9055391638461288 0 -2.9055391638461288 -861.47383906020559 0 0 0 0 -3.5276366475868599 -0.48388165232579183 0 -0.48388165232579183 -0.5993124201594584 0 0 0 0 -27.28110028017727 46.069282385149599 0 46.069282385149599 -52.099692073098481 0 0 0 0 237.63840832661663 105.49512231280416 0 105.49512231280416 -255.5988176954086 0 0 0 0 299.85560226145026 204.48470768792441 0 204.48470768792441 -74.144039678375876 0 0 0 0 277.19176298605453 160.1379731855107 0 160.1379731855107 43.870794921064551 0 0 0 0 365.23993010993581 165.31505644314382 0 165.31505644314382 19.792786941332906 0 0 0 0 121.33293291644441 142.55790687271178 0 142.55790687271178 34.646161531582493 0 0 0 0 150.3904449584079 29.365145877442956 0 29.365145877442956 -220.07312156849201 0 0 0 0 163.68047057275726 -52.461074658480371 0 -52.461074658480371 -161.11459403378944 0 0 0 0 247.18769829135272 110.07500584845434 0 110.07500584845434 -23.010586406009338 0 0 0 0 129.13592697517015 -58.00511609377935 0 -58.00511609377935 -4.103531860620933 0 0 0 0 216.41182416863739 75.403664408546774 0 75.403664408546774 83.64121937501227 0 0 0 0 185.64216726389714 72.146559418060633 0 72.146559418060633 129.94213011453326 0 0 0 0 430.14268456413993 170.97597988058965 0 170.97597988058965 134.82721060492781 0 0 0 0 277.01299095119248 156.07396135276556 0 156.07396135276556 269.57544029395012 0 0 0 0 425.97636833199067 106.64434758226275 0 106.64434758226275 257.09737312975324 0 0 0 0 222.12095097365091 -34.323284086403874 0 -34.323284086403874 206.34252579712529 0 0 0 0 319.53185024458799 9.3473191755108473 0 9.3473191755108473 120.12292256615001 0 0 0 0 441.4857357413639 349.86673322023682 0 349.86673322023682 215.78790137940473 0 0 0 0 274.67925377305073 269.24182947489635 0 269.24182947489635 233.72275992062669 0 0 0 0 332.3052304146695 155.73159765281798 0 155.73159765281798 289.13569442185008 0 0 0 0 500.64279850085586 311.48172615010026 0 311.48172615010026 316.59337563458985 0 0 0 0 430.79018873424502 301.66585287935163 0 301.66585287935163 386.12512776249719 0 0 0 0 417.78575267287488 425.82517531565804 0 425.82517531565804 573.60715450319458 0 0 0 0 479.95148646525922 266.7299022349689 0 266.7299022349689 325.26737193704207 0 0 0 0 277.89442349543515 350.77246931998604 0 350.77246931998604 465.9489105047046 0 0 0 0 370.25222526877769 435.47044241657863 0 435.47044241657863 293.45874818620428 0 0 0 0 -135.22039148720796 -162.71660074895681 0 -162.71660074895681 -67.869012592094805 0 0 0 0 18.626878929963937 -2.783739153304694 0 -2.783739153304694 -15.74930587365208 0 0 0 0 362.41465712831359 205.18732480695718 0 205.18732480695718 12.764639372548611 0 0 0 0 275.12972721549158 302.43982208438496 0 302.43982208438496 322.30019609036481 0 0 0 0 346.65968413731025 365.64011707892172 0 365.64011707892172 218.34972993773457 0 0 0 0 21.923323991379732 -2.0739805178751141 0 -2.0739805178751141 -17.340326804947448 0 0 0 0 21.033391682743968 -36.442774647287024 0 -36.442774647287024 -73.455497451386236 0 0 0 0 -154.17452287054039 -117.30216339191884 0 -117.30216339191884 -21.065874178609334 0 0 0 0 277.60634429292986 -71.898724079549766 0 -71.898724079549766 -54.180952435976451 0 0 0 0 71.139678193692816 -16.938028913458879 0 -16.938028913458879 -68.80347641114804 0 0 0 0 110.81936511711683 -40.41475016340496 0 -40.41475016340496 -155.96654719336675 0 0 0 0 -37.480261165197589 -170.54741556738145 0 -170.54741556738145 -110.59379946291131 0 0 0 0 156.094049681662 -31.477348992246789 0 -31.477348992246789 -98.213341906205642 0 0 0 0 234.89542174593953 262.12644518656134 0 262.12644518656134 241.44776148301435 0 0 0 0 127.63321311766049 -48.172350022337014 0 -48.172350022337014 -165.36911083235191 0 0 0 0 82.737118985314737 242.89842485054851 0 242.89842485054851 -339.4322817522243 0 0 0 0 183.2141753936703 -11.336851465982022 0 -11.336851465982022 0.70436811253512133 0 0 0 0 22.515567376316483 12.645272364440359 0 12.645272364440359 6.9627140001726264 0 0 0 0 108.66802831729001 -79.03002162694338 0 -79.03002162694338 53.38123955799233 0 0 0 0 31.422538659222852 16.530889888088538 0 16.530889888088538 4.6566276773482471 0 0 0 0 49.875928094206756 43.568707592360738 0 43.568707592360738 -8.5412887356233114 0 0 0 0 63.250420745200245 15.666739562514977 0 15.666739562514977 -2.0037972682918053 0 0 0 0 34.896877151018998 25.425278178728149 0 25.425278178728149 17.907676552550583 0 0 0 0 69.792444021019037 -13.661904536994825 0 -13.661904536994825 37.992435509115012 0 0 0 0 208.42201795926667 -63.383551616591831 0 -63.383551616591831 -38.628609980993133 0 0 0 0 270.51509927763254 -47.871460805992228 0 -47.871460805992228 -61.482912864321861 0 0 0 0 27.033781819150335 -0.68221089420421777 0 -0.68221089420421777 -17.988771410086606 0 0 0 0 397.70110100280726 173.1023878369781 0 173.1023878369781 66.029687949332583 0 0 0 0 316.29710348748995 250.9927859340724 0 250.9927859340724 92.319291220513605 0 0 0 0 66.476946490307455 29.191581591651811 0 29.191581591651811 -230.25927296387408 0 0 0 0 46.368900732093607 -55.663570916438857 0 -55.663570916438857 -159.07032327447178 0 0 0 0 6.7270678156990869 4.7221273451875305 0 4.7221273451875305 -4.2449365842687321 0 0 0 0 -93.257279123110493 220.01778818835726 0 220.01778818835726 -31.558478322202973 0 0 0 0 783.70142415352166 -455.30021058602188 0 -455.30021058602188 -160.82245343984141 0 0 0 0 6.3863989833274672 -1.2213139680075358 0 -1.2213139680075358 -5.9244766670226481 0 0 0 0 368.41287606408878 553.16500816688222 0 553.16500816688222 -116.71704522126583 0 0 0 0 -45.794463155609265 403.70749502770559 0 403.70749502770559 401.3459279136614 0 0 0 0 52.684678727455321 124.52464224798268 0 124.52464224798268 179.76280450420131 0 0 0 0 74.872473394825647 -21.204598079179277 0 -21.204598079179277 -347.60568388069169 0 0 0 0 -196.63526075457048 113.28525410380325 0 113.28525410380325 -117.42237874263589 0 0 0 0 239.98116274469066 28.894168939579686 0 28.894168939579686 -108.61964593085941 0 0 0 0 213.97582712916483 368.81671516436427 0 368.81671516436427 -328.82802667659644 0 0 0 0 -41.623454964232224 531.46931273007726 0 531.46931273007726 -330.11614502622297 0 0 0 0 668.8240173082595 -393.89201781304564 0 -393.89201781304564 73.548232607382147 0 0 0 0 1085.1239891946025 -57.382879489093284 0 -57.382879489093284 -426.21380662327101 0 0 0 0 8.1126133357784624 4.4785219615939411 0 4.4785219615939411 2.1634280455457713 0 0 0 0 134.62109975136991 -119.6398811102581 0 -119.6398811102581 -33.443368091610523 0 0 0 0 124.47655819908596 171.99474516234486 0 171.99474516234486 -187.48291042907158 0 0 0 0 1.0139354111531134 -1.2357557062873923 0 -1.2357557062873923 -0.0085084824499439549 0 0 0 0 167.63794399274775 39.542298179964291 0 39.542298179964291 24.086155343062273 0 0 0 0 367.99803965198225 169.7690860222433 0 169.7690860222433 -1.7097977848634969 0 0 0 0 382.76735870509583 58.515257795411799 0 58.515257795411799 -229.28268889559558 0 0 0 0 281.75314890313166 -57.699141284101643 0 -57.699141284101643 -89.422591767000085 0 0 0 0 -375.65854501875583 109.96590875819334 0 109.96590875819334 90.770761287227288 0 0 0 0 388.51450478332117 1092.6181607917156 0 1092.6181607917156 -256.53137649813988 0 0 0 0 -176.11136504798196 -316.94624648841182 0 -316.94624648841182 -190.05545604579402 0 0 0 0 371.24783129849675 -15.787248693109042 0 -15.787248693109042 -228.49855809825931 0 0 0 0 371.98366646483191 -62.276117132881609 0 -62.276117132881609 -130.58827369725623 0 0 0 0 105.30456998638692 -57.9902867378878 0 -57.9902867378878 -79.419072738287468 0 0 0 0 122.37288595789869 -66.296847231219544 0 -66.296847231219544 -223.75741568705132 0 0 0 0 159.86648069182047 -4.4799161671298293 0 -4.4799161671298293 -122.56120262192144 0 0 0 0 113.68033063676558 131.42122974170707 0 131.42122974170707 -215.46787062769909 0 0 0 0 -31.465635153144831 179.35786458713346 0 179.35786458713346 -134.29967214100543 0 0 0 0 -25.905954914400354 75.776370732599617 0 75.776370732599617 -100.93663062864204 0 0 0 0 81.137342767902737 -11.997708084612327 0 -11.997708084612327 -60.478142700721492 0 0 0 0 357.56009136654029 -135.0238088579747 0 -135.0238088579747 -99.518971398398662 0 0 0 0 48.090131929711788 -73.734329069130069 0 -73.734329069130069 2.1452258134827389 0 0 0 0 3.9626461732658811 -0.12909430182031656 0 -0.12909430182031656 2.9683329874883819 0 0 0 0 18.233289139303452 -37.635201258321715 0 -37.635201258321715 -12.084086955691873 0 0 0 0 431.46251749603834 198.04055799582329 0 198.04055799582329 93.435282187668236 0 0 0 0 151.81782235554419 67.922065533877685 0 67.922065533877685 82.377807208008335 0 0 0 0 14.39082978641818 37.184482295313117 0 37.184482295313117 -80.132484050373023 0 0 0 0 24.171426085009372 22.844882612753963 0 22.844882612753963 12.274700855945998 0 0 0 0 10.276192065619398 16.202630928592626 0 16.202630928592626 -0.24827215617926868 0 0 0 0 15.207866691919435 11.5714702272561 0 11.5714702272561 3.4952983161492215 0 0 0 0 -1515.5206092624285 -140.93058203972146 0 -140.93058203972146 183.28134426822317 0 0 0 0 162.0888561369502 6.6401333245801197 0 6.6401333245801197 78.432537372690376 0 0 0 0 514.935946176789 -29.792657569721314 0 -29.792657569721314 -194.89238843981548 0 0 0 0 507.07975369496853 40.043192353306267 0 40.043192353306267 -90.565091181641947 0 0 0 0 553.85717430498335 12.736135585736179 0 12.736135585736179 -20.478267323899672 0 0 0 0 353.96093916765676 -138.797844334876 0 -138.797844334876 15.227286733102119 0 0 0 0 170.95865679960116 -82.388520601212804 0 -82.388520601212804 54.208125842792924 0 0 0 0 88.492465563977021 -66.649921895655552 0 -66.649921895655552 33.726015787954566 0 0 0 0 188.60647606778184 -21.893895821082026 0 -21.893895821082026 -72.791279858268354 0 0 0 0 32.271739332267316 -4.0409141700904456 0 -4.0409141700904456 -124.09473432313257 0 0 0 0 72.122666763549205 67.931074015542436 0 67.931074015542436 -24.154754692505776 0 0 0 0 28.886437098253595 15.907365778987895 0 15.907365778987895 7.669477756932233 0 0 0 0 -7.6355342698034292 209.30660134088401 0 209.30660134088401 -267.45330630479157 0 0 0 0 42.091132240318984 70.107801938974717 0 70.107801938974717 -211.13857287662677 0 0 0 0 154.60831592913019 -72.213238841759107 0 -72.213238841759107 -118.98197678863608 0 0 0 0 -37.234597581962589 29.205336951448317 0 29.205336951448317 -19.799393557417034 0 0 0 0 21.717045106660038 11.326317296889229 0 11.326317296889229 4.6585463364293709 0 0 0 0 15.591438001138158 208.30080556826442 0 208.30080556826442 -430.66517269182214 0 0 0 0 -20.202372366184136 64.687079576288852 0 64.687079576288852 -168.95885868831147 0 0 0 0 66.424762467489927 -32.601122971202358 0 -32.601122971202358 -102.21383201539447 0 0 0 0 121.91844889451022 -22.35595632265472 0 -22.35595632265472 -214.75496533937439 0 0 0 0 9.3012162954109954 50.411406154133601 0 50.411406154133601 -112.46079360770068 0 0 0 0 92.9191399737756 -85.185865063044048 0 -85.185865063044048 -27.519987974026208 0 0 0 0 77.733548869538936 -49.152845166607221 0 -49.152845166607221 -50.184683314085987 0 0 0 0 94.26774476902574 -67.710182280670892 0 -67.710182280670892 -97.694504121122463 0 0 0 0 77.094389322621282 1.9649478302903844 0 1.9649478302903844 -131.32576138535796 0 0 0 0 74.862941821818822 -30.77565747773906 0 -30.77565747773906 -52.045719257701876 0 0 0 0 45.331060654585599 24.983908578508363 0 24.983908578508363 -27.889404086600052 0 0 0 0 26.132694041836658 24.362972652537792 0 24.362972652537792 -77.781694398681338 0 0 0 0 -5.9809823752002558 245.45029317850845 0 245.45029317850845 -341.51631524862933 0 0 0 0 -100.91181279125158 113.99668077668207 0 113.99668077668207 -63.478241722701569 0 0 0 0 46.895433210258489 36.391542920937354 0 36.391542920937354 -96.435025013804534 0 0 0 0 32.325411437977891 19.345511899164066 0 19.345511899164066 10.723398217225267 0 0 0 0 9.628421343077207 324.3211714627663 0 324.3211714627663 -396.41993449457914 0 0 0 0 -132.59570489212638 98.011533051221477 0 98.011533051221477 -67.532987407193104 0 0 0 0 -36.716378675526357 33.582215507720548 0 33.582215507720548 -161.29247754199059 0 0 0 0 34.981351155006109 21.044297551128253 0 21.044297551128253 9.136919546782261 0 0 0 0 -52.533730862254743 139.10563687570493 0 139.10563687570493 -47.657131471737102 0 0 0 0 73.739888450800208 77.217074631260402 0 77.217074631260402 -144.09169642044753 0 0 0 0 -4.0059838066881639 22.473784499748945 0 22.473784499748945 34.249895058786933 0 0 0 0 133.64466807664743 11.449335140078226 0 11.449335140078226 -3.5607861366542317 0 0 0 0 -20.38525204337202 -41.968111962383091 0 -41.968111962383091 256.92527250333569 0 0 0 0 290.15270458329178 261.61969550823324 0 261.61969550823324 -155.12127849607805 0 0 0 0 183.97119494326762 68.417000639941307 0 68.417000639941307 45.220164079431925 0 0 0 0 135.42321807492408 -70.85928498077601 0 -70.85928498077601 -7.0333976172452708 0 0 0 0 92.061236604169608 207.56402917743185 0 207.56402917743185 -81.387423988922819 0 0 0 0 2.6821421484128223 313.26748628219684 0 313.26748628219684 -163.91283117697969 0 0 0 0 368.67707555996458 -123.27489807138647 0 -123.27489807138647 -97.657631937277529 0 0 0 0 6.8696924131849642 -0.72238609107473195 0 -0.72238609107473195 -2.9426562516352313 0 0 0 0 480.90390627398301 -31.345155217796446 0 -31.345155217796446 -92.840173154320837 0 0 0 0 378.53828938959487 -86.784575549619944 0 -86.784575549619944 -99.687149171289093 0 0 0 0 365.92692358482236 -68.81973024336753 0 -68.81973024336753 -77.495408790953888 0 0 0 0 153.78933603853511 -82.525220039037777 0 -82.525220039037777 -42.528657698720508 0 0 0 0 5.3145915136929034 103.91685020878032 0 103.91685020878032 -8.9652256092736025 0 0 0 0 73.204966234858148 -151.09868417288442 0 -151.09868417288442 -8.4616749056867775 0 0 0 0 187.09776867274923 -171.82015489506057 0 -171.82015489506057 -86.007644787443041 0 0 0 0 11.326076383229235 -12.442557519817882 0 -12.442557519817882 -4.1590887097178193 0 0 0 0 79.124605967313983 -69.53710243318892 0 -69.53710243318892 46.95106760649287 0 0 0 0 39.853528215418919 -24.005598135794116 0 -24.005598135794116 4.3946078272124396 0 0 0 0 199.68259890642366 -89.617696210646045 0 -89.617696210646045 8.7834049483276431 0 0 0 0 340.82333422839292 -89.790469549830959 0 -89.790469549830959 -42.876204388264966 0 0 0 0 256.93795556492842 -15.521002971388953 0 -15.521002971388953 4.4000412881596276 0 0 0 0 185.33594066926889 -23.726516963876065 0 -23.726516963876065 50.637397668699123 0 0 0 0 199.96041601766774 -29.288094127146906 0 -29.288094127146906 2.557558430663903 0 0 0 0 382.01633962920823 142.93554184265076 0 142.93554184265076 95.898131702308092 0 0 0 0 -25.317231238499517 -96.814525764215432 0 -96.814525764215432 242.62972027793785 0 0 0 0 82.698510749774869 -80.102464981722278 0 -80.102464981722278 87.779361018282543 0 0 0 0 103.69075980864727 -82.352363112855528 0 -82.352363112855528 -5.1894269896511105 0 0 0 0 66.433994297487516 -44.998678366127024 0 -44.998678366127024 38.337534215039341 0 0 0 0 86.614306365110679 -75.379688843967415 0 -75.379688843967415 39.288334671899065 0 0 0 0 152.93722750312736 -55.406708186972082 0 -55.406708186972082 -153.31612733794827 0 0 0 0 102.52865729120822 -44.439172297008554 0 -44.439172297008554 -79.61540598697502 0 0 0 0 16.849625679044195 -48.455057472201673 0 -48.455057472201673 15.403739737302223 0 0 0 0 95.017096269453759 -59.04777018829077 0 -59.04777018829077 -19.618913178686853 0 0 0 0 109.53950916053145 -76.234855963151858 0 -76.234855963151858 -8.6582915460330696 0 0 0 0 112.31228921608263 -0.022242155442263822 0 -0.022242155442263822 -6.100347789825685 0 0 0 0 155.99266308250662 -99.221258852607207 0 -99.221258852607207 -144.82726525988983 0 0 0 0 117.51888267690083 -124.11932947726791 0 -124.11932947726791 153.06419188270024 0 0 0 0 120.68902564188465 -170.06242574925727 0 -170.06242574925727 -69.421108726001876 0 0 0 0 212.92969276288113 -129.11307560495263 0 -129.11307560495263 61.371317005621677 0 0 0 0 52.272033575136447 -22.929511874350737 0 -22.929511874350737 45.703773653301369 0 0 0 0 113.91347733783186 -74.009646931599036 0 -74.009646931599036 17.405190822860277 0 0 0 0 150.70085085275059 15.471106914055781 0 15.471106914055781 -114.25000596843847 0 0 0 0 190.07276997430017 -73.429126642152369 0 -73.429126642152369 124.7674384073398 0 0 0 0 278.94424546105438 -112.30449605201966 0 -112.30449605201966 108.89643508830432 0 0 0 0 114.50880836329816 1.7670910572405205 0 1.7670910572405205 38.741584206232801 0 0 0 0 22.918972071518212 -6.6998961511079642 0 -6.6998961511079642 -0.89156149828573739 0 0 0 0 94.196417144557927 -56.275194383353664 0 -56.275194383353664 149.91502168079296 0 0 0 0 243.30055006672046 -16.946016809878984 0 -16.946016809878984 48.870562818999588 0 0 0 0 157.86511963896919 -118.57024716881733 0 -118.57024716881733 142.38898943662844 0 0 0 0 210.9092495853547 -106.58491087310949 0 -106.58491087310949 54.62581747729736 0 0 0 0 190.0003383331059 -130.64453735847849 0 -130.64453735847849 127.61301687489231 0 0 0 0 150.07185828351066 -57.535187614172628 0 -57.535187614172628 134.29081740708068 0 0 0 0 187.4046070829645 -1.6487078602413021 0 -1.6487078602413021 9.9133528495121936 0 0 0 0 289.421520443997 -72.508597264182754 0 -72.508597264182754 53.568260758365795 0 0 0 0 343.82675897929585 -16.031260539524283 0 -16.031260539524283 -17.994652755428461 0 0 0 0 300.64405415854708 -2.0935716149361667 0 -2.0935716149361667 -7.345172277767233 0 0 0 0 408.28452670226397 62.36707002914136 0 62.36707002914136 -21.564478344198506 0 0 0 0 295.51721532466036 26.32467269201743 0 26.32467269201743 -0.90733820792138431 0 0 0 0 300.87740964454133 -8.9429599895497631 0 -8.9429599895497631 -11.246334642948568 0 0 0 0 275.46358105076069 -46.278722320663746 0 -46.278722320663746 67.261957070052631 0 0 0 0 309.26093855184445 -1.8242950698975164 0 -1.8242950698975164 -10.943897804255357 0 0 0 0 249.97218184417579 26.484621561768108 0 26.484621561768108 18.981342376780958 0 0 0 0 324.92210367907683 41.940438254427818 0 41.940438254427818 -4.0169291551537754 0 0 0 0 359.74900857839384 -23.327568122167122 0 -23.327568122167122 -17.536759305937835 0 0 0 0 248.36355045996606 22.736079510426862 0 22.736079510426862 24.150780049326386 0 0 0 0 -48.877397242344159 -0.048629438517764356 0 -0.048629438517764356 98.778059054824553 0 0 0 0 244.9263768762612 -3.5631416211526812 0 -3.5631416211526812 -9.4207490590815723 0 0 0 0 -22.537484750821022 -47.756434086452373 0 -47.756434086452373 81.186039540689308 0 0 0 0 159.21595711010741 22.454507812918564 0 22.454507812918564 27.74405857982174 0 0 0 0 159.36079306749161 21.21679213005882 0 21.21679213005882 38.276548932933565 0 0 0 0 145.02052142177126 62.543364748685235 0 62.543364748685235 71.458002867237155 0 0 0 0 62.47300847270526 -3.8929161687710803 0 -3.8929161687710803 67.283058811033698 0 0 0 0 60.150299750326667 4.9355633345976457 0 4.9355633345976457 60.428635370562915 0 0 0 0 38.550842124328483 0.22171062536654063 0 0.22171062536654063 76.868381439967379 0 0 0 0 90.044497072056402 -48.332691029528632 0 -48.332691029528632 6.4508776933216723 0 0 0 0 117.20832307543333 -1.5033158822974144 0 -1.5033158822974144 19.594203572918559 0 0 0 0 32.684381226630649 -82.755232458448518 0 -82.755232458448518 12.143387122712738 0 0 0 0 120.22866327900556 -61.613511657586969 0 -61.613511657586969 -103.14575755327405 0 0 0 0 10.371599198932074 -19.763081984320095 0 -19.763081984320095 0.16140419850404264 0 0 0 0 187.9026573029696 -35.466493346492825 0 -35.466493346492825 -7.8549309243430798 0 0 0 0 255.26454870654561 24.488738688054582 0 24.488738688054582 -7.8304652582601193 0 0 0 0 -428.23044470092282 -458.22209648627302 0 -458.22209648627302 -110.52468409226071 0 0 0 0 -1.1821340227382393 17.601926605809354 0 17.601926605809354 -14.436635424804905 0 0 0 0 -67.947495874042943 288.65664945984122 0 288.65664945984122 -39.139855378621178 0 0 0 0 -497.55398857789987 -209.02391653676113 0 -209.02391653676113 -169.0219922193055 0 0 0 0 201.11327718952089 31.048119488707243 0 31.048119488707243 43.994537907389713 0 0 0 0 112.57701224341872 -4.4168375610302064 0 -4.4168375610302064 32.398939195154583 0 0 0 0 189.38654028282326 41.325370735775323 0 41.325370735775323 4.373438787071791 0 0 0 0 -1.9204762310255319 -31.174838140384963 0 -31.174838140384963 35.360188383774585 0 0 0 0 7.3869143983710615 16.466263913370383 0 16.466263913370383 18.104086866832482 0 0 0 0 -1.881527544987506 0.20902557664292942 0 0.20902557664292942 3.604298634462209 0 0 0 0 43.199022149317898 80.860594825984663 0 80.860594825984663 36.514617099624047 0 0 0 0 323.72496577686979 140.86813858248934 0 140.86813858248934 34.64553357821751 0 0 0 0 215.30259289592505 108.965360555384 0 108.965360555384 42.754133962052947 0 0 0 0 312.29520913070883 46.983279134233726 0 46.983279134233726 -11.599745359196731 0 0 0 0 -151.35953608404088 76.639090770877146 0 76.639090770877146 118.54402854134923 0 0 0 0 4.7740237572958364 17.951930791519516 0 17.951930791519516 31.22910225572539 0 0 0 0 201.8799159291666 2.4257195833288279 0 2.4257195833288279 41.787788565280607 0 0 0 0 52.735717900628515 6.2214550504469912 0 6.2214550504469912 8.5069609086026503 0 0 0 0 -142.7425118237079 76.265199167446525 0 76.265199167446525 29.854857837358622 0 0 0 0 112.19878867490479 -27.129308027198476 0 -27.129308027198476 -127.48269918601727 0 0 0 0 19.794192785939558 0.97161435994645728 0 0.97161435994645728 -4.2384877753007633 0 0 0 0 -72.666391426537302 165.60579145084921 0 165.60579145084921 -101.11258148389743 0 0 0 0 -113.18939073922229 112.50386846788163 0 112.50386846788163 -69.7726087954577 0 0 0 0 -99.367473156273491 -110.46277748768 0 -110.46277748768 -151.39206705832748 0 0 0 0 -89.714227314972959 179.99913679873566 0 179.99913679873566 -26.501143008139934 0 0 0 0 -115.59541766750044 143.34317838831669 0 143.34317838831669 89.324700972944811 0 0 0 0 89.366035428189207 41.452335481830232 0 41.452335481830232 -3.4374955025964482 0 0 0 0 66.582740071928129 103.85252589418087 0 103.85252589418087 -167.13111524757551 0 0 0 0 -1164.5598146408738 -150.59994564175759 0 -150.59994564175759 -152.82889219773642 0 0 0 0 20.610732420917856 -7.5240805533484831 0 -7.5240805533484831 -15.750087121965423 0 0 0 0 78.663125380900198 28.275018618041283 0 28.275018618041283 8.250730494512748 0 0 0 0 94.838173829411971 31.355055677589462 0 31.355055677589462 -5.2838006012866572 0 0 0 0 87.390435437271663 28.753000828591212 0 28.753000828591212 13.416648791748912 0 0 0 0 -35.220342300221091 5.3639513276361868 0 5.3639513276361868 185.26755089517292 0 0 0 0 257.40471543383319 166.35431166259878 0 166.35431166259878 172.15297380780248 0 0 0 0 7.4521007129806094 -130.32814557097754 0 -130.32814557097754 7.6712263478074192 0 0 0 0 55.427339627814945 36.16835617047218 0 36.16835617047218 -12.400373188552976 0 0 0 0 30.856249743810622 51.762526148975667 0 51.762526148975667 91.142360564852424 0 0 0 0 14.65478758449899 20.475862252091247 0 20.475862252091247 96.16973982518175 0 0 0 0 -9.8163347248337232 55.842651150777783 0 55.842651150777783 49.092190753301111 0 0 0 0 57.875205494565307 65.997421445767486 0 65.997421445767486 77.365369887706038 0 0 0 0 27.835875079676043 10.891031636068874 0 10.891031636068874 98.68411420215125 0 0 0 0 10.789162701781606 43.977644853982611 0 43.977644853982611 85.3684386518471 0 0 0 0 81.703507740981877 47.589033230317909 0 47.589033230317909 74.011422509367549 0 0 0 0 45.716819886554731 59.296453830233531 0 59.296453830233531 133.26182035020975 0 0 0 0 68.417669639224187 1.1626843715393989 0 1.1626843715393989 30.91315867891899 0 0 0 0 239.24068034027005 128.18136351695921 0 128.18136351695921 84.125391820816276 0 0 0 0 504.64713666250464 118.31664096503437 0 118.31664096503437 1.0190495594306412 0 0 0 0 437.88230168935843 -118.24580566684108 0 -118.24580566684108 52.161119788115457 0 0 0 0 912.26707046422234 -11.099558980010897 0 -11.099558980010897 -62.287043797460228 0 0 0 0 348.78286688090884 23.994410510005309 0 23.994410510005309 11.080283391514968 0 0 0 0 2.7396471032626835 4.2172912633633928 0 4.2172912633633928 11.319944631872792 0 0 0 0 44.099322270337126 23.83430161467416 0 23.83430161467416 9.3801491711095633 0 0 0 0 82.283013337721059 90.599255689337156 0 90.599255689337156 226.72568434887944 0 0 0 0 1389.253201560321 998.01411673531857 0 998.01411673531857 -440.58614685623616 0 0 0 0 209.90750457896866 553.00426817459277 0 553.00426817459277 497.18451014878883 0 0 0 0 -468.99062079088617 -291.64897101696943 0 -291.64897101696943 272.7585536491315 0 0 0 0 36.378519558114931 58.863244708649745 0 58.863244708649745 -28.145041190135089 0 0 0 0 60.281151792037889 17.130395387054563 0 17.130395387054563 1.755739021583353 0 0 0 0 87.405076101269515 15.158533754319251 0 15.158533754319251 -3.7158169828385326 0 0 0 0 -533.16906387766358 148.54448066778332 0 148.54448066778332 550.34924796128018 0 0 0 0 -18.853460923484818 -242.79756508580726 0 -242.79756508580726 -421.69794069312366 0 0 0 0 8.7807117796619423 -108.0448203916701 0 -108.0448203916701 -35.736567387588366 0 0 0 0 9.0258318900184094 -31.499982363197105 0 -31.499982363197105 -7.8866593657296091 0 0 0 0 56.705485395586038 20.818708358029838 0 20.818708358029838 -12.176720277148661 0 0 0 0 76.840747552849848 16.256239581512411 0 16.256239581512411 -1.0927287988899277 0 0 0 0 46.476540473522618 4.4121156323776631 0 4.4121156323776631 -14.595480379092805 0 0 0 0 44.118405002990855 2.872949922635172 0 2.872949922635172 0.16052484680055379 0 0 0 0 42.896507532158751 17.698372958046136 0 17.698372958046136 1.5674879876404635 0 0 0 0 53.241244709090097 20.438702420604841 0 20.438702420604841 -6.7724638235613384 0 0 0 0 50.535653696500958 25.791485756186262 0 25.791485756186262 -6.6839117036852258 0 0 0 0 10.434703093338619 2.4531115866107029 0 2.4531115866107029 -0.65109379638875708 0 0 0 0 8.261136352448375 45.365374541782785 0 45.365374541782785 -17.995967554017625 0 0 0 0 43.208237734456816 -13.430905009920366 0 -13.430905009920366 -24.617998434962828 0 0 0 0 91.044171837365866 37.614481975080707 0 37.614481975080707 -7.930266015504003 0 0 0 0 83.2667699645026 27.471671573641743 0 27.471671573641743 -11.678948840728026 0 0 0 0 81.763139014125045 37.505310097377333 0 37.505310097377333 -35.450995928540578 0 0 0 0 90.56587202258379 26.440456802683002 0 26.440456802683002 -33.941439919934965 0 0 0 0 87.869879870151635 21.264483727572951 0 21.264483727572951 -39.437591840798859 0 0 0 0 85.683558939726936 22.495349547837577 0 22.495349547837577 -22.1252919936735 0 0 0 0 83.997276223279187 13.787141705900922 0 13.787141705900922 -44.693954758480686 0 0 0 0 94.552219065815734 4.3081034515562351 0 4.3081034515562351 -48.812527834204047 0 0 0 0 99.736600316238764 -18.898137781027344 0 -18.898137781027344 -20.998038200686096 0 0 0 0 48.152519343015406 16.475037567969103 0 16.475037567969103 -25.869903701897961 0 0 0 0 70.997799876453428 49.85682525536572 0 49.85682525536572 -87.830045451898513 0 0 0 0 80.629676803560869 -19.144825274213872 0 -19.144825274213872 -80.598498876874089 0 0 0 0 75.797962855489459 -11.675848612352638 0 -11.675848612352638 -54.563635380124651 0 0 0 0 41.228149957918504 23.491940743996111 0 23.491940743996111 -70.405931292541936 0 0 0 0 9.6469802244828315 28.229191253316458 0 28.229191253316458 -71.085807953948461 0 0 0 0 82.506864038652566 24.767013590816532 0 24.767013590816532 -117.10319419638654 0 0 0 0 65.255819145626447 46.853992377014947 0 46.853992377014947 -143.01807682340223 0 0 0 0 52.531115150326514 69.152312407628415 0 69.152312407628415 -127.00434203110331 0 0 0 0 53.349840717270126 63.672767973054306 0 63.672767973054306 -114.19214169557017 0 0 0 0 43.828298799497134 29.872674762255883 0 29.872674762255883 -111.51443565697218 0 0 0 0 41.021159385811188 0.44386817650456578 0 0.44386817650456578 -9.2536541691565617 0 0 0 0 235.03367686393904 19.831810202836095 0 19.831810202836095 2.934668204470654 0 0 0 0 -7.6384887348622215 9.3068643296337541 0 9.3068643296337541 -80.684716897865655 0 0 0 0 6.1818495747764075 2.5078532534619811 0 2.5078532534619811 -7.009728718860643 0 0 0 0 2.3771674013169815 -1.1051610971321821 0 -1.1051610971321821 -1.2753115277506915 0 0 0 0 321.42528653278714 47.640350685025624 0 47.640350685025624 -45.535955834014203 0 0 0 0 -19.2316121229087 89.011301846184324 0 89.011301846184324 -68.807938630754506 0 0 0 0 52.991327673033084 72.147064109861731 0 72.147064109861731 -113.06960254932164 0 0 0 0 -174.0608740225216 -34.951616845816261 0 -34.951616845816261 -13.280209441451007 0 0 0 0 -45.487678960533231 151.40021044951027 0 151.40021044951027 -173.08787738252067 0 0 0 0 102.03645789407892 58.358456631051013 0 58.358456631051013 -211.29680475082932 0 0 0 0 85.387231370725203 76.8292849119116 0 76.8292849119116 -231.73322143110636 0 0 0 0 122.08833076847077 -42.791829925559796 0 -42.791829925559796 -222.46975606364845 0 0 0 0 -2163.0387618132518 256.17752603795816 0 256.17752603795816 415.96969841885584 0 0 0 0 123.72230026454781 203.76783268162944 0 203.76783268162944 -558.3963054660926 0 0 0 0 258.76862467154569 -19.668597747411695 0 -19.668597747411695 -368.3656733673979 0 0 0 0 288.3390038900543 -145.63785525398998 0 -145.63785525398998 41.136124000233394 0 0 0 0 -824.3514049302612 1322.7364661818365 0 1322.7364661818365 -832.70332205193336 0 0 0 0 261.37537139865162 -104.33938252032385 0 -104.33938252032385 71.475338319556613 0 0 0 0 302.76438770742971 -135.72411467549864 0 -135.72411467549864 16.849726187849228 0 0 0 0 303.17476550102583 -122.91721818029691 0 -122.91721818029691 -51.368308504701417 0 0 0 0 277.08698877270945 -78.96975828123459 0 -78.96975828123459 -8.5209255777226645 0 0 0 0 269.04033303275355 -87.733349217862269 0 -87.733349217862269 4.0632814962482371 0 0 0 0 277.52309419770609 -81.956440526080769 0 -81.956440526080769 6.6136341122619342 0 0 0 0 245.84174481604714 -61.492915220216673 0 -61.492915220216673 25.552547718822098 0 0 0 0 269.36236292405374 -48.967598358492978 0 -48.967598358492978 -22.701094493007986 0 0 0 0 218.59611310164473 -87.689863700970818 0 -87.689863700970818 -43.587874546000421 0 0 0 0 247.87002803968062 -113.0645805327099 0 -113.0645805327099 -21.699984995040722 0 0 0 0 265.78437770950768 -93.90213346414248 0 -93.90213346414248 -16.227490340374061 0 0 0 0 294.06021281124413 -116.21344082299311 0 -116.21344082299311 -24.403633384721616 0 0 0 0 334.8255767198134 -44.971325865594736 0 -44.971325865594736 -37.295675805169594 0 0 0 0 336.55654480846715 -45.887884532404314 0 -45.887884532404314 -36.836115186360075 0 0 0 0 476.24768986848358 -62.068899123475148 0 -62.068899123475148 -126.43361284044659 0 0 0 0 445.41468497303867 -189.72241587442613 0 -189.72241587442613 -2.5878757130781196 0 0 0 0 162.80283365719879 9.2514332476769141 0 9.2514332476769141 167.70815960359005 0 0 0 0 248.74604329201611 -195.9513026613788 0 -195.9513026613788 162.14899137010616 0 0 0 0 424.89561323987436 -184.05610612372175 0 -184.05610612372175 -31.453330530349632 0 0 0 0 440.93128287759328 -26.255877935229321 0 -26.255877935229321 -59.783290149361164 0 0 0 0 261.86138061030215 -219.99426455387652 0 -219.99426455387652 182.47692667434694 0 0 0 0 54.363953038686304 -43.067983187305799 0 -43.067983187305799 39.758789688389015 0 0 0 0 46.832574152111192 -22.675465631132965 0 -22.675465631132965 -6.0967970300189336 0 0 0 0 54.343830993049778 -5.8927046570390189 0 -5.8927046570390189 -1.3720817046219054 0 0 0 0 31.087420690374472 -10.188366453231634 0 -10.188366453231634 -6.5558305022662573 0 0 0 0 -0.059405491036258695 -7.3651606872042947 0 -7.3651606872042947 0.058468501992285482 0 0 0 0 30.197868334478699 -9.0828959725872664 0 -9.0828959725872664 16.081445631838506 0 0 0 0 34.375949690765992 -17.526803159429619 0 -17.526803159429619 5.6908086968433054 0 0 0 0 29.894206148345631 7.3114694567630565 0 7.3114694567630565 -4.5851164337142656 0 0 0 0 2.7648024158761118 -1.4516250085063689 0 -1.4516250085063689 2.8039773384459643 0 0 0 0 1.1123045035383257 -11.511455070165994 0 -11.511455070165994 40.630415319307531 0 0 0 0 206.60371456623579 88.068178114303919 0 88.068178114303919 37.855123973833543 0 0 0 0 19.130713952593936 1.7727501422846004 0 1.7727501422846004 -7.3954396708513386 0 0 0 0 8.1446948527164693 -3.078918521349145 0 -3.078918521349145 -1.0671169035751937 0 0 0 0 3502.3703093789518 -174.02607769398068 0 -174.02607769398068 -514.58752942095907 0 0 0 0 1396.0007930375359 165.4331115257861 0 165.4331115257861 63.397409237331544 0 0 0 0 1874.5754960450649 58.345407246235879 0 58.345407246235879 72.295416088193122 0 0 0 0 2051.8758855542383 -589.69978893526195 0 -589.69978893526195 -255.65452936078782 0 0 0 0 3489.9842807440036 -1023.5191879485047 0 -1023.5191879485047 -133.75277899453499 0 0 0 0 24.948393817851723 -0.64528076495552611 0 -0.64528076495552611 1.3565253185395747 0 0 0 0 3491.1034350340747 2748.6442691176535 0 2748.6442691176535 1979.3987957650165 0 0 0 0 712.48775683856911 191.2972028595639 0 191.2972028595639 -546.72655483609219 0 0 0 0 147.1808048788771 -1725.310070432661 0 -1725.310070432661 577.8792353445009 0 0 0 0 -102.74915044945374 169.89610643434838 0 169.89610643434838 1413.8539115232579 0 0 0 0 1347.9872934282903 -1031.1010082073956 0 -1031.1010082073956 -2165.715704346836 0 0 0 0 57.585925223123638 -0.59595873384643738 0 -0.59595873384643738 -5.0567057108589646 0 0 0 0 881.16992635025963 -30.501312247113901 0 -30.501312247113901 -1553.3130682945202 0 0 0 0 -611.16307864655755 217.57078093532911 0 217.57078093532911 -425.54001108246052 0 0 0 0 2593.169756846728 42.741024251110275 0 42.741024251110275 -446.02633314853659 0 0 0 0 1850.3167922784487 260.36195868878207 0 260.36195868878207 25.101655001574841 0 0 0 0 5.6336913322464994 9.1321957752011755 0 9.1321957752011755 14.906417746382218 0 0 0 0 1572.156041614493 900.87286650531394 0 900.87286650531394 910.86485767968998 0 0 0 0 1481.2163873953759 339.09960048454457 0 339.09960048454457 417.15995496747058 0 0 0 0 1510.2378750588105 433.63354139210128 0 433.63354139210128 117.70025539475716 0 0 0 0 417.72778210816614 -252.85786267233084 0 -252.85786267233084 59.579465007280589 0 0 0 0 51.344847311316698 169.10821610240248 0 169.10821610240248 77.47477601127818 0 0 0 0 28.824287070928946 26.335518148576561 0 26.335518148576561 25.830866104225109 0 0 0 0 63.905728228835869 75.354962979863899 0 75.354962979863899 8.1474330529508734 0 0 0 0 46.19474167044973 23.966892155677158 0 23.966892155677158 -20.773722075243882 0 0 0 0 34.886410067429608 17.948038126096563 0 17.948038126096563 -28.210801501033018 0 0 0 0 120.66219498955616 120.54497291245707 0 120.54497291245707 39.983053157086488 0 0 0 0 81.666779687453527 157.24860365600466 0 157.24860365600466 6.2643929693540485 0 0 0 0 61.400456598468736 79.70547957945621 0 79.70547957945621 100.13864056374223 0 0 0 0 -111.52431209703354 -66.890369090890886 0 -66.890369090890886 1178.2296861871496 0 0 0 0 65.819673805701314 151.55713124715021 0 151.55713124715021 83.911095604153104 0 0 0 0 137.07031862323493 770.46342130759103 0 770.46342130759103 107.18067192442186 0 0 0 0 -26.672422629377252 1216.132495836132 0 1216.132495836132 1109.5949684248562 0 0 0 0 -34.385127075609489 673.99544365466318 0 673.99544365466318 145.61534990446648 0 0 0 0 202.67525397984718 817.44241188796468 0 817.44241188796468 125.28666724330748 0 0 0 0 347.17006535325345 682.32760920550197 0 682.32760920550197 175.93418618118631 0 0 0 0 598.62020571289759 835.01123734131784 0 835.01123734131784 77.458509243182561 0 0 0 0 332.43489290834987 500.99932353426129 0 500.99932353426129 142.91944076686559 0 0 0 0 211.03382408954712 649.35346690422944 0 649.35346690422944 18.261514295545794 0 0 0 0 162.97680705748644 223.33073673129365 0 223.33073673129365 -402.07383014073548 0 0 0 0 -62.991656028010766 -49.121076850895861 0 -49.121076850895861 -335.12009511501265 0 0 0 0 606.39473678931245 -30.381909522079468 0 -30.381909522079468 -438.46849101888108 0 0 0 0 194.16840553610382 169.99892964802962 0 169.99892964802962 -319.9785283249239 0 0 0 0 380.45205145556247 376.13708964915895 0 376.13708964915895 -143.25416622440207 0 0 0 0 803.31590357278765 383.69713237462474 0 383.69713237462474 -218.31068013571189 0 0 0 0 1024.7264476334512 -107.91555177283763 0 -107.91555177283763 -323.07441271684411 0 0 0 0 274.33253025135491 -175.98027711192549 0 -175.98027711192549 -274.21122327880175 0 0 0 0 1742.1924175329623 359.27991567072399 0 359.27991567072399 16.479035522867889 0 0 0 0 908.31379775001187 555.7127726303919 0 555.7127726303919 -16.704927562574085 0 0 0 0 416.4391305771278 -468.74260787455 0 -468.74260787455 -132.08344845643592 0 0 0 0 -563.19253574754111 -641.0092022896074 0 -641.0092022896074 144.30014073235475 0 0 0 0 394.14286645206448 -207.05333946558585 0 -207.05333946558585 41.71252501587503 0 0 0 0 -468.53009198048676 -346.51926839601111 0 -346.51926839601111 -68.385109902256772 0 0 0 0 127.69566886259418 -42.917195982463113 0 -42.917195982463113 36.129975313389508 0 0 0 0 6.5322360647163293 12.398179656136108 0 12.398179656136108 -19.82034527755243 0 0 0 0 107.94360838893044 -360.17912794521953 0 -360.17912794521953 -509.20729477779054 0 0 0 0 99.435877882757268 37.544103179900944 0 37.544103179900944 -25.1939603779295 0 0 0 0 276.989428256682 -112.30104946481967 0 -112.30104946481967 -520.93602438605569 0 0 0 0 67.166687418844958 28.603245922124643 0 28.603245922124643 2.0049569270258871 0 0 0 0 54.627632074957205 18.234200087744703 0 18.234200087744703 0.23955994428951777 0 0 0 0 102.51670139390626 36.454781636740549 0 36.454781636740549 -24.872613784476926 0 0 0 0 160.19880533837204 -7.5853836959233831 0 -7.5853836959233831 -32.551535816744945 0 0 0 0 64.788491286970384 21.887220277464166 0 21.887220277464166 -8.2322392255892964 0 0 0 0 2.6236883500404531 -2.4367694241442663 0 -2.4367694241442663 -6.6535140591729123 0 0 0 0 35.650992879817252 1.2347269185195131 0 1.2347269185195131 -25.14488730085116 0 0 0 0 46.330286412747228 27.430110010908606 0 27.430110010908606 -2.657283997263562 0 0 0 0 75.949867500472465 21.197578175399087 0 21.197578175399087 -9.5733361332524964 0 0 0 0 91.442194611918239 34.418779760239204 0 34.418779760239204 -10.179460349707796 0 0 0 0 10.049799431617956 7.2991858155284888 0 7.2991858155284888 -6.2095236270402294 0 0 0 0 46.388188901859394 26.810080916532229 0 26.810080916532229 -1.3505919482351203 0 0 0 0 81.555030254472513 36.939220430153142 0 36.939220430153142 -11.630476845809767 0 0 0 0 53.926453294621751 47.338326821479278 0 47.338326821479278 -29.892778877453907 0 0 0 0 64.456154470672118 61.798017897670491 0 61.798017897670491 -47.705500865493747 0 0 0 0 43.614958003745876 28.954582332000903 0 28.954582332000903 -2.2446027176582 0 0 0 0 9.6818771022071175 8.7314205359888888 0 8.7314205359888888 -18.380315929398879 0 0 0 0 91.813674903340143 28.464107629270529 0 28.464107629270529 -27.135026056567767 0 0 0 0 54.383859499530047 20.930883570195455 0 20.930883570195455 -21.821846388225197 0 0 0 0 45.42027193553804 47.476231807674715 0 47.476231807674715 -50.016968850924755 0 0 0 0 83.22850500461891 24.112247529176912 0 24.112247529176912 -27.7521313539537 0 0 0 0 62.225685454890481 43.270860229102439 0 43.270860229102439 -64.135864620086011 0 0 0 0 25.516729399788247 -4.8306409404013806 0 -4.8306409404013806 -5.581894963620873 0 0 0 0 45.679006691592804 24.310567180615308 0 24.310567180615308 -47.304327319477409 0 0 0 0 41.961354079936427 21.868366142919385 0 21.868366142919385 -3.2874942880468723 0 0 0 0 39.693518548177963 32.754828098962449 0 32.754828098962449 -24.101061394704985 0 0 0 0 44.380102838775201 48.080825872942007 0 48.080825872942007 -21.855379212536825 0 0 0 0 59.475589944002422 52.302302997636502 0 52.302302997636502 -46.392213351044816 0 0 0 0 45.37262605554497 41.757479734995748 0 41.757479734995748 -38.703944540556591 0 0 0 0 54.724404600872731 58.870592345090465 0 58.870592345090465 -79.375735671962133 0 0 0 0 -10.985882777837105 66.877588148242012 0 66.877588148242012 -31.221917630561304 0 0 0 0 53.804755465877861 54.098915223006735 0 54.098915223006735 -39.716975952263539 0 0 0 0 62.531438946610251 62.231435212199109 0 62.231435212199109 -23.45300336713413 0 0 0 0 98.123206410262355 68.322750293322315 0 68.322750293322315 -50.258916065444126 0 0 0 0 46.268777577352012 65.559101542180116 0 65.559101542180116 -19.494291638572051 0 0 0 0 39.804089750290586 41.718270917170457 0 41.718270917170457 26.131623291322697 0 0 0 0 54.410263137149741 91.850609958261813 0 91.850609958261813 57.583378368581329 0 0 0 0 68.527857760920597 81.914585100088942 0 81.914585100088942 26.178625492131655 0 0 0 0 98.790142678817347 65.726534459236717 0 65.726534459236717 -141.64608951982825 0 0 0 0 106.76406790407054 144.02280143502551 0 144.02280143502551 -3.5787276904697052 0 0 0 0 81.778695544035145 10.234372880658981 0 10.234372880658981 -59.809345925942438 0 0 0 0 69.952021571051773 49.635330737528079 0 49.635330737528079 -60.856416127921648 0 0 0 0 41.412115781226021 43.894349660849002 0 43.894349660849002 -16.072231237167735 0 0 0 0 50.19272580909351 24.115939334491749 0 24.115939334491749 -4.5530549692604287 0 0 0 0 82.235659633097384 7.0222045195322593 0 7.0222045195322593 -18.827397899554427 0 0 0 0 79.55956293574809 24.052401077243402 0 24.052401077243402 -45.493199158202714 0 0 0 0 385.5232196114448 -100.63187742848987 0 -100.63187742848987 29.994487231709154 0 0 0 0 38.130760049179784 -9.4413504999286388 0 -9.4413504999286388 3.102860896515732 0 0 0 0 387.84766508249595 112.49334799707979 0 112.49334799707979 106.80605811575684 0 0 0 0 1462.2884746867967 632.29894253636087 0 632.29894253636087 116.61435119138605 0 0 0 0 1041.6332860619586 186.41372453708374 0 186.41372453708374 81.555730511697305 0 0 0 0 27.087548711088317 -13.046695088577554 0 -13.046695088577554 0.35020823286591862 0 0 0 0 55.809850011065009 -103.42203365234286 0 -103.42203365234286 -286.33890303616374 0 0 0 0 166.68819539321521 91.683554696976046 0 91.683554696976046 -273.75822211024229 0 0 0 0 138.34971974587825 -1.7335426308949096 0 -1.7335426308949096 180.42733358745352 0 0 0 0 102.44258307878499 130.70353959063419 0 130.70353959063419 96.268209993610157 0 0 0 0 172.26207217359303 -690.60789653965628 0 -690.60789653965628 -220.80749635927623 0 0 0 0 153.64746419475705 217.65375654952166 0 217.65375654952166 2.6032053566792683 0 0 0 0 3634.22912500042 1358.2965633445672 0 1358.2965633445672 478.66739777199427 0 0 0 0 13.980400401739885 -4.431733133847338 0 -4.431733133847338 0.053683507593779822 0 0 0 0 2348.0327231260089 -331.8427692993094 0 -331.8427692993094 -219.47057927814916 0 0 0 0 3501.5332872741474 520.37165427715581 0 520.37165427715581 299.1204653470686 0 0 0 0 3021.4164444619964 1024.249232651684 0 1024.249232651684 -225.12386618072992 0 0 0 0 3504.4628503125168 358.00702104888273 0 358.00702104888273 117.88078282917036 0 0 0 0 2342.1736045140206 221.79158179353212 0 221.79158179353212 -272.97493603978194 0 0 0 0 3247.6329083371802 296.51109400007493 0 296.51109400007493 -266.81100586282196 0 0 0 0 3498.3055151650296 521.17980140298221 0 521.17980140298221 -70.639467967698209 0 0 0 0 1648.6487943445554 988.95435156102178 0 988.95435156102178 413.14259016810394 0 0 0 0 3497.050522079574 -1890.9557541749964 0 -1890.9557541749964 1114.711879392629 0 0 0 0 -359.02271278987814 -167.17357342137353 0 -167.17357342137353 421.33787074530028 0 0 0 0 16.850776018148636 7.9179898893823193 0 7.9179898893823193 4.4298562396842147 0 0 0 0 -451.17090502083397 1228.5163422848095 0 1228.5163422848095 892.30277648698825 0 0 0 0 3492.2418331680451 1374.4263907813026 0 1374.4263907813026 -109.38858370643283 0 0 0 0 830.62715700079934 1689.3040860696037 0 1689.3040860696037 908.14355768724238 0 0 0 0 1892.6087178059061 750.69919297117451 0 750.69919297117451 -170.81260475726938 0 0 0 0 2068.023364503425 339.70124884268387 0 339.70124884268387 -6.3791337692813386 0 0 0 0 749.62292810873623 119.02071215698152 0 119.02071215698152 413.23464067373237 0 0 0 0 1150.4396401001754 189.82532717884661 0 189.82532717884661 272.96432607290046 0 0 0 0 778.44083030680122 -51.509854740723654 0 -51.509854740723654 -129.91104847049195 0 0 0 0 676.84006890202363 -47.380396684345783 0 -47.380396684345783 109.6407026741353 0 0 0 0 627.7483775576211 181.51370710993206 0 181.51370710993206 127.62701836060243 0 0 0 0 52.797439247202419 88.681793470643953 0 88.681793470643953 291.65794384718953 0 0 0 0 -1.3117941879195811 -1.2286274964225612 0 -1.2286274964225612 -1.0645652260644791 0 0 0 0 115.05516226636428 -34.796317399964948 0 -34.796317399964948 17.339241399673142 0 0 0 0 -43.694264771254893 45.178716650319636 0 45.178716650319636 10.104280091522384 0 0 0 0 218.09944376512067 31.354049625976984 0 31.354049625976984 77.67653451876663 0 0 0 0 650.97906984924339 -146.16843135795943 0 -146.16843135795943 -23.698753162554453 0 0 0 0 469.60474618531225 -436.65357511478123 0 -436.65357511478123 -79.933032048459154 0 0 0 0 -142.88827477712402 923.01706236559528 0 923.01706236559528 -388.72630456592492 0 0 0 0 116.11589749922132 -263.48065118480633 0 -263.48065118480633 433.93243280329841 0 0 0 0 51.993036234958709 21.986667835117032 0 21.986667835117032 12.278157153652955 0 0 0 0 11.392941889216559 0.88205470762513372 0 0.88205470762513372 -0.93080975665725374 0 0 0 0 2.3507643082847451 -5.2574713313680661 0 -5.2574713313680661 -5.209395976558973 0 0 0 0 21.433759357483964 -3.3598474850368456 0 -3.3598474850368456 -2.573596917109497 0 0 0 0 26.915402574111795 21.011225237192207 0 21.011225237192207 -53.694470200792352 0 0 0 0 -6.3465806993826845 23.417976241265649 0 23.417976241265649 -22.732570611560647 0 0 0 0 32.752358620491577 0.68799584160790062 0 0.68799584160790062 -22.48863631868705 0 0 0 0 3.9100980845105369 5.6258775305526427 0 5.6258775305526427 67.080869280288368 0 0 0 0 14.405058677402849 37.976555059054974 0 37.976555059054974 166.80168626838255 0 0 0 0 6.806730551426881 29.980870814289943 0 29.980870814289943 91.414595631395585 0 0 0 0 16.552203596442268 -3.6288503031947101 0 -3.6288503031947101 34.670869231879919 0 0 0 0 24.236148135238182 17.932117635122964 0 17.932117635122964 18.204447753045002 0 0 0 0 21.477659446594771 24.306769044115953 0 24.306769044115953 46.616820024711899 0 0 0 0 20.550551574138808 1.7726259916025242 0 1.7726259916025242 26.736270896647284 0 0 0 0 6.073184593107726 2.7950019706234031 0 2.7950019706234031 27.360024678958098 0 0 0 0 14.619775486955405 -10.995003425404363 0 -10.995003425404363 25.739384554654464 0 0 0 0 32.696696511804475 -14.076630555677752 0 -14.076630555677752 24.582468123877447 0 0 0 0 36.403072508517653 7.7351221711700049 0 7.7351221711700049 25.911646811017384 0 0 0 0 18.755889901589399 -3.8236952648555871 0 -3.8236952648555871 20.93807390502451 0 0 0 0 49.859199266724318 -5.8477707711120885 0 -5.8477707711120885 6.2942904046744559 0 0 0 0 38.285920483604968 11.099511330460853 0 11.099511330460853 -9.748967438125419 0 0 0 0 44.056187115610555 8.8253483680113654 0 8.8253483680113654 -19.871041062899479 0 0 0 0 45.611660125279741 10.257791588986677 0 10.257791588986677 -18.71371599708371 0 0 0 0 111.93902619833898 -40.235163073193803 0 -40.235163073193803 11.090835132730689 0 0 0 0 28.363423065238749 15.704567610561966 0 15.704567610561966 85.580915520763085 0 0 0 0 148.93186785690341 25.934423868072628 0 25.934423868072628 -39.44283688085369 0 0 0 0 30.883150166773703 6.9096987031349499 0 6.9096987031349499 -5.3122143059229643 0 0 0 0 0.67612430448207306 12.362749223604624 0 12.362749223604624 -0.15387498491615759 0 0 0 0 76.873248959000193 15.611165314530872 0 15.611165314530872 -102.17729487462701 0 0 0 0 41.51491924925358 17.36822548937063 0 17.36822548937063 -39.491001674851027 0 0 0 0 36.974772154873747 -2.0358932516490773 0 -2.0358932516490773 -1.4196265550245923 0 0 0 0 73.267210458987392 -2.1656204532919219 0 -2.1656204532919219 -29.827446648037949 0 0 0 0 76.131396287673851 -4.637055023395078 0 -4.637055023395078 -13.634005751066496 0 0 0 0 59.777993063402391 9.8961124267276546 0 9.8961124267276546 -16.540765830784039 0 0 0 0 -0.48059447936682176 8.1728218692422629 0 8.1728218692422629 -1.4091943348688787 0 0 0 0 56.1215562426205 -27.721615323224682 0 -27.721615323224682 -10.849224891048834 0 0 0 0 39.405787417454121 16.946151679108766 0 16.946151679108766 -18.644948720685761 0 0 0 0 20.095071122185914 -14.680249358606712 0 -14.680249358606712 5.8633757910184698 0 0 0 0 19.106994885727545 4.674767298860047 0 4.674767298860047 -0.97462746290011637 0 0 0 0 37.016150632502104 -5.9142212812253661 0 -5.9142212812253661 1.0756089707030014 0 0 0 0 50.88298164671869 0.61617070631052684 0 0.61617070631052684 -3.3201186116282315 0 0 0 0 34.300058018998243 4.431729451205257 0 4.431729451205257 -3.6476697791482593 0 0 0 0 51.32246033129195 -6.1430111667705205 0 -6.1430111667705205 1.4111813751051159 0 0 0 0 31.364728743719752 -14.619152829403902 0 -14.619152829403902 19.808560541783663 0 0 0 0 34.47294811410211 -14.46746955615224 0 -14.46746955615224 5.8619096205611925 0 0 0 0 9.4716409966065456 -4.6170117814827716 0 -4.6170117814827716 -4.1703850483809823 0 0 0 0 39.873715899753734 -7.9039382648841183 0 -7.9039382648841183 1.8058825132738434 0 0 0 0 63.15539481196538 -11.400422927754562 0 -11.400422927754562 8.1641936179562435 0 0 0 0 6.3768733135226974 -1.731760869945365 0 -1.731760869945365 -2.8062609510226744 0 0 0 0 52.589905286400608 -11.661176032636604 0 -11.661176032636604 2.3321778740714194 0 0 0 0 49.233049696502349 -11.035326086604982 0 -11.035326086604982 11.392960682231433 0 0 0 0 54.117764124883251 -4.4068800937297965 0 -4.4068800937297965 -13.613606392733274 0 0 0 0 53.378377211898624 -2.4404318675992727 0 -2.4404318675992727 0.42291658715521407 0 0 0 0 50.072732225118671 -1.1175908723001271 0 -1.1175908723001271 3.3616027956245489 0 0 0 0 50.881908030691193 -7.7823388750601907 0 -7.7823388750601907 1.956671881581542 0 0 0 0 64.985265906659833 2.4210791666785099 0 2.4210791666785099 3.8167624936854736 0 0 0 0 44.016367395609414 6.9771010150843793 0 6.9771010150843793 -4.3274484112692786 0 0 0 0 58.68707870846174 -44.846623551398125 0 -44.846623551398125 0.92846379536058521 0 0 0 0 89.18134072263274 -14.18694560632207 0 -14.18694560632207 13.300865937142134 0 0 0 0 7.6162439577251071 1.8390878897450458 0 1.8390878897450458 -1.1297681144431788 0 0 0 0 22.09952723515562 -9.5328556826798376 0 -9.5328556826798376 38.214503411448277 0 0 0 0 46.729543287927299 12.122892686121759 0 12.122892686121759 4.1157579490459284 0 0 0 0 68.226103615736065 7.6738629610945281 0 7.6738629610945281 9.7029083524273574 0 0 0 0 61.162051884340599 -1.5305304885923761 0 -1.5305304885923761 16.228272486606784 0 0 0 0 63.445269763460146 1.6510826473559064 0 1.6510826473559064 16.79575086840623 0 0 0 0 21.910458513370276 -18.90440736074882 0 -18.90440736074882 1.1197243377209274 0 0 0 0 75.889272479053034 -46.21603328882037 0 -46.21603328882037 14.031585609373906 0 0 0 0 107.68675500949757 -11.333145707744876 0 -11.333145707744876 1.4065000388044382 0 0 0 0 102.64119484581988 -2.6123928237647078 0 -2.6123928237647078 -13.492005859741766 0 0 0 0 30.284538879106329 -17.64913358959264 0 -17.64913358959264 7.6292013736865201 0 0 0 0 66.920008820844302 37.081428533546656 0 37.081428533546656 9.4985722363899363 0 0 0 0 112.02014503750888 18.450500307016114 0 18.450500307016114 -34.122698400199624 0 0 0 0 110.09763777463741 15.889902607103068 0 15.889902607103068 -5.534780770477937 0 0 0 0 352.69887058716176 239.05011164933967 0 239.05011164933967 -102.3234623326784 0 0 0 0 313.09924820375363 -110.24254384614278 0 -110.24254384614278 -61.615236845686923 0 0 0 0 76.128011711464751 129.91134885072512 0 129.91134885072512 -119.21914897372562 0 0 0 0 120.61530005333407 -10.670036286936806 0 -10.670036286936806 -21.752573827789774 0 0 0 0 148.31264654168444 -28.38428952984475 0 -28.38428952984475 33.664839079490548 0 0 0 0 -5.4352999459806597 -12.215721824472666 0 -12.215721824472666 1.4156991457476238 0 0 0 0 268.47906136692109 -107.46497882809035 0 -107.46497882809035 -26.249121048358774 0 0 0 0 3.3431907079067713 0.30850752067913234 0 0.30850752067913234 -1.2024544013211844 0 0 0 0 22.363289396183973 -9.7916904471436048 0 -9.7916904471436048 -5.7351934815649219 0 0 0 0 7.32902342732568 1.0911219783182773 0 1.0911219783182773 -2.6008233523076099 0 0 0 0 224.17258928262527 -208.2117782780002 0 -208.2117782780002 -25.388091733645751 0 0 0 0 564.39648582976406 -323.26961699903143 0 -323.26961699903143 -372.28570823801601 0 0 0 0 54.251743333459032 29.200878791132382 0 29.200878791132382 2.7633619830271496 0 0 0 0 725.66480710418364 -457.56892491487974 0 -457.56892491487974 222.62294669024959 0 0 0 0 -38.378392478174646 298.95743493367661 0 298.95743493367661 -324.40870255334897 0 0 0 0 202.70663357951526 -56.262441786956742 0 -56.262441786956742 -130.77905537011168 0 0 0 0 61.622459711448954 34.419684393199091 0 34.419684393199091 4.5296941534697819 0 0 0 0 496.84256398882627 -220.62070082288483 0 -220.62070082288483 3.4046159019026163 0 0 0 0 514.79007818003129 -243.28119678773805 0 -243.28119678773805 17.426050119544016 0 0 0 0 512.62890905253653 -251.31018290455722 0 -251.31018290455722 1.4366787484150336 0 0 0 0 495.89474943477137 -182.38116085989503 0 -182.38116085989503 128.48907247669285 0 0 0 0 456.9157979117449 -252.38616434878213 0 -252.38616434878213 59.179495589520457 0 0 0 0 1.6442040369335871 -2.273399533191057 0 -2.273399533191057 -20.025857533874309 0 0 0 0 2255.964245429343 -411.90886414844954 0 -411.90886414844954 -217.09592735727279 0 0 0 0 970.83238071806704 186.8269773014307 0 186.8269773014307 -10.085501386225928 0 0 0 0 1800.6998016213415 206.99031705656603 0 206.99031705656603 -209.36448411052442 0 0 0 0 1803.615273614851 577.02839905882627 0 577.02839905882627 -495.47062301456316 0 0 0 0 3500.2098609885493 204.695860412011 0 204.695860412011 -710.78031039200596 0 0 0 0 2279.5843119926167 -277.24979022389221 0 -277.24979022389221 -498.11014482738773 0 0 0 0 3499.3288702984728 -577.06083232648643 0 -577.06083232648643 -429.57387274536882 0 0 0 0 1973.9457308606206 -375.47530180618503 0 -375.47530180618503 -69.596319062877896 0 0 0 0 3.5799351421584946 0.57918057429048808 0 0.57918057429048808 -6.6034230329103352 0 0 0 0 620.95851379163742 -280.53431489879955 0 -280.53431489879955 537.40707499498262 0 0 0 0 40.91861949168343 22.243162373853252 0 22.243162373853252 4.2936661001417331 0 0 0 0 1675.6958309643869 -1206.9479912144998 0 -1206.9479912144998 377.2530185608237 0 0 0 0 2491.9448616871382 -1120.4792523461654 0 -1120.4792523461654 162.8609265986708 0 0 0 0 1832.6908834781175 -833.99178556285494 0 -833.99178556285494 457.71558526216302 0 0 0 0 42.660699923209904 -29.857782344452971 0 -29.857782344452971 -46.561878273549155 0 0 0 0 57.218325241963612 -15.094001837876021 0 -15.094001837876021 -33.913033394987707 0 0 0 0 71.090317453948956 -32.676787017007882 0 -32.676787017007882 -33.239323105918558 0 0 0 0 61.196332694991725 12.63701301969968 0 12.63701301969968 -45.400659971911409 0 0 0 0 58.268822465535777 2.8520681620684627 0 2.8520681620684627 -25.353866700697836 0 0 0 0 61.658282470831182 27.504331485937655 0 27.504331485937655 -6.4109058110352635 0 0 0 0 157.49531189941808 -41.801755833906554 0 -41.801755833906554 -37.78450633320972 0 0 0 0 154.22071341393894 -42.508261241602668 0 -42.508261241602668 -34.985668181265282 0 0 0 0 79.057545459505491 109.690398197984 0 109.690398197984 -199.26656661580637 0 0 0 0 -17.719230769842397 -2.8427261950801039 0 -2.8427261950801039 -23.262731718940358 0 0 0 0 10.542560796625242 -3.9524373607415946 0 -3.9524373607415946 -1.7428665331517408 0 0 0 0 57.736840849614964 -137.31178815613566 0 -137.31178815613566 64.518478320698705 0 0 0 0 331.93341095268988 -66.779363323595135 0 -66.779363323595135 -252.73229059873097 0 0 0 0 376.36388711288237 -159.55296600314364 0 -159.55296600314364 -215.04172061362624 0 0 0 0 144.4213392477759 -211.71453543973075 0 -211.71453543973075 74.92645489237475 0 0 0 0 50.12216864875154 -3.7673741328289907 0 -3.7673741328289907 -30.111646413777635 0 0 0 0 56.68539130490899 -11.805948048358005 0 -11.805948048358005 -47.330955265550074 0 0 0 0 69.277981534329228 -21.341044783633151 0 -21.341044783633151 -38.885539131623773 0 0 0 0 56.634879507623737 -11.891548361850369 0 -11.891548361850369 -27.634892675576339 0 0 0 0 53.325981723301084 -12.387951875367435 0 -12.387951875367435 -26.325520786461311 0 0 0 0 71.866805954643496 -29.017295988598107 0 -29.017295988598107 -27.237075712400383 0 0 0 0 50.610099954817997 -28.926589276489722 0 -28.926589276489722 -22.623605295361813 0 0 0 0 -2.5838960792653545 -20.780273111356813 0 -20.780273111356813 -20.008049240989166 0 0 0 0 20.260673584563392 -49.940928846954193 0 -49.940928846954193 54.925542649409181 0 0 0 0 98.199068905070817 -159.57510483695842 0 -159.57510483695842 194.63876189542498 0 0 0 0 3.0002467088418996 -2.6925435124152344 0 -2.6925435124152344 -5.3798283459140261 0 0 0 0 -31.889376537625594 -45.823663641554958 0 -45.823663641554958 -66.874076729292938 0 0 0 0 28.705230346621647 -67.895744053167618 0 -67.895744053167618 76.657676906714187 0 0 0 0 47.316218626059708 -75.057144128719301 0 -75.057144128719301 -48.503695364290479 0 0 0 0 83.590391329580598 -132.44476018214482 0 -132.44476018214482 69.074380117921919 0 0 0 0 170.37060549543548 -90.372077901853118 0 -90.372077901853118 -54.767813897535234 0 0 0 0 76.263441677921492 -97.10853012601001 0 -97.10853012601001 -20.391907733344851 0 0 0 0 107.73595080548148 -67.001301003227127 0 -67.001301003227127 -56.863120052760678 0 0 0 0 88.452339338175079 -39.05233820494368 0 -39.05233820494368 -26.511526437878501 0 0 0 0 14.420711423867331 -26.745615453528426 0 -26.745615453528426 -24.438635696229877 0 0 0 0 61.864108698778182 -27.274985978118366 0 -27.274985978118366 -22.099565957843879 0 0 0 0 -7.0505957193672657 290.94361628133993 0 290.94361628133993 -384.60269735562906 0 0 0 0 159.85956552375137 -8.6441805135646064 0 -8.6441805135646064 -14.050951423858351 0 0 0 0 59.07533023096039 168.89748103169586 0 168.89748103169586 -1227.0451341761145 0 0 0 0 30.036932151216625 -8.0503452336121697 0 -8.0503452336121697 -18.168574815285872 0 0 0 0 106.39474125812376 -101.92505912917477 0 -101.92505912917477 -112.9805997948788 0 0 0 0 103.05337842049997 -17.505824178879838 0 -17.505824178879838 -4.7791500864599392 0 0 0 0 167.78708390998509 47.552224517862669 0 47.552224517862669 -71.184594805810775 0 0 0 0 239.27340965203848 -117.91394557049267 0 -117.91394557049267 -69.346038584593771 0 0 0 0 99.788317196078424 -12.872982597407827 0 -12.872982597407827 -124.10040482395561 0 0 0 0 242.74855397782176 -77.461977155159843 0 -77.461977155159843 -85.019574722158723 0 0 0 0 381.29233993891103 -163.27268293393172 0 -163.27268293393172 -87.755875908740563 0 0 0 0 2.9761143853963432 2.9891447556529158 0 2.9891447556529158 -7.6972433350889702 0 0 0 0 -1101.0021824830656 541.59295345747523 0 541.59295345747523 170.06280384420097 0 0 0 0 361.2850776258274 -100.12808697595392 0 -100.12808697595392 -205.92446148300223 0 0 0 0 1.9280483041388266 1.2606063461759263 0 1.2606063461759263 -8.4641165311822419 0 0 0 0 281.46720806493249 -94.748353031050101 0 -94.748353031050101 -181.6366102554166 0 0 0 0 194.73101972183213 -107.03894173361368 0 -107.03894173361368 -51.136440124228102 0 0 0 0 119.17765414982568 -17.296595418834841 0 -17.296595418834841 -143.63291502907668 0 0 0 0 76.401162736736296 -10.690359366510165 0 -10.690359366510165 -73.936080964949724 0 0 0 0 97.732213238195982 -43.374530677230723 0 -43.374530677230723 -49.346221956015142 0 0 0 0 136.45314037241042 11.205408647922013 0 11.205408647922013 14.069699971158116 0 0 0 0 98.772635101326159 -32.772753977033062 0 -32.772753977033062 56.802686182214529 0 0 0 0 70.72749183603446 0.24734217924196855 0 0.24734217924196855 5.4978100141843242 0 0 0 0 69.183400189744134 -28.847535183615491 0 -28.847535183615491 -16.729018748765156 0 0 0 0 78.318114082461506 -19.876468512116581 0 -19.876468512116581 -3.7457674002056169 0 0 0 0 88.435625415790128 -17.74775628640964 0 -17.74775628640964 3.9538485061730171 0 0 0 0 128.0053789071244 -19.44315937101419 0 -19.44315937101419 -12.978884743373783 0 0 0 0 64.059714020029787 -19.426546884550589 0 -19.426546884550589 -9.4972797312002513 0 0 0 0 66.026087956517586 -2.9959013390580367 0 -2.9959013390580367 14.410255058835901 0 0 0 0 80.31314246858517 -17.194155670078032 0 -17.194155670078032 3.1639369873919296 0 0 0 0 72.667308968821089 -20.036635347423271 0 -20.036635347423271 -44.131609320782445 0 0 0 0 84.587141793817864 -19.194830495602218 0 -19.194830495602218 -115.37099468848328 0 0 0 0 58.221032541659952 4.3151040719376397 0 4.3151040719376397 -33.318079416045293 0 0 0 0 69.818055653253396 -3.6081895928900849 0 -3.6081895928900849 -15.766543678766539 0 0 0 0 75.33864386822097 -31.892489310223027 0 -31.892489310223027 -5.4750073542818427 0 0 0 0 78.052170233083416 -33.736087335818866 0 -33.736087335818866 7.2683255853989976 0 0 0 0 70.552878364214848 -3.1480041080430965 0 -3.1480041080430965 -35.215181552954164 0 0 0 0 50.116994596145531 6.9858050082295549 0 6.9858050082295549 -28.005008988769816 0 0 0 0 104.45432011676587 -53.395214130123335 0 -53.395214130123335 0.73812131279737514 0 0 0 0 104.26629763342493 -21.392614725921177 0 -21.392614725921177 -2.4088601950643351 0 0 0 0 82.071209174402043 -15.54639655811604 0 -15.54639655811604 -7.6862366222976952 0 0 0 0 77.686095478245988 -20.353713023332602 0 -20.353713023332602 24.316657348012995 0 0 0 0 85.059927118370979 -27.939995739928236 0 -27.939995739928236 -4.3998595086468413 0 0 0 0 42.668867484465977 69.807439863333641 0 69.807439863333641 -53.614954925127819 0 0 0 0 5.6565520025942533 42.587091183334223 0 42.587091183334223 -23.797768179540128 0 0 0 0 10.569929826793668 11.126246295793379 0 11.126246295793379 -15.538075490937231 0 0 0 0 76.948439327501092 69.985728349941809 0 69.985728349941809 36.257761916063316 0 0 0 0 67.980966932227602 -63.744890636582141 0 -63.744890636582141 22.530822664687928 0 0 0 0 1.01008910907359 -1.0405498907979092 0 -1.0405498907979092 0.50058453422654448 0 0 0 0 16.18737840977974 -7.7937605378174766 0 -7.7937605378174766 -24.265125944448755 0 0 0 0 15.161300419688587 -15.663920723197881 0 -15.663920723197881 -19.457727294362599 0 0 0 0 38.862245370608434 -8.6159620678427444 0 -8.6159620678427444 -25.369736441958281 0 0 0 0 40.794683693278785 -16.127074341810335 0 -16.127074341810335 -63.374171193554602 0 0 0 0 59.212202599639568 -45.574442250589854 0 -45.574442250589854 -27.176859344350593 0 0 0 0 290.07591520331334 -226.71254683424195 0 -226.71254683424195 -13.454665138946439 0 0 0 0 145.34981938899 -36.028272264652514 0 -36.028272264652514 -81.927860161153376 0 0 0 0 158.4794675424564 -131.3074010776163 0 -131.3074010776163 88.873915592881531 0 0 0 0 155.27669577990309 -105.25099817802766 0 -105.25099817802766 156.51024572003735 0 0 0 0 207.60177419493266 -79.341580255741064 0 -79.341580255741064 4.7599563465591928 0 0 0 0 97.78959929526718 -64.977716012998826 0 -64.977716012998826 3.6089192310646467 0 0 0 0 0.11423541157273576 -25.950894455010712 0 -25.950894455010712 -4.0092054798442405 0 0 0 0 245.83356941959937 42.791264811075962 0 42.791264811075962 154.98504887322196 0 0 0 0 0.15604337191975048 -1.1214938633762301 0 -1.1214938633762301 -1.6779507765181059 0 0 0 0 18.07393332576612 -10.341167744098755 0 -10.341167744098755 -27.31320427851977 0 0 0 0 23.498567525512044 -7.5970011114683302 0 -7.5970011114683302 -27.832664995156847 0 0 0 0 4.1614710434867845 3.8473426365770487 0 3.8473426365770487 -6.0402245269040158 0 0 0 0 18.302635892519902 -6.2545566462520128 0 -6.2545566462520128 -23.148668618820878 0 0 0 0 8.0058663001907036 -20.44953503775173 0 -20.44953503775173 -16.011308223261505 0 0 0 0 9.9823093133324292 -3.9728852129678174 0 -3.9728852129678174 -18.024461744231061 0 0 0 0 19.181301453303604 -8.6973046915260142 0 -8.6973046915260142 -24.896998916587279 0 0 0 0 19.248611509280991 0.81342487130753227 0 0.81342487130753227 -16.361394996064668 0 0 0 0 12.654976318257468 0.989319691558876 0 0.989319691558876 -26.573702103253709 0 0 0 0 5.8596542886643874 -4.7911802838170843 0 -4.7911802838170843 -13.520445585429115 0 0 0 0 -4.8903507038558018 -6.822041441161673 0 -6.822041441161673 25.383324834915584 0 0 0 0 -5.3506712464877637 3.4377354943308092 0 3.4377354943308092 -19.163677972865116 0 0 0 0 14.944720585612231 21.224161757275851 0 21.224161757275851 -53.249303186234101 0 0 0 0 3.8595920772205403 1.1693575016892126 0 1.1693575016892126 -2.5904488103469845 0 0 0 0 10.862653685999248 -0.87180244053706701 0 -0.87180244053706701 -11.677759172561309 0 0 0 0 86.022127912394353 -33.887358280906483 0 -33.887358280906483 -47.644355443570248 0 0 0 0 166.7626389845509 -100.16992529885681 0 -100.16992529885681 6.7645136603205174 0 0 0 0 2.9959564539501429 0.63741940001895081 0 0.63741940001895081 0.3238541465336493 0 0 0 0 -34.079893095374246 -67.307511568658413 0 -67.307511568658413 2.8856798745200649 0 0 0 0 98.926406493381364 -106.59957644184487 0 -106.59957644184487 87.250564386518818 0 0 0 0 34.487909673953254 -35.096570980842444 0 -35.096570980842444 43.636466995815681 0 0 0 0 0.75870839442450233 83.752563080751258 0 83.752563080751258 -55.40062677431888 0 0 0 0 9.4858070794143714 3.8075263640280355 0 3.8075263640280355 -28.441232716859304 0 0 0 0 9.586411595839671 -0.16117645517616452 0 -0.16117645517616452 -4.052408772731205 0 0 0 0 35.766373594873585 15.01453944480636 0 15.01453944480636 -102.94789350530118 0 0 0 0 156.15266576774411 54.515388763996725 0 54.515388763996725 -109.1188496360644 0 0 0 0 48.14105899079739 0.3362137044875535 0 0.3362137044875535 -6.6015023515974613 0 0 0 0 96.554822518115998 147.05747567244293 0 147.05747567244293 116.78826169434575 0 0 0 0 3.6682497408254342 -2.1488505319324052 0 -2.1488505319324052 1.1820132237676493 0 0 0 0 31.16922805737795 -37.041817683287491 0 -37.041817683287491 28.097019885642339 0 0 0 0 28.754285143234824 60.083286072722629 0 60.083286072722629 -12.694592540480016 0 0 0 0 19.92525977544301 5.5968063183405548 0 5.5968063183405548 3.7175593878524751 0 0 0 0 37.033301098294942 1.024215046024068 0 1.024215046024068 -22.998713533645855 0 0 0 0 25.588339453672234 -6.0265892381963795 0 -6.0265892381963795 -4.84733353843842 0 0 0 0 32.726509791514815 1.7225471754459725 0 1.7225471754459725 -6.3111866258295395 0 0 0 0 19.94230935572805 -8.0843194907225779 0 -8.0843194907225779 -4.3830812632697231 0 0 0 0 21.631361701482092 -0.18538857743260451 0 -0.18538857743260451 -68.294248981143198 0 0 0 0 33.292413977189426 -9.8162265549688072 0 -9.8162265549688072 -14.287325784524 0 0 0 0 24.424105065481925 -7.7177456326397724 0 -7.7177456326397724 -6.687592184964732 0 0 0 0 59.013005518144723 20.446886343277484 0 20.446886343277484 -28.595283616859383 0 0 0 0 -24.291368519506591 -103.20062393550836 0 -103.20062393550836 -51.370373554928165 0 0 0 0 364.71805180195133 -56.919456741279191 0 -56.919456741279191 -90.443435600717123 0 0 0 0 -162.23012297431126 -20.444535159209295 0 -20.444535159209295 271.24221904990418 0 0 0 0 53.093590309976207 -2.0547484112557868 0 -2.0547484112557868 4.7956974838745055 0 0 0 0 31.768471775332728 -5.7099783844090553 0 -5.7099783844090553 4.2151236193467412 0 0 0 0 48.853237541185081 -11.725164755193191 0 -11.725164755193191 -5.706302507191964 0 0 0 0 24.375273962469503 -15.515399756521433 0 -15.515399756521433 3.3658408419893062 0 0 0 0 -178.32520453256166 -73.269999992180828 0 -73.269999992180828 114.75044801326248 0 0 0 0 16.672593458620092 -11.813705981383967 0 -11.813705981383967 2.2709946981593827 0 0 0 0 24.708076088350936 10.698597149160832 0 10.698597149160832 -81.716449119143817 0 0 0 0 -44.672387271453317 99.833843914230101 0 99.833843914230101 -54.772464862515278 0 0 0 0 9.1000008634756426 5.9336808576054203 0 5.9336808576054203 -3.7209716966020538 0 0 0 0 -11.371881503573945 1.2517932323459036 0 1.2517932323459036 -66.119014793007409 0 0 0 0 252.50954259577475 256.47166860731272 0 256.47166860731272 180.46675805951162 0 0 0 0 112.48684861771528 -42.963271861684092 0 -42.963271861684092 -49.82881418599527 0 0 0 0 26.859853198774545 181.93120616198735 0 181.93120616198735 -33.96082794636942 0 0 0 0 -64.778657979671607 106.78856299342317 0 106.78856299342317 -72.366436307810773 0 0 0 0 41.573913834567193 11.008484679594753 0 11.008484679594753 1.4682102070366687 0 0 0 0 54.951191084084257 11.929078453618246 0 11.929078453618246 -19.75671751805703 0 0 0 0 68.479838080247646 -24.541600677848237 0 -24.541600677848237 -23.540502179936595 0 0 0 0 16.536043206935346 -13.576658752390358 0 -13.576658752390358 -15.621668037356812 0 0 0 0 40.959061505775551 -12.982477013328651 0 -12.982477013328651 1.7085909899690002 0 0 0 0 37.702380878288864 -30.387027272443902 0 -30.387027272443902 -20.73668155633527 0 0 0 0 1.1759185840198825 -16.678929730756636 0 -16.678929730756636 41.283078977696277 0 0 0 0 0.53571516929309837 7.5303833385796679 0 7.5303833385796679 26.85823946249252 0 0 0 0 10.620029198850261 -25.296184612621119 0 -25.296184612621119 130.23526044406208 0 0 0 0 94.709316240523094 -114.88411478487365 0 -114.88411478487365 92.222104999691851 0 0 0 0 281.89378083640474 -79.359758010078735 0 -79.359758010078735 -68.369901782587021 0 0 0 0 66.274223766591348 -56.488423852375618 0 -56.488423852375618 -29.421690616812839 0 0 0 0 65.433594375220082 17.972656359982238 0 17.972656359982238 -106.83160984821575 0 0 0 0 41.213518400765189 9.0354030612298022 0 9.0354030612298022 0.3326686244733148 0 0 0 0 38.747687494372599 -10.82688511750144 0 -10.82688511750144 0.42486145748669735 0 0 0 0 56.020397873617185 -7.854697530768135 0 -7.854697530768135 -0.077694757508879775 0 0 0 0 40.62210832249184 3.3069009085041898 0 3.3069009085041898 4.4882837120110253 0 0 0 0 79.880715134648199 -5.8728307112314866 0 -5.8728307112314866 2.7335056857343005 0 0 0 0 66.937143087598088 -10.565316423656725 0 -10.565316423656725 8.2277032048266676 0 0 0 0 31.63892069635267 0.36671985785574179 0 0.36671985785574179 17.989879890120847 0 0 0 0 32.558880351270318 -16.743276989248237 0 -16.743276989248237 5.1212061506289785 0 0 0 0 123.18644009385025 4.784595429290448 0 4.784595429290448 13.398652662987843 0 0 0 0 82.658740781309461 3.3613254207253682 0 3.3613254207253682 6.2282503397323978 0 0 0 0 23.076894125537862 -17.365058745169236 0 -17.365058745169236 7.5598404165520003 0 0 0 0 60.061365876914351 3.1266491116228963 0 3.1266491116228963 19.312004808770098 0 0 0 0 33.530623585103264 14.72099311021579 0 14.72099311021579 8.4771328522235763 0 0 0 0 36.138745197950286 20.172611508652427 0 20.172611508652427 7.4228108976696472 0 0 0 0 21.009681654813903 -2.9692626617818405 0 -2.9692626617818405 6.5593890113414091 0 0 0 0 42.621961775367112 0.24076055695427456 0 0.24076055695427456 7.3314990120750299 0 0 0 0 42.074425123487416 9.7900824410938423 0 9.7900824410938423 12.572481839124968 0 0 0 0 53.561488812447351 -9.4533103223344597 0 -9.4533103223344597 9.1728591205114753 0 0 0 0 55.671573807514505 -9.8495692168148707 0 -9.8495692168148707 7.6082144309593787 0 0 0 0 49.770675154798589 2.7425188385565704 0 2.7425188385565704 9.0247597553933296 0 0 0 0 22.188780594461399 -4.0090653533373626 0 -4.0090653533373626 3.0253256655828533 0 0 0 0 16.357431737170906 -3.9256854138421993 0 -3.9256854138421993 1.3912419128602942 0 0 0 0 30.78224447757384 -5.5605858406695461 0 -5.5605858406695461 0.32981291347001473 0 0 0 0 11.261111276784504 -0.68082474301320417 0 -0.68082474301320417 0.7695256291547139 0 0 0 0 55.097663155453212 -17.21877847551486 0 -17.21877847551486 8.8313864741439527 0 0 0 0 36.16156189893627 -3.6338621597240035 0 -3.6338621597240035 0.19436442429378076 0 0 0 0 -506.17236698906072 -90.844609183627199 0 -90.844609183627199 36.942908131672084 0 0 0 0 35.554546579873666 1.7732431903893957 0 1.7732431903893957 8.6410099028804801 0 0 0 0 33.91428127726067 0.58026940438605834 0 0.58026940438605834 3.0724877652619398 0 0 0 0 23.01941885134147 -0.77620961282013923 0 -0.77620961282013923 5.1566158794145736 0 0 0 0 59.191706820869115 -20.700775619527004 0 -20.700775619527004 9.5907923823340013 0 0 0 0 52.010410737800768 -14.118093457857736 0 -14.118093457857736 8.2691837509160848 0 0 0 0 11.290652037258777 -0.68986411967411954 0 -0.68986411967411954 13.813314517484136 0 0 0 0 12.788979263078545 -1.040444639468717 0 -1.040444639468717 5.6488862953733587 0 0 0 0 39.412607571779517 0.6506948654396183 0 0.6506948654396183 16.439436432930506 0 0 0 0 22.1189349752417 -33.258224735199065 0 -33.258224735199065 -0.33042351332892395 0 0 0 0 33.827615486574537 -11.092926374869958 0 -11.092926374869958 2.8639058250472562 0 0 0 0 1.3869886892098577 -19.355485733346612 0 -19.355485733346612 11.115802592461932 0 0 0 0 48.102158398273787 -28.296139395590103 0 -28.296139395590103 -0.01075455609337439 0 0 0 0 46.803794418005964 -17.545482907488577 0 -17.545482907488577 4.7258403198819181 0 0 0 0 16.56910619064147 -0.70815594101185031 0 -0.70815594101185031 -0.41740227243204187 0 0 0 0 37.078896909261175 -8.1913580949810694 0 -8.1913580949810694 14.57871518742661 0 0 0 0 36.778153746035741 -7.4336507277334931 0 -7.4336507277334931 7.7368644044863686 0 0 0 0 35.056139922378861 -0.25899953046882729 0 -0.25899953046882729 -1.4063627864891259 0 0 0 0 11.380074600221169 -4.8812609756331948 0 -4.8812609756331948 0.7932416293618525 0 0 0 0 42.185812675025545 -10.770473076709095 0 -10.770473076709095 6.0778840513153227 0 0 0 0 46.316587772640901 -8.5327794550802309 0 -8.5327794550802309 0.64347213792143521 0 0 0 0 42.735952027714745 -9.4022122163503923 0 -9.4022122163503923 1.4934461801040015 0 0 0 0 10.043515453277596 -2.8335709085716205 0 -2.8335709085716205 6.6572474222164209 0 0 0 0 8.648028504790318 -4.5095364269955525 0 -4.5095364269955525 -0.078401965076182023 0 0 0 0 1.4779104797627181 -3.1242656488040197 0 -3.1242656488040197 0.91508133598320462 0 0 0 0 16.00111941172554 3.3932915918303479 0 3.3932915918303479 3.1808702710131911 0 0 0 0 23.996226640203119 -0.97561145099817814 0 -0.97561145099817814 -4.629786092790166 0 0 0 0 44.66772845286539 -3.6431856847390236 0 -3.6431856847390236 -7.7782493669001269 0 0 0 0 41.950354620445751 4.3137603346699507 0 4.3137603346699507 -19.387969102000625 0 0 0 0 18.167171641929599 0.40051582442015388 0 0.40051582442015388 -16.584089073832729 0 0 0 0 49.364937965710851 -4.6807424500468642 0 -4.6807424500468642 -12.438691363135149 0 0 0 0 31.922333253208805 -4.6103049433085346 0 -4.6103049433085346 -5.9037443080308787 0 0 0 0 82.380815799210723 -66.863575409253372 0 -66.863575409253372 -3.3620077899190619 0 0 0 0 40.188266506891416 -3.518613925431513 0 -3.518613925431513 -3.9536588499506813 0 0 0 0 43.267979041999183 -15.676075954444613 0 -15.676075954444613 3.1645421411342607 0 0 0 0 43.515361492910017 -18.496713210231437 0 -18.496713210231437 -0.50060940143493582 0 0 0 0 -0.90553789490240888 -20.171546630128887 0 -20.171546630128887 46.061735353986478 0 0 0 0 48.262208408307274 -3.0007663034559684 0 -3.0007663034559684 1.0145879924734587 0 0 0 0 295.08659929431451 206.26828708394896 0 206.26828708394896 -167.37495957770898 0 0 0 0 33.900410712309167 124.53497879194583 0 124.53497879194583 232.47191312102223 0 0 0 0 -77.05794717509707 -305.56046900368619 0 -305.56046900368619 -336.2922829249037 0 0 0 0 -33.80920025069463 15.37430049931811 0 15.37430049931811 6.6121201228763766 0 0 0 0 19.461763175993326 -16.868119035950663 0 -16.868119035950663 9.8767485791204095 0 0 0 0 13.202532032817317 -21.798866651700706 0 -21.798866651700706 -1.9888928415366536 0 0 0 0 22.876775702869942 -32.851282849408818 0 -32.851282849408818 19.236752525132214 0 0 0 0 -5.9619913236376938 0.43127506132205795 0 0.43127506132205795 -1.2033466038309149 0 0 0 0 36.535740681682384 -21.370217978679619 0 -21.370217978679619 -14.752828323528053 0 0 0 0 20.668744464715473 -24.199070691302722 0 -24.199070691302722 0.35759044496717252 0 0 0 0 25.20547049380184 -11.279244697763716 0 -11.279244697763716 -27.302670456246688 0 0 0 0 37.26048926171751 -18.214566204754021 0 -18.214566204754021 -1.7836120878102122 0 0 0 0 59.934851729655747 17.155444416854607 0 17.155444416854607 -14.057394622194806 0 0 0 0 14.888114425213644 43.982786787748182 0 43.982786787748182 -12.763437119883747 0 0 0 0 18.936956713621839 -21.89355587504906 0 -21.89355587504906 -0.79977954322384903 0 0 0 0 26.733558941516094 -29.251780234608304 0 -29.251780234608304 4.5105539709329605 0 0 0 0 -74.838664522550971 -11.929840483691805 0 -11.929840483691805 26.806957985285408 0 0 0 0 7.3336248321527364 0.33785533895960995 0 0.33785533895960995 -4.6921339263741899 0 0 0 0 88.790776060566714 -58.813363381395902 0 -58.813363381395902 12.937378392390201 0 0 0 0 13.51300889607089 -13.666691801517398 0 -13.666691801517398 10.961186388102265 0 0 0 0 23.629739294580403 -10.020860645572411 0 -10.020860645572411 2.7927502200001224 0 0 0 0 16.475984248110763 -7.9300706148785594 0 -7.9300706148785594 1.3651435919882715 0 0 0 0 26.780462506510958 -195.44574873291458 0 -195.44574873291458 -201.80765900363895 0 0 0 0 14.344208549726318 -24.066137813528258 0 -24.066137813528258 -1.0984910384564728 0 0 0 0 19.659502363275294 -5.1403996246908683 0 -5.1403996246908683 -0.60036222514748161 0 0 0 0 -15.134449007658986 138.81568447366294 0 138.81568447366294 -860.05333988526581 0 0 0 0 104.26239662944317 -186.94045217466737 0 -186.94045217466737 -360.4646847535605 0 0 0 0 -347.67266083120739 119.07566686808104 0 119.07566686808104 259.60509929735872 0 0 0 0 3.359372620353323 -5.9646377424469552 0 -5.9646377424469552 -3.0922984903325617 0 0 0 0 481.84413517265239 -507.39029313951141 0 -507.39029313951141 -486.57297463318673 0 0 0 0 2003.285994529293 -191.13821171176323 0 -191.13821171176323 -266.14228415938669 0 0 0 0 30.024129218784765 98.618036713887932 0 98.618036713887932 -285.56984601173826 0 0 0 0 241.38488615380902 -756.31962572831003 0 -756.31962572831003 99.318868615569954 0 0 0 0 -93.450801353134011 -410.88732979816223 0 -410.88732979816223 169.16002960361777 0 0 0 0 -266.79394936437166 -227.9374915976714 0 -227.9374915976714 -205.382220292895 0 0 0 0 -235.44301186701705 -145.54746326007125 0 -145.54746326007125 10.054335690732842 0 0 0 0 22.312840580056218 -438.84742076890871 0 -438.84742076890871 -360.63436536060397 0 0 0 0 -22.451661959041303 -461.58656530288863 0 -461.58656530288863 17.536438782815821 0 0 0 0 -465.4483504235177 -316.49726983597611 0 -316.49726983597611 78.770558909921874 0 0 0 0 -105.49253115834654 -475.27440351962423 0 -475.27440351962423 125.58055228752619 0 0 0 0 -420.3399563715011 -201.21926710814841 0 -201.21926710814841 178.2418850383001 0 0 0 0 -655.87368339155728 944.37949696377154 0 944.37949696377154 -15.386553846456991 0 0 0 0 48.263850869140349 32.499030389230967 0 32.499030389230967 -10.247967286853637 0 0 0 0 -710.15522404702824 -348.18994675377098 0 -348.18994675377098 427.76453456514173 0 0 0 0 -1274.8545456337597 165.48419422880488 0 165.48419422880488 137.22065770798019 0 0 0 0 -702.43058416306997 537.51500966695164 0 537.51500966695164 1702.9199016665707 0 0 0 0 728.32886123070421 -1183.4700891491134 0 -1183.4700891491134 820.53997084966613 0 0 0 0 608.98768283557001 377.81126599085474 0 377.81126599085474 927.64654684885886 0 0 0 0 224.82660537217453 -680.31686690980041 0 -680.31686690980041 894.10828180046383 0 0 0 0 29.385739151318113 -1.4222825925931701 0 -1.4222825925931701 1.0126908994576844 0 0 0 0 91.394989360705949 -240.49236695973013 0 -240.49236695973013 297.86319411829118 0 0 0 0 722.14018737684637 28.232576726291427 0 28.232576726291427 374.08572105761505 0 0 0 0 563.01688012473255 846.45838942307466 0 846.45838942307466 -810.20853809260916 0 0 0 0 878.35283045812685 548.46181274939863 0 548.46181274939863 -105.40530330028741 0 0 0 0 367.33812653617952 431.32774875131463 0 431.32774875131463 -19.335425236871743 0 0 0 0 409.13493892043653 485.45442464545431 0 485.45442464545431 -110.77609448034218 0 0 0 0 1009.9195221578339 405.73494723736121 0 405.73494723736121 -375.07237439389519 0 0 0 0 848.24074070879942 652.83092447139279 0 652.83092447139279 736.74833633755225 0 0 0 0 966.14154671228789 337.16053780626726 0 337.16053780626726 -316.87873368127339 0 0 0 0 1436.7274730687786 850.49662577075378 0 850.49662577075378 -40.918399261893683 0 0 0 0 92.720932227141418 3.3054560511051445 0 3.3054560511051445 -0.42144122810619145 0 0 0 0 164.09076101711253 -363.55239456381605 0 -363.55239456381605 -597.74570678518876 0 0 0 0 -1342.9820766851553 71.000972959496721 0 71.000972959496721 -155.35215197785078 0 0 0 0 -35.910852777529954 -565.74242836904318 0 -565.74242836904318 -490.80501403665471 0 0 0 0 -416.54115858241647 230.98587983143818 0 230.98587983143818 167.50266551143704 0 0 0 0 -0.22358254619787488 3.0672945294666381 0 3.0672945294666381 -11.503705979844744 0 0 0 0 -362.73834503248145 702.51764351465863 0 702.51764351465863 152.95622460198047 0 0 0 0 230.40802042557436 59.218045306147502 0 59.218045306147502 -286.7791013398712 0 0 0 0 73.998233540479305 -2.1848829415175715 0 -2.1848829415175715 -310.86990444220487 0 0 0 0 -1.0394703626427004 14.531507810891927 0 14.531507810891927 -26.022197813847775 0 0 0 0 274.5028994821194 217.89260091355456 0 217.89260091355456 -94.588109774309942 0 0 0 0 -23.648824881510336 -46.234433462835341 0 -46.234433462835341 -272.38712466700463 0 0 0 0 -63.215313360125037 222.666471460602 0 222.666471460602 -74.532020600755231 0 0 0 0 18.32861393991152 194.31465751784071 0 194.31465751784071 146.95395805259909 0 0 0 0 270.29740621564906 118.23281039140019 0 118.23281039140019 -47.229904445697684 0 0 0 0 -2.6616471273246134 302.43869979482406 0 302.43869979482406 -59.573323672617789 0 0 0 0 46.312925125535259 -5.1207505292930904 0 -5.1207505292930904 -1.978097539466543 0 0 0 0 210.21279967314968 231.83228274028488 0 231.83228274028488 -233.34837804014887 0 0 0 0 58.423342019528718 -401.24576711700433 0 -401.24576711700433 -345.98371214006391 0 0 0 0 228.36907075739578 340.18144344491907 0 340.18144344491907 315.767031873831 0 0 0 0 358.26172472061899 21.309112739386364 0 21.309112739386364 65.526090886294696 0 0 0 0 -7.3036971713009873 7.6701652013116934 0 7.6701652013116934 -2.5403169006652537 0 0 0 0 1363.9593410051439 -22.175422174187588 0 -22.175422174187588 -633.76235325057587 0 0 0 0 1341.4471099982929 560.58043834616501 0 560.58043834616501 -449.01693742968109 0 0 0 0 750.53214448120889 -13.780301689304906 0 -13.780301689304906 -969.29896957406527 0 0 0 0 1063.943285015097 534.71183362777083 0 534.71183362777083 -948.42784463609314 0 0 0 0 468.88597639691216 140.00618534965542 0 140.00618534965542 -486.88595996189042 0 0 0 0 -163.27197576648155 -104.6588334012074 0 -104.6588334012074 -209.17481514262636 0 0 0 0 469.89434542005802 166.19049516862742 0 166.19049516862742 -104.44402681696101 0 0 0 0 18.923265969001996 0.85587264419689113 0 0.85587264419689113 -2.3067529890835767 0 0 0 0 675.93910283127661 1167.5415600167944 0 1167.5415600167944 1118.3889001288721 0 0 0 0 450.29348623634905 -362.9364718405684 0 -362.9364718405684 -733.1101252153403 0 0 0 0 181.88900678310711 -167.12715054104183 0 -167.12715054104183 59.379698842367361 0 0 0 0 1482.0136666499147 75.238039167740951 0 75.238039167740951 -1066.1577255138197 0 0 0 0 1311.3682876500807 1028.2634283807854 0 1028.2634283807854 261.76834490902809 0 0 0 0 265.19814698385926 -210.9727105135255 0 -210.9727105135255 -137.69025091380445 0 0 0 0 275.62451420493016 -437.32569161138485 0 -437.32569161138485 1636.5082035464084 0 0 0 0 369.15413088318019 -273.58667953541953 0 -273.58667953541953 -13.421838510177622 0 0 0 0 49.734829791629721 -36.683400434761396 0 -36.683400434761396 17.798567029929856 0 0 0 0 49.588985986898479 112.57405055134723 0 112.57405055134723 503.08837884164859 0 0 0 0 293.06479778785069 375.19042005507845 0 375.19042005507845 103.8005604325117 0 0 0 0 289.53123176871304 487.46020062108255 0 487.46020062108255 -285.65761056119482 0 0 0 0 427.52519628371738 -159.99632312238646 0 -159.99632312238646 -41.059248290621326 0 0 0 0 51.675812837518606 -39.821579914088943 0 -39.821579914088943 -31.892355184304279 0 0 0 0 98.333197113723145 -2.0153297775832471 0 -2.0153297775832471 -108.99455551401661 0 0 0 0 62.428364597392829 -37.025825297972006 0 -37.025825297972006 -32.100031221718382 0 0 0 0 -175.51358509304191 27.930740491928191 0 27.930740491928191 29.038030819738196 0 0 0 0 36.034289161578826 -19.879526437645037 0 -19.879526437645037 10.198186761359327 0 0 0 0 -96.928861538870478 -242.85703173423008 0 -242.85703173423008 100.80855642460028 0 0 0 0 -142.36919995221979 -19.84546853743268 0 -19.84546853743268 62.004671276557929 0 0 0 0 589.63565879755288 347.64001781567094 0 347.64001781567094 124.68195356228534 0 0 0 0 526.222073503091 395.5240703774823 0 395.5240703774823 182.15552855624446 0 0 0 0 360.88115522505905 455.99819057289506 0 455.99819057289506 621.44230893265217 0 0 0 0 556.20021830919904 429.12268746872041 0 429.12268746872041 87.780938720310587 0 0 0 0 773.78284818902011 378.51826821366456 0 378.51826821366456 -43.716844084678996 0 0 0 0 597.93457243252124 264.37500320006257 0 264.37500320006257 -19.734236339552581 0 0 0 0 711.67082789767312 539.99468506721519 0 539.99468506721519 214.55963554376831 0 0 0 0 441.63955814956535 212.8845433948984 0 212.8845433948984 -56.382910373449818 0 0 0 0 345.41477659740349 198.26897144985173 0 198.26897144985173 130.14468833488081 0 0 0 0 538.71129221873343 479.06280925704596 0 479.06280925704596 229.89183906204289 0 0 0 0 59.910367151442188 269.82321802733577 0 269.82321802733577 112.96572138133388 0 0 0 0 503.7952713191662 177.83132951463904 0 177.83132951463904 86.882029064352537 0 0 0 0 -29.08788021211285 -172.22596333336946 0 -172.22596333336946 27.804779801841505 0 0 0 0 244.83480546923602 78.266765247985859 0 78.266765247985859 323.76418975392335 0 0 0 0 315.89528013270683 187.29533610490807 0 187.29533610490807 -32.324004901838634 0 0 0 0 849.22610967372748 187.81939412950851 0 187.81939412950851 241.5571552114634 0 0 0 0 301.83531297715331 323.64249770838717 0 323.64249770838717 248.93465101332549 0 0 0 0 259.63287401613707 162.2398645770736 0 162.2398645770736 479.75542029197277 0 0 0 0 202.39910932286512 284.62648658957733 0 284.62648658957733 298.61188228674814 0 0 0 0 1157.1371527423835 860.03304702015157 0 860.03304702015157 548.53591024576963 0 0 0 0 600.12759677524627 661.25269669456611 0 661.25269669456611 642.37727607124361 0 0 0 0 496.63034243381026 371.46588785688118 0 371.46588785688118 402.41149036623028 0 0 0 0 14.488700177215101 -5.1446894852972598 0 -5.1446894852972598 0.4984319974050706 0 0 0 0 -104.5392949538782 320.44017394743696 0 320.44017394743696 -299.26162727678275 0 0 0 0 1850.0212383266717 -333.60305391059956 0 -333.60305391059956 -446.92213742764034 0 0 0 0 56.409417661123513 -7.4504272063461627 0 -7.4504272063461627 1.2297224343170443 0 0 0 0 -514.20636535624271 606.40076356727479 0 606.40076356727479 749.42743134478042 0 0 0 0 -737.06297685019308 -852.19416281433223 0 -852.19416281433223 1060.7205310302925 0 0 0 0 1481.668923811103 -107.52658559439624 0 -107.52658559439624 442.88973091552543 0 0 0 0 -411.95951158646858 -604.06455359493793 0 -604.06455359493793 294.61681178342769 0 0 0 0 -68.275717472399265 392.34990159171775 0 392.34990159171775 249.32778678963405 0 0 0 0 -218.55254255651016 -232.9505915945283 0 -232.9505915945283 758.30666401083181 0 0 0 0 206.78595296928688 -163.99721170031034 0 -163.99721170031034 -62.348117288669528 0 0 0 0 212.36452719600129 -148.32497268643056 0 -148.32497268643056 -44.422064917624994 0 0 0 0 156.82321450419659 -133.35817400244764 0 -133.35817400244764 -0.4259235374556738 0 0 0 0 81.848484315335526 -12.322699826056123 0 -12.322699826056123 2.0081929016176403 0 0 0 0 16.278006363160785 -174.80609632604228 0 -174.80609632604228 -323.1931233950254 0 0 0 0 1212.5795407408768 -158.3858961372448 0 -158.3858961372448 81.802924712888853 0 0 0 0 1.6906505815878461 -1.0301081037688036 0 -1.0301081037688036 -3.1304810610055895 0 0 0 0 1116.9579848010681 -398.81311170359686 0 -398.81311170359686 -2.7954602602239902 0 0 0 0 517.16352584862761 -280.8684234197608 0 -280.8684234197608 57.677412633547647 0 0 0 0 -122.02746081123769 135.62705066740637 0 135.62705066740637 351.64415550135891 0 0 0 0 1203.6001513953597 86.524208706304307 0 86.524208706304307 125.53615610184238 0 0 0 0 2.0974893651544804 3.155370443876528 0 3.155370443876528 6.0478528177761106 0 0 0 0 627.14332073307014 480.30407166386158 0 480.30407166386158 571.25069162801992 0 0 0 0 1453.7855466310702 -55.049544395888006 0 -55.049544395888006 168.50263213890139 0 0 0 0 576.44340248368098 621.41477122083506 0 621.41477122083506 1101.5373416325931 0 0 0 0 -202.94570592909622 4.7316217005800354 0 4.7316217005800354 1288.8595910151944 0 0 0 0 21.546472697380999 0.38014760427524052 0 0.38014760427524052 1.4506590983859713 0 0 0 0 27.918130977916007 945.47873549366795 0 945.47873549366795 961.41653249718729 0 0 0 0 1222.6820337979862 706.26756173928698 0 706.26756173928698 -81.918524380595045 0 0 0 0 -390.78028703136079 -884.74325155022052 0 -884.74325155022052 1003.5895753381151 0 0 0 0 -158.53033142318964 -362.71918271279264 0 -362.71918271279264 -243.14638483461226 0 0 0 0 13.708170915177966 4.2451140675502259 0 4.2451140675502259 -15.503565303239785 0 0 0 0 184.13719720493827 -59.306030377429124 0 -59.306030377429124 -491.92985068350299 0 0 0 0 96.776739424545667 55.1079945091642 0 55.1079945091642 -79.535996379663629 0 0 0 0 144.28809035907216 417.10869508936139 0 417.10869508936139 788.01644354228847 0 0 0 0 566.17661276478611 418.33060829856322 0 418.33060829856322 -48.595311135974043 0 0 0 0 -116.70876930816667 55.182646188300623 0 55.182646188300623 -116.60864880702411 0 0 0 0 154.3136481584188 -104.99800724533816 0 -104.99800724533816 -36.106190023439723 0 0 0 0 65.811743683515601 -7.8367543417987058 0 -7.8367543417987058 -6.9155770521301676 0 0 0 0 196.94145561500409 -166.60480855108312 0 -166.60480855108312 -320.00914986854423 0 0 0 0 22.482163599088736 1.0125266440051952 0 1.0125266440051952 -7.1469419461743904 0 0 0 0 141.51124781745239 10.816040245192198 0 10.816040245192198 -45.080016019997629 0 0 0 0 895.63064101961572 494.92900253825701 0 494.92900253825701 197.91912108163251 0 0 0 0 110.51697124011844 147.58399854156141 0 147.58399854156141 151.64761657702184 0 0 0 0 71.971073468655959 43.888008582340262 0 43.888008582340262 49.542151285264481 0 0 0 0 924.37594867324515 -592.168034266002 0 -592.168034266002 83.778368436869641 0 0 0 0 7.7824741039898981 -0.72608127593940353 0 -0.72608127593940353 -0.1984792710358434 0 0 0 0 1563.073011441913 -34.567501584193451 0 -34.567501584193451 115.57381454197639 0 0 0 0 408.84749660594389 -93.835242942131117 0 -93.835242942131117 639.26063413117936 0 0 0 0 504.13858211450861 -194.19129311269307 0 -194.19129311269307 17.789073622529031 0 0 0 0 908.41540588887437 -570.50602802545654 0 -570.50602802545654 261.28854523956124 0 0 0 0 1437.7530148802143 -77.050731154732603 0 -77.050731154732603 -143.96477499362481 0 0 0 0 634.22082730312832 -63.722656013008418 0 -63.722656013008418 -138.4554302315421 0 0 0 0 632.97444009253741 -282.52016330145011 0 -282.52016330145011 -48.029120210638212 0 0 0 0 603.05947745779122 -144.69695058058892 0 -144.69695058058892 -156.92212150357273 0 0 0 0 752.4805484783501 -131.83123110359179 0 -131.83123110359179 -158.8081132992229 0 0 0 0 326.92203007597709 48.230195767592249 0 48.230195767592249 -76.960830126641667 0 0 0 0 707.80690145596418 63.674838466856841 0 63.674838466856841 -82.54097757960335 0 0 0 0 599.04882525631547 -139.46619923614287 0 -139.46619923614287 -73.968615048746415 0 0 0 0 252.51047039816694 -81.299398031341411 0 -81.299398031341411 -26.315616381448478 0 0 0 0 271.44860866307499 -4.7828936760093939 0 -4.7828936760093939 -76.38003338736155 0 0 0 0 493.28721805374698 -304.54182108802235 0 -304.54182108802235 97.688916752201976 0 0 0 0 722.47785212575036 -125.40777357138347 0 -125.40777357138347 -153.89898569921252 0 0 0 0 601.49379030461569 -143.8619353050841 0 -143.8619353050841 -156.64624999743182 0 0 0 0 27.212988476094324 84.70448173940872 0 84.70448173940872 -53.470338639115596 0 0 0 0 -11.80603290084548 8.523810491534519 0 8.523810491534519 0.42804562801393331 0 0 0 0 -14.758866973057197 30.089256254563011 0 30.089256254563011 -24.51939544524166 0 0 0 0 165.34197014547317 144.17900838871105 0 144.17900838871105 -195.96897209683061 0 0 0 0 -11.222904680675583 17.270737870598765 0 17.270737870598765 77.927880350593114 0 0 0 0 31.06987668228976 102.59083391835605 0 102.59083391835605 27.990794450973453 0 0 0 0 190.78745718454775 -68.093935956045101 0 -68.093935956045101 -13.609660884808136 0 0 0 0 12.11130891640812 9.0153166099142332 0 9.0153166099142332 7.8385839790732721 0 0 0 0 15.614840319417576 21.009650215410865 0 21.009650215410865 3.9527033382782939 0 0 0 0 82.643553362819148 86.088650410186574 0 86.088650410186574 -241.92823234477976 0 0 0 0 15.669242941916309 33.1484751906155 0 33.1484751906155 -231.50182038556432 0 0 0 0 50.994936419026999 86.649290210524214 0 86.649290210524214 -214.98983711344226 0 0 0 0 48.559256037561767 211.44340911511441 0 211.44340911511441 -280.84438158116114 0 0 0 0 89.445315629883225 118.21926696052174 0 118.21926696052174 -195.28198721627632 0 0 0 0 161.40034914382801 10.944723714068525 0 10.944723714068525 -1.1670564505049161 0 0 0 0 834.11024583307517 -517.82414759733888 0 -517.82414759733888 184.65564993031967 0 0 0 0 1.9175516041900238 3.7372717126656596 0 3.7372717126656596 4.5477515337980314 0 0 0 0 950.16601434107451 -188.19640736806747 0 -188.19640736806747 -106.89184413737416 0 0 0 0 781.04929777907819 168.18542381943166 0 168.18542381943166 -2361.0483948853462 0 0 0 0 -65.981838667114062 416.25112939011979 0 416.25112939011979 -572.09876695336698 0 0 0 0 220.57205537943884 20.175207441305425 0 20.175207441305425 -1.4246724106141373 0 0 0 0 97.088392362740706 -60.101056935633096 0 -60.101056935633096 -1989.3229387964248 0 0 0 0 1566.5460544797752 -437.02350050548239 0 -437.02350050548239 -888.1594771727423 0 0 0 0 255.20679588289656 25.551716324548181 0 25.551716324548181 -0.9311682209335661 0 0 0 0 -580.60103821984922 -231.60132612086318 0 -231.60132612086318 -214.79948007069834 0 0 0 0 -2450.7863137531203 1352.8493046494991 0 1352.8493046494991 580.0663296936882 0 0 0 0 1147.1765219787767 349.35311925727007 0 349.35311925727007 46.968622820563269 0 0 0 0 8.4165891977958438 -5.0088819600868639 0 -5.0088819600868639 4.7927078653541528 0 0 0 0 3523.6693115282542 123.14186338727814 0 123.14186338727814 -973.88787404427103 0 0 0 0 1332.5399316960393 -106.62258777445641 0 -106.62258777445641 -115.70174854927973 0 0 0 0 843.63922634787968 273.59348844471327 0 273.59348844471327 80.336195319895069 0 0 0 0 853.51250089142559 -145.69712602000163 0 -145.69712602000163 -40.990810657265001 0 0 0 0 266.40427680228095 121.31040729388133 0 121.31040729388133 65.624270056607429 0 0 0 0 611.33170498353138 124.54906319258237 0 124.54906319258237 -47.702231728112793 0 0 0 0 31.803451254268154 -18.655211926291091 0 -18.655211926291091 5.1086359572888185 0 0 0 0 111.07530390765169 -14.387083959655513 0 -14.387083959655513 -2.0624450100192178 0 0 0 0 128.30366963427878 -48.494260622164447 0 -48.494260622164447 33.721617484830915 0 0 0 0 397.17238041689779 -476.37059928613189 0 -476.37059928613189 -142.16549089384353 0 0 0 0 618.47799110603228 -103.37646793611293 0 -103.37646793611293 -1125.3229624078433 0 0 0 0 2570.5407577154401 874.31554817809956 0 874.31554817809956 -690.80221770168964 0 0 0 0 236.51359189380139 25.096509949273983 0 25.096509949273983 -0.17286465683145269 0 0 0 0 549.21980562281897 -480.62780218309172 0 -480.62780218309172 -824.48072398729164 0 0 0 0 229.17114784980367 156.47592067187907 0 156.47592067187907 -741.62743383169982 0 0 0 0 -218.89295969517298 98.550926629591459 0 98.550926629591459 -68.305748021994077 0 0 0 0 34.553685181723267 -375.12311294176038 0 -375.12311294176038 -128.03334816332517 0 0 0 0 326.87477875508921 -513.91234871321285 0 -513.91234871321285 104.34091018310818 0 0 0 0 270.07621156875393 -6.8536038473275767 0 -6.8536038473275767 -121.40483085430878 0 0 0 0 170.11826914554132 24.693722646617903 0 24.693722646617903 3.114033125308068 0 0 0 0 251.18469908427505 10.030667149258079 0 10.030667149258079 -260.61527542697422 0 0 0 0 292.08347409736598 -102.874764703869 0 -102.874764703869 -334.57225560636709 0 0 0 0 33.758419467918145 -12.243487403248754 0 -12.243487403248754 -12.46173478780814 0 0 0 0 120.49499806716631 -100.05002969229008 0 -100.05002969229008 127.10530177201781 0 0 0 0 -83.835887245049889 174.0633050511899 0 174.0633050511899 -46.850797856122881 0 0 0 0 2.0665118867269072 0.25389352353698058 0 0.25389352353698058 0.39725391464648574 0 0 0 0 78.486933616004535 32.23472600878722 0 32.23472600878722 -201.19722597119107 0 0 0 0 21.54197528030636 110.05532404204996 0 110.05532404204996 -74.513234832134913 0 0 0 0 69.383328762050553 9.7039073068872241 0 9.7039073068872241 -38.895134846786029 0 0 0 0 -1.0690324748284183 71.837789913810866 0 71.837789913810866 -55.600037318046816 0 0 0 0 36.934245019614536 92.42127199758329 0 92.42127199758329 -87.533626817070399 0 0 0 0 54.210174526408082 77.556694625922319 0 77.556694625922319 -55.547095274980165 0 0 0 0 26.804258267864498 73.971524751911147 0 73.971524751911147 -24.606171641011315 0 0 0 0 105.75760618918866 43.677309266628072 0 43.677309266628072 -120.72409169009461 0 0 0 0 6.3440171501715668 -223.11015026799305 0 -223.11015026799305 331.97029122023105 0 0 0 0 34.172464973351452 -71.092755816446697 0 -71.092755816446697 321.88256085749339 0 0 0 0 -0.99820923991137533 4.4280727997393114 0 4.4280727997393114 -11.137745694246405 0 0 0 0 9.1590111049154075 17.85099849948142 0 17.85099849948142 -40.271397552920462 0 0 0 0 -9.0610038244776661 18.042744804638858 0 18.042744804638858 13.915886364410937 0 0 0 0 1.9540609333926113 6.9466968693905073 0 6.9466968693905073 -34.860604859425166 0 0 0 0 3.0003233210882598 -1.6718929652014936 0 -1.6718929652014936 -0.70988319598775862 0 0 0 0 -31.514407513313927 31.824372122981003 0 31.824372122981003 -71.130062346659543 0 0 0 0 9.3263678270959645 20.050907895887597 0 20.050907895887597 -28.839904672234752 0 0 0 0 -9.006234577851771 35.222360389855076 0 35.222360389855076 -31.373704618863286 0 0 0 0 3.7080933436955092 23.939328024117913 0 23.939328024117913 -25.297542610099754 0 0 0 0 5.0054197772271181 10.656262926684136 0 10.656262926684136 -6.9959840994092461 0 0 0 0 -1.8691318203418632 34.065815095141943 0 34.065815095141943 8.3023870761371654 0 0 0 0 3.9380506351517397 26.299950675526816 0 26.299950675526816 -5.5386338742109729 0 0 0 0 -9.3535033865700825 5.0691809919926527 0 5.0691809919926527 15.936334486832493 0 0 0 0 44.463730763898639 103.30538322166558 0 103.30538322166558 34.32704726679583 0 0 0 0 -7.0176258984760551 11.378078612232784 0 11.378078612232784 -12.459235823847608 0 0 0 0 -12.529488262207451 30.322644822235702 0 30.322644822235702 -32.379623795806765 0 0 0 0 41.072227766177093 71.76488981256125 0 71.76488981256125 -8.1580337093073467 0 0 0 0 51.37015346615226 81.363956853843774 0 81.363956853843774 -22.499216109799818 0 0 0 0 56.58716673537856 6.7986419020235189 0 6.7986419020235189 28.50728709915893 0 0 0 0 30.279716313438257 30.305603070570214 0 30.305603070570214 -81.225188854893986 0 0 0 0 22.579111398124951 92.301355497000259 0 92.301355497000259 1.5274094082778902 0 0 0 0 -1.2495126886038861 2.1254281916114408 0 2.1254281916114408 -2.3072040875140161 0 0 0 0 0.34227786789415404 53.238104577345894 0 53.238104577345894 -113.34606165211335 0 0 0 0 9.9094398843008094 15.239210507758344 0 15.239210507758344 -44.654305904015473 0 0 0 0 -26.110818809094781 43.436817457158213 0 43.436817457158213 -24.367138577410515 0 0 0 0 -2.9823464117289404 20.828846583919585 0 20.828846583919585 -20.481066669103711 0 0 0 0 10.520981042125612 10.61638645634465 0 10.61638645634465 -1.1049962673593257 0 0 0 0 61.793549726000492 9.8575346775442085 0 9.8575346775442085 -15.323031614756474 0 0 0 0 90.298989971506671 -13.84446157104685 0 -13.84446157104685 20.379797041634447 0 0 0 0 4.4785705348811238 -2.603844905108879 0 -2.603844905108879 0.10820506061052804 0 0 0 0 276.22461719005651 -100.97712471101255 0 -100.97712471101255 -26.336455438160556 0 0 0 0 288.99772571968424 -183.59417253894844 0 -183.59417253894844 22.100424992140688 0 0 0 0 415.86645287502324 -116.35956861096656 0 -116.35956861096656 -101.43443334518111 0 0 0 0 605.95335599252212 -128.89072475868329 0 -128.89072475868329 -112.90642902688279 0 0 0 0 458.41901618335396 -79.02882926431073 0 -79.02882926431073 -101.56812515142735 0 0 0 0 377.23179533504663 58.904097245077935 0 58.904097245077935 -62.596607148170733 0 0 0 0 762.64179779035112 -48.419188468237564 0 -48.419188468237564 -140.78900859745931 0 0 0 0 686.80793409194303 -135.47720490880511 0 -135.47720490880511 -42.941342046132604 0 0 0 0 316.96991099511069 26.372431327816685 0 26.372431327816685 -31.463536505058528 0 0 0 0 295.67788007056151 51.200077003299867 0 51.200077003299867 -2.2439475002537961 0 0 0 0 124.66908036850509 -35.121618391473476 0 -35.121618391473476 -26.802610663942232 0 0 0 0 82.133331636083312 40.854121969907283 0 40.854121969907283 -64.880060335999133 0 0 0 0 332.82583753945073 2.493079170269084 0 2.493079170269084 -59.035836560303323 0 0 0 0 234.06434843403258 45.525631903546127 0 45.525631903546127 -152.95270316770717 0 0 0 0 170.04244408386876 25.583222534090055 0 25.583222534090055 -260.31051126495055 0 0 0 0 93.19516836998082 -9.750205521807402 0 -9.750205521807402 -154.3995686393082 0 0 0 0 128.56239425655622 97.459122381574616 0 97.459122381574616 -139.30181969464502 0 0 0 0 154.03180487306236 102.44730740779323 0 102.44730740779323 -79.834066143474956 0 0 0 0 142.64989946321293 56.036127008534095 0 56.036127008534095 -126.85433022302641 0 0 0 0 124.16270690996316 75.34196345586588 0 75.34196345586588 -62.161427638922561 0 0 0 0 132.72879108199413 52.21167889174194 0 52.21167889174194 -196.34958327581217 0 0 0 0 118.9687394085995 80.659403994728564 0 80.659403994728564 -125.62413499560353 0 0 0 0 94.130923814714009 12.326383988511694 0 12.326383988511694 -32.740186108883748 0 0 0 0 54.665739970889263 49.762597470277797 0 49.762597470277797 -93.635105688932697 0 0 0 0 79.651290196066839 48.198568762933064 0 48.198568762933064 -126.93828067747489 0 0 0 0 107.57110474442015 83.063952707015233 0 83.063952707015233 -62.425922536611324 0 0 0 0 111.84300808489206 85.598457366381808 0 85.598457366381808 -91.712369653889255 0 0 0 0 54.310253914401983 89.508582914055296 0 89.508582914055296 -27.846492933691479 0 0 0 0 68.596801155130379 54.705946899197443 0 54.705946899197443 -58.984248857967032 0 0 0 0 79.712648257045657 91.482343259849586 0 91.482343259849586 -0.69104316843413471 0 0 0 0 104.03354814178601 95.730286234307641 0 95.730286234307641 -19.723731134062291 0 0 0 0 80.141769791465777 63.666210779999346 0 63.666210779999346 18.588385661723805 0 0 0 0 108.85383708436711 142.73885956167624 0 142.73885956167624 124.6771282731379 0 0 0 0 9.8704289487432106 1.9368798632326616 0 1.9368798632326616 -222.8191546029484 0 0 0 0 -5.1588320379344168 7.0398497757512359 0 7.0398497757512359 -7.1527946969186615 0 0 0 0 144.30200602214245 98.466723318236745 0 98.466723318236745 15.044542030191224 0 0 0 0 110.18137680297878 80.233287722417572 0 80.233287722417572 16.775529519845804 0 0 0 0 197.16178951688562 104.59072030610059 0 104.59072030610059 -29.453276423017087 0 0 0 0 131.03241285129661 68.985947978789227 0 68.985947978789227 -37.792220304532748 0 0 0 0 128.95910345525408 99.583071457514961 0 99.583071457514961 85.250460591351839 0 0 0 0 375.36457794930902 94.345532255007129 0 94.345532255007129 -20.805319294738183 0 0 0 0 210.14504733558715 124.81008324026061 0 124.81008324026061 -5.9298812451040703 0 0 0 0 427.24778203046299 -226.82657766073294 0 -226.82657766073294 -287.70719684500637 0 0 0 0 556.02847885013171 -216.84450560993201 0 -216.84450560993201 -126.60282661378005 0 0 0 0 440.0331123280921 -160.17512410365453 0 -160.17512410365453 11.914956404240002 0 0 0 0 485.96638969052583 9.0062907957008065 0 9.0062907957008065 -46.399211559416472 0 0 0 0 485.10361066473337 56.58743899671704 0 56.58743899671704 -412.37899401264985 0 0 0 0 170.98006999063364 266.50725013299189 0 266.50725013299189 -160.67771792669009 0 0 0 0 142.92151966869278 251.60356631278228 0 251.60356631278228 159.28432217862792 0 0 0 0 217.75763055065181 -198.41537114798075 0 -198.41537114798075 -80.09488901360055 0 0 0 0 135.10469946656667 167.44290774700949 0 167.44290774700949 -154.75675230531124 0 0 0 0 66.91821928873469 192.11262192935465 0 192.11262192935465 -137.98566634377858 0 0 0 0 243.21525324070535 181.18749397499778 0 181.18749397499778 -448.05278368596009 0 0 0 0 -0.83831372554536188 2.7599128552851937 0 2.7599128552851937 -3.5405503993599865 0 0 0 0 5.4713170630129753 -148.84873024150056 0 -148.84873024150056 -589.47954675928941 0 0 0 0 32.068485518713715 128.0506883490425 0 128.0506883490425 -244.36289324507834 0 0 0 0 112.14324020939239 65.607766304849065 0 65.607766304849065 -202.4594262796852 0 0 0 0 104.74692202153165 206.30725248969998 0 206.30725248969998 -230.39238904390095 0 0 0 0 45.48166176871382 113.90957840050396 0 113.90957840050396 68.903665022720816 0 0 0 0 106.44459127182199 144.42038882269389 0 144.42038882269389 82.126921658267747 0 0 0 0 2.3349554952110907 4.0706255123599959 0 4.0706255123599959 -3.3763116550507632 0 0 0 0 105.4864140048594 135.19683213869939 0 135.19683213869939 206.93413064486867 0 0 0 0 280.93764847609418 263.04610804758113 0 263.04610804758113 52.398285265984669 0 0 0 0 197.61829294930067 133.66742273958425 0 133.66742273958425 -140.55517457936548 0 0 0 0 541.84036704778555 -14.325032681435914 0 -14.325032681435914 -101.20680626275953 0 0 0 0 490.26103771140697 -63.783276251667758 0 -63.783276251667758 -22.253917664231267 0 0 0 0 848.45105834743299 17.813969930335588 0 17.813969930335588 -13.898627219764421 0 0 0 0 863.82277461871854 -301.11698156247985 0 -301.11698156247985 -70.922709249739455 0 0 0 0 833.08155907291075 -341.98153700745706 0 -341.98153700745706 -119.76776499796324 0 0 0 0 635.51323101759044 -239.76698315448175 0 -239.76698315448175 -84.052326305761198 0 0 0 0 486.57970314811246 -132.95828526042897 0 -132.95828526042897 -126.35394454020025 0 0 0 0 683.41429282813624 -223.31931039393157 0 -223.31931039393157 -98.986419262042546 0 0 0 0 591.99792753974907 -294.11001603650402 0 -294.11001603650402 -104.31457736778748 0 0 0 0 35.500428712392022 49.383028836720314 0 49.383028836720314 -29.495715332708073 0 0 0 0 -21.195425686404633 -28.13132999147183 0 -28.13132999147183 25.571006359601597 0 0 0 0 247.40131252527681 212.33183164549678 0 212.33183164549678 209.07000785333548 0 0 0 0 454.0997134093941 -143.53125808099958 0 -143.53125808099958 -10.665293003334227 0 0 0 0 27.270977395390219 -277.01706148890662 0 -277.01706148890662 197.77204459976474 0 0 0 0 426.10906914257066 -282.81033631207538 0 -282.81033631207538 43.397277757602751 0 0 0 0 153.65659109883563 -132.11666320494351 0 -132.11666320494351 36.069722428639579 0 0 0 0 -40.756982876976508 51.889201651189524 0 51.889201651189524 -60.657012490317356 0 0 0 0 5.7785479694243875 5.0931427455939158 0 5.0931427455939158 -9.7160018243721211 0 0 0 0 223.77437565773835 -53.763905414541568 0 -53.763905414541568 -39.51927176546269 0 0 0 0 4.339791063598625 9.1028080381278187 0 9.1028080381278187 11.648837336854747 0 0 0 0 -23.761014140715361 35.971668096044596 0 35.971668096044596 82.548665371393326 0 0 0 0 -92.818145292942063 81.141689542313543 0 81.141689542313543 -26.532906025021248 0 0 0 0 -19.066923643193149 112.61615300052108 0 112.61615300052108 -88.494571868224739 0 0 0 0 -13.539880876945972 113.23852811365487 0 113.23852811365487 -105.77978614715107 0 0 0 0 -9.1178750256804051 259.03744029583595 0 259.03744029583595 -190.54043232829281 0 0 0 0 -33.682616594960564 191.31699517884863 0 191.31699517884863 -148.61138139334707 0 0 0 0 -206.17542534061795 34.034217929633996 0 34.034217929633996 33.466797853647222 0 0 0 0 -151.33955284740659 190.07371128790692 0 190.07371128790692 -106.33435398650499 0 0 0 0 -150.79885937391373 194.90117248458955 0 194.90117248458955 -123.25414466408802 0 0 0 0 -330.92230660740461 192.79367378767256 0 192.79367378767256 -46.757974999774888 0 0 0 0 -199.89690319149304 322.68023076769941 0 322.68023076769941 -251.03113338571529 0 0 0 0 70.385728564782767 77.009377989904351 0 77.009377989904351 -202.44254227905691 0 0 0 0 26.913372547271138 178.27364741584097 0 178.27364741584097 -437.23937094154553 0 0 0 0 0.94041407110719888 2.7574190905215303 0 2.7574190905215303 -2.2885978156822375 0 0 0 0 -313.04141015724599 317.41564018199551 0 317.41564018199551 467.86027077889048 0 0 0 0 -261.16410298050687 194.49552044653319 0 194.49552044653319 -105.86344224637924 0 0 0 0 -0.11211614791646696 2.8655085258243531 0 2.8655085258243531 -0.22376750297645742 0 0 0 0 171.77073797001503 114.33359608031878 0 114.33359608031878 174.52535981341225 0 0 0 0 -0.11900550153330691 4.3085156114049425 0 4.3085156114049425 -4.996197326177267 0 0 0 0 -350.37001446282738 155.51306394989842 0 155.51306394989842 -67.748950410580619 0 0 0 0 104.47469330813146 -1.2403061262467645 0 -1.2403061262467645 -70.623686898448796 0 0 0 0 -315.96963637134286 171.62665767253247 0 171.62665767253247 -114.15103057980923 0 0 0 0 48.172454530664254 20.538343818876456 0 20.538343818876456 -13.49067020644361 0 0 0 0 -50.126488026853622 110.38195919701957 0 110.38195919701957 -67.114784416753537 0 0 0 0 5.5681746429446051 7.9880489683417437 0 7.9880489683417437 11.985528787425551 0 0 0 0 79.540831591250026 43.506499340042865 0 43.506499340042865 -123.48758729015117 0 0 0 0 62.723143218172481 -49.44836468712856 0 -49.44836468712856 14.998849835261353 0 0 0 0 90.581621341792925 -21.264547620818121 0 -21.264547620818121 -69.467301837652485 0 0 0 0 171.93403161273636 192.53321169495484 0 192.53321169495484 24.144599139766797 0 0 0 0 744.88257048929881 312.57533105863058 0 312.57533105863058 39.83100993174412 0 0 0 0 374.33104581074349 522.61318382106515 0 522.61318382106515 -43.008725442810828 0 0 0 0 -0.3330480207079507 -0.29666884802075799 0 -0.29666884802075799 0.99460046008837111 0 0 0 0 -969.68711939105924 213.36423237348663 0 213.36423237348663 61.968221400420589 0 0 0 0 -773.88975677347617 234.86682120026887 0 234.86682120026887 177.43800380134053 0 0 0 0 -246.54445415074952 129.00187628250933 0 129.00187628250933 -145.51660571392222 0 0 0 0 -240.55303550531607 88.292122256090806 0 88.292122256090806 93.949211416405888 0 0 0 0 86.731301064661238 32.04788512027153 0 32.04788512027153 76.21464019375162 0 0 0 0 106.07911865910501 10.978323510116752 0 10.978323510116752 -70.375761740504458 0 0 0 0 50.834038493278058 182.68709445431796 0 182.68709445431796 -34.686880585551989 0 0 0 0 -153.17597783169549 67.747228701622589 0 67.747228701622589 50.415406124899164 0 0 0 0 -18.996523228481237 256.7112864218343 0 256.7112864218343 -109.79906397585364 0 0 0 0 94.402823704113558 30.274122825608799 0 30.274122825608799 8.7046741937718739 0 0 0 0 62.042989062611014 358.3672652408768 0 358.3672652408768 -426.13840867921317 0 0 0 0 109.78094167665633 35.187487086211874 0 35.187487086211874 9.9645693850301935 0 0 0 0 80.38009135221364 132.13576405171807 0 132.13576405171807 -255.36221278486391 0 0 0 0 86.450356058354373 314.09062600326251 0 314.09062600326251 -324.13704022481124 0 0 0 0 205.67661560714441 63.076630775030935 0 63.076630775030935 -483.75882183095746 0 0 0 0 6.6810635148831352 311.44613451019632 0 311.44613451019632 -91.559249452122458 0 0 0 0 2922.1242806554546 -402.88880976620476 0 -402.88880976620476 -159.71168294325435 0 0 0 0 1119.4449288483302 -1375.5484023442195 0 -1375.5484023442195 2015.0225452489794 0 0 0 0 1148.780280187988 -80.880672640526427 0 -80.880672640526427 -162.91025235384222 0 0 0 0 1369.0941598167847 -308.67208549189945 0 -308.67208549189945 -177.44587182370378 0 0 0 0 755.56982513476032 512.95029498045642 0 512.95029498045642 422.63070500515641 0 0 0 0 2.760335240728466 2.5980669719342515 0 2.5980669719342515 -2.2008359362736378 0 0 0 0 1243.8305517298431 13.62144549446748 0 13.62144549446748 -106.74023475652757 0 0 0 0 1577.1241187518062 947.8567765962116 0 947.8567765962116 374.29156161198262 0 0 0 0 570.33944552930188 525.65279778160402 0 525.65279778160402 810.00682530215636 0 0 0 0 1067.0038173504072 394.24783409198244 0 394.24783409198244 5.6895050449165865 0 0 0 0 -67.81492806411552 -47.968204562896062 0 -47.968204562896062 137.78653300105179 0 0 0 0 -37.585895908006933 130.76082879633759 0 130.76082879633759 651.91606370514273 0 0 0 0 306.62955709143716 -24.014145766025649 0 -24.014145766025649 -203.65395742284454 0 0 0 0 63.089291561102073 208.35080392476812 0 208.35080392476812 247.4871996924594 0 0 0 0 150.42168057667641 293.96449543529923 0 293.96449543529923 172.39201658848106 0 0 0 0 36.756407500164642 136.21072232453207 0 136.21072232453207 84.617023801278265 0 0 0 0 76.494356609765703 22.212092556557401 0 22.212092556557401 5.5395590378683899 0 0 0 0 72.147425859649957 -13.444852541665568 0 -13.444852541665568 9.4181577477938845 0 0 0 0 386.67144650194678 533.88753451380035 0 533.88753451380035 -945.02954541362851 0 0 0 0 -170.96402114598459 -49.80180058659198 0 -49.80180058659198 57.138098121423354 0 0 0 0 1825.6937736828841 -945.46422617595636 0 -945.46422617595636 33.596400516642916 0 0 0 0 -1345.2187643043799 -366.60258702432475 0 -366.60258702432475 1752.5008054037335 0 0 0 0 34.308752435680958 6.4939906298138599 0 6.4939906298138599 1.7670732192070435 0 0 0 0 2478.7759673535475 -1620.745051662474 0 -1620.745051662474 -450.16197240402835 0 0 0 0 2738.1537982971058 -1398.6490593873705 0 -1398.6490593873705 -260.77909751748302 0 0 0 0 18.273871251434656 -9.0844336889127391 0 -9.0844336889127391 4.1542541899994454 0 0 0 0 2039.2584485878942 -674.45494789904387 0 -674.45494789904387 -229.66533329374579 0 0 0 0 1607.269221846349 385.24358693027534 0 385.24358693027534 -80.186290401073165 0 0 0 0 1330.7054383340146 -1601.8056304738693 0 -1601.8056304738693 -423.57131224623117 0 0 0 0 365.89672703428369 796.43302113146092 0 796.43302113146092 1565.7888954007922 0 0 0 0 73.346235283694114 851.6253236929806 0 851.6253236929806 -588.06178081571488 0 0 0 0 -391.80594245633256 -197.35808647536487 0 -197.35808647536487 42.946640000085608 0 0 0 0 2706.3791994075 221.94274858720291 0 221.94274858720291 66.624274721605616 0 0 0 0 239.81072477761609 7.9096392682959618 0 7.9096392682959618 204.52417660139963 0 0 0 0 106.93124462920241 77.298779892188236 0 77.298779892188236 213.14702634408241 0 0 0 0 801.53062043050886 105.27963049855816 0 105.27963049855816 8.2136242386541198 0 0 0 0 802.11244653987524 -181.35314067017271 0 -181.35314067017271 472.11430156256802 0 0 0 0 986.52799076344672 -852.78519635641578 0 -852.78519635641578 67.958676370600188 0 0 0 0 1422.1977059652927 -425.48504882861289 0 -425.48504882861289 -129.65928721045748 0 0 0 0 833.087305176065 140.32240951150067 0 140.32240951150067 5.2444083605996639 0 0 0 0 1056.4488117392211 -460.55086412657045 0 -460.55086412657045 154.16719821152492 0 0 0 0 9.2895865198059937 2.0035551036474644 0 2.0035551036474644 0.519190606107097 0 0 0 0 30.570019439641328 81.2762074600505 0 81.2762074600505 446.04532743648087 0 0 0 0 1395.07955887359 44.822867236394899 0 44.822867236394899 -53.830736967957819 0 0 0 0 1258.3515851361608 -506.51594273118644 0 -506.51594273118644 49.084205524249228 0 0 0 0 1259.0017308308616 -60.942836075396031 0 -60.942836075396031 -32.832418162072827 0 0 0 0 703.19671715065488 -177.7261609571076 0 -177.7261609571076 -51.176214214979154 0 0 0 0 641.11229709373583 -190.21234493732481 0 -190.21234493732481 157.02636063627313 0 0 0 0 224.57771881291956 104.8995448651483 0 104.8995448651483 64.218551590901825 0 0 0 0 354.52680876663726 209.23815168750662 0 209.23815168750662 105.68332545563953 0 0 0 0 29.420601821508171 30.362428675348838 0 30.362428675348838 38.844697658667428 0 0 0 0 47.69685163203394 61.067404907675154 0 61.067404907675154 69.242311220951706 0 0 0 0 13.657759290634573 5.1187802557691384 0 5.1187802557691384 0.52239858310943177 0 0 0 0 57.686877415784693 100.91901004372721 0 100.91901004372721 20.411542558581459 0 0 0 0 138.24935296975309 141.17464212094728 0 141.17464212094728 64.666910699207619 0 0 0 0 0.34641782535561561 -0.38792297922690011 0 -0.38792297922690011 1.1535782524706839 0 0 0 0 83.023312234599871 49.588831160695236 0 49.588831160695236 -29.38175167913505 0 0 0 0 -29.90994521362154 149.94456935630615 0 149.94456935630615 -27.327590600521944 0 0 0 0 -28.10947975101169 52.948231106538707 0 52.948231106538707 50.921420290078458 0 0 0 0 31.049258523351455 69.316341107015432 0 69.316341107015432 51.434275442038143 0 0 0 0 2.7202322972807451 8.2026496731068619 0 8.2026496731068619 154.56931567157153 0 0 0 0 26.025754099315463 3.9278412101873528 0 3.9278412101873528 3.5727151263424606 0 0 0 0 23.228322585222571 -9.610856983809299 0 -9.610856983809299 10.140617381183569 0 0 0 0 136.76967704350318 -14.194639896652234 0 -14.194639896652234 22.182385975067518 0 0 0 0 128.76171091123979 -32.474339302928229 0 -32.474339302928229 67.676388731457791 0 0 0 0 4.6792906747369329 -6.4759016875204196 0 -6.4759016875204196 5.5489546045147637 0 0 0 0 163.05838189568749 395.31766527064337 0 395.31766527064337 -173.01392390196906 0 0 0 0 56.578051306743873 -72.931970591978825 0 -72.931970591978825 -191.35625160468874 0 0 0 0 -6.2615314831752471 0.66629715409573009 0 0.66629715409573009 1.4007394090749905 0 0 0 0 67.142061357534374 10.483006258812885 0 10.483006258812885 -0.17277573774312494 0 0 0 0 77.918981144022837 48.340349557719492 0 48.340349557719492 -17.746465201566025 0 0 0 0 151.66925739508224 88.036407721296428 0 88.036407721296428 -41.896041451997007 0 0 0 0 47.831516501726583 28.041966947258516 0 28.041966947258516 15.822590225267049 0 0 0 0 49.802800372402999 -58.547846355916818 0 -58.547846355916818 -403.69647182473318 0 0 0 0 233.94003684069321 72.101093764377197 0 72.101093764377197 -362.39743175880767 0 0 0 0 5.3820144742072955 15.375738310306815 0 15.375738310306815 -2.5351099209002559 0 0 0 0 126.48195580504398 58.652463761093827 0 58.652463761093827 -304.48054966018753 0 0 0 0 59.296878602501238 63.643108629605649 0 63.643108629605649 -285.70580497992592 0 0 0 0 80.65214630698236 25.518684630634255 0 25.518684630634255 8.3410112775642169 0 0 0 0 -111.68556527644978 -139.5893462667409 0 -139.5893462667409 -66.746900461720543 0 0 0 0 122.65388361238001 191.97014536584038 0 191.97014536584038 -311.68422221435412 0 0 0 0 54.097680549952202 176.53769107844437 0 176.53769107844437 -287.87538179532658 0 0 0 0 46.536034694907357 163.61651964467652 0 163.61651964467652 -272.52668072949746 0 0 0 0 81.557511701688782 105.76320700007659 0 105.76320700007659 66.250274361984339 0 0 0 0 119.61771689621673 156.10490766248586 0 156.10490766248586 -38.064829082950382 0 0 0 0 163.89271044562338 98.303459878232388 0 98.303459878232388 -151.64691959823631 0 0 0 0 85.197747984093439 113.73266048483219 0 113.73266048483219 127.0824862377649 0 0 0 0 71.577899482409521 21.094270045269802 0 21.094270045269802 3.2948548665182038 0 0 0 0 127.92110425638384 81.343720425171796 0 81.343720425171796 -0.58196600320297875 0 0 0 0 132.0823630214727 94.780655280126666 0 94.780655280126666 -8.7279399970339 0 0 0 0 13.635315878875133 9.6069948978569641 0 9.6069948978569641 -0.81297576869573618 0 0 0 0 87.912702603771322 -46.034736111239681 0 -46.034736111239681 -87.150188549652739 0 0 0 0 -15.217845405903063 -15.848166123502779 0 -15.848166123502779 -17.565927127337432 0 0 0 0 145.67420884605281 50.144765589378721 0 50.144765589378721 -66.387814204546885 0 0 0 0 -0.8014208018226725 -0.41728136392339366 0 -0.41728136392339366 -0.10056416285145531 0 0 0 0 147.38373286883871 221.03485860148521 0 221.03485860148521 171.42380510104158 0 0 0 0 20.086524035286857 -87.380635586158178 0 -87.380635586158178 -170.91854402132776 0 0 0 0 199.9548663357491 114.32832759926737 0 114.32832759926737 33.365735920491716 0 0 0 0 110.83240188988566 80.570620552680339 0 80.570620552680339 -42.609797990377047 0 0 0 0 96.795687931065913 37.70532431738593 0 37.70532431738593 -147.39942572215091 0 0 0 0 143.51467381009388 146.87158729957343 0 146.87158729957343 -119.5553981387302 0 0 0 0 43.162758300910355 100.17825950196766 0 100.17825950196766 -9.2007586800436343 0 0 0 0 141.93344173367586 132.25852265570455 0 132.25852265570455 -102.53198846170045 0 0 0 0 131.24561830145831 -13.538245103692134 0 -13.538245103692134 -35.139763631739243 0 0 0 0 137.83659989760858 8.5149860853552504 0 8.5149860853552504 -19.929495578551592 0 0 0 0 130.76604731644002 39.767001525170713 0 39.767001525170713 1.2263089274954844 0 0 0 0 147.63899262374616 -24.867307874721519 0 -24.867307874721519 -351.64932059623698 0 0 0 0 33.971568310262285 8.6378423548586198 0 8.6378423548586198 -8.2864407195428385 0 0 0 0 188.43860800641414 69.677593127341424 0 69.677593127341424 -53.157050995453574 0 0 0 0 133.0817173887117 -13.962156210060584 0 -13.962156210060584 -48.657728325715652 0 0 0 0 131.13152939546853 -2.1606117211049423 0 -2.1606117211049423 -59.422043993299212 0 0 0 0 131.29488321039435 -11.333407535137368 0 -11.333407535137368 -42.903835624370913 0 0 0 0 141.55647176431376 -12.730539695946391 0 -12.730539695946391 -44.962686144745021 0 0 0 0 118.91266762134182 -11.095865054921433 0 -11.095865054921433 -21.756067211224945 0 0 0 0 154.85663166459562 -20.100438909918012 0 -20.100438909918012 -43.266195387566768 0 0 0 0 30.384442392190977 -147.47308794699256 0 -147.47308794699256 -231.44542184814054 0 0 0 0 -2.3336567577113527 0.56367204724932662 0 0.56367204724932662 -2.2223053490366098 0 0 0 0 56.568257849401562 -11.616542952479904 0 -11.616542952479904 -33.127218709008957 0 0 0 0 105.35551497327106 17.124297990324521 0 17.124297990324521 -47.154872244277612 0 0 0 0 121.71243925328963 80.871950773553635 0 80.871950773553635 64.216532805974566 0 0 0 0 -78.369954020196019 106.49013925524434 0 106.49013925524434 -58.612849335528153 0 0 0 0 160.63899902797129 16.556126385313291 0 16.556126385313291 -106.63200007148862 0 0 0 0 94.951537333093029 25.676568913471051 0 25.676568913471051 -2.2449765817187468 0 0 0 0 209.20893353244173 96.015015113600384 0 96.015015113600384 -217.45179218193221 0 0 0 0 47.131736391163528 -28.592965093976872 0 -28.592965093976872 -42.94861178379066 0 0 0 0 183.23628347044723 61.574097842931224 0 61.574097842931224 -47.411090545181651 0 0 0 0 243.73238820480765 -80.111974750770742 0 -80.111974750770742 -18.250149898233303 0 0 0 0 129.18643434332625 -48.25066696167346 0 -48.25066696167346 -24.103338251492232 0 0 0 0 225.85594217793368 -14.337331911102524 0 -14.337331911102524 -70.604075698216548 0 0 0 0 267.97903950785076 22.928047527724829 0 22.928047527724829 -73.696600911881433 0 0 0 0 272.56917106850597 0.043456007103486627 0 0.043456007103486627 -69.838018799617657 0 0 0 0 228.87533842059202 0.3037787080779708 0 0.3037787080779708 -65.368450136506908 0 0 0 0 245.91920629392553 8.4573176495332518 0 8.4573176495332518 -63.820051906327535 0 0 0 0 249.14018366431992 32.088699982196886 0 32.088699982196886 -68.334678601927408 0 0 0 0 234.17035838533775 17.318948438728512 0 17.318948438728512 -57.418516587705426 0 0 0 0 218.52819865637866 14.071116395762374 0 14.071116395762374 -57.857440155587028 0 0 0 0 -223.00483221470495 286.16212632684574 0 286.16212632684574 -210.1555899157147 0 0 0 0 466.90516505393316 -30.363698752318214 0 -30.363698752318214 6.956709281732401 0 0 0 0 215.57511155260727 132.52175580807398 0 132.52175580807398 -170.00938369007099 0 0 0 0 8.9970539210288791 -4.7220715089289911 0 -4.7220715089289911 -6.420056839583749 0 0 0 0 254.34375491719402 92.133040563954182 0 92.133040563954182 -95.863708270852726 0 0 0 0 361.95294118825404 76.839427610610983 0 76.839427610610983 -93.705450072400708 0 0 0 0 305.50823423932889 9.3900733260288689 0 9.3900733260288689 -72.175554598983808 0 0 0 0 285.47058626175567 26.449540398264162 0 26.449540398264162 -74.722032224082341 0 0 0 0 194.0404320719972 69.805433306657051 0 69.805433306657051 -30.186178498266372 0 0 0 0 207.67895018707532 24.738721294594143 0 24.738721294594143 -57.587988346124803 0 0 0 0 205.72812373863417 96.479172872963773 0 96.479172872963773 -48.819187163122479 0 0 0 0 124.12430744513404 137.34343320708558 0 137.34343320708558 41.505023592932957 0 0 0 0 199.46806464366091 126.20909003328325 0 126.20909003328325 -143.93109990214725 0 0 0 0 -31.978885817194055 -142.27227885294042 0 -142.27227885294042 30.632398967278277 0 0 0 0 133.11061421122577 83.420249487048295 0 83.420249487048295 74.868916753567419 0 0 0 0 159.77358997037584 18.595094018058084 0 18.595094018058084 -0.09309632851740357 0 0 0 0 164.07406396539773 -119.78328416572296 0 -119.78328416572296 -108.43502890598393 0 0 0 0 78.206247612419247 93.263637721322311 0 93.263637721322311 -275.45172946993944 0 0 0 0 10.717359028151989 0.25890321355910118 0 0.25890321355910118 -3.2322033843019162 0 0 0 0 93.372033526997257 168.79009030906983 0 168.79009030906983 -182.37152834003234 0 0 0 0 68.892352710586039 -27.479913897488743 0 -27.479913897488743 -45.619552763723547 0 0 0 0 174.40284021401749 6.7605363938507708 0 6.7605363938507708 -55.404650520142241 0 0 0 0 137.76449836927077 14.981199381162924 0 14.981199381162924 -54.444821700282773 0 0 0 0 192.32682309997554 25.493926550354146 0 25.493926550354146 -7.6446699204060664 0 0 0 0 233.80812463982147 15.250079167904801 0 15.250079167904801 -63.913455357098428 0 0 0 0 282.83463528540597 -47.341620869689905 0 -47.341620869689905 -93.674921271528206 0 0 0 0 230.01009204873117 16.486348586438908 0 16.486348586438908 -54.579423224645097 0 0 0 0 370.68571940726906 -217.30034697718725 0 -217.30034697718725 -62.481229431655493 0 0 0 0 471.2725163262985 -139.51526597514226 0 -139.51526597514226 -219.66355921721521 0 0 0 0 246.16139997653954 135.60496716262014 0 135.60496716262014 -260.13656752167526 0 0 0 0 256.94134103981924 21.656505274385495 0 21.656505274385495 -298.91918603935807 0 0 0 0 167.46958370392895 -79.764691777152507 0 -79.764691777152507 -310.13761777075752 0 0 0 0 59.432220876390431 -3.5756469776289919 0 -3.5756469776289919 -17.259055165704574 0 0 0 0 222.37714374813368 -8.4290711632838793 0 -8.4290711632838793 -220.11514487344971 0 0 0 0 131.1294688939833 -14.697511581004287 0 -14.697511581004287 -13.484859234324052 0 0 0 0 265.38291873479466 46.029912852325765 0 46.029912852325765 -259.22776710922074 0 0 0 0 375.20127596771636 178.80458584863766 0 178.80458584863766 -105.37062725114674 0 0 0 0 159.72543089397004 124.03934206656709 0 124.03934206656709 71.028297221173489 0 0 0 0 6.6046047091718094 -0.98144288552062164 0 -0.98144288552062164 -2.9354866639209969 0 0 0 0 370.5140400341653 100.18422095777277 0 100.18422095777277 -72.969953690147577 0 0 0 0 162.26355888162652 97.019732449233743 0 97.019732449233743 -25.368862918800005 0 0 0 0 317.1641921568862 26.706649666718704 0 26.706649666718704 -14.849807922307946 0 0 0 0 362.35828254096356 -26.04396244416769 0 -26.04396244416769 30.42812453837314 0 0 0 0 107.87757221808715 -106.68226462005714 0 -106.68226462005714 -42.980280943284754 0 0 0 0 -81.35634261236919 -18.189752827702932 0 -18.189752827702932 -12.351818561409345 0 0 0 0 35.924646296156425 221.2192543488984 0 221.2192543488984 -116.49799434907118 0 0 0 0 117.55529222686528 11.85696135128228 0 11.85696135128228 -25.131522699843117 0 0 0 0 141.11915373520605 -29.047777884129573 0 -29.047777884129573 45.542939457306829 0 0 0 0 38.299624701801804 47.421797673771835 0 47.421797673771835 22.024056971729351 0 0 0 0 210.47923833668756 -130.44959348487828 0 -130.44959348487828 35.760485373399433 0 0 0 0 97.706679107646778 -69.087926071529637 0 -69.087926071529637 57.606692964080139 0 0 0 0 229.35466827511846 -55.988570198610432 0 -55.988570198610432 -20.761391283955447 0 0 0 0 181.05510038452849 -137.3027751635118 0 -137.3027751635118 -46.893198949695943 0 0 0 0 188.56006825802251 -94.045743311465685 0 -94.045743311465685 -20.396529998144615 0 0 0 0 344.7369128041064 74.400998533919847 0 74.400998533919847 25.702787374594664 0 0 0 0 343.20720164606973 87.124396978548248 0 87.124396978548248 -73.826518209766618 0 0 0 0 331.11115213387666 -326.21645224262898 0 -326.21645224262898 -899.95067354580533 0 0 0 0 300.72308599603275 -163.92744618425695 0 -163.92744618425695 -96.934273686300912 0 0 0 0 235.75830310092624 -44.073411006296965 0 -44.073411006296965 -222.48174917467441 0 0 0 0 631.88025900290086 158.89329963129967 0 158.89329963129967 -191.76904556754744 0 0 0 0 -1180.7597778135969 -937.80284532081123 0 -937.80284532081123 -313.5539342346583 0 0 0 0 -0.76467560061922768 2.6262309768196204 0 2.6262309768196204 -10.805956164336791 0 0 0 0 474.87082705447028 -531.05918888987617 0 -531.05918888987617 -930.0929132757783 0 0 0 0 73.692884655145463 91.991608613081553 0 91.991608613081553 192.98081496393934 0 0 0 0 12.900005829884321 -212.71900672426455 0 -212.71900672426455 -497.83105426263683 0 0 0 0 67.016961504756182 -336.41409044198008 0 -336.41409044198008 -215.37008452765895 0 0 0 0 482.21970486872488 -38.953120885947101 0 -38.953120885947101 -324.95433698624947 0 0 0 0 723.48857402877547 -200.79765898404457 0 -200.79765898404457 -380.44038028456998 0 0 0 0 612.09791593005866 68.273657020721657 0 68.273657020721657 534.33077190917948 0 0 0 0 755.05317907608878 288.27041801464486 0 288.27041801464486 -65.199760855528439 0 0 0 0 938.83559350920405 359.24127249177582 0 359.24127249177582 -23.789225686203281 0 0 0 0 344.25100584778102 540.98636647266153 0 540.98636647266153 444.30072036830825 0 0 0 0 434.57751398404434 290.19988477471088 0 290.19988477471088 -5.3932485004747832 0 0 0 0 411.95305611506501 195.01621143626539 0 195.01621143626539 -172.96733855693674 0 0 0 0 744.66575563603328 64.885498530900804 0 64.885498530900804 -317.90243059285785 0 0 0 0 444.81247205688123 -73.736424179242022 0 -73.736424179242022 -120.82932763220219 0 0 0 0 397.63186315340863 55.780846273548377 0 55.780846273548377 -299.10501571441455 0 0 0 0 395.11590600995351 -12.538687485943456 0 -12.538687485943456 -388.04825034519126 0 0 0 0 273.649418398134 252.46573854611052 0 252.46573854611052 -196.75665362650761 0 0 0 0 329.15723785719456 194.77195929077061 0 194.77195929077061 -645.75468043192359 0 0 0 0 122.27298947534356 37.192650213019363 0 37.192650213019363 11.544538415488233 0 0 0 0 88.462302441033899 64.764943323110401 0 64.764943323110401 -403.82426606438457 0 0 0 0 211.97106003314912 -42.092356435952752 0 -42.092356435952752 -347.55606175827779 0 0 0 0 62.056545361851022 -85.923203111244675 0 -85.923203111244675 -287.50946325407494 0 0 0 0 132.27669235740177 -110.81562503140412 0 -110.81562503140412 -280.17673387279501 0 0 0 0 172.82693280312742 73.558409296845639 0 73.558409296845639 -57.480056362558798 0 0 0 0 27.495293423053777 25.362292142086595 0 25.362292142086595 -59.14425169423415 0 0 0 0 -5.344692431319519 8.5489648212230875 0 8.5489648212230875 -34.234574851471919 0 0 0 0 -362.03402063758222 -488.06145709242264 0 -488.06145709242264 -278.14793635540263 0 0 0 0 19.20387785058665 -170.37425887951576 0 -170.37425887951576 -295.47397835836637 0 0 0 0 303.04490220099979 -247.3599697666923 0 -247.3599697666923 -407.2204067678731 0 0 0 0 
</DataArray>
<DataArray type="Float64" Name="cross_section_updated" format="ascii">
1 1 1 1 0.011042311111948866 1 1 0.011917529997337275 1 0.01169639730608292 1 1 1 0.010782847356253629 1 1 1 0.010385193766820046 0.015248878374062552 1 0.0111358882386971 0.012349524880074958 1 1 1 1 1 1 1 1 1 1 1 1 1 0.012993580364144795 1 1 1 1 1 1 1 1 1 1 0.014450870308388826 1 1 1 1 1 1 1 1 1 1 1 1 1 1 1 1 1 1 1 1 1 1 1 1 1 0.010380479945127329 1 0.010345933233528372 1 1 1 1 0.0089468321127556434 1 1 1 1 1 0.010964747732060845 1 1 1 0.010373330907579872 1 1 1 1 1 1 1 1 1 1 1 1 0.011342950827590518 0.012689207517163683 1 1 1 0.0097265531583435524 1 1 1 1 1 1 1 1 1 1 1 1 1 1 1 0.0094656571362455207 1 1 1 1 1 1 1 0.0099438270458344965 1 1 1 1 1 1 1 1 1 1 1 1 1 1 1 1 1 1 1 1 1 1 1 0.010613336475606796 1 1 0.010613975616853333 1 1 0.011127398762273644 1 1 1 1 1 1 1 1 1 1 1 1 1 1 1 1 1 1 1 1 1 1 0.0095922830132101917 1 1 1 0.0097796793466400807 1 1 0.0084221160267493374 0.012892322076614587 1 1 1 1 1 1 1 1 0.011720946373069294 1 1 1 1 1 1 1 0.010698837203564647 1 1 1 1 1 1 1 1 1 1 1 1 1 0.010004221021702349 0.014574947330008532 1 1 1 1 1 0.0084350940431796775 1 1 1 1 1 0.01155509839050003 1 1 1 1 1 1 1 1 0.0099660113480245175 1 1 1 1 0.011133926518435363 1 1 1 1 1 1 1 1 1 1 1 1 1 1 0.010466492593646799 1 1 1 0.0096720219482955786 1 0.0098844756052424085 1 1 0.009999811527755571 1 1 1 0.0092820231520275593 0.010491030516816529 0.0099770123955784523 0.0079335054875525161 1 0.0088291939293338416 1 1 1 1 1 1 1 1 1 1 1 1 1 1 0.010968154408612216 1 1 1 1 0.0098887281928704083 0.015380615022141907 1 1 1 0.013439041445282872 1 1 1 1 0.0097743983839359387 0.0098856701910655532 1 1 1 1 1 1 1 1 1 1 1 1 1 0.011554482591211845 1 1 1 1 0.013667287215963931 1 0.014257650056145052 1 1 1 1 1 1 0.014189152598440741 1 1 1 1 1 0.011187079512697599 1 1 1 1 1 1 0.012161332630164097 1 1 0.010274379301261601 0.011212945117374983 1 1 0.01258881261525017 1 1 1 0.0094743827220819185 1 1 1 1 1 0.0089402584847885908 1 0.010679564742873997 1 0.0096030566804876667 0.0087790542612490065 1 1 0.012929752484545021 1 0.0090427962250477813 1 1 0.0096295682574410232 0.011800270381914901 1 0.010157145222145737 1 1 0.0099839971032654098 1 1 1 1 1 0.012031443589327614 1 1 1 1 0.011859653294957657 1 1 1 1 1 1 0.011212603754952781 1 1 1 1 1 1 1 1 1 1 1 1 1 1 0.0097634329671921344 1 1 1 1 1 0.015144606421360972 1 1 1 0.010748463499605655 1 1 0.011786993701667305 1 1 1 0.011687413969501547 1 1 1 1 1 1 1 1 1 1 1 1 1 1 1 1 0.010770659928046137 1 1 1 1 1 1 1 1 1 1 1 0.011176272384134586 1 1 1 1 1 1 1 1 1 1 1 1 1 1 1 1 1 1 1 1 1 1 1 1 0.0099828276344105134 0.01654523667085207 1 1 1 1 1 1 0.014332501404072337 1 1 1 1 1 1 1 1 1 1 0.010154003276139469 1 1 1 1 1 1 1 1 0.0099940301658829091 1 1 0.017644467790064376 1 1 1 1 1 1 1 1 1 1 1 1 1 1 1 1 1 0.01167143024664878 1 1 1 0.0099772679266085899 1 0.011104812147135571 1 1 1 1 1 1 1 1 1 1 0.011503112953755616 1 1 1 1 1 1 0.01099804870344754 1 1 1 1 0.010597614382934167 1 1 0.01230358360558661 0.010331624307716485 1 1 1 1 0.010116628212460106 1 1 1 1 1 1 0.014345957664377074 1 1 1 1 1 0.01012392234229016 1 1 1 0.015906188995649176 1 1 1 1 1 0.0084193384505673267 1 1 1 1 0.011509980485697008 0.013654547069803838 1 1 0.0068312193931669048 1 1 1 1 1 1 1 1 1 1 1 1 0.0095636323420140289 1 1 1 1 1 1 1 1 1 1 1 1 1 1 1 1 1 1 1 1 1 1 1 0.0084707038901991934 1 0.0098038831697323837 1 1 1 1 1 1 1 1 1 1 0.010013027155660176 1 1 1 1 1 1 1 1 1 0.010066177946596457 1 0.010192017316466889 1 1 1 1 1 1 1 1 0.017252720655010552 0.016583888052734967 1 1 0.010404234734506797 1 1 1 1 0.014040098600019636 1 1 1 0.011605555143714096 1 1 1 1 0.0099764452797456958 1 1 1 1 0.01142260354038405 1 1 1 1 1 1 1 1 1 1 1 1 1 1 1 1 1 1 1 1 1 1 1 1 1 1 1 1 1 0.010198547756491929 1 1 1 1 1 1 1 0.0097885570651065727 1 1 1 1 1 0.0099941720745100986 1 0.012826683683031897 1 1 0.0099754598084780977 1 1 1 1 1 1 1 1 1 1 1 1 1 1 1 1 1 1 0.010345354261090012 1 1 1 1 1 1 1 1 1 1 1 0.011043764834610168 0.011678758820315376 1 1 1 1 0.0099672546582407588 1 1 1 1 1 1 1 0.010286992830117508 1 1 1 1 1 1 1 1 1 1 1 1 1 1 1 1 0.010044850868285058 1 1 1 1 1 0.010019058904576966 1 1 1 1 1 1 1 1 0.0091810280097371581 1 1 1 1 1 1 1 1 1 1 1 1 1 1 1 1 1 1 1 1 1 0.010527055557928645 1 0.010301659316127859 1 1 1 1 1 1 1 1 1 1 1 1 1 0.01016394581679566 1 1 1 1 1 1 1 1 1 0.010198235780616464 1 1 1 0.010647621362619814 1 1 1 1 1 1 1 1 1 1 1 0.015214956530882588 1 1 1 0.013508879372475234 1 0.014701017258040509 1 1 0.013769586231264961 0.011541728174626729 1 1 1 1 1 1 1 1 1 1 1 0.010190804885801184 1 1 1 1 0.0089731324373160202 1 1 1 0.0096063894426832164 1 1 0.010124632138464576 1 1 0.010225396241800787 1 1 1 0.011187717007655928 1 1 1 1 1 1 0.0090210096561949907 0.0099429120637310794 1 1 0.017481270871016752 1 1 1 1 1 1 1 1 1 1 1 0.017032335381987472 1 0.017736377102915965 1 0.0099908375022827317 1 1 1 0.010128151775883701 1 1 1 1 1 1 1 0.0090564524438336343 1 1 1 1 1 1 0.009933509312273079 1 1 1 1 1 1 0.010020301479782688 1 1 1 1 0.0094880890004721379 1 1 1 1 0.010223159411575082 1 0.011314925858416513 1 1 1 1 1 1 1 1 0.011700632425118884 1 1 1 0.010544777727861093 1 1 1 1 1 0.011634269384500415 0.01001020406025779 1 1 1 1 1 0.013517666545488773 1 1 0.010265701410114994 1 1 0.010101787937148783 1 1 0.013268513335090789 1 1 0.013571277174660938 1 1 1 1 1 0.014734775078343237 1 1 1 0.011378469806900243 1 1 1 0.01239651595646927 1 1 1 0.012915405083804926 1 1 1 1 1 1 0.010028926862909928 1 1 0.010078365158189969 1 1 1 1 1 1 1 1 0.014763718131910264 1 1 1 0.0099973281866213154 1 1 1 1 1 1 1 1 1 1 1 1 1 0.0099635430303232631 1 1 0.011680312684624938 1 1 1 1 1 1 1 1 1 1 1 1 1 1 1 1 1 1 1 1 1 1 1 1 1 1 0.014344904739038891 1 1 1 1 1 1 1 1 0.013501278282453148 1 1 0.0096955731979826813 1 0.011504332634588582 1 1 0.012175061709786716 1 1 1 1 0.0058572294976297528 1 0.012936225313309513 1 1 0.012412511727146226 1 1 1 0.011045105555923021 0.01210890445108714 1 0.0065970903279405496 1 1 1 1 0.011034529797194766 0.01115188219172953 1 1 1 1 1 1 1 1 1 1 1 1 1 1 0.0073331379073199327 1 1 1 1 1 1 1 1 1 1 1 1 1 1 1 1 1 1 1 1 1 1 1 1 1 1 1 1 1 1 1 1 1 1 1 1 1 1 1 1 1 1 1 1 1 1 1 1 1 1 1 1 0.012816586909299616 1 1 1 1 1 1 1 1 1 1 1 1 0.016682617324991482 0.010034746909445801 0.014342513942045955 1 1 1 1 0.0098131949980185661 0.0085223083741731639 0.01349367869057984 1 1 0.0085971709204439514 0.008761799717567291 1 1 1 0.01000266391106148 1 0.013077413241970199 1 1 1 1 1 0.016528684070794671 1 0.0099761536954388642 1 1 1 0.0096610040415732006 1 1 1 1 0.015599345730900702 1 1 1 0.017198620391644128 1 1 0.016746819819733624 1 0.0096379435396476976 1 0.0098760250865048225 1 1 0.016063372453377616 1 1 0.01006845340490437 1 1 1 1 1 1 1 1 1 1 1 1 1 1 1 1 1 1 1 1 1 1 1 1 1 1 1 1 1 1 1 1 1 1 1 1 1 1 1 1 1 1 1 1 1 1 1 1 1 1 0.010272917222319256 1 1 1 0.010064713361193994 1 1 1 1 1 1 1 1 1 1 1 1 1 1 1 1 1 1 1 1 1 1 1 1 1 1 0.0092933159597323282 1 1 1 1 1 1 1 1 1 1 1 0.01117363420287572 1 0.013384910571884004 0.014278270224554876 1 0.016896139657349405 1 1 0.0150339039593879 1 0.010548047675576027 1 0.015242666570443941 1 1 0.018599471805546827 0.020702013741262924 1 1 1 1 1 1 0.010139709528615653 1 1 1 1 1 1 0.020293099635512804 1 0.017876894040734077 0.013617084765827675 1 0.018039545172364856 1 0.012814416372130811 1 0.015982379906134072 0.016514242979400282 1 1 1 1 0.015829168092788368 1 1 0.01625842574736238 1 1 1 1 1 1 1 0.012113661022300156 1 1 1 1 1 1 1 1 1 1 1 1 1 1 1 1 1 1 1 1 1 1 1 1 1 1 1 1 1 1 1 1 1 1 1 1 1 1 1 1 1 1 1 1 1 1 1 1 1 1 1 1 1 1 1 1 1 1 1 1 1 1 1 1 1 1 1 1 1 1 1 1 1 1 1 1 1 1 1 1 1 1 0.011876494705637366 1 1 1 1 1 1 0.015289480909694687 1 0.010078701700001193 0.012739187386307083 1 1 1 1 1 1 1 1 1 1 1 1 1 1 1 1 1 1 1 1 1 1 1 1 1 1 1 1 1 1 1 1 0.012731717462855617 1 0.0095131059021956385 1 1 0.01012066097197847 1 0.011427701552670266 1 1 1 1 1 1 0.016363897238116584 1 1 1 1 1 1 1 1 1 1 0.0099724617027407512 0.014817507058558568 1 1 0.011799921181959706 0.014680598522294037 0.0096064273457172888 1 1 1 1 1 1 1 1 1 1 1 1 1 1 1 1 1 1 1 1 1 1 1 1 1 1 1 1 0.012459557321729615 1 0.010581383644473724 1 1 1 1 1 1 1 1 1 1 1 1 1 1 1 1 1 1 1 0.010444846264495709 1 1 1 1 1 1 1 1 1 0.010130333098082459 1 1 0.011550206510369403 1 0.011168269732414464 1 1 1 1 1 1 1 1 1 1 1 1 1 1 1 1 1 1 1 1 1 1 1 1 1 1 1 0.011059161895332641 0.010242075805448067 1 1 1 1 1 1 1 1 1 1 1 1 1 1 1 1 1 1 1 1 1 1 1 0.010720679487667811 1 1 1 1 1 0.010795969270495831 0.010848057957459231 1 1 1 1 1 1 1 1 1 1 1 1 1 0.0099071402788324069 1 1 1 1 1 1 1 1 1 1 1 1 1 1 1 1 1 1 1 1 1 1 1 1 1 1 1 1 1 1 1 1 1 1 1 1 1 1 0.012279119629244183 1 1 1 1 1 1 1 0.0098792742123740007 1 1 1 0.011119263023306106 1 1 1 1 1 1 0.011154787196037227 1 1 1 1 1 1 0.0095728995733689506 0.012908599075768008 1 1 0.010335779075401438 0.010185323653090946 1 1 0.009998416794061547 0.011493641860246128 1 1 1 1 1 1 1 1 1 0.0100959849347245 1 1 1 1 1 1 0.010172081984462719 1 1 1 1 1 1 1 1 1 1 1 1 1 1 1 1 1 0.010208203861125266 1 1 1 1 1 1 1 1 1 1 1 1 1 1 1 1 1 1 1 0.010372799646571644 1 1 1 0.010498345568966699 1 1 1 0.011031130598737619 1 1 1 1 1 0.010035647098474598 1 1 1 1 1 1 1 1 1 1 0.010513994394934244 1 1 1 1 1 1 1 1 1 1 1 1 1 1 1 1 1 1 1 1 1 1 1 0.0093701201392696939 1 1 1 1 1 0.0089652192636682365 1 1 0.013963260633149552 1 1 1 0.010450979728417908 1 0.014961025437179887 1 1 0.0085045355017941051 1 0.02037090988030461 1 1 1 1 1 1 0.014366890013291648 1 1 0.013769324585550101 1 1 1 1 0.0098373389865199744 1 1 0.011364673129317993 1 1 1 1 1 1 1 1 1 1 0.010937221434848023 1 1 1 1 1 0.013330322570615732 1 1 1 1 1 1 1 1 1 1 1 1 1 1 0.014467095261775623 1 0.014304419482568687 1 1 1 1 1 1 1 1 1 1 1 1 1 1 1 1 1 1 1 1 1 1 1 1 1 1 1 0.010230261906646327 1 0.010634848487089848 1 1 1 1 1 0.010137136861086232 1 1 1 1 1 1 1 1 0.01002030076986358 1 1 1 1 1 1 1 1 1 1 1 1 1 1 1 1 1 1 1 1 1 1 1 1 0.0099740800116096661 1 1 1 1 1 1 1 1 1 1 1 1 1 0.0097581171257248231 1 1 1 1 1 1 1 1 0.0098531726874498456 1 1 1 1 1 0.0092760198651385423 1 1 1 1 1 1 1 1 1 1 1 1 1 1 1 1 0.012717113594018677 1 0.011101575961553372 1 1 1 1 0.010494208853682522 1 1 1 1 1 1 1 0.011996303468777857 1 1 1 1 1 1 1 1 1 1 1 1 1 0.012894092524924424 1 1 1 1 1 1 1 1 1 1 1 1 1 1 1 1 1 1 1 1 1 1 1 0.0098951293856016746 1 0.010830120695387769 1 1 1 1 1 1 1 1 1 1 1 1 1 1 1 0.011419915393877432 1 1 1 1 1 1 1 1 1 1 1 1 1 1 1 1 1 1 1 1 1 1 1 1 0.010938436750801831 1 1 1 1 1 1 1 1 1 1 1 1 1 1 1 1 1 1 0.011838336637544154 1 1 1 1 1 1 1 1 1 1 1 1 1 1 1 1 1 1 1 1 1 0.010197720400834389 1 0.011258510668732066 1 1 1 1 1 1 1 1 1 1 1 1 0.010441047117475562 1 1 1 0.010457120796004957 1 1 1 1 1 1 1 1 1 1 1 1 0.0098671126153850614 1 0.010463333975011055 0.010093780574084148 1 1 1 1 1 1 1 1 0.0097861136527820029 1 1 1 1 1 1 1 1 1 1 0.0099920382177774748 1 1 1 1 1 1 1 1 1 1 1 1 1 0.011103420586121187 1 1 1 1 1 1 0.013157656490492496 1 1 0.0090614303560673428 1 1 1 1 1 1 1 1 0.010094150654565991 0.012634072599278028 1 1 1 1 1 1 1 0.011184768329231237 1 1 1 0.010476254754088535 0.01608589218841399 1 1 1 0.015513283077880063 1 1 1 1 1 1 1 1 0.0097159989984979527 0.0099528868404170062 1 1 1 1 1 1 1 1 1 1 1 1 1 1 1 1 1 0.016133322138240362 0.010746712801530806 1 1 1 1 1 1 1 1 0.010848473080153458 1 1 1 0.013654717852481804 0.0098281474589786335 1 1 0.010902879499937169 1 1 0.010031963149020101 1 0.015823672912195798 1 1 1 1 1 0.0094390847064631956 1 1 0.016116506855015429 1 1 1 1 1 1 1 1 1 1 1 1 0.010474379042568278 1 0.014405191543438216 1 1 1 1 1 1 1 1 1 1 1 1 1 0.011090790342459278 1 1 1 0.010646241140906487 1 1 1 1 1 1 1 1 0.010207133496461454 1 1 1 1 1 1 1 1 1 1 0.010471465200769347 1 1 0.012783413393121066 1 1 0.010668038534363633 1 1 1 1 1 1 1 1 0.013822178208038483 1 1 1 0.0093123193176616516 1 1 1 1 1 1 1 0.010412872077956879 0.010062258610037468 1 1 0.0093276528108379893 0.010792025445862647 1 1 1 1 1 1 0.01103990558118558 1 1 0.009271009894384433 0.01024169944548326 0.0097379275502158646 1 1 1 0.012344788101062246 0.010110216443429585 1 1 1 1 1 1 1 1 1 1 0.010165434089353729 1 1 1 1 1 0.0098833023935281181 1 1 0.010427724762313505 1 0.012737112853310034 1 0.015476345119591188 1 1 1 1 1 0.011544523683961447 1 1 1 0.011806818978271393 1 1 1 0.013118136733131341 0.0088429653394066533 1 0.013944284952992679 1 1 0.01003959957313267 0.012755757323733848 1 1 1 1 1 1 0.014593398938992645 1 0.01433020078260281 1 1 1 1 1 1 1 1 0.0099927873218981483 1 1 1 1 1 1 1 1 1 1 1 1 1 1 1 1 1 1 1 1 1 1 1 1 0.0098530977276128345 1 1 1 0.010203548568215978 0.012663034010296309 1 1 1 0.012162849889450399 1 1 0.012235623087381315 0.011553455238686228 0.012903049179042635 1 1 1 1 0.010525528008329134 1 1 1 1 1 1 0.013792079223543014 1 1 0.010008191236734125 1 1 0.012640370600722962 1 1 1 1 1 1 0.010070821351308781 0.0094135622575018136 1 0.010057231855786114 0.010128003087015383 1 0.011636354450962866 1 1 1 1 0.0099377302843798032 0.010017847630810517 1 1 1 1 0.010006070121577207 1 1 0.010084455973741052 1 1 1 1 1 1 1 1 0.010553806645484439 1 1 1 1 1 1 1 1 1 1 1 1 1 1 1 1 1 0.010330539562941051 0.012921568197750153 1 1 1 1 1 1 1 0.011743805715733788 1 1 1 1 1 1 1 1 1 1 1 1 1 1 1 1 1 1 1 1 0.009417916897810668 1 0.015745141489151872 1 1 1 1 1 1 1 1 1 1 1 1 1 1 1 1 1 0.0090980221349126356 0.01663501431377129 1 0.012086621296355184 1 1 1 1 1 1 1 1 1 0.011252847446245698 1 1 1 1 1 1 1 1 1 1 0.010578593966480448 0.009596711273167283 1 1 1 1 1 1 0.012185850067839028 1 1 1 1 1 0.010939579747682646 1 1 1 1 1 1 0.010232546848541961 1 1 1 1 1 1 1 1 1 0.015550250407041794 1 1 1 1 1 0.01262606624097172 1 1 1 0.0099430926135361287 1 1 1 1 1 1 1 1 1 1 1 1 1 1 1 0.015041058834306948 1 1 1 1 0.010668933905973942 1 1 1 1 1 1 1 1 1 1 1 1 1 1 1 1 1 1 1 1 0.010484317160264199 1 1 1 1 1 1 1 1 1 1 1 1 1 0.010270119766195131 1 1 1 1 0.010082120748890809 1 1 1 0.0099946097849521586 1 0.0099252155965324461 1 0.0099918586765515363 1 1 1 0.010004305204334729 1 1 1 1 1 1 1 1 1 1 1 1 1 1 0.0099568309174571379 0.0097782838378787096 1 1 1 1 1 1 1 1 1 1 1 1 1 1 1 0.010392273248833166 1 1 1 1 1 1 1 1 1 1 1 1 1 1 1 1 1 1 1 1 1 1 1 1 0.020623292846744183 1 1 1 1 1 1 1 1 1 0.012007389081617345 1 1 1 1 1 1 0.01016291642669799 0.0091395720971300422 1 1 1 0.0095176298519989901 0.010026861139425879 1 1 1 0.010950494438092399 1 1 1 0.011248114427208133 1 1 0.021116664017630671 1 1 0.012796478425129664 0.014329055822562345 1 1 1 0.0099844941348809987 1 1 1 1 1 1 0.0093904451352277291 1 0.0083206287436056701 0.013553501993504536 1 0.0099937292715977875 1 0.014849885383998189 1 1 1 1 1 1 1 1 1 1 1 1 1 1 1 1 1 1 1 1 1 1 1 1 1 1 1 1 1 1 0.010041109793876572 1 1 1 1 1 1 1 1 1 1 0.016438198493109995 1 1 1 1 1 1 1 1 0.019476159381190367 1 1 1 1 1 1 1 1 1 1 1 1 1 1 1 1 1 1 1 1 1 1 1 1 1 1 0.010916570443164953 1 0.0098353110513578652 1 1 1 1 1 1 0.010350963008409037 1 1 1 1 1 1 1 1 1 1 1 1 1 1 1 1 1 1 0.013733609732323905 1 1 0.011724698659688376 1 1 1 1 0.0092693234012488808 1 1 1 1 1 1 1 1 1 1 1 1 1 1 0.014169777936806439 1 1 1 1 1 1 1 1 1 1 1 1 1 0.020460782696410357 0.024249748264538441 1 1 1 1 1 0.016514193379120606 1 1 1 1 1 1 1 1 1 1 1 1 1 0.012273089656114008 1 1 1 1 1 1 1 1 1 1 1 1 1 1 1 0.011593942410225457 1 1 0.013640745002534368 1 1 1 1 1 1 1 1 0.017202855525966287 1 1 1 1 1 0.012601973085648159 1 1 1 0.010589903798975933 1 1 1 1 0.011607123043022645 1 1 1 1 1 1 1 1 1 0.01227006669029242 1 1 1 1 1 1 1 1 1 1 1 1 0.011460299552430995 1 1 1 1 1 0.018002384471607125 1 1 1 1 1 1 1 1 1 1 1 1 0.014219421187249897 1 1 0.018835336964517051 1 1 1 1 1 1 1 1 1 1 0.0099781844574366382 1 1 1 1 1 1 1 1 1 1 1 0.0068718866984208045 1 1 1 1 0.013507102144739901 1 1 1 1 1 1 1 1 1 1 1 1 1 1 1 1 1 1 1 1 1 1 1 0.011816895073613245 1 1 1 1 1 1 1 1 1 1 1 1 1 1 1 1 1 1 1 1 1 1 1 1 1 1 1 1 1 1 1 1 1 1 1 1 1 0.0099372581279649659 1 1 1 0.0096556550134454314 1 1 1 1 1 1 1 1 1 1 0.0098814920213761807 1 1 0.010037447494509247 0.0097416862185978302 1 1 0.013804761591205205 1 1 0.012607972141761493 0.0096113872818873996 1 1 0.012278071930507714 0.0092176883327891417 0.010996494085284273 1 1 0.0097517901963007012 1 1 0.010613485433533356 1 1 1 1 1 1 1 1 0.010352568355119454 1 0.010183751536846197 0.0097288744050632071 1 1 0.010755629466139977 1 1 0.011299706459215558 1 0.0089065206537077522 1 0.011453812623889826 1 1 1 1 1 0.013711863899342812 1 1 1 0.012375342175671837 0.013954040511931727 1 0.011940223434369476 1 0.0088072199012936628 0.0090527659909380095 1 1 1 1 1 1 0.014041063227512165 0.015193044874614297 1 1 1 0.010013439182092486 1 1 0.013608526080581546 1 0.0093520021853868932 0.016595331717470324 1 0.0092800419026000842 1 0.012025996316671672 1 0.0093921209416776667 0.0098549931936270773 1 1 0.012747428770974066 1 1 1 1 1 1 1 1 0.0092926773439028169 0.0098045578108377513 1 0.012546141551438128 0.011582492278179696 1 0.013391875470518091 0.010876485677337948 1 0.0095951275764530469 0.011632018460158973 1 1 1 0.012285264188840826 1 0.0099420360573675114 1 0.012903571145975026 0.010728772089015293 1 1 1 1 1 1 1 1 1 1 1 1 1 1 1 1 1 1 0.012597016735017353 1 0.015479416238110798 1 1 0.019185765908899852 1 1 1 1 1 0.01098695079917392 1 1 1 1 0.012363215241732521 0.011407386107615769 1 0.0083703489406832705 1 1 0.017297849561017833 1 1 1 1 0.0099677841132396611 0.0099182697250374402 1 1 0.0098903530700786314 1 1 1 1 1 1 1 1 1 1 1 1 0.010047792602475483 1 1 1 1 1 1 1 1 0.012135976653492607 1 1 1 1 1 1 1 1 1 1 1 1 1 1 1 1 1 1 1 1 1 1 1 1 1 1 0.010059351880507847 1 1 1 1 1 1 1 1 1 0.010088715789787157 1 0.010232893372164951 1 1 1 0.010107144482983317 1 1 1 1 1 1 1 1 1 1 0.010330512671121471 0.010078065606644437 1 1 1 0.0099419736717254615 0.0099970856745576278 1 0.010006372498572974 1 1 1 0.01012138458849076 0.010110623183968784 1 1 1 1 1 1 0.010115242969702204 1 1 1 0.010124856603127619 1 1 1 1 1 1 1 1 1 1 1 1 0.010061312975915436 1 1 1 1 1 1 1 1 1 1 0.011211682815102174 0.0096612045783984329 1 1 1 1 1 0.010559872736387206 1 1 1 0.01070628553535799 1 1 1 1 1 1 1 1 1 1 1 1 1 1 1 1 1 1 0.010395746763669465 0.0098875475624299602 1 1 1 1 1 1 1 1 1 0.012143815540261192 1 0.015275630493701481 1 1 1 1 0.016751033008324177 1 0.01297219934651557 1 1 1 1 0.010016634769825613 1 1 0.0099949535643408232 1 1 1 1 1 1 0.010330841281983244 1 1 1 1 1 1 1 1 1 1 1 1 1 1 1 1 1 1 1 1 1 1 0.019746658611960358 1 1 1 1 1 1 1 1 1 1 1 0.0093731867799621525 1 0.010874042310401691 1 1 0.010008032098418355 1 0.0097569884142132916 1 0.020435384351420532 1 1 0.013064606840752453 0.0092484324589937206 1 0.0087081830599173293 0.018495492035800178 0.009701390652682473 0.010058564692415872 1 1 1 0.010323911554095788 0.013304315420170836 1 1 1 0.0098607916390361892 1 1 1 1 1 1 1 1 1 1 1 1 0.013793843899552575 1 0.009991700109797063 1 1 1 1 1 1 1 1 1 1 1 1 1 0.011129350252634252 1 1 1 1 1 0.011015203189996861 1 1 0.010878796534787419 1 1 1 1 0.010680663194656858 1 1 1 1 0.010009870041227956 1 1 0.01039039008831133 1 1 1 0.0099623422573773945 1 0.016603425087062952 1 1 0.010133606773554422 0.010608867762289882 1 1 1 1 1 1 1 1 1 1 1 1 1 1 1 1 1 1 0.014336604764787644 1 1 1 1 1 1 1 1 0.014748371754338558 1 1 1 1 1 1 1 1 1 1 1 0.0099939859453812754 0.010002590151941441 0.010481464000596172 1 1 1 1 1 0.014905859257751734 1 1 1 1 0.015790600980583804 0.0092929116759219374 0.016629165630191966 0.010008317131815363 1 1 0.02166428773423263 1 1 1 0.013503963277829449 0.01038903860600039 1 1 1 1 1 1 1 1 1 1 1 0.010968150812848814 1 1 1 1 1 1 1 1 1 1 1 1 1 1 1 1 1 1 1 0.018361058549849946 1 1 1 1 1 1 1 0.019930627771423012 1 1 1 1 0.021176841449433118 1 1 1 1 0.010351819130187446 1 1 1 0.0094216559946288612 1 1 1 1 1 1 0.010030933308828982 1 1 0.010323765594587496 1 1 1 1 1 1 1 1 0.0093455981258465798 1 1 0.0091844659188278777 1 1 1 1 1 1 1 1 0.010116345127302313 0.010456195799699725 0.012264575401934073 1 1 1 1 1 0.012956598913885519 1 1 1 0.010228170728272385 1 1 1 0.010626981687120264 1 1 0.0097594187549978791 1 1 1 0.021034483801351325 1 1 1 1 1 1 1 1 0.0099811943874599986 1 1 1 0.01115658765634177 1 1 1 1 1 1 0.01038362716482976 1 1 1 1 1 1 0.011402979948797125 1 0.0093421779195846689 1 0.011683083943669939 1 1 1 1 0.012202551291926989 1 1 1 0.010732163047683846 1 1 1 1 1 1 1 1 0.011073377305739963 1 1 1 1 1 1 1 0.011648930472749681 1 0.014587411380613566 1 0.01124221148528019 1 1 1 1 1 1 0.0091764986489463463 1 1 0.011931792069925468 1 1 1 0.016739318338256665 1 1 1 1 0.009436727147012814 1 1 1 1 1 1 1 1 1 0.011614345962938283 1 1 1 1 1 1 1 1 1 0.0088064453808804656 1 1 1 1 1 1 1 1 1 1 0.011091246047819477 1 1 1 1 1 1 1 1 1 1 1 1 1 1 1 1 1 0.0099607469419048141 1 1 1 1 1 1 1 1 1 1 0.01318468205389133 1 1 1 1 1 1 1 0.012017409008791495 0.010244235408772773 1 1 1 1 1 0.010070127659524548 1 1 1 1 1 1 1 0.0096015510374389407 1 1 1 1 1 1 1 1 1 1 1 1 1 1 1 1 1 1 1 1 1 1 1 1 1 1 1 1 1 1 1 1 1 1 0.0095983971565962063 1 1 1 1 0.010089318996740551 1 1 1 1 1 1 1 0.0091005114675192008 1 1 1 0.0098497218276739872 1 1 0.009346316050014368 1 1 1 0.0095815167966993228 1 1 1 1 1 1 1 1 0.010698981395542994 1 1 0.0085682178317879002 1 0.012708368317688743 1 1 0.014295732037883311 1 1 1 0.010246938650100998 1 1 0.0097881375331064988 0.010002342578418052 1 1 1 1 1 0.016587422958073691 1 1 1 1 1 1 1 0.018386099144859024 1 0.0099450663148181913 1 1 1 0.010047562213960345 1 1 1 0.019835916406095017 1 1 1 1 1 1 1 1 1 1 0.010043305901287712 1 1 0.0095519276921166157 0.014377791721186179 1 1 0.010181853369805604 1 1 0.015548336239284291 1 0.0097924239054143682 1 1 1 0.010411781193708492 1 1 1 0.01350449151616894 0.013709769402384999 1 1 1 1 0.0093217299731531457 0.010377143704493875 1 0.013632722917984364 1 1 1 1 1 1 0.012711514515915017 1 1 0.021725169725105627 1 1 1 1 1 0.015982327620717798 0.0091340500715559811 1 1 1 1 1 1 1 0.0098421843419705252 1 1 1 1 1 1 1 1 1 1 1 1 0.010662832045000877 1 1 1 1 1 0.011341833297686382 1 1 1 1 1 1 1 1 1 1 1 1 1 1 1 1 1 1 1 0.010354117895654727 1 1 1 1 1 1 1 0.011288188556596621 1 1 1 1 1 0.013439839961017361 1 1 1 1 1 1 1 1 1 1 1 1 1 1 1 1 1 1 1 1 0.014850653651705771 1 1 1 1 1 0.014998975705667664 1 1 1 1 1 1 1 1 1 1 0.014608831329936449 1 1 1 0.011367202933504615 0.010689166299166273 1 0.013298055793896037 1 1 0.012045650897983129 1 1 1 1 1 0.010221809821576772 0.012109388357970185 0.0096453740446167044 1 1 1 0.010356894440091201 1 1 1 0.010775766352748255 1 1 1 1 1 1 1 1 1 1 1 1 1 1 1 1 1 1 1 1 1 1 1 1 1 1 1 1 1 1 0.010808632014648878 1 1 1 0.011870025101882077 1 1 1 1 1 0.011649278048818268 1 1 1 1 0.012059069273462576 1 1 1 1 1 1 1 1 1 1 1 1 1 0.008920391221931577 1 1 1 1 1 0.0087617180198998161 1 1 1 1 1 1 1 0.0091551041694913141 1 1 1 1 1 0.010003500445759553 1 1 1 1 0.010414590850249417 1 1 1 1 1 1 1 1 1 1 0.010457493727650395 1 1 1 0.010470317378945954 1 1 1 1 1 1 1 1 1 1 0.012702770884803786 1 1 1 1 1 1 0.01132380653395761 1 1 1 1 1 0.011905618906927399 0.0090613265730761679 1 1 1 0.012279920078847284 1 1 1 1 1 0.0086942015517811541 1 1 1 1 1 1 1 1 0.0098708448412209611 1 1 1 0.010566928100913591 1 1 1 1 1 1 1 1 1 1 1 1 1 1 1 1 1 1 1 1 1 1 1 1 1 1 1 1 1 1 1 1 1 1 1 1 1 1 0.0098838482677531814 1 1 1 1 1 1 1 1 1 0.016398789726234833 1 1 0.01038659256961973 1 1 0.010042331688464587 1 1 0.010171257866540002 1 1 1 1 0.010609869693065523 1 1 0.0095339662554016144 1 1 1 1 1 1 1 0.019414730488972347 1 1 1 1 0.013097198962634315 0.018606427323399122 0.010073877671448617 1 1 1 1 1 1 1 1 1 1 0.010246465387846328 1 0.0237781552806898 1 1 1 1 1 1 0.01012926798903953 1 1 1 0.025321899858900605 1 1 1 1 0.011311800838526719 1 1 0.010476117020520192 1 1 1 1 1 1 1 1 1 1 1 1 1 1 1 1 1 1 1 1 0.010223277123445795 1 1 1 1 1 1 1 1 1 1 1 1 1 1 0.0091356814046516365 1 0.011292222605212511 1 1 1 1 1 1 0.010522162942178051 1 1 1 1 1 0.010762783262984773 1 1 1 0.010636292168358191 1 1 1 0.01004562123630863 1 1 1 1 1 1 0.009857866785345195 1 1 1 0.009969314560046471 1 1 1 1 1 1 1 1 1 1 1 1 1 1 1 0.0099927198570735967 1 1 1 1 1 1 1 1 0.011491585484725425 1 1 1 1 1 1 1 1 1 1 1 1 1 1 1 1 1 1 1 1 1 1 1 1 1 1 1 1 1 0.014786943446236196 1 1 1 1 1 1 1 1 1 1 1 0.01569555028391852 1 1 1 1 1 0.015400221748651492 1 0.0097413169926690059 1 1 1 1 1 1 1 1 0.010941986542298443 1 1 1 0.010141767983873146 1 0.014354241969303475 1 1 1 1 1 1 1 0.011770228250304741 0.014511935578821767 1 1 1 1 1 1 1 1 1 1 1 1 0.009848015548528051 1 1 1 1 1 1 1 1 1 1 1 1 1 1 1 1 1 1 1 1 1 1 1 1 1 1 1 0.0089881756995395384 1 1 1 0.0076236489542803381 1 1 1 1 1 1 1 0.01173607004180985 1 1 1 1 1 1 1 1 1 1 0.010510551933601365 1 1 1 1 1 1 0.0066783576876208069 1 1 1 0.0068345142482459653 1 1 0.014949318995194093 1 1 1 1 1 1 1 1 1 1 1 1 1 0.0075844646398718742 1 1 0.0090380519323018781 1 1 1 1 1 1 0.0096864180722481489 1 0.0074468282420785438 1 1 1 1 1 1 1 1 1 1 1 1 1 1 1 1 1 0.0075891169714464267 1 1 1 1 1 1 1 1 1 1 1 1 1 1 1 1 0.01238984351370642 1 1 1 1 1 1 0.010625006998160661 1 1 1 0.011734682565723626 0.013077633301125741 1 1 1 1 1 1 0.0086812146311217968 1 1 1 1 1 0.0095791110251633206 1 1 1 1 1 1 1 0.01070217736369867 1 1 1 1 1 1 1 1 1 1 1 1 1 0.0096428067410852403 1 1 0.012285331423518757 1 1 0.011716066488258908 1 1 1 1 1 1 1 1 1 0.011072072211104433 1 1 1 1 1 1 0.012157855000723618 1 0.0137311017532654 1 1 1 1 1 0.01056994505918723 0.011515285880633655 1 1 1 1 1 1 0.010390332046932235 1 1 1 1 1 1 1 1 1 1 0.017106662352160729 1 1 0.010857731903213451 1 0.021005438945285095 0.019549867299605152 1 1 0.010866340977627498 1 1 1 1 0.0050682651044226725 0.010239491474874969 1 1 1 1 1 0.015355515075150494 1 1 1 1 1 0.02211338388776626 0.017974221978527639 1 1 1 0.013562090288385096 1 1 1 1 1 1 1 1 1 0.02669054348861901 1 1 1 1 1 1 0.0081359088968061197 1 1 1 1 1 1 1 1 1 1 1 1 1 1 1 1 1 1 1 1 1 1 1 1 1 1 1 1 1 1 1 0.0098430744331558448 0.0093234625744995289 1 1 1 1 1 1 1 1 1 1 1 1 1 1 1 1 1 1 1 1 0.0099426799155071331 1 1 1 1 0.010679546956066405 1 1 1 1 1 1 1 1 1 1 1 1 0.011339448661830419 1 1 1 1 1 1 1 0.010900806477312338 0.010875437502163771 1 1 1 1 1 0.0096961407577075484 1 1 1 1 1 0.011531964569676333 1 1 1 1 1 1 1 1 1 1 1 1 1 1 1 1 1 1 1 1 1 0.01009960548235129 1 1 1 1 1 1 1 1 1 0.013474497011970218 1 1 1 1 1 0.0096630509835048239 1 1 1 1 1 1 1 1 1 1 1 1 1 1 1 1 1 1 0.01015467448131447 1 1 1 1 1 1 1 1 1 0.010393971363561415 1 0.010798098246563942 0.011809351162496174 1 0.012918281957994882 1 0.010100027319150695 1 1 1 1 1 1 1 1 1 1 1 1 1 1 1 1 1 1 1 1 1 1 1 0.011417356261904968 1 1 1 1 1 1 1 1 0.0099168315158603623 1 0.012138437844612916 1 1 1 1 1 1 0.010603038292992577 0.011738014305145084 1 0.01364313214623058 1 1 1 1 0.015101899493256129 1 0.01596857067820525 1 1 1 1 1 1 1 1 1 0.010515895525138116 0.0099716682076513175 1 1 1 1 1 1 1 1 1 1 1 1 1 1 1 1 0.025320794755905027 1 1 1 1 1 1 1 1 1 1 0.016523232168979007 0.017558589969579822 1 1 1 1 1 1 1 1 1 1 1 1 1 1 1 1 1 1 1 1 1 1 1 1 1 1 1 1 1 1 1 1 1 1 1 1 1 1 1 1 1 1 1 1 0.011580459868603782 1 1 1 1 1 1 0.014153391485623777 1 1 1 1 1 1 1 1 1 1 1 1 1 1 1 1 1 1 1 1 1 1 0.01228065700606313 1 1 1 0.014630028874892669 0.012284352661374188 1 1 1 1 1 1 1 1 1 1 1 1 1 1 1 0.011807536555051863 1 1 1 1 1 1 1 1 0.012229212000466751 1 1 1 1 1 1 1 1 1 1 1 1 1 0.015693673625711328 1 1 1 1 0.011948986990647508 1 1 1 1 1 0.0099236699798864875 1 1 1 0.01795045276441317 1 1 1 0.019928068355083609 1 1 1 1 1 0.0097026774225294921 1 1 0.015172128784740432 1 0.015312707691275421 1 1 1 1 1 1 0.012276130602086923 1 1 1 1 1 1 1 1 1 1 1 1 0.022242917824188791 1 1 1 0.013291770047609093 1 1 1 1 1 1 1 1 0.024682858568261183 1 1 1 1 1 1 0.0098601921607733307 1 1 1 1 1 1 1 1 1 1 1 1 1 1 1 1 0.015856227409987479 1 1 1 1 1 1 1 1 1 1 1 1 1 0.0099605225705347352 1 0.012382104157876305 1 0.01054847538568717 1 1 1 0.013612349447935499 1 1 1 0.014615379358615793 0.0092465922935300454 0.012402941394663193 0.010175638862500542 1 0.010660147247307768 1 1 1 1 1 0.0099784038241480955 1 1 1 1 1 0.010093436880374996 1 1 1 1 1 1 1 1 1 1 1 1 1 1 1 1 0.012139388822876794 1 1 1 1 1 1 1 1 1 1 1 1 1 1 1 1 1 0.011994670583462555 1 1 1 0.0090033020850405418 1 1 1 1 1 1 0.0096686258552914506 1 1 1 1 1 1 1 1 0.010085576997602857 1 1 1 1 1 1 1 1 1 1 1 1 1 1 1 1 1 1 1 1 1 1 1 1 0.012041448497649007 0.010099448030976997 1 1 1 1 1 0.01207741946672768 1 1 1 1 1 1 1 1 0.012777005762581749 1 1 0.00869350342928632 1 1 1 1 1 1 1 1 1 1 1 1 1 1 0.011701990572297375 1 1 1 1 1 1 0.0095135846798394888 1 1 1 1 1 1 1 1 1 1 1 0.011410952875925352 1 1 0.010000628211152119 1 1 1 1 1 1 1 1 1 1 1 1 1 1 1 1 1 1 1 1 1 1 1 1 1 1 1 1 1 1 1 1 1 0.0096412429534769913 1 1 1 1 1 1 1 1 1 1 1 1 1 1 1 0.010036936366967128 0.009848890003052075 1 1 1 1 0.010007773808212647 1 1 1 1 1 1 0.0080577604109935645 1 1 1 1 1 1 1 1 1 1 0.009103428400670634 1 1 1 1 1 0.008240462574952442 1 1 1 1 0.013305071023915045 0.010000992137102047 1 1 1 0.0092973470668798706 1 1 1 1 1 1 1 1 0.011028575801552833 1 1 1 1 0.010519316486110354 0.0098119287712983179 0.0095631384212559525 1 0.010510745136070582 1 0.010594212575153228 1 1 1 0.011237256176927259 1 1 1 0.0092835765100816141 0.015136331672936262 1 1 1 1 0.0083758447018480488 1 1 0.011446997730517607 1 1 1 0.0098367669397933927 1 1 1 1 1 0.010103485646940967 1 1 1 1 1 1 1 0.010343964456776114 1 1 1 0.010302485877350593 1 1 1 1 0.010106392370909038 1 1 1 1 1 1 0.010594611002862941 1 1 1 1 1 1 1 0.010200140426324276 1 1 1 1 1 1 1 1 1 0.010197185658393046 1 0.010140685144985171 1 1 1 1 1 1 1 1 1 0.010469344146735173 0.011428520185304041 0.010071776944873352 1 1 0.010093486540977668 1 1 1 1 1 1 1 1 1 1 1 1 1 1 1 1 0.01054237324680677 1 0.010327780933127879 1 1 1 1 1 1 1 1 1 1 1 0.0095696438592042833 1 1 1 0.010651601862588895 1 1 1 1 1 1 1 1 1 0.010557991478787842 1 1 1 1 1 1 1 1 1 1 1 0.010316842152214897 1 0.010066929528083598 1 1 1 1 0.014582710997109036 1 1 1 0.01409078712626867 1 1 1 1 1 1 1 1 0.010034718006513076 1 1 0.012634251761500761 1 1 1 1 1 0.013947589148893954 1 1 1 0.014102567426602233 1 1 1 1 1 1 1 1 1 0.010068248925428156 0.012583316289263151 1 1 1 1 0.01229475374130065 1 1 0.012430895133357676 1 1 1 0.012657767412792936 1 1 1 1 0.011340574987338099 0.010517428711849087 1 1 1 1 1 1 1 1 1 1 1 1 1 0.010742351971316561 1 1 1 1 1 0.011886378166353424 1 1 1 1 1 1 1 1 1 1 1 1 1 1 1 1 1 1 1 1 1 1 1 1 1 1 1 1 1 1 1 1 1 1 0.011191034487826799 1 1 1 0.012903400077401138 1 1 1 1 1 0.017180257437333431 1 1 1 1 1 1 1 1 1 1 1 0.01063714018004093 1 1 0.016339414229430249 1 1 1 1 0.010307533833121128 0.019663855432097317 1 1 1 1 1 1 1 1 1 1 0.0096438915778125321 1 0.013805328364818346 1 1 1 0.0099140867490417131 1 1 0.0107882686436043 1 1 1 1 1 1 1 0.013781562683978132 1 1 0.0096803856864242383 0.015035520007874259 1 1 0.013778997226538995 0.01297150966280442 1 1 1 1 0.01058886693366746 1 1 0.013710924848809891 1 1 1 1 1 1 1 1 1 1 1 1 1 1 1 1 1 1 1 1 1 1 1 1 1 1 1 1 1 1 1 1 1 1 1 0.0096256920658884058 0.0098850522713567514 1 1 1 1 1 1 1 1 1 1 1 1 1 1 1 1 1 1 1 1 1 1 1 1 1 1 1 1 1 1 1 1 0.010359424973161863 1 1 1 1 1 1 1 1 1 1 1 1 1 1 1 1 0.011166642794404817 1 1 0.019169014207269727 1 1 1 1 1 1 1 1 1 1 1 1 1 1 1 1 1 1 1 1 1 1 1 1 0.011414695441829353 1 1 1 1 1 1 1 0.021674695462299942 1 1 1 1 1 0.010969487203531643 1 1 0.021610831052980634 1 1 1 1 0.012644304853872031 1 0.012780926847835182 1 1 0.014550739451777211 0.011982736870981007 1 1 1 1 1 1 1 1 1 1 1 1 1 1 1 1 1 1 1 1 1 0.012895765994938335 0.015585037405319691 1 1 0.012093812090841205 1 0.014534588579369815 1 1 1 1 1 1 1 1 1 1 1 1 0.0069478812637371583 1 1 1 1 1 1 1 1 1 1 1 1 1 0.0053365266660377192 1 1 0.013652513230004507 1 1 1 1 0.013910544366539278 1 1 1 1 1 1 1 1 1 1 0.010728410370941615 1 1 1 1 1 1 1 1 1 1 1 1 1 1 1 0.011438187325109438 1 1 0.016532826336138409 1 1 1 1 1 1 1 0.011545205601335483 1 1 1 1 1 0.014318897022183462 0.009972145513287213 0.012026857905982857 1 1 1 1 1 0.014711045574142424 1 0.010055728796130602 1 1 0.013371969984567333 1 1 1 1 1 1 1 0.01046545832607095 1 1 1 1 1 1 1 1 1 1 1 1 1 1 1 1 1 1 0.016654541431055284 1 1 0.01060231556384026 1 1 0.014885486830772756 1 1 1 1 1 1 1 1 1 0.018328691482109825 1 0.016270713002344686 1 1 1 0.012546546571332404 1 1 1 1 0.011746865542773802 1 1 0.0096768011409344538 1 1 1 1 0.01466034810910288 1 1 0.012914855329274718 0.009768523445249944 1 1 1 1 1 1 1 1 1 1 0.011439591339108386 1 1 1 1 1 1 1 1 1 1 1 1 1 1 1 1 0.010921292501231356 1 1 1 0.010371226079539645 1 1 0.01357310851349053 1 1 1 1 0.013890395989667325 1 1 1 1 1 0.01214503064411738 1 1 1 1 1 1 1 0.010405875091111648 1 1 1 0.011301799348807725 0.0099910026081861392 1 1 1 1 1 0.012773298022388926 1 1 1 1 1 1 0.010975238532771363 1 1 1 1 1 1 1 1 0.01381065132440156 1 1 0.012795547815547825 1 1 1 1 1 1 1 1 0.0090204359465043977 0.011076434973269133 1 1 1 1 1 1 1 1 1 1 0.010857823055146477 1 1 1 1 0.011548221294799899 1 1 1 1 1 1 1 1 1 1 1 1 0.014254511270828366 1 1 1 1 0.010690398239653441 1 1 1 1 1 1 1 1 1 1 1 1 1 1 0.010342654960261218 0.016855326470689522 1 1 0.013141585287530493 1 1 0.012746569896727915 1 1 1 1 1 1 1 1 0.011100058179947461 1 1 1 1 1 1 1 1 1 1 1 1 1 1 1 1 1 1 1 1 1 1 1 1 1 1 1 1 1 1 0.010635859533350792 1 1 1 1 1 1 1 1 1 1 1 1 1 1 1 1 0.010693370220135308 1 1 0.011630047192561523 1 1 1 1 1 0.010849407331774979 1 1 0.012366297512105291 1 0.012976867772611776 1 1 1 1 1 1 1 0.01033675769010794 1 1 0.0087673233277917265 0.013811357957302716 1 0.009040646517900609 1 0.010609058240676266 1 1 1 1 1 1 0.010235323799751858 1 1 1 1 1 1 0.010128777099675036 1 1 1 0.0096737174810585958 1 1 1 1 1 1 1 1 1 1 1 1 1 1 0.010464041795141458 1 1 1 1 1 1 1 1 1 0.011433929485103 1 1 1 1 1 1 0.011253876834795231 1 1 1 1 1 0.014828143498839746 1 1 1 1 1 1 1 0.013506660580357318 1 0.011933387896936236 1 1 1 1 1 1 1 1 1 1 1 1 1 1 1 1 1 1 1 1 1 1 0.0116826630820523 1 1 1 1 1 1 1 1 1 1 1 1 1 1 1 1 1 1 1 1 1 1 1 1 1 1 1 0.01075511637976522 1 1 1 1 1 1 1 1 1 1 1 1 1 1 1 1 1 1 1 1 1 1 1 1 1 1 1 1 1 1 1 1 1 1 1 1 1 1 1 1 1 1 1 1 0.0096066975807481986 1 1 1 1 1 1 0.012361417574416774 1 0.011513734590325982 1 0.010733302330749921 1 1 1 1 0.013805303498930312 1 1 1 1 1 1 1 1 1 1 1 1 0.0099895921934201673 0.0099891683755790588 1 1 1 1 1 1 1 1 1 1 1 1 1 1 1 1 1 1 1 0.014694203014734838 1 1 1 0.010013579707995329 1 1 1 1 1 1 1 1 1 1 1 1 1 1 1 1 0.010476943085104953 1 1 1 1 1 1 1 1 0.015182543537170776 1 1 1 1 1 0.010185924872659131 1 1 1 1 1 1 1 1 1 0.0108707979229824 1 1 1 1 1 1 1 1 0.010378763480875481 1 1 0.010664093509670805 1 1 1 1 1 1 1 1 1 1 1 1 0.011605310838945136 1 1 1 1 1 1 1 1 1 1 1 1 1 1 1 1 1 1 1 1 1 1 1 1 1 1 0.010180444861297318 1 1 1 1 1 1 1 1 1 1 0.012313132420899209 0.011505442905400849 1 1 1 1 1 1 1 1 1 1 1 1 1 1 1 1 1 0.013570935042744153 1 1 1 1 0.010648526385002233 1 1 1 1 1 1 1 0.010033380956507007 0.011933697235821538 1 0.017267287072202396 1 1 1 1 1 0.012319587255308771 1 0.010025089749641287 1 1 0.010132218744816046 1 1 1 0.011350749705829383 1 1 1 1 1 1 1 1 1 1 1 1 1 1 1 1 1 1 1 1 1 1 1 1 1 1 1 1 1 0.013797522967953285 0.012654916626707285 1 1 0.010040674833744481 1 1 1 1 1 1 1 1 0.009989616251520379 0.0099492932408331344 1 1 1 1 1 1 1 1 1 1 1 1 1 0.01005992987404788 1 1 1 1 1 0.010434957745152382 0.010125964861490273 1 1 0.010304875926230434 1 1 1 1 1 1 1 1 1 1 1 1 1 0.010123088390464658 1 1 1 1 1 1 1 1 1 1 1 1 1 1 1 1 1 1 1 1 0.010593931424477144 1 0.010256497204196042 1 1 0.010760158017380835 1 0.01007228887076817 1 1 0.017496559233790107 1 1 1 1 0.01413703256171577 1 1 1 1 1 1 0.010928590885508854 1 1 1 0.0059255614576623284 1 1 1 1 1 1 0.0069165527762098094 1 1 1 1 1 1 0.010268032946087193 1 1 1 1 1 1 1 1 1 1 1 1 1 1 1 1 1 1 1 0.0088036598403662333 1 1 1 1 1 1 1 0.022239044305582382 1 1 1 1 1 1 1 1 1 0.020705268698603507 1 1 1 1 0.009627380283943221 1 1 0.0081779866857782432 1 1 0.010360840558340415 1 1 0.010316248317424051 1 1 0.0095922740481215723 1 1 1 1 1 1 1 0.017816588904084371 1 1 1 1 1 1 1 1 1 1 1 1 1 1 1 1 1 1 1 1 1 1 1 1 1 1 1 1 1 1 1 0.01649715967630784 1 0.010401302321093934 1 1 1 1 1 1 1 0.011203701971939846 1 1 1 1 0.011954848406996533 1 1 1 1 1 1 1 1 1 1 1 1 1 1 1 0.0066384604617709952 1 1 1 1 1 1 1 1 1 1 1 1 1 1 1 1 0.0097341950191171291 1 1 1 1 1 0.0071983387576887228 1 1 1 1 1 1 1 1 1 1 1 1 0.0062262494075707702 1 1 1 1 1 1 1 0.01025816316491222 1 0.0081063354144596603 1 1 1 1 1 1 1 1 1 1 0.0089111908829838313 1 1 1 1 1 1 1 1 1 1 1 1 1 1 1 1 1 1 0.011050110714086446 1 1 1 1 1 1 1 1 1 1 1 1 1 1 1 1 1 1 1 1 1 1 0.012455045109232369 1 1 1 1 0.0094014179492035999 1 1 0.0098047230093552436 1 1 1 0.012336176593080343 1 1 1 1 1 1 1 1 0.010545301610465225 1 1 1 1 1 0.011929513524573524 1 1 1 1 1 1 1 1 1 1 1 1 1 0.009114679371564488 1 1 1 1 1 1 1 1 0.014274110764394665 1 0.013162142077999801 1 1 1 1 1 0.007266782530648737 1 0.0088872747337426956 0.015471113417892039 1 1 0.015400844361116776 1 0.013401985324877162 1 1 1 1 1 1 1 1 1 1 1 1 0.022088411198529792 1 1 1 1 1 1 1 1 1 1 1 1 1 1 1 1 1 1 1 1 1 1 1 1 1 1 1 1 1 1 1 1 0.015853059037504946 1 1 1 1 1 1 0.01971103211599954 1 1 1 0.011307737962829578 1 0.013228832237434587 1 1 1 1 1 1 1 1 1 1 1 1 1 1 0.010502162037346253 1 1 0.01090170635938667 1 1 1 0.011601030949713449 1 1 1 1 1 1 1 1 0.01016224997008415 1 1 1 1 0.010800817288912018 1 1 1 1 1 0.010277495642711805 1 1 0.010408270519293146 0.010354028201691755 1 0.0088974521531588434 1 1 1 0.011264740533497304 1 0.010884128042111328 0.011340892052005827 1 1 0.010083489014634258 1 0.010465695001616371 1 0.010311485717786659 0.011984887649462081 1 1 0.012848534014130665 1 1 1 1 1 0.010486714528915059 1 1 1 1 1 0.010837509547515193 0.011133723462236728 1 1 1 1 1 1 1 0.010460580849820433 1 1 1 1 1 1 1 1 1 1 1 0.010961168819326697 1 0.0098653396859903469 1 1 1 1 1 1 1 1 1 1 1 1 1 1 1 1 1 1 0.010489375427810518 1 0.011159210835484122 1 1 0.012651350634987228 1 0.0099912231985333413 1 1 1 1 1 1 1 0.0099693763888641044 1 1 1 1 1 1 1 1 1 1 1 1 1 1 1 1 1 1 0.01001285774924175 1 1 1 1 1 1 1 0.01001290752599655 1 1 1 1 1 1 1 1 1 1 1 1 1 1 1 0.010222110764257693 1 1 1 1 1 1 1 1 0.010513202574977835 1 1 1 1 1 1 1 1 1 1 1 1 1 1 0.0099237948027238974 1 1 1 1 0.017983842562536219 1 1 1 1 1 1 1 1 0.010248086076345076 1 1 1 1 1 0.010539177887065224 1 1 1 1 0.010139810050878634 1 0.010106548367989104 1 1 1 1 1 1 1 1 1 1 1 1 1 1 1 1 1 1 1 1 1 0.0065689787302485366 0.012566774021469725 1 0.014726453812026842 0.014905612960410895 1 1 1 0.010562224340758535 0.0099944578222210395 1 1 0.0095666611124985562 1 1 0.0096315292666771888 1 1 1 1 1 1 0.0089803895655525528 1 1 1 1 1 0.0099766479309369195 1 0.011667677589000945 1 0.010914151344380993 1 1 0.0097666873261923089 1 1 1 1 1 0.010044964902807065 1 1 1 1 1 1 1 1 1 1 0.0096152836179181893 1 1 1 1 1 1 0.0099369250878204116 1 1 1 1 1 1 1 0.010045113511677223 1 1 1 1 1 1 1 1 1 1 1 1 1 1 0.0098231138705294763 1 1 1 0.011201988043736288 1 1 1 1 1 1 1 1 1 1 1 1 1 1 1 1 1 1 1 1 1 1 1 1 1 1 1 1 1 0.010072644797067501 1 1 1 1 0.010215412184891248 0.011176693008891403 1 1 1 1 1 1 0.012980918360666158 0.0094001283965077405 1 1 1 1 1 1 1 1 1 0.011233017999980081 1 1 1 1 1 1 1 0.0099837618991304548 0.011680095152763562 1 1 0.011363907372886915 1 0.0097291796086044109 1 1 1 1 1 1 1 1 1 1 1 1 1 1 1 0.0098809014348270573 1 1 1 1 0.011512496963053247 1 1 1 1 1 1 1 0.010183406140895355 1 1 1 1 1 1 1 1 0.0094219833826252857 1 1 1 1 1 1 1 0.0099234929960202028 0.010019633583123428 1 1 1 1 0.010676084358005617 1 1 0.010605130448682516 1 1 1 0.009226230592384102 1 1 1 0.01069145112052073 1 1 1 1 1 1 1 1 1 1 0.011746790305234664 1 1 1 1 1 1 1 1 1 0.010693505132442287 1 1 1 1 1 1 1 1 1 1 1 0.012386763768597424 1 1 1 0.011431839438605715 1 1 1 1 1 0.01044600888606749 1 0.014576310369181259 1 1 1 0.012947588419654744 1 1 0.013868117253926674 0.0077716263209593912 1 1 1 1 1 1 1 1 0.010636574033364094 1 1 1 1 1 1 0.011209398999033272 1 1 1 0.011330079165806381 1 1 1 1 1 0.011946307720709344 1 1 1 1 1 1 1 1 1 1 1 1 1 1 1 1 1 1 1 1 1 1 0.011882724824807843 1 1 1 1 1 1 1 1 1 1 1 1 0.010850706024996297 1 1 1 1 1 1 1 1 1 1 1 1 1 1 1 1 0.011863238027288552 1 1 1 1 1 1 1 1 1 1 1 1 1 1 1 1 1 1 1 1 1 1 1 1 1 1 1 1 1 1 1 1 1 1 1 1 1 1 0.011292448009939792 1 1 1 0.0097778112433733171 1 1 1 1 1 1 1 0.011405665217908175 1 1 1 1 1 1 0.013155686037228337 1 1 1 1 1 1 1 1 1 1 1 1 1 1 0.0090907132190790295 1 1 1 1 0.0089924368234956566 1 1 1 1 1 1 1 1 0.0090366139559750983 0.010068312678377333 1 1 1 1 1 1 1 1 1 1 1 1 1 1 1 1 1 1 1 1 1 1 0.010476881589994345 1 1 0.01131977080286759 1 1 1 1 1 1 1 1 1 1 1 1 1 1 1 1 1 1 1 1 1 1 1 1 1 1 1 1 1 0.011492364821034837 1 1 0.010062717942073982 1 1 1 0.010732912272606468 1 1 1 0.010607672638206738 1 1 0.010249640029384799 1 1 1 1 1 1 1 1 1 1 1 1 1 0.010866829196365132 1 1 1 1 1 1 1 1 1 1 1 1 1 0.010296119747279252 1 1 1 0.010447068054037542 1 1 1 1 1 1 0.011731523506474318 1 0.010795610858323718 1 1 1 1 0.00932079442675025 1 1 1 1 0.0086945873634349732 1 1 0.010150948306758306 1 1 1 1 1 1 1 1 1 1 1 1 1 1 1 1 1 1 1 1 1 1 1 1 1 1 1 1 1 1 1 1 1 1 1 1 1 1 1 0.0099298114791613289 1 1 1 0.010199958059507229 1 0.010382937406233396 1 0.010373053122298135 1 1 0.011648072595007074 1 0.010227735174214742 0.011201981184971517 1 1 1 1 0.0097373741846189903 1 1 1 1 1 1 1 0.010582870725268428 1 1 0.01029760087101997 1 1 1 1 1 0.010401741662689644 1 1 1 1 1 1 1 1 1 1 1 1 0.010527255371432526 1 1 1 0.012918347226433353 1 1 0.012529939885423055 1 1 0.010036811819755149 1 0.0099987608776189729 1 1 1 1 1 0.010460968686141789 1 1 0.010267114670138074 1 1 1 1 1 1 1 1 1 1 0.010413815600121085 1 1 1 1 1 1 1 1 1 1 0.010331848965218708 1 1 1 1 1 1 1 0.010068418688761314 1 1 1 1 1 0.0099757747040863688 0.0098849839518758194 1 1 1 1 1 1 1 0.010283491966711897 0.0098163325780473293 1 1 0.0094537076896240094 1 1 1 1 1 1 1 1 1 1 1 0.010697307566832986 1 1 1 1 1 1 1 1 1 1 1 1 1 1 0.010508787769864338 1 1 1 1 1 1 1 1 1 1 1 1 1 1 1 1 1 1 1 1 1 1 1 0.010176938804645645 1 1 1 1 1 1 1 1 1 1 1 1 1 1 1 1 1 1 1 1 1 1 1 1 1 1 1 1 1 1 1 1 1 1 1 1 1 1 1 1 1 1 1 1 1 1 1 1 1 1 1 1 1 1 1 1 1 1 1 1 1 1 1 1 1 1 1 1 0.010010013897817222 1 1 1 1 1 1 1 0.01017320867889852 1 1 1 1 1 1 1 1 1 1 1 1 1 1 1 1 1 1 1 1 1 1 1 1 1 0.010288525536411939 1 1 1 1 1 1 1 1 1 1 1 1 1 1 1 1 1 1 1 1 1 1 1 1 1 1 1 1 1 1 1 1 1 1 1 1 1 1 1 1 1 0.010048337953039829 1 0.010602307152502996 1 1 1 1 1 1 1 1 1 1 1 0.0086882392410254951 1 1 0.0097135964894000098 1 1 1 1 0.0105312345684049 1 1 1 1 1 1 1 1 1 1 1 1 1 1 1 1 1 1 1 1 1 1 1 0.011978103822064911 1 1 1 0.010909954858974951 1 1 1 1 1 1 1 1 1 1 0.010497412103822719 1 1 1 1 1 1 1 0.011069940382136564 1 0.010108709266729543 1 1 1 0.010407791423562556 1 1 1 0.010071620117767105 1 1 1 1 1 1 0.0095259068684632152 0.011191222173170479 0.0099986378516451584 1 1 0.010267037550428779 1 1 1 1 0.010688456895534892 1 1 1 0.01072881586266337 1 1 1 1 1 1 1 1 0.011284174056409885 1 1 1 1 1 1 1 1 1 1 1 1 1 1 0.01308827908620102 1 1 1 1 1 0.0095540087889094492 1 1 1 1 1 1 1 0.010526952280076246 1 0.010631720017671011 1 1 1 0.013623888153034353 1 1 1 1 1 1 1 1 1 1 1 1 1 1 1 1 1 1 1 1 1 1 1 1 1 1 1 1 1 1 1 1 1 1 1 1 1 1 1 1 1 0.011872895337384988 1 1 1 1 1 1 1 1 1 0.011532531616566739 1 1 1 1 0.013188782549657196 1 1 1 1 1 1 1 1 1 1 1 1 1 1 1 1 1 1 1 1 0.011656250933090445 1 0.01305321082940513 1 1 1 1 1 1 1 1 1 1 1 1 1 1 1 1 1 1 1 1 1 1 1 1 1 1 1 1 0.011206554705935044 1 1 1 1 1 1 1 1 1 1 1 1 1 1 1 0.013935140026240096 0.0096281052405659557 1 0.0087808966434732919 0.018121679392355063 1 1 1 1 1 1 1 1 1 1 0.01244826192006538 1 0.010371862095786865 1 1 1 1 1 1 1 0.011760039307679172 1 1 0.013187361048287539 1 1 1 1 1 1 1 0.015580832986567631 1 1 1 1 1 1 1 1 1 1 1 1 1 1 1 1 1 0.011870495448305884 1 1 1 1 1 1 1 0.015252316564977279 1 1 1 1 1 1 1 1 1 1 1 1 1 1 1 1 1 1 1 1 1 1 1 1 1 1 1 1 1 0.0096418041836693613 1 1 1 1 1 1 1 1 1 1 1 1 1 1 1 1 1 1 1 1 1 1 1 1 1 1 1 0.010423904381857965 1 1 1 0.010438434624029129 1 1 1 1 1 1 1 1 1 1 1 0.012949371311178619 1 0.013870073868023886 1 1 1 1 1 1 0.010522635130244462 1 1 1 1 0.009652421303132059 1 1 0.010175320793005659 1 1 1 1 1 1 1 1 1 1 0.011044872963077889 1 1 0.010173895993374305 1 1 1 1 1 1 1 1 1 1 1 1 1 1 1 1 1 1 0.010363878324109163 1 1 1 1 0.013380845604753866 1 0.012230258588065045 1 1 1 1 1 1 1 1 1 1 1 0.013715908787759945 1 1 1 1 0.012703813648708749 1 1 1 1 1 1 1 1 1 1 1 1 1 1 1 0.01436111539749303 1 1 1 0.014657409598379981 1 1 1 0.023039150672603832 1 1 1 1 1 1 1 0.010418955076968561 1 1 1 1 1 1 1 0.0089284224679608577 1 1 1 1 1 1 1 1 1 1 1 1 1 1 1 0.012442919889609372 1 1 0.020462908937206523 1 1 1 1 1 1 1 1 1 1 0.010056240652763169 1 1 1 1 1 1 1 1 1 1 1 1 1 1 1 1 1 1 1 1 1 1 1 1 1 1 1 1 1 1 1 1 0.0099980320588966692 1 1 1 0.0075256221250925119 1 1 1 1 1 1 0.0095863954078332161 0.0099944615466655042 1 1 1 1 1 0.014028255157579786 1 1 1 1 0.0097328048276420012 1 1 1 1 1 1 1 1 0.01000229489779342 0.018839707302763905 1 1 1 1 1 1 1 1 1 1 1 1 1 1 1 1 1 1 1 1 0.011292696857439805 0.015581503112499555 1 1 1 1 1 0.015532724725567885 1 1 1 1 0.0098120039237738436 1 0.017710020905400779 1 0.010000969966388195 0.01447970248146699 1 1 0.0098989346581169081 1 1 1 1 1 1 1 1 1 1 1 0.01233496854398357 1 1 1 1 1 1 1 1 1 1 1 1 1 0.009674722371480109 0.0099972377255554429 1 1 1 1 1 1 1 1 1 1 1 1 1 1 1 1 1 1 1 1 1 1 1 1 1 1 1 1 1 1 1 1 1 1 1 1 1 0.011860012139975607 0.0094791274363253374 1 1 0.012429560264007758 0.010176346762723883 1 1 0.01111105821689134 0.010467941144498241 1 1 1 1 1 0.012362809199709524 1 1 1 1 1 0.015351028178214014 1 1 1 1 0.011986571092465816 1 1 1 1 1 0.015332772427711925 1 1 0.0088300554221500058 1 1 1 1 1 1 1 1 1 1 1 1 1 1 1 1 1 1 1 1 1 1 1 1 1 1 1 1 0.0082193332955974828 1 1 1 1 0.015962524853267282 1 1 1 0.009959803317576725 0.010675784169034266 1 1 1 0.0091085145462752575 1 1 1 1 0.014687748690467829 0.0079142296631739724 1 0.013279420293796576 1 1 1 0.0099896388526458831 1 1 1 1 1 1 1 1 1 1 1 1 1 1 1 1 1 1 1 1 0.014370453812387943 1 1 1 0.013159538605760555 1 1 1 0.012791528408573446 1 1 1 1 1 1 1 0.011205721062444253 1 1 1 1 1 1 1 1 1 1 0.011826184651594591 1 1 1 1 1 1 1 1 1 1 1 0.0097811090735869608 1 1 1 1 1 1 1 1 0.011135402965068573 0.0092126227541574797 0.011974505162668115 1 1 1 1 1 1 1 1 1 1 1 1 1 1 1 1 1 1 1 1 1 1 1 1 1 1 0.013533408747090714 1 1 1 0.010010094801425156 1 1 1 1 1 1 1 1 1 1 0.010177217314409903 1 1 0.010001281877636166 1 1 1 1 1 1 1 0.013734374681990172 1 1 0.010018024278685653 1 1 1 1 1 0.011866548251154614 1 1 1 0.012455017001611111 0.017391968530912533 1 1 1 1 1 1 1 1 1 0.010019324643169351 1 0.010082309286610674 1 1 0.015648341386623802 1 1 1 0.016613520935696208 1 1 1 1 1 0.008091948867590187 1 1 1 1 1 1 1 1 0.0094867750839111881 1 0.0143976337151926 1 1 1 1 1 1 1 1 1 1 1 1 1 0.0097116043448585692 1 1 1 1 1 1 1 1 1 1 1 0.0069838032460592192 1 1 0.010370039649549467 1 1 1 1 1 1 1 1 0.0063905964767586856 1 1 1 1 0.008146321771910596 1 0.020528646891094175 1 1 1 1 1 0.009602679373107121 1 1 0.0093136567402764651 1 1 1 1 1 1 1 1 1 0.01811658252194881 1 1 1 1 0.018272892029361922 1 1 1 1 1 1 1 0.011360481911651291 1 1 0.018410079281522915 1 1 1 1 1 1 1 0.010118845319864015 1 1 1 1 1 1 1 1 1 1 1 1 1 0.01000348824540421 1 1 0.010340852092953857 1 0.0074327018469508262 0.0095580997272550657 1 0.0095341336991343929 1 1 1 1 1 0.01014338368322714 1 1 1 0.010303800422671601 1 1 1 1 1 0.010955756358719908 1 1 0.014683053434460389 1 0.010480795598672998 1 1 1 1 1 0.013279965038168369 0.011674479386715904 1 1 0.011157932125417326 0.008259488367953479 1 1 1 1 1 1 0.012553319732343783 1 0.010241545451499537 1 1 0.0099740628893623257 1 1 1 1 1 0.01406488698633681 1 1 1 0.014096558846443289 1 1 1 1 1 1 1 1 0.013834008610563817 0.013764155967115671 1 1 1 1 1 0.013322091166563537 1 1 0.011962678643834386 1 0.013246350657262531 0.012248244545507251 1 0.012116861854098198 0.012145369551715879 1 1 0.011150613740338796 0.011668807055063971 0.011565274702248515 1 1 0.010990397186910097 1 1 0.011823308032616876 1 1 0.010212487156624858 0.010417883992791813 0.01134313851775293 1 1 1 0.013504784922341228 1 1 1 0.011470939023368213 1 1 1 0.010012251540558343 1 1 1 0.011163765076513375 1 0.010047101796767243 1 0.0097674163593084694 1 1 1 1 0.012947868518452584 1 0.013651418329943002 0.0148545168216512 0.0092797691696925744 1 0.014608584914632222 1 1 1 1 0.013212637294919977 1 0.010112849324548635 0.009499847499782707 0.0077675022869026977 1 1 0.014443659085352618 1 1 1 1 1 0.010004272647873432 1 0.012510897917541713 0.012495316922450504 1 1 1 0.011301521329441407 1 1 1 0.0094117925876323928 1 1 1 1 1 1 1 1 1 1 1 1 1 0.01439401750036182 1 1 1 1 1 1 0.012917083741819206 1 1 1 1 1 1 1 1 1 1 0.019281727630062629 1 1 1 1 0.0089191129490360337 1 1 1 0.0068333817741388064 1 1 1 1 1 1 0.01442666099842203 1 1 1 1 0.010117413487758221 1 1 1 1 1 1 1 0.011609275251456011 1 1 1 1 1 1 1 1 0.017273532640066418 1 1 1 1 1 1 1 1 0.014500647961283676 1 1 1 1 1 1 1 1 1 1 1 1 1 1 1 1 1 1 1 1 1 1 1 1 0.011381998592662961 1 1 0.015728799667276402 1 1 1 1 1 1 1 1 1 0.0183389971190163 1 1 0.0099339559862176678 1 1 1 1 0.010773547965161518 1 1 1 1 0.012132445841398108 1 1 1 1 0.0089728582742283416 1 1 1 1 1 1 0.016280750191879825 1 0.011864490560078446 1 1 1 1 1 0.01073695770337948 1 1 1 1 1 1 1 1 1 1 1 1 1 1 1 1 1 1 1 0.0050615513125996563 1 1 1 1 0.011909808035742013 0.013138281135830819 1 1 1 1 1 0.026208889010364604 1 0.010614164732875667 1 1 1 0.032203811469787069 1 1 0.035712694172391195 1 1 1 0.011193090092161708 1 1 1 1 1 1 0.014060241818141467 1 1 1 1 1 0.03384372556834972 1 1 1 1 1 1 0.027217800064878186 1 1 0.010553569292797771 1 1 0.010171415688865929 1 1 0.013234562831893724 1 1 1 1 1 1 1 1 1 1 1 0.0099746089422733837 1 1 0.0050727961516043498 1 0.010667657387149136 1 1 1 1 0.0080554912008381635 1 1 1 1 1 1 0.0099999499394451408 1 1 1 1 0.01124124125809745 1 1 0.0099755208549669461 1 1 1 1 1 1 1 1 1 1 1 1 1 1 1 1 1 1 1 1 1 1 0.015168043584357273 1 1 1 1 1 1 1 1 1 1 1 0.0087598278683871152 1 1 1 1 1 1 1 1 1 1 1 1 1 1 1 1 1 1 0.0095697931690255575 1 1 1 1 1 1 0.0098362715766098664 1 1 1 1 1 1 1 1 1 1 1 1 1 1 1 1 1 1 1 1 0.0091100380812106849 1 0.011780330459471858 1 1 1 1 1 1 1 1 1 1 1 1 1 0.0098355595420782684 1 1 0.010019047544927818 1 0.0095651312962915444 1 1 1 1 1 0.0117385231458609 1 1 1 1 1 1 0.010094482084861384 1 1 1 1 1 1 1 1 1 0.020375474371562736 1 0.022063704793868225 1 1 1 1 1 1 1 1 1 0.010000712034531596 1 1 1 1 1 1 1 1 1 1 0.018283244691808535 1 1 1 1 1 0.013539740897177457 1 1 0.012260088618182501 1 1 1 1 1 1 1 1 1 1 1 1 1 1 1 0.010963585676091046 1 1 1 1 1 1 1 1 1 1 0.010352578510258311 1 1 0.010104063471962707 1 1 1 1 1 0.012621236718431022 0.012749051670093678 1 1 0.011133957046907065 1 1 0.0095800441070572964 0.016694846362656078 1 1 1 1 1 0.008790535823719161 1 1 0.018874955889387313 1 1 1 1 1 1 1 1 0.017747498947941639 1 1 0.0099369395615656157 1 1 1 0.0099844033853110289 1 1 1 1 1 1 1 1 1 0.023180662851546203 0.024195088322744879 1 0.0092061393772231801 1 1 1 1 1 1 1 1 0.0097350163682064748 1 1 1 1 1 0.020081182672871407 1 0.0095440091556949474 1 1 1 1 1 1 1 1 1 1 1 1 1 1 0.010020832226434602 1 1 1 1 1 1 1 1 1 1 1 0.025857014161984791 1 1 0.010795988653906234 1 0.0096345111766760992 1 1 0.029192130865673516 1 1 1 1 1 1 1 1 0.0099415448166940996 1 0.021452368680385414 1 1 1 0.010377033576937669 1 1 1 1 1 1 1 1 1 1 1 1 1 1 1 1 1 1 1 1 1 1 0.0088859329229047344 1 1 1 1 1 1 1 1 1 1 1 1 1 1 1 1 1 1 0.023340925426709271 1 1 1 1 1 0.0036001875599244856 0.0064080028712197538 1 1 1 
</DataArray>
</CellData>
</Piece>
</UnstructuredGrid>
</VTKFile>
