<?xml version="1.0"?>
<VTKFile type="UnstructuredGrid" version="0.1" byte_order="LittleEndian">
<UnstructuredGrid>
<Piece NumberOfPoints="31601" NumberOfCells="11118">
<Points>
<DataArray type="Float64" NumberOfComponents="3" format="ascii">
-0.5 -0.5 0 -0.50000000000000067 -0.47613806069393161 0 -0.48117926967371621 -0.48394583022478221 0 -0.5 -0.5 0 -0.46235853934743171 -0.49175359975563271 0 -0.44703076160296318 -0.5 0 -0.5 -0.5 0 -0.48117926967371621 -0.48394583022478221 0 -0.46235853934743171 -0.49175359975563271 0 -0.49691768455204732 -0.47493868808340339 0 -0.48391189921961703 -0.47188833945871878 0 -0.48117926967371621 -0.48394583022478221 0 -0.50000000000000067 -0.47613806069393161 0 -0.49691768455204732 -0.47493868808340339 0 -0.48117926967371621 -0.48394583022478221 0 -0.50000000000000067 -0.47613806069393161 0 -0.48117926967371621 -0.48394583022478221 0 -0.50000000000000067 -0.47613806069393161 0 -0.49691768455204732 -0.47493868808340339 0 -0.5 -0.45827696796305262 0 -0.49691768455204732 -0.47493868808340339 0 -0.48391189921961703 -0.47188833945871878 0 -0.4872433343000564 -0.4633877724387403 0 -0.48117926967371621 -0.48394583022478221 0 -0.47249524611561527 -0.47473176819613511 0 -0.46235853934743171 -0.49175359975563271 0 -0.48391189921961703 -0.47188833945871878 0 -0.48117926967371621 -0.48394583022478221 0 -0.47249524611561527 -0.47473176819613511 0 -0.48117926967371621 -0.48394583022478221 0 -0.46235853934743171 -0.49175359975563271 0 -0.46235853934743171 -0.49175359975563271 0 -0.46017224606279078 -0.47058429179150979 0 -0.44812214327826649 -0.48337788354600669 0 -0.47249524611561527 -0.47473176819613511 0 -0.46235853934743171 -0.49175359975563271 0 -0.46017224606279078 -0.47058429179150979 0 -0.44812214327826649 -0.48337788354600669 0 -0.44678742448198749 -0.46633714393960601 0 -0.43684968937257018 -0.47683074977480511 0 -0.46017224606279078 -0.47058429179150979 0 -0.44812214327826649 -0.48337788354600669 0 -0.44678742448198749 -0.46633714393960601 0 -0.44678742448198749 -0.46633714393960601 0 -0.43684968937257018 -0.47683074977480511 0 -0.4355089869178248 -0.4655819069902159 0 -0.44812214327826649 -0.48337788354600669 0 -0.43656778419568509 -0.48650339847324081 0 -0.43684968937257018 -0.47683074977480511 0 -0.46235853934743171 -0.49175359975563271 0 -0.44812214327826649 -0.48337788354600669 0 -0.44353780902114709 -0.5 0 -0.44812214327826649 -0.48337788354600669 0 -0.44353780902114709 -0.5 0 -0.43656778419568509 -0.48650339847324081 0 -0.46235853934743171 -0.49175359975563271 0 -0.44353780902114709 -0.5 0 -0.46235853934743171 -0.49175359975563271 0 -0.44353780902114709 -0.5 0 -0.44703076160296318 -0.5 0 -0.44160402242949393 -0.43796833708133492 0 -0.4480748631946766 -0.45235378900643808 0 -0.42789749022056872 -0.44577499975519902 0 -0.44160402242949393 -0.43796833708133492 0 -0.4480748631946766 -0.45235378900643808 0 -0.46309028181393069 -0.43854721453586121 0 -0.4480748631946766 -0.45235378900643808 0 -0.44678742448198749 -0.46633714393960601 0 -0.4355089869178248 -0.4655819069902159 0 -0.4480748631946766 -0.45235378900643808 0 -0.44678742448198749 -0.46633714393960601 0 -0.46215769329326151 -0.45438531015045708 0 -0.46017224606279078 -0.47058429179150979 0 -0.46215769329326151 -0.45438531015045708 0 -0.47568168661023041 -0.45883632167561789 0 -0.46017224606279078 -0.47058429179150979 0 -0.44678742448198749 -0.46633714393960601 0 -0.46215769329326151 -0.45438531015045708 0 -0.46017224606279078 -0.47058429179150979 0 -0.47568168661023041 -0.45883632167561789 0 -0.4480748631946766 -0.45235378900643808 0 -0.46215769329326151 -0.45438531015045708 0 -0.46309028181393069 -0.43854721453586121 0 -0.46215769329326151 -0.45438531015045708 0 -0.46309028181393069 -0.43854721453586121 0 -0.47776225834294561 -0.44547143660805888 0 -0.46215769329326151 -0.45438531015045708 0 -0.47776225834294561 -0.44547143660805888 0 -0.47568168661023041 -0.45883632167561789 0 -0.47776225834294561 -0.44547143660805888 0 -0.47568168661023041 -0.45883632167561789 0 -0.49119112715766999 -0.4470883515597262 0 -0.47568168661023041 -0.45883632167561789 0 -0.49119112715766999 -0.4470883515597262 0 -0.47249524611561527 -0.47473176819613511 0 -0.46017224606279078 -0.47058429179150979 0 -0.47568168661023041 -0.45883632167561789 0 -0.48391189921961703 -0.47188833945871878 0 -0.47249524611561527 -0.47473176819613511 0 -0.47568168661023041 -0.45883632167561789 0 -0.48391189921961703 -0.47188833945871878 0 -0.47568168661023041 -0.45883632167561789 0 -0.4872433343000564 -0.4633877724387403 0 -0.49691768455204732 -0.47493868808340339 0 -0.5 -0.45827696796305262 0 -0.49119112715766999 -0.4470883515597262 0 -0.49691768455204732 -0.47493868808340339 0 -0.49119112715766999 -0.4470883515597262 0 -0.47568168661023041 -0.45883632167561789 0 -0.4872433343000564 -0.4633877724387403 0 -0.49119112715766999 -0.4470883515597262 0 -0.49691768455204732 -0.47493868808340339 0 -0.4872433343000564 -0.4633877724387403 0 -0.49119112715766999 -0.4470883515597262 0 -0.49119112715766999 -0.4470883515597262 0 -0.48725188323972513 -0.42793037213017671 0 -0.47776225834294561 -0.44547143660805888 0 -0.49119112715766999 -0.4470883515597262 0 -0.48725188323972513 -0.42793037213017671 0 -0.49119112715766999 -0.4470883515597262 0 -0.49999999999999939 -0.44041587523217363 0 -0.48725188323972513 -0.42793037213017671 0 -0.5 -0.45827696796305262 0 -0.49119112715766999 -0.4470883515597262 0 -0.49999999999999939 -0.44041587523217363 0 -0.49119112715766999 -0.4470883515597262 0 -0.49999999999999939 -0.44041587523217363 0 -0.49999999999999939 -0.44041587523217363 0 -0.48725188323972513 -0.42793037213017671 0 -0.5 -0.4220281462664901 0 -0.48725188323972513 -0.42793037213017671 0 -0.5 -0.4220281462664901 0 -0.48331263932178059 -0.40877239270062721 0 -0.48725188323972513 -0.42793037213017671 0 -0.48331263932178059 -0.40877239270062721 0 -0.5 -0.4220281462664901 0 -0.48331263932178059 -0.40877239270062721 0 -0.50000000000000022 -0.40364041730080669 0 -0.48331263932178059 -0.40877239270062721 0 -0.4611170540280623 -0.41559834917801391 0 -0.48331263932178059 -0.40877239270062721 0 -0.46232482472650382 -0.39622593197079647 0 -0.4611170540280623 -0.41559834917801391 0 -0.48725188323972513 -0.42793037213017671 0 -0.48331263932178059 -0.40877239270062721 0 -0.4611170540280623 -0.41559834917801391 0 -0.46309028181393069 -0.43854721453586121 0 -0.48725188323972513 -0.42793037213017671 0 -0.4611170540280623 -0.41559834917801391 0 -0.46309028181393069 -0.43854721453586121 0 -0.47776225834294561 -0.44547143660805888 0 -0.48725188323972513 -0.42793037213017671 0 -0.5 -0.37775010380916652 0 -0.4787647727128862 -0.38665445921988367 0 -0.4894711800628499 -0.36538480553353619 0 -0.5 -0.37775010380916652 0 -0.50000000000000022 -0.40364041730080669 0 -0.4787647727128862 -0.38665445921988367 0 -0.48331263932178059 -0.40877239270062721 0 -0.50000000000000022 -0.40364041730080669 0 -0.48331263932178059 -0.40877239270062721 0 -0.50000000000000022 -0.40364041730080669 0 -0.4787647727128862 -0.38665445921988367 0 -0.48331263932178059 -0.40877239270062721 0 -0.4787647727128862 -0.38665445921988367 0 -0.46232482472650382 -0.39622593197079647 0 -0.48331263932178059 -0.40877239270062721 0 -0.4787647727128862 -0.38665445921988367 0 -0.4787647727128862 -0.38665445921988367 0 -0.47421690610399209 -0.36453652573914003 0 -0.4787647727128862 -0.38665445921988367 0 -0.45991354751593561 -0.376079667978792 0 -0.47421690610399209 -0.36453652573914003 0 -0.4787647727128862 -0.38665445921988367 0 -0.45991354751593561 -0.376079667978792 0 -0.46232482472650382 -0.39622593197079647 0 -0.45991354751593561 -0.376079667978792 0 -0.46232482472650382 -0.39622593197079647 0 -0.44799075791191068 -0.38634052958183102 0 -0.46232482472650382 -0.39622593197079647 0 -0.44285017686844841 -0.40391019316563131 0 -0.4611170540280623 -0.41559834917801391 0 -0.44285017686844841 -0.40391019316563131 0 -0.44799075791191068 -0.38634052958183102 0 -0.4373583750591028 -0.39311869471828248 0 -0.46232482472650382 -0.39622593197079647 0 -0.44285017686844841 -0.40391019316563131 0 -0.44799075791191068 -0.38634052958183102 0 -0.45991354751593561 -0.376079667978792 0 -0.44799075791191068 -0.38634052958183102 0 -0.44411097469598282 -0.37328837845271873 0 -0.44799075791191068 -0.38634052958183102 0 -0.43310357206343858 -0.38226040857719268 0 -0.4373583750591028 -0.39311869471828248 0 -0.44799075791191068 -0.38634052958183102 0 -0.43310357206343858 -0.38226040857719268 0 -0.44411097469598282 -0.37328837845271873 0 -0.44160402242949393 -0.43796833708133492 0 -0.46309028181393069 -0.43854721453586121 0 -0.4611170540280623 -0.41559834917801391 0 -0.44285017686844841 -0.40391019316563131 0 -0.4611170540280623 -0.41559834917801391 0 -0.43892146873434401 -0.42242430565540062 0 -0.4611170540280623 -0.41559834917801391 0 -0.43892146873434401 -0.42242430565540062 0 -0.44160402242949393 -0.43796833708133492 0 -0.4611170540280623 -0.41559834917801391 0 -0.43892146873434401 -0.42242430565540062 0 -0.43892146873434401 -0.42242430565540062 0 -0.41672588344062572 -0.42925026213278722 0 -0.44160402242949393 -0.43796833708133492 0 -0.43892146873434401 -0.42242430565540062 0 -0.41672588344062572 -0.42925026213278722 0 -0.43892146873434401 -0.42242430565540062 0 -0.4263333974809268 -0.41197771493210539 0 -0.41672588344062572 -0.42925026213278722 0 -0.44285017686844841 -0.40391019316563131 0 -0.43892146873434401 -0.42242430565540062 0 -0.4263333974809268 -0.41197771493210539 0 -0.4263333974809268 -0.41197771493210539 0 -0.41266371142568092 -0.41078802683832683 0 -0.41672588344062572 -0.42925026213278722 0 -0.41266371142568092 -0.41078802683832683 0 -0.41672588344062572 -0.42925026213278722 0 -0.40289906164099248 -0.41811933418395619 0 -0.4263333974809268 -0.41197771493210539 0 -0.41266371142568092 -0.41078802683832683 0 -0.41535373944344151 -0.40055334118634461 0 -0.41672588344062572 -0.42925026213278722 0 -0.400079852799895 -0.43015220310994368 0 -0.40789451415801109 -0.4422953846574274 0 -0.41672588344062572 -0.42925026213278722 0 -0.400079852799895 -0.43015220310994368 0 -0.40289906164099248 -0.41811933418395619 0 -0.43310357206343858 -0.38226040857719268 0 -0.42570487150324898 -0.39835354432944292 0 -0.42012945461451118 -0.38590611116141488 0 -0.43310357206343858 -0.38226040857719268 0 -0.42012945461451118 -0.38590611116141488 0 -0.42667443479287781 -0.37326338258192032 0 -0.43310357206343858 -0.38226040857719268 0 -0.44411097469598282 -0.37328837845271873 0 -0.43496091655872221 -0.3712200959331991 0 -0.43310357206343858 -0.38226040857719268 0 -0.42667443479287781 -0.37326338258192032 0 -0.43496091655872221 -0.3712200959331991 0 -0.43310357206343858 -0.38226040857719268 0 -0.42570487150324898 -0.39835354432944292 0 -0.4373583750591028 -0.39311869471828248 0 -0.44285017686844841 -0.40391019316563131 0 -0.4263333974809268 -0.41197771493210539 0 -0.42570487150324898 -0.39835354432944292 0 -0.44285017686844841 -0.40391019316563131 0 -0.42570487150324898 -0.39835354432944292 0 -0.4373583750591028 -0.39311869471828248 0 -0.4263333974809268 -0.41197771493210539 0 -0.42570487150324898 -0.39835354432944292 0 -0.41535373944344151 -0.40055334118634461 0 -0.41266371142568092 -0.41078802683832683 0 -0.41535373944344151 -0.40055334118634461 0 -0.40141695667819599 -0.40314213941488408 0 -0.41535373944344151 -0.40055334118634461 0 -0.40873407176144821 -0.39229712892458818 0 -0.40141695667819599 -0.40314213941488408 0 -0.42570487150324898 -0.39835354432944292 0 -0.41535373944344151 -0.40055334118634461 0 -0.42012945461451118 -0.38590611116141488 0 -0.41535373944344151 -0.40055334118634461 0 -0.40873407176144821 -0.39229712892458818 0 -0.42012945461451118 -0.38590611116141488 0 -0.40873407176144821 -0.39229712892458818 0 -0.41189041450293618 -0.38251153912026847 0 -0.4032627442114905 -0.37957722812883782 0 -0.40873407176144821 -0.39229712892458818 0 -0.42012945461451118 -0.38590611116141488 0 -0.41189041450293618 -0.38251153912026847 0 -0.41189041450293618 -0.38251153912026847 0 -0.4032627442114905 -0.37957722812883782 0 -0.41521314256152908 -0.37331834150445409 0 -0.42012945461451118 -0.38590611116141488 0 -0.42667443479287781 -0.37326338258192032 0 -0.41521314256152908 -0.37331834150445409 0 -0.42012945461451118 -0.38590611116141488 0 -0.41189041450293618 -0.38251153912026847 0 -0.41521314256152908 -0.37331834150445409 0 -0.4032627442114905 -0.37957722812883782 0 -0.39046693865691062 -0.38309308781307838 0 -0.39316693299357802 -0.37010063078248318 0 -0.40873407176144821 -0.39229712892458818 0 -0.4032627442114905 -0.37957722812883782 0 -0.39869781596381809 -0.39022942964159751 0 -0.39869781596381809 -0.39022942964159751 0 -0.38904210385037502 -0.39558509760420563 0 -0.39046693865691062 -0.38309308781307838 0 -0.4032627442114905 -0.37957722812883782 0 -0.39869781596381809 -0.39022942964159751 0 -0.39046693865691062 -0.38309308781307838 0 -0.39869781596381809 -0.39022942964159751 0 -0.40141695667819599 -0.40314213941488408 0 -0.38904210385037502 -0.39558509760420563 0 -0.40873407176144821 -0.39229712892458818 0 -0.39869781596381809 -0.39022942964159751 0 -0.40141695667819599 -0.40314213941488408 0 -0.40141695667819599 -0.40314213941488408 0 -0.38860422158876878 -0.40580800440104747 0 -0.38904210385037502 -0.39558509760420563 0 -0.3769147014996842 -0.40463172553189619 0 -0.38904210385037502 -0.39558509760420563 0 -0.37747826181085492 -0.38752054362783678 0 -0.38860422158876878 -0.40580800440104747 0 -0.3769147014996842 -0.40463172553189619 0 -0.38904210385037502 -0.39558509760420563 0 -0.39046693865691062 -0.38309308781307838 0 -0.37747826181085492 -0.38752054362783678 0 -0.37877582828994388 -0.37147229669113591 0 -0.38904210385037502 -0.39558509760420563 0 -0.39046693865691062 -0.38309308781307838 0 -0.37747826181085492 -0.38752054362783678 0 -0.400079852799895 -0.43015220310994368 0 -0.38789153809545329 -0.43881576955965629 0 -0.40789451415801109 -0.4422953846574274 0 -0.39123674957505411 -0.42989694620772112 0 -0.400079852799895 -0.43015220310994368 0 -0.3926627146838324 -0.42187273476246412 0 -0.39123674957505411 -0.42989694620772112 0 -0.400079852799895 -0.43015220310994368 0 -0.38789153809545329 -0.43881576955965629 0 -0.400079852799895 -0.43015220310994368 0 -0.40289906164099248 -0.41811933418395619 0 -0.3926627146838324 -0.42187273476246412 0 -0.40141695667819599 -0.40314213941488408 0 -0.40289906164099248 -0.41811933418395619 0 -0.39399100206220899 -0.41336015125978331 0 -0.41266371142568092 -0.41078802683832683 0 -0.40141695667819599 -0.40314213941488408 0 -0.40289906164099248 -0.41811933418395619 0 -0.40141695667819599 -0.40314213941488408 0 -0.38860422158876878 -0.40580800440104747 0 -0.39399100206220899 -0.41336015125978331 0 -0.40289906164099248 -0.41811933418395619 0 -0.39399100206220899 -0.41336015125978331 0 -0.3926627146838324 -0.42187273476246412 0 -0.3926627146838324 -0.42187273476246412 0 -0.38372955836349809 -0.41471114120002228 0 -0.38438986664810731 -0.42463546240804201 0 -0.39399100206220899 -0.41336015125978331 0 -0.3926627146838324 -0.42187273476246412 0 -0.38372955836349809 -0.41471114120002228 0 -0.3769147014996842 -0.40463172553189619 0 -0.38372955836349809 -0.41471114120002228 0 -0.36986008215729332 -0.42314275463698592 0 -0.38860422158876878 -0.40580800440104747 0 -0.3769147014996842 -0.40463172553189619 0 -0.38372955836349809 -0.41471114120002228 0 -0.38860422158876878 -0.40580800440104747 0 -0.39399100206220899 -0.41336015125978331 0 -0.38372955836349809 -0.41471114120002228 0 -0.38372955836349809 -0.41471114120002228 0 -0.38438986664810731 -0.42463546240804201 0 -0.36986008215729332 -0.42314275463698592 0 -0.38438986664810731 -0.42463546240804201 0 -0.38789153809545329 -0.43881576955965629 0 -0.36986008215729332 -0.42314275463698592 0 -0.38789153809545329 -0.43881576955965629 0 -0.36986008215729332 -0.42314275463698592 0 -0.38789153809545329 -0.43881576955965629 0 -0.36382196954067447 -0.43462875089412673 0 -0.39123674957505411 -0.42989694620772112 0 -0.3926627146838324 -0.42187273476246412 0 -0.38438986664810731 -0.42463546240804201 0 -0.39123674957505411 -0.42989694620772112 0 -0.38438986664810731 -0.42463546240804201 0 -0.38789153809545329 -0.43881576955965629 0 -0.3768362332470635 -0.44230500670898132 0 -0.38789153809545329 -0.43881576955965629 0 -0.36382196954067447 -0.43462875089412673 0 -0.3768362332470635 -0.44230500670898132 0 -0.38412167675000702 -0.44971812205951878 0 -0.37150974860211899 -0.44605738432262348 0 -0.38412167675000702 -0.44971812205951878 0 -0.38789153809545329 -0.43881576955965629 0 -0.39496905287180822 -0.4449675742217799 0 -0.3768362332470635 -0.44230500670898132 0 -0.38412167675000702 -0.44971812205951878 0 -0.38789153809545329 -0.43881576955965629 0 -0.38789153809545329 -0.43881576955965629 0 -0.39496905287180822 -0.4449675742217799 0 -0.40789451415801109 -0.4422953846574274 0 -0.38789153809545329 -0.43881576955965629 0 -0.40789451415801109 -0.4422953846574274 0 -0.38789153809545329 -0.43881576955965629 0 -0.39496905287180822 -0.4449675742217799 0 -0.39496905287180822 -0.4449675742217799 0 -0.40325424163305212 -0.45006704623077137 0 -0.39492590281904022 -0.45391629329092781 0 -0.38412167675000702 -0.44971812205951878 0 -0.39496905287180822 -0.4449675742217799 0 -0.39492590281904022 -0.45391629329092781 0 -0.39496905287180822 -0.4449675742217799 0 -0.40325424163305212 -0.45006704623077137 0 -0.40789451415801109 -0.4422953846574274 0 -0.40467002148922132 -0.45761570056916151 0 -0.39301241257275538 -0.46806603965251747 0 -0.42054363788371601 -0.46020991432947778 0 -0.39301241257275538 -0.46806603965251747 0 -0.39619233006701732 -0.46905947176400248 0 -0.42054363788371601 -0.46020991432947778 0 -0.40325424163305212 -0.45006704623077137 0 -0.40467002148922132 -0.45761570056916151 0 -0.39492590281904022 -0.45391629329092781 0 -0.40467002148922132 -0.45761570056916151 0 -0.3952015153149917 -0.46003430062374701 0 -0.39492590281904022 -0.45391629329092781 0 -0.3952015153149917 -0.46003430062374701 0 -0.39492590281904022 -0.45391629329092781 0 -0.3893722026543554 -0.46094529085957692 0 -0.40467002148922132 -0.45761570056916151 0 -0.3952015153149917 -0.46003430062374701 0 -0.39301241257275538 -0.46806603965251747 0 -0.3952015153149917 -0.46003430062374701 0 -0.39301241257275538 -0.46806603965251747 0 -0.3893722026543554 -0.46094529085957692 0 -0.38412167675000702 -0.44971812205951878 0 -0.3893722026543554 -0.46094529085957692 0 -0.36855223003432408 -0.45699741901246838 0 -0.3893722026543554 -0.46094529085957692 0 -0.37683124881687557 -0.46570155790173301 0 -0.36855223003432408 -0.45699741901246838 0 -0.3893722026543554 -0.46094529085957692 0 -0.36855223003432408 -0.45699741901246838 0 -0.39301241257275538 -0.46806603965251747 0 -0.3893722026543554 -0.46094529085957692 0 -0.37683124881687557 -0.46570155790173301 0 -0.38412167675000702 -0.44971812205951878 0 -0.39492590281904022 -0.45391629329092781 0 -0.3893722026543554 -0.46094529085957692 0 -0.37759267714635519 -0.47700600774052437 0 -0.39619233006701732 -0.46905947176400248 0 -0.39301241257275538 -0.46806603965251747 0 -0.37759267714635519 -0.47700600774052437 0 -0.36548118726179479 -0.47592216497555723 0 -0.39301241257275538 -0.46806603965251747 0 -0.36548118726179479 -0.47592216497555723 0 -0.39301241257275538 -0.46806603965251747 0 -0.37759267714635519 -0.47700600774052437 0 -0.39619233006701732 -0.46905947176400248 0 -0.39301241257275538 -0.46806603965251747 0 -0.37683124881687557 -0.46570155790173301 0 -0.36548118726179479 -0.47592216497555723 0 -0.37759267714635519 -0.47700600774052437 0 -0.39619233006701732 -0.46905947176400248 0 -0.39173200586528317 -0.47931390424242598 0 -0.37759267714635519 -0.47700600774052437 0 -0.38159840187179012 -0.48783903841277709 0 -0.39173200586528317 -0.47931390424242598 0 -0.37759267714635519 -0.47700600774052437 0 -0.38159840187179012 -0.48783903841277709 0 -0.37157680820029199 -0.48859610726136171 0 -0.37780183702486209 -0.49999999999999861 0 -0.38159840187179012 -0.48783903841277709 0 -0.37157680820029199 -0.48859610726136171 0 -0.37780183702486209 -0.49999999999999861 0 -0.38159840187179012 -0.48783903841277709 0 -0.39269831647444142 -0.48800366390622502 0 -0.38159840187179012 -0.48783903841277709 0 -0.39269831647444142 -0.48800366390622502 0 -0.39173200586528317 -0.47931390424242598 0 -0.37780183702486209 -0.49999999999999861 0 -0.39269831647444142 -0.48800366390622502 0 -0.4074207105886824 -0.5 0 -0.39269831647444142 -0.48800366390622502 0 -0.40171109002295202 -0.48058975031234957 0 -0.4074207105886824 -0.5 0 -0.39619233006701732 -0.46905947176400248 0 -0.39173200586528317 -0.47931390424242598 0 -0.3995567486038597 -0.4745499045276399 0 -0.39173200586528317 -0.47931390424242598 0 -0.40171109002295202 -0.48058975031234957 0 -0.3995567486038597 -0.4745499045276399 0 -0.39269831647444142 -0.48800366390622502 0 -0.39173200586528317 -0.47931390424242598 0 -0.40171109002295202 -0.48058975031234957 0 -0.40171109002295202 -0.48058975031234957 0 -0.3995567486038597 -0.4745499045276399 0 -0.40692361485173267 -0.47109954972612178 0 -0.39619233006701732 -0.46905947176400248 0 -0.3995567486038597 -0.4745499045276399 0 -0.40692361485173267 -0.47109954972612178 0 -0.44353780902114709 -0.5 0 -0.4074207105886824 -0.5 0 -0.42579462860053918 -0.49045835050891562 0 -0.40692361485173267 -0.47109954972612178 0 -0.4157013239619054 -0.48051972566805728 0 -0.41711447408838193 -0.47100178190610231 0 -0.40171109002295202 -0.48058975031234957 0 -0.40692361485173267 -0.47109954972612178 0 -0.4157013239619054 -0.48051972566805728 0 -0.4157013239619054 -0.48051972566805728 0 -0.41711447408838193 -0.47100178190610231 0 -0.42528931965617373 -0.47217793790075252 0 -0.40171109002295202 -0.48058975031234957 0 -0.4157013239619054 -0.48051972566805728 0 -0.4074207105886824 -0.5 0 -0.4157013239619054 -0.48051972566805728 0 -0.4074207105886824 -0.5 0 -0.42579462860053918 -0.49045835050891562 0 -0.44353780902114709 -0.5 0 -0.42579462860053918 -0.49045835050891562 0 -0.43656778419568509 -0.48650339847324081 0 -0.42579462860053918 -0.49045835050891562 0 -0.43656778419568509 -0.48650339847324081 0 -0.42804054915737472 -0.48129803246515429 0 -0.4157013239619054 -0.48051972566805728 0 -0.42528931965617373 -0.47217793790075252 0 -0.42804054915737472 -0.48129803246515429 0 -0.4157013239619054 -0.48051972566805728 0 -0.42579462860053918 -0.49045835050891562 0 -0.42804054915737472 -0.48129803246515429 0 -0.42528931965617373 -0.47217793790075252 0 -0.42804054915737472 -0.48129803246515429 0 -0.43684968937257018 -0.47683074977480511 0 -0.43656778419568509 -0.48650339847324081 0 -0.42804054915737472 -0.48129803246515429 0 -0.43684968937257018 -0.47683074977480511 0 -0.42528931965617373 -0.47217793790075252 0 -0.43684968937257018 -0.47683074977480511 0 -0.4355089869178248 -0.4655819069902159 0 -0.4480748631946766 -0.45235378900643808 0 -0.4355089869178248 -0.4655819069902159 0 -0.42054363788371601 -0.46020991432947778 0 -0.4480748631946766 -0.45235378900643808 0 -0.42054363788371601 -0.46020991432947778 0 -0.42528931965617373 -0.47217793790075252 0 -0.4355089869178248 -0.4655819069902159 0 -0.42054363788371601 -0.46020991432947778 0 -0.4480748631946766 -0.45235378900643808 0 -0.42789749022056872 -0.44577499975519902 0 -0.42054363788371601 -0.46020991432947778 0 -0.44160402242949393 -0.43796833708133492 0 -0.41672588344062572 -0.42925026213278722 0 -0.42789749022056872 -0.44577499975519902 0 -0.42789749022056872 -0.44577499975519902 0 -0.40789451415801109 -0.4422953846574274 0 -0.41381171682717982 -0.45154027841456013 0 -0.42789749022056872 -0.44577499975519902 0 -0.40789451415801109 -0.4422953846574274 0 -0.41672588344062572 -0.42925026213278722 0 -0.42789749022056872 -0.44577499975519902 0 -0.40789451415801109 -0.4422953846574274 0 -0.42789749022056872 -0.44577499975519902 0 -0.41381171682717982 -0.45154027841456013 0 -0.42054363788371601 -0.46020991432947778 0 -0.40325424163305212 -0.45006704623077137 0 -0.40467002148922132 -0.45761570056916151 0 -0.41381171682717982 -0.45154027841456013 0 -0.40325424163305212 -0.45006704623077137 0 -0.40789451415801109 -0.4422953846574274 0 -0.41381171682717982 -0.45154027841456013 0 -0.39619233006701732 -0.46905947176400248 0 -0.40692361485173267 -0.47109954972612178 0 -0.42054363788371601 -0.46020991432947778 0 -0.40467002148922132 -0.45761570056916151 0 -0.41381171682717982 -0.45154027841456013 0 -0.42054363788371601 -0.46020991432947778 0 -0.39301241257275538 -0.46806603965251747 0 -0.42054363788371601 -0.46020991432947778 0 -0.40692361485173267 -0.47109954972612178 0 -0.41711447408838193 -0.47100178190610231 0 -0.42054363788371601 -0.46020991432947778 0 -0.41711447408838193 -0.47100178190610231 0 -0.42528931965617373 -0.47217793790075252 0 -0.42054363788371601 -0.46020991432947778 0 -0.45547534793949468 -0.26492627868373092 0 -0.43321302190924449 -0.25212477803607758 0 -0.44672017067712888 -0.23927377781782111 0 -0.45547534793949468 -0.26492627868373092 0 -0.43321302190924449 -0.25212477803607758 0 -0.45547534793949468 -0.26492627868373092 0 -0.43436984770975939 -0.26790113967478862 0 -0.43321302190924449 -0.25212477803607758 0 -0.45547534793949468 -0.26492627868373092 0 -0.44327910185740599 -0.28236274077050799 0 -0.43436984770975939 -0.26790113967478862 0 -0.45547534793949468 -0.26492627868373092 0 -0.47773767396974492 -0.27772777933138421 0 -0.46220929729531762 -0.27844553542086009 0 -0.45547534793949468 -0.26492627868373092 0 -0.44327910185740599 -0.28236274077050799 0 -0.46220929729531762 -0.27844553542086009 0 -0.45547534793949468 -0.26492627868373092 0 -0.47773767396974492 -0.27772777933138421 0 -0.45547534793949468 -0.26492627868373092 0 -0.47912016890944142 -0.2539254698580008 0 -0.46417779739008952 -0.24485946834976219 0 -0.45547534793949468 -0.26492627868373092 0 -0.47912016890944142 -0.2539254698580008 0 -0.47773767396974492 -0.27772777933138421 0 -0.47912016890944142 -0.2539254698580008 0 -0.5 -0.26348050947288892 0 -0.5 -0.23643173896674219 0 -0.47912016890944142 -0.2539254698580008 0 -0.5 -0.26348050947288892 0 -0.47773767396974492 -0.27772777933138421 0 -0.5 -0.26348050947288892 0 -0.47773767396974492 -0.27772777933138421 0 -0.49999999999999611 -0.29052927997903583 0 -0.46220929729531762 -0.27844553542086009 0 -0.47773767396974492 -0.27772777933138421 0 -0.4684484427949121 -0.29185543038695899 0 -0.48422422139745619 -0.29410040052210229 0 -0.4684484427949121 -0.29185543038695899 0 -0.47773767396974492 -0.27772777933138421 0 -0.48422422139745619 -0.29410040052210229 0 -0.4684484427949121 -0.29185543038695899 0 -0.48422422139745619 -0.29410040052210229 0 -0.4842242213974568 -0.29780531084285139 0 -0.4684484427949121 -0.29185543038695899 0 -0.4842242213974568 -0.29780531084285139 0 -0.4684484427949121 -0.29185543038695899 0 -0.47773767396974492 -0.27772777933138421 0 -0.48422422139745619 -0.29410040052210229 0 -0.49999999999999611 -0.29052927997903583 0 -0.48422422139745619 -0.29410040052210229 0 -0.50000000000000056 -0.29634537065724481 0 -0.48422422139745619 -0.29410040052210229 0 -0.50000000000000056 -0.29634537065724481 0 -0.4842242213974568 -0.29780531084285139 0 -0.47773767396974492 -0.27772777933138421 0 -0.49999999999999611 -0.29052927997903583 0 -0.48422422139745619 -0.29410040052210229 0 -0.49999999999999611 -0.29052927997903583 0 -0.50000000000000056 -0.29634537065724481 0 -0.50000000000000056 -0.29634537065724481 0 -0.50000000000000111 -0.30375519129874512 0 -0.4842242213974568 -0.29780531084285139 0 -0.50000000000000111 -0.30375519129874512 0 -0.49191168776980021 -0.31002806407155781 0 -0.4842242213974568 -0.29780531084285139 0 -0.50000000000000111 -0.30375519129874512 0 -0.4842242213974568 -0.29780531084285139 0 -0.50000000000000111 -0.30375519129874512 0 -0.49191168776980021 -0.31002806407155781 0 -0.49999999999999911 -0.31630093684437238 0 -0.49191168776980021 -0.31002806407155781 0 -0.47812320167621791 -0.30681917999516689 0 -0.4842242213974568 -0.29780531084285139 0 -0.49191168776980021 -0.31002806407155781 0 -0.47812320167621791 -0.30681917999516689 0 -0.4838265223524878 -0.31611736671588547 0 -0.47812320167621791 -0.30681917999516689 0 -0.46698675802128758 -0.30901891623912692 0 -0.4684484427949121 -0.29185543038695899 0 -0.47812320167621791 -0.30681917999516689 0 -0.4842242213974568 -0.29780531084285139 0 -0.4684484427949121 -0.29185543038695899 0 -0.47812320167621791 -0.30681917999516689 0 -0.46698675802128758 -0.30901891623912692 0 -0.47334157772136209 -0.31608999171462199 0 -0.46698675802128758 -0.30901891623912692 0 -0.4551821189383804 -0.30309601575043571 0 -0.4684484427949121 -0.29185543038695899 0 -0.46698675802128758 -0.30901891623912692 0 -0.4582890767710216 -0.31243241610718731 0 -0.4551821189383804 -0.30309601575043571 0 -0.4551821189383804 -0.30309601575043571 0 -0.4684484427949121 -0.29185543038695899 0 -0.44790517125767332 -0.28893202278590641 0 -0.4684484427949121 -0.29185543038695899 0 -0.44327910185740599 -0.28236274077050799 0 -0.46220929729531762 -0.27844553542086009 0 -0.4684484427949121 -0.29185543038695899 0 -0.44327910185740599 -0.28236274077050799 0 -0.4684484427949121 -0.29185543038695899 0 -0.44790517125767332 -0.28893202278590641 0 -0.44327910185740599 -0.28236274077050799 0 -0.4684484427949121 -0.29185543038695899 0 -0.44790517125767332 -0.28893202278590641 0 -0.44790517125767332 -0.28893202278590641 0 -0.44327910185740599 -0.28236274077050799 0 -0.42736189972043459 -0.28600861518485271 0 -0.44790517125767332 -0.28893202278590641 0 -0.43873737437432858 -0.30019123655486391 0 -0.42736189972043459 -0.28600861518485271 0 -0.44790517125767332 -0.28893202278590641 0 -0.42736189972043459 -0.28600861518485271 0 -0.4551821189383804 -0.30309601575043571 0 -0.43873737437432858 -0.30019123655486391 0 -0.44544861387587259 -0.31070656947231562 0 -0.4551821189383804 -0.30309601575043571 0 -0.44790517125767332 -0.28893202278590641 0 -0.43873737437432858 -0.30019123655486391 0 -0.43873737437432858 -0.30019123655486391 0 -0.44544861387587259 -0.31070656947231562 0 -0.4312162328906517 -0.31270191373820427 0 -0.4582890767710216 -0.31243241610718731 0 -0.4551821189383804 -0.30309601575043571 0 -0.44544861387587259 -0.31070656947231562 0 -0.45242325878109629 -0.31970592315365259 0 -0.44213453517400297 -0.32490530618249541 0 -0.45555429724409341 -0.32666296482164509 0 -0.44544861387587259 -0.31070656947231562 0 -0.45242325878109629 -0.31970592315365259 0 -0.44213453517400297 -0.32490530618249541 0 -0.4582890767710216 -0.31243241610718731 0 -0.44544861387587259 -0.31070656947231562 0 -0.45242325878109629 -0.31970592315365259 0 -0.44544861387587259 -0.31070656947231562 0 -0.44213453517400297 -0.32490530618249541 0 -0.4312162328906517 -0.31270191373820427 0 -0.44213453517400297 -0.32490530618249541 0 -0.44670415133897212 -0.34053751322901582 0 -0.43148241341049459 -0.33594066580027537 0 -0.44213453517400297 -0.32490530618249541 0 -0.44670415133897212 -0.34053751322901582 0 -0.45555429724409341 -0.32666296482164509 0 -0.44670415133897212 -0.34053751322901582 0 -0.47335207566948562 -0.32841922503669402 0 -0.44670415133897212 -0.34053751322901582 0 -0.46117451207204679 -0.33994541550454982 0 -0.47335207566948562 -0.32841922503669402 0 -0.44670415133897212 -0.34053751322901582 0 -0.45555429724409341 -0.32666296482164509 0 -0.47335207566948562 -0.32841922503669402 0 -0.46117451207204679 -0.33994541550454982 0 -0.46854307913452092 -0.33694263649740452 0 -0.46966903949509797 -0.34241859225839633 0 -0.46117451207204679 -0.33994541550454982 0 -0.46854307913452092 -0.33694263649740452 0 -0.47335207566948562 -0.32841922503669402 0 -0.45555429724409341 -0.32666296482164509 0 -0.46315746525690982 -0.3197468565063678 0 -0.47335207566948562 -0.32841922503669402 0 -0.45242325878109629 -0.31970592315365259 0 -0.45555429724409341 -0.32666296482164509 0 -0.46315746525690982 -0.3197468565063678 0 -0.4582890767710216 -0.31243241610718731 0 -0.45242325878109629 -0.31970592315365259 0 -0.46315746525690982 -0.3197468565063678 0 -0.46698675802128758 -0.30901891623912692 0 -0.46315746525690982 -0.3197468565063678 0 -0.47334157772136209 -0.31608999171462199 0 -0.46698675802128758 -0.30901891623912692 0 -0.4582890767710216 -0.31243241610718731 0 -0.46315746525690982 -0.3197468565063678 0 -0.46315746525690982 -0.3197468565063678 0 -0.47334157772136209 -0.31608999171462199 0 -0.47335207566948562 -0.32841922503669402 0 -0.47812320167621791 -0.30681917999516689 0 -0.47334157772136209 -0.31608999171462199 0 -0.4838265223524878 -0.31611736671588547 0 -0.47334157772136209 -0.31608999171462199 0 -0.4838265223524878 -0.31611736671588547 0 -0.47335207566948562 -0.32841922503669402 0 -0.49191168776980021 -0.31002806407155781 0 -0.4838265223524878 -0.31611736671588547 0 -0.49999999999999911 -0.31630093684437238 0 -0.49999999999999928 -0.32596947682588578 0 -0.49999999999999911 -0.31630093684437238 0 -0.4848345197475486 -0.33419403454214103 0 -0.4838265223524878 -0.31611736671588547 0 -0.49999999999999911 -0.31630093684437238 0 -0.47335207566948562 -0.32841922503669402 0 -0.49999999999999911 -0.31630093684437238 0 -0.47335207566948562 -0.32841922503669402 0 -0.49999999999999911 -0.31630093684437238 0 -0.4848345197475486 -0.33419403454214103 0 -0.47335207566948562 -0.32841922503669402 0 -0.49999999999999928 -0.32596947682588578 0 -0.4848345197475486 -0.33419403454214103 0 -0.5 -0.35185979031752612 0 -0.49999999999999928 -0.32596947682588578 0 -0.4848345197475486 -0.33419403454214103 0 -0.4848345197475486 -0.33419403454214103 0 -0.46966903949509797 -0.34241859225839633 0 -0.4848345197475486 -0.33419403454214103 0 -0.46966903949509797 -0.34241859225839633 0 -0.48381620811469778 -0.35041063731888339 0 -0.46854307913452092 -0.33694263649740452 0 -0.4848345197475486 -0.33419403454214103 0 -0.47335207566948562 -0.32841922503669402 0 -0.46854307913452092 -0.33694263649740452 0 -0.4848345197475486 -0.33419403454214103 0 -0.46966903949509797 -0.34241859225839633 0 -0.46854307913452092 -0.33694263649740452 0 -0.46966903949509797 -0.34241859225839633 0 -0.46966903949509797 -0.34241859225839633 0 -0.47421690610399209 -0.36453652573914003 0 -0.46966903949509797 -0.34241859225839633 0 -0.48381620811469778 -0.35041063731888339 0 -0.47421690610399209 -0.36453652573914003 0 -0.4848345197475486 -0.33419403454214103 0 -0.48381620811469778 -0.35041063731888339 0 -0.5 -0.35185979031752612 0 -0.48381620811469778 -0.35041063731888339 0 -0.5 -0.35185979031752612 0 -0.4894711800628499 -0.36538480553353619 0 -0.5 -0.37775010380916652 0 -0.5 -0.35185979031752612 0 -0.4894711800628499 -0.36538480553353619 0 -0.4787647727128862 -0.38665445921988367 0 -0.4894711800628499 -0.36538480553353619 0 -0.47421690610399209 -0.36453652573914003 0 -0.48381620811469778 -0.35041063731888339 0 -0.4894711800628499 -0.36538480553353619 0 -0.47421690610399209 -0.36453652573914003 0 -0.45991354751593561 -0.376079667978792 0 -0.46160800095818649 -0.35951151821262822 0 -0.4500311434057418 -0.36372010918334657 0 -0.45991354751593561 -0.376079667978792 0 -0.47421690610399209 -0.36453652573914003 0 -0.46160800095818649 -0.35951151821262822 0 -0.46966903949509797 -0.34241859225839633 0 -0.46160800095818649 -0.35951151821262822 0 -0.454209368270165 -0.3508026959034658 0 -0.46966903949509797 -0.34241859225839633 0 -0.47421690610399209 -0.36453652573914003 0 -0.46160800095818649 -0.35951151821262822 0 -0.46966903949509797 -0.34241859225839633 0 -0.454209368270165 -0.3508026959034658 0 -0.46117451207204679 -0.33994541550454982 0 -0.46966903949509797 -0.34241859225839633 0 -0.454209368270165 -0.3508026959034658 0 -0.44670415133897212 -0.34053751322901582 0 -0.46117451207204679 -0.33994541550454982 0 -0.454209368270165 -0.3508026959034658 0 -0.46160800095818649 -0.35951151821262822 0 -0.454209368270165 -0.3508026959034658 0 -0.4500311434057418 -0.36372010918334657 0 -0.454209368270165 -0.3508026959034658 0 -0.43874969704523192 -0.359186799548535 0 -0.454209368270165 -0.3508026959034658 0 -0.43874969704523192 -0.359186799548535 0 -0.4500311434057418 -0.36372010918334657 0 -0.44670415133897212 -0.34053751322901582 0 -0.44252559030361988 -0.35087061914217571 0 -0.43043914456011068 -0.35295546788768623 0 -0.44670415133897212 -0.34053751322901582 0 -0.454209368270165 -0.3508026959034658 0 -0.44252559030361988 -0.35087061914217571 0 -0.454209368270165 -0.3508026959034658 0 -0.44252559030361988 -0.35087061914217571 0 -0.43874969704523192 -0.359186799548535 0 -0.45991354751593561 -0.376079667978792 0 -0.44411097469598282 -0.37328837845271873 0 -0.4500311434057418 -0.36372010918334657 0 -0.43874969704523192 -0.359186799548535 0 -0.44011773371324348 -0.36610019608448741 0 -0.4500311434057418 -0.36372010918334657 0 -0.44011773371324348 -0.36610019608448741 0 -0.44411097469598282 -0.37328837845271873 0 -0.43496091655872221 -0.3712200959331991 0 -0.44011773371324348 -0.36610019608448741 0 -0.44411097469598282 -0.37328837845271873 0 -0.4500311434057418 -0.36372010918334657 0 -0.42667443479287781 -0.37326338258192032 0 -0.43273593686053879 -0.36308559730463719 0 -0.42085247602232911 -0.36521351216472581 0 -0.42667443479287781 -0.37326338258192032 0 -0.43496091655872221 -0.3712200959331991 0 -0.43273593686053879 -0.36308559730463719 0 -0.44011773371324348 -0.36610019608448741 0 -0.43496091655872221 -0.3712200959331991 0 -0.43273593686053879 -0.36308559730463719 0 -0.43874969704523192 -0.359186799548535 0 -0.44011773371324348 -0.36610019608448741 0 -0.43273593686053879 -0.36308559730463719 0 -0.43874969704523192 -0.359186799548535 0 -0.43273593686053879 -0.36308559730463719 0 -0.43043914456011068 -0.35295546788768623 0 -0.44252559030361988 -0.35087061914217571 0 -0.43874969704523192 -0.359186799548535 0 -0.43043914456011068 -0.35295546788768623 0 -0.44670415133897212 -0.34053751322901582 0 -0.43043914456011068 -0.35295546788768623 0 -0.42005622700845852 -0.35265580142133779 0 -0.44670415133897212 -0.34053751322901582 0 -0.42005622700845852 -0.35265580142133779 0 -0.43273593686053879 -0.36308559730463719 0 -0.43043914456011068 -0.35295546788768623 0 -0.42005622700845852 -0.35265580142133779 0 -0.43273593686053879 -0.36308559730463719 0 -0.42005622700845852 -0.35265580142133779 0 -0.40987324656526902 -0.35450684725608711 0 -0.41357240909182619 -0.34425027572208577 0 -0.40987324656526902 -0.35450684725608711 0 -0.40367500307356841 -0.33869706406520789 0 -0.43273593686053879 -0.36308559730463719 0 -0.40987324656526902 -0.35450684725608711 0 -0.42005622700845852 -0.35265580142133779 0 -0.41357240909182619 -0.34425027572208577 0 -0.40987324656526902 -0.35450684725608711 0 -0.42005622700845852 -0.35265580142133779 0 -0.41357240909182619 -0.34425027572208577 0 -0.42159974587979338 -0.34006476291302912 0 -0.43273593686053879 -0.36308559730463719 0 -0.40987324656526902 -0.35450684725608711 0 -0.42085247602232911 -0.36521351216472581 0 -0.40987324656526902 -0.35450684725608711 0 -0.41358442726649608 -0.364521679606084 0 -0.40530824788438991 -0.3663621612138459 0 -0.40987324656526902 -0.35450684725608711 0 -0.41358442726649608 -0.364521679606084 0 -0.42085247602232911 -0.36521351216472581 0 -0.41358442726649608 -0.364521679606084 0 -0.42085247602232911 -0.36521351216472581 0 -0.41521314256152908 -0.37331834150445409 0 -0.42667443479287781 -0.37326338258192032 0 -0.42085247602232911 -0.36521351216472581 0 -0.41521314256152908 -0.37331834150445409 0 -0.4032627442114905 -0.37957722812883782 0 -0.41521314256152908 -0.37331834150445409 0 -0.40530824788438991 -0.3663621612138459 0 -0.41358442726649608 -0.364521679606084 0 -0.41521314256152908 -0.37331834150445409 0 -0.40530824788438991 -0.3663621612138459 0 -0.40530824788438991 -0.3663621612138459 0 -0.39316693299357802 -0.37010063078248318 0 -0.38701055626999942 -0.34592809720753698 0 -0.4032627442114905 -0.37957722812883782 0 -0.40530824788438991 -0.3663621612138459 0 -0.39316693299357802 -0.37010063078248318 0 -0.39046693865691062 -0.38309308781307838 0 -0.39316693299357802 -0.37010063078248318 0 -0.37877582828994388 -0.37147229669113591 0 -0.39316693299357802 -0.37010063078248318 0 -0.37877582828994388 -0.37147229669113591 0 -0.38701055626999942 -0.34592809720753698 0 -0.37877582828994388 -0.37147229669113591 0 -0.38701055626999942 -0.34592809720753698 0 -0.3672715958297641 -0.35837346344759657 0 -0.40987324656526902 -0.35450684725608711 0 -0.40530824788438991 -0.3663621612138459 0 -0.38701055626999942 -0.34592809720753698 0 -0.40987324656526902 -0.35450684725608711 0 -0.38701055626999942 -0.34592809720753698 0 -0.40987324656526902 -0.35450684725608711 0 -0.38701055626999942 -0.34592809720753698 0 -0.40367500307356841 -0.33869706406520789 0 -0.40367500307356841 -0.33869706406520789 0 -0.38918830973787832 -0.32561749341143748 0 -0.40951627000556218 -0.32360819799153412 0 -0.38701055626999942 -0.34592809720753698 0 -0.40367500307356841 -0.33869706406520789 0 -0.38918830973787832 -0.32561749341143748 0 -0.38701055626999942 -0.34592809720753698 0 -0.38918830973787832 -0.32561749341143748 0 -0.36414786597472959 -0.3373493471589869 0 -0.38701055626999942 -0.34592809720753698 0 -0.36414786597472959 -0.3373493471589869 0 -0.38918830973787832 -0.32561749341143748 0 -0.37387018281850493 -0.31597176964241658 0 -0.36414786597472959 -0.3373493471589869 0 -0.38918830973787832 -0.32561749341143748 0 -0.38558492725891141 -0.30454043203195058 0 -0.37387018281850493 -0.31597176964241658 0 -0.38918830973787832 -0.32561749341143748 0 -0.40951627000556218 -0.32360819799153412 0 -0.40129958210454408 -0.31001098602129851 0 -0.38918830973787832 -0.32561749341143748 0 -0.40129958210454408 -0.31001098602129851 0 -0.38558492725891141 -0.30454043203195058 0 -0.40951627000556218 -0.32360819799153412 0 -0.41587123800413728 -0.30889751108491348 0 -0.40129958210454408 -0.31001098602129851 0 -0.40951627000556218 -0.32360819799153412 0 -0.4225256796046965 -0.32129744027377571 0 -0.41587123800413728 -0.30889751108491348 0 -0.40951627000556218 -0.32360819799153412 0 -0.4186583159609012 -0.33058438057797962 0 -0.4225256796046965 -0.32129744027377571 0 -0.40367500307356841 -0.33869706406520789 0 -0.40951627000556218 -0.32360819799153412 0 -0.41265782293204162 -0.33532690295476669 0 -0.40951627000556218 -0.32360819799153412 0 -0.41265782293204162 -0.33532690295476669 0 -0.4186583159609012 -0.33058438057797962 0 -0.41357240909182619 -0.34425027572208577 0 -0.40367500307356841 -0.33869706406520789 0 -0.41265782293204162 -0.33532690295476669 0 -0.41357240909182619 -0.34425027572208577 0 -0.41265782293204162 -0.33532690295476669 0 -0.42159974587979338 -0.34006476291302912 0 -0.41265782293204162 -0.33532690295476669 0 -0.42159974587979338 -0.34006476291302912 0 -0.4186583159609012 -0.33058438057797962 0 -0.42005622700845852 -0.35265580142133779 0 -0.42159974587979338 -0.34006476291302912 0 -0.43148241341049459 -0.33594066580027537 0 -0.42159974587979338 -0.34006476291302912 0 -0.4186583159609012 -0.33058438057797962 0 -0.42699206138241241 -0.33262459875679279 0 -0.4186583159609012 -0.33058438057797962 0 -0.42699206138241241 -0.33262459875679279 0 -0.4225256796046965 -0.32129744027377571 0 -0.44670415133897212 -0.34053751322901582 0 -0.42005622700845852 -0.35265580142133779 0 -0.43148241341049459 -0.33594066580027537 0 -0.42159974587979338 -0.34006476291302912 0 -0.42699206138241241 -0.33262459875679279 0 -0.43148241341049459 -0.33594066580027537 0 -0.44213453517400297 -0.32490530618249541 0 -0.43148241341049459 -0.33594066580027537 0 -0.43087018449245162 -0.32549398495030868 0 -0.42699206138241241 -0.33262459875679279 0 -0.43148241341049459 -0.33594066580027537 0 -0.43087018449245162 -0.32549398495030868 0 -0.44213453517400297 -0.32490530618249541 0 -0.43087018449245162 -0.32549398495030868 0 -0.4312162328906517 -0.31270191373820427 0 -0.43087018449245162 -0.32549398495030868 0 -0.4312162328906517 -0.31270191373820427 0 -0.4225256796046965 -0.32129744027377571 0 -0.4312162328906517 -0.31270191373820427 0 -0.4225256796046965 -0.32129744027377571 0 -0.41587123800413728 -0.30889751108491348 0 -0.42699206138241241 -0.33262459875679279 0 -0.43087018449245162 -0.32549398495030868 0 -0.4225256796046965 -0.32129744027377571 0 -0.4312162328906517 -0.31270191373820427 0 -0.4253102095629589 -0.29970228239746899 0 -0.41587123800413728 -0.30889751108491348 0 -0.43873737437432858 -0.30019123655486391 0 -0.4312162328906517 -0.31270191373820427 0 -0.4253102095629589 -0.29970228239746899 0 -0.43873737437432858 -0.30019123655486391 0 -0.4253102095629589 -0.29970228239746899 0 -0.42736189972043459 -0.28600861518485271 0 -0.4253102095629589 -0.29970228239746899 0 -0.42736189972043459 -0.28600861518485271 0 -0.41380523304659872 -0.29300658439566818 0 -0.42736189972043459 -0.28600861518485271 0 -0.4068186281831957 -0.2830852075838004 0 -0.41380523304659872 -0.29300658439566818 0 -0.42736189972043459 -0.28600861518485271 0 -0.4068186281831957 -0.2830852075838004 0 -0.4068186281831957 -0.2830852075838004 0 -0.41380523304659872 -0.29300658439566818 0 -0.41380523304659872 -0.29300658439566818 0 -0.40762174083087999 -0.30187315642288792 0 -0.39951091016823997 -0.29557754418967158 0 -0.4068186281831957 -0.2830852075838004 0 -0.41380523304659872 -0.29300658439566818 0 -0.39951091016823997 -0.29557754418967158 0 -0.4253102095629589 -0.29970228239746899 0 -0.41380523304659872 -0.29300658439566818 0 -0.41587123800413728 -0.30889751108491348 0 -0.41380523304659872 -0.29300658439566818 0 -0.40762174083087999 -0.30187315642288792 0 -0.41587123800413728 -0.30889751108491348 0 -0.40762174083087999 -0.30187315642288792 0 -0.41587123800413728 -0.30889751108491348 0 -0.40129958210454408 -0.31001098602129851 0 -0.40129958210454408 -0.31001098602129851 0 -0.38558492725891141 -0.30454043203195058 0 -0.39951091016823997 -0.29557754418967158 0 -0.40762174083087999 -0.30187315642288792 0 -0.40129958210454408 -0.31001098602129851 0 -0.39951091016823997 -0.29557754418967158 0 -0.38558492725891141 -0.30454043203195058 0 -0.36907540199113731 -0.30078679822487059 0 -0.37387018281850493 -0.31597176964241658 0 -0.38558492725891141 -0.30454043203195058 0 -0.39951091016823997 -0.29557754418967158 0 -0.38072279925488722 -0.27937164402083248 0 -0.38558492725891141 -0.30454043203195058 0 -0.38072279925488722 -0.27937164402083248 0 -0.36907540199113731 -0.30078679822487059 0 -0.4068186281831957 -0.2830852075838004 0 -0.39951091016823997 -0.29557754418967158 0 -0.38072279925488722 -0.27937164402083248 0 -0.4068186281831957 -0.2830852075838004 0 -0.39294041998239532 -0.26337736153760211 0 -0.4181097609198996 -0.27287005115405799 0 -0.39294041998239532 -0.26337736153760211 0 -0.4181097609198996 -0.27287005115405799 0 -0.4068186281831957 -0.2830852075838004 0 -0.38072279925488722 -0.27937164402083248 0 -0.39294041998239532 -0.26337736153760211 0 -0.4068186281831957 -0.2830852075838004 0 -0.39294041998239532 -0.26337736153760211 0 -0.4068186281831957 -0.2830852075838004 0 -0.38072279925488722 -0.27937164402083248 0 -0.38072279925488722 -0.27937164402083248 0 -0.39294041998239532 -0.26337736153760211 0 -0.37305331466023822 -0.25587688233707589 0 -0.39294041998239532 -0.26337736153760211 0 -0.37305331466023822 -0.25587688233707589 0 -0.39294041998239532 -0.26337736153760211 0 -0.39205957158950933 -0.24818750209485629 0 -0.3814299757939793 -0.24703187523945491 0 -0.39294041998239532 -0.26337736153760211 0 -0.3814299757939793 -0.24703187523945491 0 -0.39294041998239532 -0.26337736153760211 0 -0.37305331466023822 -0.25587688233707589 0 -0.3814299757939793 -0.24703187523945491 0 -0.39294041998239532 -0.26337736153760211 0 -0.41503188342946329 -0.25242658779931848 0 -0.40051534185056292 -0.24980493919758259 0 -0.39294041998239532 -0.26337736153760211 0 -0.40051534185056292 -0.24980493919758259 0 -0.39205957158950933 -0.24818750209485629 0 -0.41503188342946329 -0.25242658779931848 0 -0.4181097609198996 -0.27287005115405799 0 -0.42518112849209172 -0.26133063916606059 0 -0.39294041998239532 -0.26337736153760211 0 -0.41503188342946329 -0.25242658779931848 0 -0.4181097609198996 -0.27287005115405799 0 -0.42736189972043459 -0.28600861518485271 0 -0.4068186281831957 -0.2830852075838004 0 -0.4181097609198996 -0.27287005115405799 0 -0.44327910185740599 -0.28236274077050799 0 -0.42736189972043459 -0.28600861518485271 0 -0.4181097609198996 -0.27287005115405799 0 -0.44327910185740599 -0.28236274077050799 0 -0.4181097609198996 -0.27287005115405799 0 -0.43436984770975939 -0.26790113967478862 0 -0.44327910185740599 -0.28236274077050799 0 -0.4181097609198996 -0.27287005115405799 0 -0.4181097609198996 -0.27287005115405799 0 -0.43436984770975939 -0.26790113967478862 0 -0.42518112849209172 -0.26133063916606059 0 -0.41503188342946329 -0.25242658779931848 0 -0.43321302190924449 -0.25212477803607758 0 -0.42518112849209172 -0.26133063916606059 0 -0.43436984770975939 -0.26790113967478862 0 -0.43321302190924449 -0.25212477803607758 0 -0.42518112849209172 -0.26133063916606059 0 -0.3157746496233591 -0.26334646937372769 0 -0.32853114139826978 -0.27194451689489962 0 -0.32873314082181709 -0.2553878574993193 0 -0.31814236927951273 -0.25478769794322109 0 -0.3157746496233591 -0.26334646937372769 0 -0.32873314082181709 -0.2553878574993193 0 -0.31814236927951273 -0.25478769794322109 0 -0.32873314082181709 -0.2553878574993193 0 -0.31657802478918762 -0.24624919505116691 0 -0.31814236927951273 -0.25478769794322109 0 -0.3157746496233591 -0.26334646937372769 0 -0.31148366188368759 -0.25416726984867177 0 -0.31814236927951273 -0.25478769794322109 0 -0.31148366188368759 -0.25416726984867177 0 -0.31657802478918762 -0.24624919505116691 0 -0.31148366188368759 -0.25416726984867177 0 -0.31657802478918762 -0.24624919505116691 0 -0.3157746496233591 -0.26334646937372769 0 -0.31148366188368759 -0.25416726984867177 0 -0.32853114139826978 -0.27194451689489962 0 -0.3024353124699613 -0.26823095333193159 0 -0.3157746496233591 -0.26334646937372769 0 -0.32853114139826978 -0.27194451689489962 0 -0.3024353124699613 -0.26823095333193159 0 -0.32853114139826978 -0.27194451689489962 0 -0.31185034737507039 -0.29207295692597462 0 -0.30903921068556151 -0.27766241561267829 0 -0.32853114139826978 -0.27194451689489962 0 -0.3024353124699613 -0.26823095333193159 0 -0.30903921068556151 -0.27766241561267829 0 -0.32853114139826978 -0.27194451689489962 0 -0.35462697032657847 -0.27565808045786611 0 -0.34611198236872642 -0.28814363191727571 0 -0.32853114139826978 -0.27194451689489962 0 -0.34254553167245277 -0.2635812018881098 0 -0.35462697032657847 -0.27565808045786611 0 -0.32853114139826978 -0.27194451689489962 0 -0.35462697032657847 -0.27565808045786611 0 -0.34254553167245277 -0.2635812018881098 0 -0.32873314082181709 -0.2553878574993193 0 -0.35316620933808329 -0.24837640313654391 0 -0.32853114139826978 -0.27194451689489962 0 -0.34254553167245277 -0.2635812018881098 0 -0.32873314082181709 -0.2553878574993193 0 -0.34254553167245277 -0.2635812018881098 0 -0.35462697032657847 -0.27565808045786611 0 -0.35316620933808329 -0.24837640313654391 0 -0.37305331466023822 -0.25587688233707589 0 -0.35316620933808329 -0.24837640313654391 0 -0.37305331466023822 -0.25587688233707589 0 -0.35462697032657847 -0.27565808045786611 0 -0.35316620933808329 -0.24837640313654391 0 -0.38072279925488722 -0.27937164402083248 0 -0.35462697032657847 -0.27565808045786611 0 -0.38072279925488722 -0.27937164402083248 0 -0.35462697032657847 -0.27565808045786611 0 -0.36066756618431473 -0.28863971274599243 0 -0.38072279925488722 -0.27937164402083248 0 -0.37305331466023822 -0.25587688233707589 0 -0.35462697032657847 -0.27565808045786611 0 -0.34611198236872642 -0.28814363191727571 0 -0.36066756618431473 -0.28863971274599243 0 -0.35546624705313418 -0.30017026454046369 0 -0.35462697032657847 -0.27565808045786611 0 -0.34611198236872642 -0.28814363191727571 0 -0.36066756618431473 -0.28863971274599243 0 -0.38072279925488722 -0.27937164402083248 0 -0.36066756618431473 -0.28863971274599243 0 -0.36907540199113731 -0.30078679822487059 0 -0.36066756618431473 -0.28863971274599243 0 -0.36907540199113731 -0.30078679822487059 0 -0.35546624705313418 -0.30017026454046369 0 -0.36907540199113731 -0.30078679822487059 0 -0.35777770569740019 -0.31482406530032359 0 -0.37387018281850493 -0.31597176964241658 0 -0.36907540199113731 -0.30078679822487059 0 -0.35546624705313418 -0.30017026454046369 0 -0.35777770569740019 -0.31482406530032359 0 -0.35546624705313418 -0.30017026454046369 0 -0.3436985790240924 -0.30845711451385638 0 -0.35777770569740019 -0.31482406530032359 0 -0.34611198236872642 -0.28814363191727571 0 -0.35546624705313418 -0.30017026454046369 0 -0.3436985790240924 -0.30845711451385638 0 -0.34611198236872642 -0.28814363191727571 0 -0.3436985790240924 -0.30845711451385638 0 -0.3436985790240924 -0.30845711451385638 0 -0.32082632584915521 -0.30679838816186777 0 -0.32355826963845741 -0.32211894351692433 0 -0.3436985790240924 -0.30845711451385638 0 -0.32973807862018523 -0.29350188792945719 0 -0.32082632584915521 -0.30679838816186777 0 -0.34611198236872642 -0.28814363191727571 0 -0.3436985790240924 -0.30845711451385638 0 -0.32973807862018523 -0.29350188792945719 0 -0.32853114139826978 -0.27194451689489962 0 -0.34611198236872642 -0.28814363191727571 0 -0.32973807862018523 -0.29350188792945719 0 -0.32853114139826978 -0.27194451689489962 0 -0.32973807862018523 -0.29350188792945719 0 -0.31185034737507039 -0.29207295692597462 0 -0.32973807862018523 -0.29350188792945719 0 -0.32082632584915521 -0.30679838816186777 0 -0.31185034737507039 -0.29207295692597462 0 -0.32082632584915521 -0.30679838816186777 0 -0.32355826963845741 -0.32211894351692433 0 -0.29994232041674629 -0.31765537545630229 0 -0.32355826963845741 -0.32211894351692433 0 -0.32800962259118782 -0.34043561792354099 0 -0.30989484055903371 -0.34585196464937612 0 -0.34128517567945982 -0.3287705971104371 0 -0.33878917387996449 -0.34977930633750548 0 -0.32800962259118782 -0.34043561792354099 0 -0.34128517567945982 -0.3287705971104371 0 -0.33878917387996449 -0.34977930633750548 0 -0.32355826963845741 -0.32211894351692433 0 -0.32800962259118782 -0.34043561792354099 0 -0.34128517567945982 -0.3287705971104371 0 -0.3436985790240924 -0.30845711451385638 0 -0.34128517567945982 -0.3287705971104371 0 -0.3436985790240924 -0.30845711451385638 0 -0.32355826963845741 -0.32211894351692433 0 -0.34128517567945982 -0.3287705971104371 0 -0.32355826963845741 -0.32211894351692433 0 -0.34128517567945982 -0.3287705971104371 0 -0.34128517567945982 -0.3287705971104371 0 -0.35777770569740019 -0.31482406530032359 0 -0.36414786597472959 -0.3373493471589869 0 -0.3436985790240924 -0.30845711451385638 0 -0.34128517567945982 -0.3287705971104371 0 -0.35777770569740019 -0.31482406530032359 0 -0.35777770569740019 -0.31482406530032359 0 -0.37387018281850493 -0.31597176964241658 0 -0.36414786597472959 -0.3373493471589869 0 -0.34128517567945982 -0.3287705971104371 0 -0.36414786597472959 -0.3373493471589869 0 -0.34128517567945982 -0.3287705971104371 0 -0.36414786597472959 -0.3373493471589869 0 -0.35429239052352168 -0.35018162182320761 0 -0.34128517567945982 -0.3287705971104371 0 -0.35429239052352168 -0.35018162182320761 0 -0.33878917387996449 -0.34977930633750548 0 -0.35429239052352168 -0.35018162182320761 0 -0.35182630894946892 -0.36749144819896712 0 -0.33878917387996449 -0.34977930633750548 0 -0.35429239052352168 -0.35018162182320761 0 -0.3672715958297641 -0.35837346344759657 0 -0.35182630894946892 -0.36749144819896712 0 -0.38701055626999942 -0.34592809720753698 0 -0.36414786597472959 -0.3373493471589869 0 -0.3672715958297641 -0.35837346344759657 0 -0.36414786597472959 -0.3373493471589869 0 -0.35429239052352168 -0.35018162182320761 0 -0.3672715958297641 -0.35837346344759657 0 -0.37877582828994388 -0.37147229669113591 0 -0.3672715958297641 -0.35837346344759657 0 -0.36580180732300988 -0.37701855111677629 0 -0.3672715958297641 -0.35837346344759657 0 -0.35182630894946892 -0.36749144819896712 0 -0.36580180732300988 -0.37701855111677629 0 -0.35182630894946892 -0.36749144819896712 0 -0.33629317208047083 -0.37078801556457402 0 -0.34413264737636939 -0.38140692152447769 0 -0.33629317208047083 -0.37078801556457402 0 -0.33878917387996449 -0.34977930633750548 0 -0.35182630894946892 -0.36749144819896712 0 -0.33629317208047083 -0.37078801556457402 0 -0.33878917387996449 -0.34977930633750548 0 -0.33629317208047083 -0.37078801556457402 0 -0.33878917387996449 -0.34977930633750548 0 -0.32652065319902351 -0.35565727800346231 0 -0.32800962259118782 -0.34043561792354099 0 -0.33878917387996449 -0.34977930633750548 0 -0.32652065319902351 -0.35565727800346231 0 -0.32652065319902351 -0.35565727800346231 0 -0.31984736070132108 -0.37404855384244978 0 -0.30989484055903371 -0.34585196464937612 0 -0.32800962259118782 -0.34043561792354099 0 -0.32652065319902351 -0.35565727800346231 0 -0.30989484055903371 -0.34585196464937612 0 -0.33629317208047083 -0.37078801556457402 0 -0.32652065319902351 -0.35565727800346231 0 -0.31984736070132108 -0.37404855384244978 0 -0.31984736070132108 -0.37404855384244978 0 -0.30989484055903371 -0.34585196464937612 0 -0.30703202028133908 -0.37475571473812541 0 -0.30989484055903371 -0.34585196464937612 0 -0.29323053167558227 -0.36758870788721432 0 -0.31984736070132108 -0.37404855384244978 0 -0.30703202028133908 -0.37475571473812541 0 -0.30989484055903371 -0.34585196464937612 0 -0.30703202028133908 -0.37475571473812541 0 -0.29323053167558227 -0.36758870788721432 0 -0.29360421668665992 -0.38118933959717249 0 -0.30989484055903371 -0.34585196464937612 0 -0.28198718058344852 -0.35287071341481691 0 -0.29323053167558227 -0.36758870788721432 0 -0.29323053167558227 -0.36758870788721432 0 -0.29360421668665992 -0.38118933959717249 0 -0.27687812815110607 -0.37528223885245782 0 -0.28198718058344852 -0.35287071341481691 0 -0.29323053167558227 -0.36758870788721432 0 -0.27687812815110607 -0.37528223885245782 0 -0.26351626211470303 -0.35423360592396219 0 -0.27687812815110607 -0.37528223885245782 0 -0.25821379615068463 -0.37605829592724382 0 -0.28198718058344852 -0.35287071341481691 0 -0.26351626211470303 -0.35423360592396219 0 -0.27687812815110607 -0.37528223885245782 0 -0.26351626211470303 -0.35423360592396219 0 -0.25821379615068463 -0.37605829592724382 0 -0.24630243871924559 -0.36205139153478738 0 -0.26351626211470303 -0.35423360592396219 0 -0.24542841783316471 -0.336473339357658 0 -0.26351626211470303 -0.35423360592396219 0 -0.24630243871924559 -0.36205139153478738 0 -0.24542841783316471 -0.336473339357658 0 -0.28198718058344852 -0.35287071341481691 0 -0.26351626211470303 -0.35423360592396219 0 -0.28104071600454028 -0.33213438117980482 0 -0.26351626211470303 -0.35423360592396219 0 -0.28104071600454028 -0.33213438117980482 0 -0.26208284820917532 -0.32962481803280569 0 -0.26351626211470303 -0.35423360592396219 0 -0.26208284820917532 -0.32962481803280569 0 -0.24542841783316471 -0.336473339357658 0 -0.26208284820917532 -0.32962481803280569 0 -0.26705769696509762 -0.31076407739788531 0 -0.24747303332317511 -0.30996554385585889 0 -0.26208284820917532 -0.32962481803280569 0 -0.24542841783316471 -0.336473339357658 0 -0.24747303332317511 -0.30996554385585889 0 -0.28104071600454028 -0.33213438117980482 0 -0.28341477972517343 -0.3080330704585888 0 -0.26705769696509762 -0.31076407739788531 0 -0.28104071600454028 -0.33213438117980482 0 -0.26208284820917532 -0.32962481803280569 0 -0.26705769696509762 -0.31076407739788531 0 -0.28104071600454028 -0.33213438117980482 0 -0.29994232041674629 -0.31765537545630229 0 -0.28341477972517343 -0.3080330704585888 0 -0.30989484055903371 -0.34585196464937612 0 -0.28198718058344852 -0.35287071341481691 0 -0.28104071600454028 -0.33213438117980482 0 -0.30989484055903371 -0.34585196464937612 0 -0.29994232041674629 -0.31765537545630229 0 -0.32355826963845741 -0.32211894351692433 0 -0.30989484055903371 -0.34585196464937612 0 -0.29994232041674629 -0.31765537545630229 0 -0.30989484055903371 -0.34585196464937612 0 -0.28104071600454028 -0.33213438117980482 0 -0.29994232041674629 -0.31765537545630229 0 -0.29994232041674629 -0.31765537545630229 0 -0.31185034737507039 -0.29207295692597462 0 -0.28998980027445892 -0.28945878626322857 0 -0.32082632584915521 -0.30679838816186777 0 -0.29994232041674629 -0.31765537545630229 0 -0.31185034737507039 -0.29207295692597462 0 -0.31185034737507039 -0.29207295692597462 0 -0.29961482530142503 -0.28130331657308799 0 -0.28998980027445892 -0.28945878626322857 0 -0.31185034737507039 -0.29207295692597462 0 -0.29961482530142503 -0.28130331657308799 0 -0.30903921068556151 -0.27766241561267829 0 -0.29961482530142503 -0.28130331657308799 0 -0.28998980027445892 -0.28945878626322857 0 -0.28690028482459762 -0.27576401930438132 0 -0.28998980027445892 -0.28945878626322857 0 -0.27642204441383328 -0.28010211634486049 0 -0.28690028482459762 -0.27576401930438132 0 -0.28998980027445892 -0.28945878626322857 0 -0.28341477972517343 -0.3080330704585888 0 -0.27284690532539457 -0.29425387223412031 0 -0.29994232041674629 -0.31765537545630229 0 -0.28998980027445892 -0.28945878626322857 0 -0.28341477972517343 -0.3080330704585888 0 -0.29994232041674629 -0.31765537545630229 0 -0.28998980027445892 -0.28945878626322857 0 -0.28341477972517343 -0.3080330704585888 0 -0.26705769696509762 -0.31076407739788531 0 -0.27284690532539457 -0.29425387223412031 0 -0.26705769696509762 -0.31076407739788531 0 -0.25689897312169663 -0.29604631065112869 0 -0.27284690532539457 -0.29425387223412031 0 -0.26705769696509762 -0.31076407739788531 0 -0.25689897312169663 -0.29604631065112869 0 -0.24747303332317511 -0.30996554385585889 0 -0.25689897312169663 -0.29604631065112869 0 -0.26366250503182298 -0.28353725143184438 0 -0.27284690532539457 -0.29425387223412031 0 -0.25004096594495628 -0.28454239222215422 0 -0.25689897312169663 -0.29604631065112869 0 -0.26366250503182298 -0.28353725143184438 0 -0.25004096594495628 -0.28454239222215422 0 -0.25689897312169663 -0.29604631065112869 0 -0.24402504585694401 -0.29454115716951529 0 -0.26366250503182298 -0.28353725143184438 0 -0.27284690532539457 -0.29425387223412031 0 -0.27642204441383328 -0.28010211634486049 0 -0.28998980027445892 -0.28945878626322857 0 -0.27284690532539457 -0.29425387223412031 0 -0.27642204441383328 -0.28010211634486049 0 -0.27642204441383328 -0.28010211634486049 0 -0.27816132636770841 -0.26477664687687003 0 -0.28690028482459762 -0.27576401930438132 0 -0.2669714446590179 -0.27282212195871891 0 -0.26084653229244043 -0.26319539862018798 0 -0.27816132636770841 -0.26477664687687003 0 -0.27642204441383328 -0.28010211634486049 0 -0.2669714446590179 -0.27282212195871891 0 -0.27816132636770841 -0.26477664687687003 0 -0.26366250503182298 -0.28353725143184438 0 -0.27642204441383328 -0.28010211634486049 0 -0.2669714446590179 -0.27282212195871891 0 -0.26366250503182298 -0.28353725143184438 0 -0.2669714446590179 -0.27282212195871891 0 -0.2587074492433355 -0.27421778461127139 0 -0.2669714446590179 -0.27282212195871891 0 -0.2587074492433355 -0.27421778461127139 0 -0.26084653229244043 -0.26319539862018798 0 -0.2587074492433355 -0.27421778461127139 0 -0.25385909186746192 -0.27112013502685117 0 -0.26084653229244043 -0.26319539862018798 0 -0.25385909186746192 -0.27112013502685117 0 -0.25164316424336208 -0.26437985348386628 0 -0.26084653229244043 -0.26319539862018798 0 -0.25385909186746192 -0.27112013502685117 0 -0.25164316424336208 -0.26437985348386628 0 -0.2480573476132158 -0.26926524619677639 0 -0.25004096594495628 -0.28454239222215422 0 -0.26366250503182298 -0.28353725143184438 0 -0.2587074492433355 -0.27421778461127139 0 -0.25004096594495628 -0.28454239222215422 0 -0.25385909186746192 -0.27112013502685117 0 -0.2480573476132158 -0.26926524619677639 0 -0.25004096594495628 -0.28454239222215422 0 -0.2587074492433355 -0.27421778461127139 0 -0.25385909186746192 -0.27112013502685117 0 -0.25388734026545601 -0.2613223404218053 0 -0.25848446866677771 -0.25505911507912138 0 -0.27816132636770841 -0.26477664687687003 0 -0.25388734026545601 -0.2613223404218053 0 -0.26084653229244043 -0.26319539862018798 0 -0.27816132636770841 -0.26477664687687003 0 -0.25105164704398369 -0.25406639741667619 0 -0.25848446866677771 -0.25505911507912138 0 -0.2469913533248437 -0.26105532489032163 0 -0.25105164704398369 -0.25406639741667619 0 -0.25848446866677771 -0.25505911507912138 0 -0.25674263534839881 -0.24770132598410441 0 -0.25388734026545601 -0.2613223404218053 0 -0.25848446866677771 -0.25505911507912138 0 -0.2469913533248437 -0.26105532489032163 0 -0.25164316424336208 -0.26437985348386628 0 -0.26084653229244043 -0.26319539862018798 0 -0.25388734026545601 -0.2613223404218053 0 -0.25164316424336208 -0.26437985348386628 0 -0.26084653229244043 -0.26319539862018798 0 -0.25848446866677771 -0.25505911507912138 0 -0.2469913533248437 -0.26105532489032163 0 -0.25388734026545601 -0.2613223404218053 0 -0.2469913533248437 -0.26105532489032163 0 -0.25388734026545601 -0.2613223404218053 0 -0.25164316424336208 -0.26437985348386628 0 -0.24859083492894701 -0.26280953494247072 0 -0.25388734026545601 -0.2613223404218053 0 -0.25164316424336208 -0.26437985348386628 0 -0.25388734026545601 -0.2613223404218053 0 -0.25848446866677771 -0.25505911507912138 0 -0.25388734026545601 -0.2613223404218053 0 -0.27816132636770841 -0.26477664687687003 0 -0.25848446866677771 -0.25505911507912138 0 -0.27816132636770841 -0.26477664687687003 0 -0.28270905799553009 -0.2424206166490751 0 -0.27816132636770841 -0.26477664687687003 0 -0.28914091809102288 -0.25527920891883887 0 -0.3024353124699613 -0.26823095333193159 0 -0.27816132636770841 -0.26477664687687003 0 -0.28914091809102288 -0.25527920891883887 0 -0.28270905799553009 -0.2424206166490751 0 -0.28914091809102288 -0.25527920891883887 0 -0.30026425445130878 -0.25689150575013919 0 -0.29517551715597379 -0.24544518745146579 0 -0.27816132636770841 -0.26477664687687003 0 -0.30029448334743669 -0.27155840475917697 0 -0.3024353124699613 -0.26823095333193159 0 -0.27816132636770841 -0.26477664687687003 0 -0.3024353124699613 -0.26823095333193159 0 -0.27816132636770841 -0.26477664687687003 0 -0.28690028482459762 -0.27576401930438132 0 -0.30029448334743669 -0.27155840475917697 0 -0.29961482530142503 -0.28130331657308799 0 -0.28690028482459762 -0.27576401930438132 0 -0.30029448334743669 -0.27155840475917697 0 -0.30029448334743669 -0.27155840475917697 0 -0.3024353124699613 -0.26823095333193159 0 -0.30903921068556151 -0.27766241561267829 0 -0.30029448334743669 -0.27155840475917697 0 -0.3024353124699613 -0.26823095333193159 0 -0.29961482530142503 -0.28130331657308799 0 -0.30029448334743669 -0.27155840475917697 0 -0.30903921068556151 -0.27766241561267829 0 -0.3024353124699613 -0.26823095333193159 0 -0.31148366188368759 -0.25416726984867177 0 -0.31148366188368759 -0.25416726984867177 0 -0.30026425445130878 -0.25689150575013919 0 -0.29517551715597379 -0.24544518745146579 0 -0.3024353124699613 -0.26823095333193159 0 -0.31148366188368759 -0.25416726984867177 0 -0.30026425445130878 -0.25689150575013919 0 -0.3157746496233591 -0.26334646937372769 0 -0.3024353124699613 -0.26823095333193159 0 -0.31148366188368759 -0.25416726984867177 0 -0.28914091809102288 -0.25527920891883887 0 -0.3024353124699613 -0.26823095333193159 0 -0.30026425445130878 -0.25689150575013919 0 -0.33549497074746992 -0.46432668592577531 0 -0.33116162458033338 -0.44990743280969447 0 -0.34773225741429292 -0.45304954716535961 0 -0.33549497074746992 -0.46432668592577531 0 -0.33116162458033338 -0.44990743280969447 0 -0.32276455969132528 -0.4571299406399788 0 -0.33542082607816032 -0.44108047266731359 0 -0.33116162458033338 -0.44990743280969447 0 -0.34773225741429292 -0.45304954716535961 0 -0.34773225741429292 -0.45304954716535961 0 -0.33975240098589549 -0.43044173222859738 0 -0.33116162458033338 -0.44990743280969447 0 -0.34773225741429292 -0.45304954716535961 0 -0.33542082607816032 -0.44108047266731359 0 -0.33116162458033338 -0.44990743280969447 0 -0.3269324659385725 -0.43423597045498802 0 -0.33542082607816032 -0.44108047266731359 0 -0.34773225741429292 -0.45304954716535961 0 -0.33851657217080189 -0.43710369221701739 0 -0.34773225741429292 -0.45304954716535961 0 -0.33975240098589549 -0.43044173222859738 0 -0.33851657217080189 -0.43710369221701739 0 -0.33116162458033338 -0.44990743280969447 0 -0.31459099174637439 -0.44676531845402662 0 -0.33116162458033338 -0.44990743280969447 0 -0.31459099174637439 -0.44676531845402662 0 -0.32276455969132528 -0.4571299406399788 0 -0.33116162458033338 -0.44990743280969447 0 -0.31459099174637439 -0.44676531845402662 0 -0.3269324659385725 -0.43423597045498802 0 -0.31459099174637439 -0.44676531845402662 0 -0.32276455969132528 -0.4571299406399788 0 -0.31378650736154129 -0.46418213479245612 0 -0.31459099174637439 -0.44676531845402662 0 -0.31378650736154129 -0.46418213479245612 0 -0.32276455969132528 -0.4571299406399788 0 -0.32505419724376827 -0.46680599833065761 0 -0.31378650736154129 -0.46418213479245612 0 -0.33549497074746992 -0.46432668592577531 0 -0.32276455969132528 -0.4571299406399788 0 -0.32505419724376827 -0.46680599833065761 0 -0.31378650736154129 -0.46418213479245612 0 -0.32697709434680089 -0.47821423929411389 0 -0.30312248255397151 -0.4679890844410497 0 -0.32697709434680089 -0.47821423929411389 0 -0.30312248255397151 -0.4679890844410497 0 -0.31060667429893257 -0.48670500184345389 0 -0.32697709434680089 -0.47821423929411389 0 -0.30312248255397151 -0.4679890844410497 0 -0.32505419724376827 -0.46680599833065761 0 -0.31378650736154129 -0.46418213479245612 0 -0.32697709434680089 -0.47821423929411389 0 -0.32697709434680089 -0.47821423929411389 0 -0.32377296544427242 -0.5 0 -0.31060667429893257 -0.48670500184345389 0 -0.32697709434680089 -0.47821423929411389 0 -0.32377296544427242 -0.5 0 -0.35083170613963011 -0.48843939414717857 0 -0.32377296544427242 -0.5 0 -0.35083170613963011 -0.48843939414717857 0 -0.32377296544427242 -0.5 0 -0.35078740123456731 -0.5 0 -0.35083170613963011 -0.48843939414717857 0 -0.33549497074746992 -0.46432668592577531 0 -0.32697709434680089 -0.47821423929411389 0 -0.34513188725591731 -0.47698678170506331 0 -0.32697709434680089 -0.47821423929411389 0 -0.34513188725591731 -0.47698678170506331 0 -0.35083170613963011 -0.48843939414717857 0 -0.32697709434680089 -0.47821423929411389 0 -0.35083170613963011 -0.48843939414717857 0 -0.33549497074746992 -0.46432668592577531 0 -0.32505419724376827 -0.46680599833065761 0 -0.32697709434680089 -0.47821423929411389 0 -0.35336264081999252 -0.46900104544120308 0 -0.35899302422569301 -0.48495254371704621 0 -0.33549497074746992 -0.46432668592577531 0 -0.34513188725591731 -0.47698678170506331 0 -0.35336264081999252 -0.46900104544120308 0 -0.35336264081999252 -0.46900104544120308 0 -0.35899302422569301 -0.48495254371704621 0 -0.36548118726179479 -0.47592216497555723 0 -0.34513188725591731 -0.47698678170506331 0 -0.35336264081999252 -0.46900104544120308 0 -0.35899302422569301 -0.48495254371704621 0 -0.34513188725591731 -0.47698678170506331 0 -0.35083170613963011 -0.48843939414717857 0 -0.35899302422569301 -0.48495254371704621 0 -0.35083170613963011 -0.48843939414717857 0 -0.35899302422569301 -0.48495254371704621 0 -0.35083170613963011 -0.48843939414717857 0 -0.36189810073275952 -0.49318294643646471 0 -0.35083170613963011 -0.48843939414717857 0 -0.35899302422569301 -0.48495254371704621 0 -0.36189810073275952 -0.49318294643646471 0 -0.35078740123456731 -0.5 0 -0.363850793484921 -0.49871514075166617 0 -0.36189810073275952 -0.49318294643646471 0 -0.35078740123456731 -0.5 0 -0.35083170613963011 -0.48843939414717857 0 -0.36189810073275952 -0.49318294643646471 0 -0.37780183702486209 -0.49999999999999861 0 -0.36189810073275952 -0.49318294643646471 0 -0.37157680820029199 -0.48859610726136171 0 -0.37780183702486209 -0.49999999999999861 0 -0.36189810073275952 -0.49318294643646471 0 -0.37780183702486209 -0.49999999999999861 0 -0.363850793484921 -0.49871514075166617 0 -0.36189810073275952 -0.49318294643646471 0 -0.37780183702486209 -0.49999999999999861 0 -0.35078740123456731 -0.5 0 -0.363850793484921 -0.49871514075166617 0 -0.363850793484921 -0.49871514075166617 0 -0.36189810073275952 -0.49318294643646471 0 -0.35899302422569301 -0.48495254371704621 0 -0.36189810073275952 -0.49318294643646471 0 -0.37157680820029199 -0.48859610726136171 0 -0.35899302422569301 -0.48495254371704621 0 -0.36189810073275952 -0.49318294643646471 0 -0.37759267714635519 -0.47700600774052437 0 -0.35899302422569301 -0.48495254371704621 0 -0.37157680820029199 -0.48859610726136171 0 -0.37759267714635519 -0.47700600774052437 0 -0.35899302422569301 -0.48495254371704621 0 -0.37759267714635519 -0.47700600774052437 0 -0.35899302422569301 -0.48495254371704621 0 -0.36548118726179479 -0.47592216497555723 0 -0.35336264081999252 -0.46900104544120308 0 -0.36548118726179479 -0.47592216497555723 0 -0.3660568267332468 -0.46690554683274038 0 -0.37683124881687557 -0.46570155790173301 0 -0.36548118726179479 -0.47592216497555723 0 -0.3660568267332468 -0.46690554683274038 0 -0.37683124881687557 -0.46570155790173301 0 -0.36855223003432408 -0.45699741901246838 0 -0.3660568267332468 -0.46690554683274038 0 -0.35336264081999252 -0.46900104544120308 0 -0.36855223003432408 -0.45699741901246838 0 -0.3660568267332468 -0.46690554683274038 0 -0.35336264081999252 -0.46900104544120308 0 -0.36855223003432408 -0.45699741901246838 0 -0.34773225741429292 -0.45304954716535961 0 -0.36855223003432408 -0.45699741901246838 0 -0.34773225741429292 -0.45304954716535961 0 -0.35336264081999252 -0.46900104544120308 0 -0.34773225741429292 -0.45304954716535961 0 -0.33549497074746992 -0.46432668592577531 0 -0.35336264081999252 -0.46900104544120308 0 -0.34773225741429292 -0.45304954716535961 0 -0.35060645345260438 -0.43932281704937071 0 -0.34773225741429292 -0.45304954716535961 0 -0.33975240098589549 -0.43044173222859738 0 -0.36855223003432408 -0.45699741901246838 0 -0.34773225741429292 -0.45304954716535961 0 -0.36044453180880298 -0.44601118368878978 0 -0.35060645345260438 -0.43932281704937071 0 -0.34773225741429292 -0.45304954716535961 0 -0.36044453180880298 -0.44601118368878978 0 -0.35060645345260438 -0.43932281704937071 0 -0.36044453180880298 -0.44601118368878978 0 -0.36382196954067447 -0.43462875089412673 0 -0.36044453180880298 -0.44601118368878978 0 -0.37150974860211899 -0.44605738432262348 0 -0.36382196954067447 -0.43462875089412673 0 -0.36855223003432408 -0.45699741901246838 0 -0.36044453180880298 -0.44601118368878978 0 -0.37150974860211899 -0.44605738432262348 0 -0.38412167675000702 -0.44971812205951878 0 -0.36855223003432408 -0.45699741901246838 0 -0.37150974860211899 -0.44605738432262348 0 -0.3768362332470635 -0.44230500670898132 0 -0.37150974860211899 -0.44605738432262348 0 -0.36382196954067447 -0.43462875089412673 0 -0.38789153809545329 -0.43881576955965629 0 -0.36382196954067447 -0.43462875089412673 0 -0.36986008215729332 -0.42314275463698592 0 -0.35947997055868808 -0.42489723606585472 0 -0.36986008215729332 -0.42314275463698592 0 -0.35149093784523511 -0.41779023117527048 0 -0.36382196954067447 -0.43462875089412673 0 -0.35947997055868808 -0.42489723606585472 0 -0.36986008215729332 -0.42314275463698592 0 -0.36986008215729332 -0.42314275463698592 0 -0.35182862621913358 -0.4074697397143151 0 -0.3769147014996842 -0.40463172553189619 0 -0.36986008215729332 -0.42314275463698592 0 -0.36530482575459422 -0.40753711156431233 0 -0.36986008215729332 -0.42314275463698592 0 -0.36530482575459422 -0.40753711156431233 0 -0.35182862621913358 -0.4074697397143151 0 -0.36986008215729332 -0.42314275463698592 0 -0.35182862621913358 -0.4074697397143151 0 -0.35149093784523511 -0.41779023117527048 0 -0.35182862621913358 -0.4074697397143151 0 -0.35149093784523511 -0.41779023117527048 0 -0.3410748844184564 -0.4082839658596365 0 -0.35149093784523511 -0.41779023117527048 0 -0.34674943224811933 -0.4228326594883649 0 -0.34176282508838651 -0.41678776431752501 0 -0.35149093784523511 -0.41779023117527048 0 -0.34176282508838651 -0.41678776431752501 0 -0.3410748844184564 -0.4082839658596365 0 -0.34940410022114599 -0.42795686371343877 0 -0.33975240098589549 -0.43044173222859738 0 -0.34271185567839568 -0.42639854381811509 0 -0.34674943224811933 -0.4228326594883649 0 -0.34271185567839568 -0.42639854381811509 0 -0.34268449143783991 -0.42134175035236648 0 -0.36382196954067447 -0.43462875089412673 0 -0.33975240098589549 -0.43044173222859738 0 -0.35060645345260438 -0.43932281704937071 0 -0.36382196954067447 -0.43462875089412673 0 -0.33975240098589549 -0.43044173222859738 0 -0.34674943224811933 -0.4228326594883649 0 -0.34940410022114599 -0.42795686371343877 0 -0.34271185567839568 -0.42639854381811509 0 -0.36382196954067447 -0.43462875089412673 0 -0.34940410022114599 -0.42795686371343877 0 -0.33975240098589549 -0.43044173222859738 0 -0.35149093784523511 -0.41779023117527048 0 -0.34674943224811933 -0.4228326594883649 0 -0.35398484265264513 -0.42548263213798998 0 -0.34674943224811933 -0.4228326594883649 0 -0.34940410022114599 -0.42795686371343877 0 -0.35398484265264513 -0.42548263213798998 0 -0.36382196954067447 -0.43462875089412673 0 -0.35947997055868808 -0.42489723606585472 0 -0.35398484265264513 -0.42548263213798998 0 -0.36382196954067447 -0.43462875089412673 0 -0.34940410022114599 -0.42795686371343877 0 -0.35398484265264513 -0.42548263213798998 0 -0.35947997055868808 -0.42489723606585472 0 -0.35149093784523511 -0.41779023117527048 0 -0.35398484265264513 -0.42548263213798998 0 -0.37747826181085492 -0.38752054362783678 0 -0.37877582828994388 -0.37147229669113591 0 -0.36580180732300988 -0.37701855111677629 0 -0.36580180732300988 -0.37701855111677629 0 -0.36261589314226589 -0.39490422637405181 0 -0.35434461660003402 -0.38358897954391608 0 -0.37747826181085492 -0.38752054362783678 0 -0.36580180732300988 -0.37701855111677629 0 -0.36261589314226589 -0.39490422637405181 0 -0.3769147014996842 -0.40463172553189619 0 -0.37747826181085492 -0.38752054362783678 0 -0.36261589314226589 -0.39490422637405181 0 -0.3769147014996842 -0.40463172553189619 0 -0.36530482575459422 -0.40753711156431233 0 -0.36261589314226589 -0.39490422637405181 0 -0.36530482575459422 -0.40753711156431233 0 -0.35182862621913358 -0.4074697397143151 0 -0.36261589314226589 -0.39490422637405181 0 -0.35182862621913358 -0.4074697397143151 0 -0.34889453420076871 -0.39197296576546331 0 -0.33379717028097561 -0.39179672479164229 0 -0.35182862621913358 -0.4074697397143151 0 -0.36261589314226589 -0.39490422637405181 0 -0.34889453420076871 -0.39197296576546331 0 -0.35182630894946892 -0.36749144819896712 0 -0.36580180732300988 -0.37701855111677629 0 -0.35434461660003402 -0.38358897954391608 0 -0.35182630894946892 -0.36749144819896712 0 -0.35434461660003402 -0.38358897954391608 0 -0.34413264737636939 -0.38140692152447769 0 -0.36261589314226589 -0.39490422637405181 0 -0.34889453420076871 -0.39197296576546331 0 -0.35434461660003402 -0.38358897954391608 0 -0.34889453420076871 -0.39197296576546331 0 -0.35434461660003402 -0.38358897954391608 0 -0.34413264737636939 -0.38140692152447769 0 -0.33629317208047083 -0.37078801556457402 0 -0.34413264737636939 -0.38140692152447769 0 -0.33379717028097561 -0.39179672479164229 0 -0.33629317208047083 -0.37078801556457402 0 -0.33379717028097561 -0.39179672479164229 0 -0.33629317208047083 -0.37078801556457402 0 -0.33379717028097561 -0.39179672479164229 0 -0.32499008462820772 -0.38414157008120692 0 -0.34889453420076871 -0.39197296576546331 0 -0.34413264737636939 -0.38140692152447769 0 -0.33379717028097561 -0.39179672479164229 0 -0.33379717028097561 -0.39179672479164229 0 -0.32499008462820772 -0.38414157008120692 0 -0.35182862621913358 -0.4074697397143151 0 -0.33379717028097561 -0.39179672479164229 0 -0.33379717028097561 -0.39179672479164229 0 -0.33210576413268261 -0.40603319688136608 0 -0.3410748844184564 -0.4082839658596365 0 -0.33379717028097561 -0.39179672479164229 0 -0.32979988084360851 -0.4022451430355235 0 -0.32499008462820772 -0.38414157008120692 0 -0.35182862621913358 -0.4074697397143151 0 -0.33379717028097561 -0.39179672479164229 0 -0.3410748844184564 -0.4082839658596365 0 -0.33379717028097561 -0.39179672479164229 0 -0.33210576413268261 -0.40603319688136608 0 -0.32979988084360851 -0.4022451430355235 0 -0.33379717028097561 -0.39179672479164229 0 -0.33210576413268261 -0.40603319688136608 0 -0.31654549756366163 -0.40445092491967721 0 -0.3173968676367942 -0.38601904919985591 0 -0.30856170999932891 -0.39028540739080431 0 -0.31654549756366163 -0.40445092491967721 0 -0.32131387040252868 -0.39379046377246901 0 -0.3173968676367942 -0.38601904919985591 0 -0.31654549756366163 -0.40445092491967721 0 -0.3173968676367942 -0.38601904919985591 0 -0.32297974526725831 -0.40218864786483871 0 -0.31654549756366163 -0.40445092491967721 0 -0.32489219274404108 -0.40926520284116302 0 -0.32979988084360851 -0.4022451430355235 0 -0.32297974526725831 -0.40218864786483871 0 -0.32131387040252868 -0.39379046377246901 0 -0.32979988084360851 -0.4022451430355235 0 -0.32297974526725831 -0.40218864786483871 0 -0.32489219274404108 -0.40926520284116302 0 -0.32297974526725831 -0.40218864786483871 0 -0.31654549756366163 -0.40445092491967721 0 -0.32131387040252868 -0.39379046377246901 0 -0.31984736070132108 -0.37404855384244978 0 -0.32979988084360851 -0.4022451430355235 0 -0.32131387040252868 -0.39379046377246901 0 -0.31984736070132108 -0.37404855384244978 0 -0.32979988084360851 -0.4022451430355235 0 -0.31984736070132108 -0.37404855384244978 0 -0.32131387040252868 -0.39379046377246901 0 -0.3173968676367942 -0.38601904919985591 0 -0.31984736070132108 -0.37404855384244978 0 -0.32979988084360851 -0.4022451430355235 0 -0.32499008462820772 -0.38414157008120692 0 -0.33629317208047083 -0.37078801556457402 0 -0.31984736070132108 -0.37404855384244978 0 -0.32499008462820772 -0.38414157008120692 0 -0.31984736070132108 -0.37404855384244978 0 -0.30703202028133908 -0.37475571473812541 0 -0.3173968676367942 -0.38601904919985591 0 -0.33239135895268351 -0.42300779041714448 0 -0.3329428356357671 -0.4325255197615957 0 -0.33975240098589549 -0.43044173222859738 0 -0.33239135895268351 -0.42300779041714448 0 -0.3329428356357671 -0.4325255197615957 0 -0.3269324659385725 -0.43423597045498802 0 -0.33542082607816032 -0.44108047266731359 0 -0.3329428356357671 -0.4325255197615957 0 -0.33851657217080189 -0.43710369221701739 0 -0.33542082607816032 -0.44108047266731359 0 -0.3329428356357671 -0.4325255197615957 0 -0.3269324659385725 -0.43423597045498802 0 -0.3329428356357671 -0.4325255197615957 0 -0.33671758648630662 -0.43293205679921809 0 -0.33975240098589549 -0.43044173222859738 0 -0.33843938723735328 -0.43268712303311169 0 -0.33975240098589549 -0.43044173222859738 0 -0.33851657217080189 -0.43710369221701739 0 -0.33671758648630662 -0.43293205679921809 0 -0.33843938723735328 -0.43268712303311169 0 -0.33975240098589549 -0.43044173222859738 0 -0.3329428356357671 -0.4325255197615957 0 -0.33671758648630662 -0.43293205679921809 0 -0.33851657217080189 -0.43710369221701739 0 -0.33671758648630662 -0.43293205679921809 0 -0.33843938723735328 -0.43268712303311169 0 -0.33851657217080189 -0.43710369221701739 0 -0.33975240098589549 -0.43044173222859738 0 -0.34271185567839568 -0.42639854381811509 0 -0.33951385273645812 -0.41934803378546121 0 -0.34271185567839568 -0.42639854381811509 0 -0.34268449143783991 -0.42134175035236648 0 -0.33951385273645812 -0.41934803378546121 0 -0.34674943224811933 -0.4228326594883649 0 -0.34268449143783991 -0.42134175035236648 0 -0.34176282508838651 -0.41678776431752501 0 -0.33210576413268261 -0.40603319688136608 0 -0.33975240098589549 -0.43044173222859738 0 -0.33951385273645812 -0.41934803378546121 0 -0.34268449143783991 -0.42134175035236648 0 -0.34176282508838651 -0.41678776431752501 0 -0.33951385273645812 -0.41934803378546121 0 -0.32979988084360851 -0.4022451430355235 0 -0.33975240098589549 -0.43044173222859738 0 -0.33210576413268261 -0.40603319688136608 0 -0.32979988084360851 -0.4022451430355235 0 -0.33975240098589549 -0.43044173222859738 0 -0.32979988084360851 -0.4022451430355235 0 -0.33239135895268351 -0.42300779041714448 0 -0.32489219274404108 -0.40926520284116302 0 -0.32979988084360851 -0.4022451430355235 0 -0.33239135895268351 -0.42300779041714448 0 -0.33975240098589549 -0.43044173222859738 0 -0.34176282508838651 -0.41678776431752501 0 -0.33951385273645812 -0.41934803378546121 0 -0.33842599836708281 -0.41360561250157962 0 -0.34176282508838651 -0.41678776431752501 0 -0.3410748844184564 -0.4082839658596365 0 -0.33842599836708281 -0.41360561250157962 0 -0.33210576413268261 -0.40603319688136608 0 -0.3410748844184564 -0.4082839658596365 0 -0.33842599836708281 -0.41360561250157962 0 -0.33210576413268261 -0.40603319688136608 0 -0.33951385273645812 -0.41934803378546121 0 -0.33842599836708281 -0.41360561250157962 0 -0.31654549756366163 -0.40445092491967721 0 -0.31569412749053077 -0.42288280063949829 0 -0.31654549756366163 -0.40445092491967721 0 -0.32274448109299342 -0.41443350796863121 0 -0.31569412749053077 -0.42288280063949829 0 -0.31654549756366163 -0.40445092491967721 0 -0.31569412749053077 -0.42288280063949829 0 -0.30762307849937548 -0.4127208424754773 0 -0.33239135895268351 -0.42300779041714448 0 -0.32274448109299342 -0.41443350796863121 0 -0.31569412749053077 -0.42288280063949829 0 -0.33239135895268351 -0.42300779041714448 0 -0.32274448109299342 -0.41443350796863121 0 -0.32489219274404108 -0.40926520284116302 0 -0.31654549756366163 -0.40445092491967721 0 -0.32274448109299342 -0.41443350796863121 0 -0.32489219274404108 -0.40926520284116302 0 -0.33239135895268351 -0.42300779041714448 0 -0.31569412749053077 -0.42288280063949829 0 -0.3269324659385725 -0.43423597045498802 0 -0.31459099174637439 -0.44676531845402662 0 -0.31569412749053077 -0.42288280063949829 0 -0.31131282051799991 -0.43073613581310782 0 -0.31459099174637439 -0.44676531845402662 0 -0.31569412749053077 -0.42288280063949829 0 -0.31459099174637439 -0.44676531845402662 0 -0.31569412749053077 -0.42288280063949829 0 -0.3269324659385725 -0.43423597045498802 0 -0.33239135895268351 -0.42300779041714448 0 -0.31569412749053077 -0.42288280063949829 0 -0.31569412749053077 -0.42288280063949829 0 -0.29502041078041069 -0.42272804425005878 0 -0.31131282051799991 -0.43073613581310782 0 -0.29502041078041069 -0.42272804425005878 0 -0.31131282051799991 -0.43073613581310782 0 -0.30000397737888179 -0.43325146799259279 0 -0.29502041078041069 -0.42272804425005878 0 -0.31569412749053077 -0.42288280063949829 0 -0.31131282051799991 -0.43073613581310782 0 -0.29502041078041069 -0.42272804425005878 0 -0.31131282051799991 -0.43073613581310782 0 -0.30000397737888179 -0.43325146799259279 0 -0.30117147389497367 -0.44422071680184722 0 -0.31569412749053077 -0.42288280063949829 0 -0.30762307849937548 -0.4127208424754773 0 -0.29502041078041069 -0.42272804425005878 0 -0.30762307849937548 -0.4127208424754773 0 -0.29502041078041069 -0.42272804425005878 0 -0.29866808754207902 -0.40519414297893541 0 -0.30762307849937548 -0.4127208424754773 0 -0.30784959340111129 -0.40316282944122361 0 -0.29866808754207902 -0.40519414297893541 0 -0.31654549756366163 -0.40445092491967721 0 -0.30762307849937548 -0.4127208424754773 0 -0.30784959340111129 -0.40316282944122361 0 -0.29502041078041069 -0.42272804425005878 0 -0.29866808754207902 -0.40519414297893541 0 -0.27592855948117673 -0.41334396321018352 0 -0.29502041078041069 -0.42272804425005878 0 -0.27592855948117673 -0.41334396321018352 0 -0.29502041078041069 -0.42272804425005878 0 -0.27596404905788718 -0.42258539482821689 0 -0.27592855948117673 -0.41334396321018352 0 -0.29502041078041069 -0.42272804425005878 0 -0.27596404905788718 -0.42258539482821689 0 -0.29502041078041069 -0.42272804425005878 0 -0.27596404905788718 -0.42258539482821689 0 -0.2914990517722692 -0.43861158070261791 0 -0.30000397737888179 -0.43325146799259279 0 -0.29502041078041069 -0.42272804425005878 0 -0.2914990517722692 -0.43861158070261791 0 -0.27596404905788718 -0.42258539482821689 0 -0.27978399528939463 -0.44089582949055722 0 -0.2914990517722692 -0.43861158070261791 0 -0.30703202028133908 -0.37475571473812541 0 -0.30856170999932891 -0.39028540739080431 0 -0.29360421668665992 -0.38118933959717249 0 -0.30703202028133908 -0.37475571473812541 0 -0.3173968676367942 -0.38601904919985591 0 -0.30856170999932891 -0.39028540739080431 0 -0.30856170999932891 -0.39028540739080431 0 -0.30784959340111129 -0.40316282944122361 0 -0.29866808754207902 -0.40519414297893541 0 -0.31654549756366163 -0.40445092491967721 0 -0.30856170999932891 -0.39028540739080431 0 -0.30784959340111129 -0.40316282944122361 0 -0.30856170999932891 -0.39028540739080431 0 -0.29866808754207902 -0.40519414297893541 0 -0.28269920909063562 -0.3971226447805577 0 -0.30856170999932891 -0.39028540739080431 0 -0.28269920909063562 -0.3971226447805577 0 -0.29866808754207902 -0.40519414297893541 0 -0.28269920909063562 -0.3971226447805577 0 -0.27592855948117673 -0.41334396321018352 0 -0.28269920909063562 -0.3971226447805577 0 -0.29360421668665992 -0.38118933959717249 0 -0.27687812815110607 -0.37528223885245782 0 -0.30856170999932891 -0.39028540739080431 0 -0.28269920909063562 -0.3971226447805577 0 -0.29360421668665992 -0.38118933959717249 0 -0.27687812815110607 -0.37528223885245782 0 -0.2652826140501594 -0.38871390316981042 0 -0.25821379615068463 -0.37605829592724382 0 -0.28269920909063562 -0.3971226447805577 0 -0.27687812815110607 -0.37528223885245782 0 -0.2652826140501594 -0.38871390316981042 0 -0.28269920909063562 -0.3971226447805577 0 -0.25683670818194188 -0.40395988217030993 0 -0.28269920909063562 -0.3971226447805577 0 -0.25683670818194188 -0.40395988217030993 0 -0.2652826140501594 -0.38871390316981042 0 -0.28269920909063562 -0.3971226447805577 0 -0.25683670818194188 -0.40395988217030993 0 -0.27592855948117673 -0.41334396321018352 0 -0.25683670818194188 -0.40395988217030993 0 -0.2652826140501594 -0.38871390316981042 0 -0.25213462016759353 -0.38939159419676339 0 -0.25213462016759353 -0.38939159419676339 0 -0.25821379615068463 -0.37605829592724382 0 -0.2424843067608366 -0.37974243096664217 0 -0.2652826140501594 -0.38871390316981042 0 -0.25213462016759353 -0.38939159419676339 0 -0.25821379615068463 -0.37605829592724382 0 -0.25690768733536362 -0.42244274540637439 0 -0.27978399528939463 -0.44089582949055722 0 -0.27596404905788718 -0.42258539482821689 0 -0.25690768733536362 -0.42244274540637439 0 -0.27596404905788718 -0.42258539482821689 0 -0.25690768733536362 -0.42244274540637439 0 -0.27978399528939463 -0.44089582949055722 0 -0.25683670818194188 -0.40395988217030993 0 -0.27592855948117673 -0.41334396321018352 0 -0.27596404905788718 -0.42258539482821689 0 -0.27592855948117673 -0.41334396321018352 0 -0.25690768733536362 -0.42244274540637439 0 -0.25683670818194188 -0.40395988217030993 0 -0.25690768733536362 -0.42244274540637439 0 -0.23963283063644131 -0.40850805000675111 0 -0.25683670818194188 -0.40395988217030993 0 -0.27592855948117673 -0.41334396321018352 0 -0.25690768733536362 -0.42244274540637439 0 -0.25107417819920053 -0.42239907774736918 0 -0.25690768733536362 -0.42244274540637439 0 -0.25389784775590313 -0.43485602435084841 0 -0.25690768733536362 -0.42244274540637439 0 -0.25389784775590313 -0.43485602435084841 0 -0.27978399528939463 -0.44089582949055722 0 -0.25107417819920053 -0.42239907774736918 0 -0.25690768733536362 -0.42244274540637439 0 -0.25389784775590313 -0.43485602435084841 0 -0.25541325896831252 -0.44753877473492132 0 -0.27978399528939463 -0.44089582949055722 0 -0.25541325896831252 -0.44753877473492132 0 -0.25881737267717958 -0.46400021177880379 0 -0.24911167817864541 -0.44600031766820519 0 -0.25541325896831252 -0.44753877473492132 0 -0.24619249822546571 -0.44358634376360562 0 -0.24911167817864541 -0.44600031766820519 0 -0.25541325896831252 -0.44753877473492132 0 -0.24619249822546571 -0.44358634376360562 0 -0.25541325896831252 -0.44753877473492132 0 -0.25881737267717958 -0.46400021177880379 0 -0.27044670677357979 -0.45908428063167073 0 -0.25881737267717958 -0.46400021177880379 0 -0.24911167817864541 -0.44600031766820519 0 -0.2478819539375253 -0.45544524948145138 0 -0.25881737267717958 -0.46400021177880379 0 -0.24911167817864541 -0.44600031766820519 0 -0.25881737267717958 -0.46400021177880379 0 -0.2478819539375253 -0.45544524948145138 0 -0.24526177779372041 -0.46478696291441052 0 -0.25541325896831252 -0.44753877473492132 0 -0.27044670677357979 -0.45908428063167073 0 -0.25881737267717958 -0.46400021177880379 0 -0.27044670677357979 -0.45908428063167073 0 -0.27676256488293532 -0.47115310861040721 0 -0.25541325896831252 -0.44753877473492132 0 -0.27044670677357979 -0.45908428063167073 0 -0.27926787076114201 -0.4577639295879854 0 -0.27044670677357979 -0.45908428063167073 0 -0.27926787076114201 -0.4577639295879854 0 -0.27676256488293532 -0.47115310861040721 0 -0.25541325896831252 -0.44753877473492132 0 -0.27926787076114201 -0.4577639295879854 0 -0.27978399528939463 -0.44089582949055722 0 -0.25541325896831252 -0.44753877473492132 0 -0.27926787076114201 -0.4577639295879854 0 -0.27978399528939463 -0.44089582949055722 0 -0.2914990517722692 -0.43861158070261791 0 -0.30266030324342541 -0.45934891357474028 0 -0.27926787076114201 -0.4577639295879854 0 -0.27978399528939463 -0.44089582949055722 0 -0.30266030324342541 -0.45934891357474028 0 -0.27978399528939463 -0.44089582949055722 0 -0.30266030324342541 -0.45934891357474028 0 -0.27926787076114201 -0.4577639295879854 0 -0.30266030324342541 -0.45934891357474028 0 -0.30312248255397151 -0.4679890844410497 0 -0.27926787076114201 -0.4577639295879854 0 -0.30312248255397151 -0.4679890844410497 0 -0.27926787076114201 -0.4577639295879854 0 -0.30312248255397151 -0.4679890844410497 0 -0.27676256488293532 -0.47115310861040721 0 -0.31459099174637439 -0.44676531845402662 0 -0.31378650736154129 -0.46418213479245612 0 -0.30677893612972901 -0.45130622226411921 0 -0.31378650736154129 -0.46418213479245612 0 -0.30266030324342541 -0.45934891357474028 0 -0.30312248255397151 -0.4679890844410497 0 -0.31378650736154129 -0.46418213479245612 0 -0.30266030324342541 -0.45934891357474028 0 -0.30677893612972901 -0.45130622226411921 0 -0.31459099174637439 -0.44676531845402662 0 -0.31131282051799991 -0.43073613581310782 0 -0.30117147389497367 -0.44422071680184722 0 -0.31459099174637439 -0.44676531845402662 0 -0.30677893612972901 -0.45130622226411921 0 -0.30117147389497367 -0.44422071680184722 0 -0.2914990517722692 -0.43861158070261791 0 -0.30266030324342541 -0.45934891357474028 0 -0.30117147389497367 -0.44422071680184722 0 -0.31459099174637439 -0.44676531845402662 0 -0.30117147389497367 -0.44422071680184722 0 -0.30000397737888179 -0.43325146799259279 0 -0.2914990517722692 -0.43861158070261791 0 -0.30117147389497367 -0.44422071680184722 0 -0.30266030324342541 -0.45934891357474028 0 -0.30677893612972901 -0.45130622226411921 0 -0.30117147389497367 -0.44422071680184722 0 -0.32377296544427242 -0.5 0 -0.30100086355926042 -0.5 0 -0.31060667429893257 -0.48670500184345389 0 -0.30100086355926042 -0.5 0 -0.31060667429893257 -0.48670500184345389 0 -0.28961481261675442 -0.48496057604837589 0 -0.30312248255397151 -0.4679890844410497 0 -0.31060667429893257 -0.48670500184345389 0 -0.28961481261675442 -0.48496057604837589 0 -0.30312248255397151 -0.4679890844410497 0 -0.28961481261675442 -0.48496057604837589 0 -0.27676256488293532 -0.47115310861040721 0 -0.30100086355926042 -0.5 0 -0.28961481261675442 -0.48496057604837589 0 -0.27822876167424848 -0.50000000000000089 0 -0.27822876167424848 -0.50000000000000089 0 -0.26852306717571378 -0.48200010588940251 0 -0.28961481261675442 -0.48496057604837589 0 -0.27822876167424848 -0.50000000000000089 0 -0.26852306717571378 -0.48200010588940251 0 -0.25881737267717958 -0.46400021177880379 0 -0.26852306717571378 -0.48200010588940251 0 -0.27676256488293532 -0.47115310861040721 0 -0.28961481261675442 -0.48496057604837589 0 -0.26852306717571378 -0.48200010588940251 0 -0.27676256488293532 -0.47115310861040721 0 -0.25881737267717958 -0.46400021177880379 0 -0.26852306717571378 -0.48200010588940251 0 -0.25216698760502138 -0.47870082004139841 0 -0.25881737267717958 -0.46400021177880379 0 -0.26852306717571378 -0.48200010588940251 0 -0.25881737267717958 -0.46400021177880379 0 -0.25216698760502138 -0.47870082004139841 0 -0.24526177779372041 -0.46478696291441052 0 -0.26852306717571378 -0.48200010588940251 0 -0.25216698760502138 -0.47870082004139841 0 -0.24826392273019099 -0.5 0 -0.27822876167424848 -0.50000000000000089 0 -0.26852306717571378 -0.48200010588940251 0 -0.24826392273019099 -0.5 0 -0.24826392273019099 -0.5 0 -0.2399687976483022 -0.48271681962437479 0 -0.21829908378613361 -0.5 0 -0.25216698760502138 -0.47870082004139841 0 -0.24826392273019099 -0.5 0 -0.2399687976483022 -0.48271681962437479 0 -0.25216698760502138 -0.47870082004139841 0 -0.2399687976483022 -0.48271681962437479 0 -0.24526177779372041 -0.46478696291441052 0 -0.2399687976483022 -0.48271681962437479 0 -0.22811910303522959 -0.4741860982482578 0 -0.24526177779372041 -0.46478696291441052 0 -0.22811910303522959 -0.4741860982482578 0 -0.21787375217683111 -0.46280099106098621 0 -0.21136822884894771 -0.47466556567218632 0 -0.22811910303522959 -0.4741860982482578 0 -0.21829908378613361 -0.5 0 -0.21136822884894771 -0.47466556567218632 0 -0.2399687976483022 -0.48271681962437479 0 -0.22811910303522959 -0.4741860982482578 0 -0.21829908378613361 -0.5 0 -0.24619249822546571 -0.44358634376360562 0 -0.24010536147569589 -0.45299795266469078 0 -0.2186524191366554 -0.44956678631936742 0 -0.25541325896831252 -0.44753877473492132 0 -0.24795015414206281 -0.44320466148128068 0 -0.2344890091948581 -0.43146920424957858 0 -0.25389784775590313 -0.43485602435084841 0 -0.25541325896831252 -0.44753877473492132 0 -0.2344890091948581 -0.43146920424957858 0 -0.25541325896831252 -0.44753877473492132 0 -0.2344890091948581 -0.43146920424957858 0 -0.24619249822546571 -0.44358634376360562 0 -0.2299744433966058 -0.43663455919964961 0 -0.25541325896831252 -0.44753877473492132 0 -0.24795015414206281 -0.44320466148128068 0 -0.24619249822546571 -0.44358634376360562 0 -0.24795015414206281 -0.44320466148128068 0 -0.24619249822546571 -0.44358634376360562 0 -0.2344890091948581 -0.43146920424957858 0 -0.24795015414206281 -0.44320466148128068 0 -0.24619249822546571 -0.44358634376360562 0 -0.24911167817864541 -0.44600031766820519 0 -0.24611357956238519 -0.44944080238114642 0 -0.2478819539375253 -0.45544524948145138 0 -0.24619249822546571 -0.44358634376360562 0 -0.24611357956238519 -0.44944080238114642 0 -0.24010536147569589 -0.45299795266469078 0 -0.24619249822546571 -0.44358634376360562 0 -0.24911167817864541 -0.44600031766820519 0 -0.24611357956238519 -0.44944080238114642 0 -0.24611357956238519 -0.44944080238114642 0 -0.24010536147569589 -0.45299795266469078 0 -0.2478819539375253 -0.45544524948145138 0 -0.22811910303522959 -0.4741860982482578 0 -0.24526177779372041 -0.46478696291441052 0 -0.2317692860994085 -0.46025322424518988 0 -0.24010536147569589 -0.45299795266469078 0 -0.24526177779372041 -0.46478696291441052 0 -0.2317692860994085 -0.46025322424518988 0 -0.24010536147569589 -0.45299795266469078 0 -0.2478819539375253 -0.45544524948145138 0 -0.24526177779372041 -0.46478696291441052 0 -0.24010536147569589 -0.45299795266469078 0 -0.2317692860994085 -0.46025322424518988 0 -0.2186524191366554 -0.44956678631936742 0 -0.22811910303522959 -0.4741860982482578 0 -0.2317692860994085 -0.46025322424518988 0 -0.21787375217683111 -0.46280099106098621 0 -0.2317692860994085 -0.46025322424518988 0 -0.2186524191366554 -0.44956678631936742 0 -0.21787375217683111 -0.46280099106098621 0 -0.24619249822546571 -0.44358634376360562 0 -0.2186524191366554 -0.44956678631936742 0 -0.24619249822546571 -0.44358634376360562 0 -0.2186524191366554 -0.44956678631936742 0 -0.2299744433966058 -0.43663455919964961 0 -0.2194346907730981 -0.43882938849312192 0 -0.2186524191366554 -0.44956678631936742 0 -0.2299744433966058 -0.43663455919964961 0 -0.20665296900240299 -0.43936094953474042 0 -0.2186524191366554 -0.44956678631936742 0 -0.1911123400478453 -0.45554722887512988 0 -0.2186524191366554 -0.44956678631936742 0 -0.1911123400478453 -0.45554722887512988 0 -0.2194346907730981 -0.43882938849312192 0 -0.20665296900240299 -0.43936094953474042 0 -0.2186524191366554 -0.44956678631936742 0 -0.21787375217683111 -0.46280099106098621 0 -0.1911123400478453 -0.45554722887512988 0 -0.21136822884894771 -0.47466556567218632 0 -0.2186524191366554 -0.44956678631936742 0 -0.21787375217683111 -0.46280099106098621 0 -0.1911123400478453 -0.45554722887512988 0 -0.1911123400478453 -0.45554722887512988 0 -0.18322276193633269 -0.4386415453097533 0 -0.19466592686267889 -0.43475201083467369 0 -0.20665296900240299 -0.43936094953474042 0 -0.1911123400478453 -0.45554722887512988 0 -0.19466592686267889 -0.43475201083467369 0 -0.21829908378613361 -0.5 0 -0.21136822884894771 -0.47466556567218632 0 -0.19561630841146921 -0.48124470604481201 0 -0.1911123400478453 -0.45554722887512988 0 -0.21136822884894771 -0.47466556567218632 0 -0.19561630841146921 -0.48124470604481201 0 -0.1911123400478453 -0.45554722887512988 0 -0.19561630841146921 -0.48124470604481201 0 -0.17904451850490299 -0.46990928437783819 0 -0.21829908378613361 -0.5 0 -0.19561630841146921 -0.48124470604481201 0 -0.18833424484207631 -0.5 0 -0.19561630841146921 -0.48124470604481201 0 -0.18833424484207631 -0.5 0 -0.17765588651322289 -0.48647067588945703 0 -0.18833424484207631 -0.5 0 -0.17765588651322289 -0.48647067588945703 0 -0.15836940589801901 -0.50000000000000311 0 -0.15836940589801901 -0.50000000000000311 0 -0.15688554365799251 -0.48536705961690157 0 -0.16691495490964869 -0.481199389024631 0 -0.17765588651322289 -0.48647067588945703 0 -0.15836940589801901 -0.50000000000000311 0 -0.16691495490964869 -0.481199389024631 0 -0.16580394671519641 -0.47148040354224291 0 -0.15675771862551441 -0.46750219023205208 0 -0.15534790201629911 -0.47604739340778029 0 -0.16691495490964869 -0.481199389024631 0 -0.16580394671519641 -0.47148040354224291 0 -0.15534790201629911 -0.47604739340778029 0 -0.15688554365799251 -0.48536705961690157 0 -0.16691495490964869 -0.481199389024631 0 -0.15534790201629911 -0.47604739340778029 0 -0.16691495490964869 -0.481199389024631 0 -0.16580394671519641 -0.47148040354224291 0 -0.17904451850490299 -0.46990928437783819 0 -0.17765588651322289 -0.48647067588945703 0 -0.16691495490964869 -0.481199389024631 0 -0.17904451850490299 -0.46990928437783819 0 -0.19561630841146921 -0.48124470604481201 0 -0.17765588651322289 -0.48647067588945703 0 -0.17904451850490299 -0.46990928437783819 0 -0.1911123400478453 -0.45554722887512988 0 -0.17083334260301139 -0.45440112532062488 0 -0.16357226095903529 -0.46152767143089229 0 -0.1911123400478453 -0.45554722887512988 0 -0.16357226095903529 -0.46152767143089229 0 -0.1911123400478453 -0.45554722887512988 0 -0.17904451850490299 -0.46990928437783819 0 -0.16357226095903529 -0.46152767143089229 0 -0.1911123400478453 -0.45554722887512988 0 -0.17520402518798961 -0.44485446646085602 0 -0.17083334260301139 -0.45440112532062488 0 -0.1911123400478453 -0.45554722887512988 0 -0.18322276193633269 -0.4386415453097533 0 -0.17520402518798961 -0.44485446646085602 0 -0.18322276193633269 -0.4386415453097533 0 -0.17520402518798961 -0.44485446646085602 0 -0.1726254072564587 -0.43404095020928851 0 -0.16675711537292801 -0.43990636083662721 0 -0.16627177643125729 -0.44774170093373539 0 -0.1608923776004684 -0.44311220292948461 0 -0.17520402518798961 -0.44485446646085602 0 -0.16675711537292801 -0.43990636083662721 0 -0.1726254072564587 -0.43404095020928851 0 -0.17520402518798961 -0.44485446646085602 0 -0.16675711537292801 -0.43990636083662721 0 -0.16627177643125729 -0.44774170093373539 0 -0.17520402518798961 -0.44485446646085602 0 -0.16627177643125729 -0.44774170093373539 0 -0.17083334260301139 -0.45440112532062488 0 -0.16627177643125729 -0.44774170093373539 0 -0.17083334260301139 -0.45440112532062488 0 -0.16579548550599291 -0.45333950133425449 0 -0.16627177643125729 -0.44774170093373539 0 -0.16229611681921871 -0.45151037622965351 0 -0.16579548550599291 -0.45333950133425449 0 -0.16229611681921871 -0.45151037622965351 0 -0.1578124700041896 -0.45159842948617801 0 -0.16111266008827571 -0.44788749153188401 0 -0.16229611681921871 -0.45151037622965351 0 -0.1578124700041896 -0.45159842948617801 0 -0.15942948626233419 -0.45384698164412268 0 -0.1578124700041896 -0.45159842948617801 0 -0.1566423972810248 -0.44712905533562891 0 -0.16111266008827571 -0.44788749153188401 0 -0.1566423972810248 -0.44712905533562891 0 -0.16111266008827571 -0.44788749153188401 0 -0.1608923776004684 -0.44311220292948461 0 -0.16627177643125729 -0.44774170093373539 0 -0.16111266008827571 -0.44788749153188401 0 -0.1608923776004684 -0.44311220292948461 0 -0.16627177643125729 -0.44774170093373539 0 -0.16229611681921871 -0.45151037622965351 0 -0.16111266008827571 -0.44788749153188401 0 -0.1566423972810248 -0.44712905533562891 0 -0.1608923776004684 -0.44311220292948461 0 -0.15419176131949949 -0.44187236887896958 0 -0.1608923776004684 -0.44311220292948461 0 -0.15915325296150121 -0.4378187190218702 0 -0.15419176131949949 -0.44187236887896958 0 -0.16675711537292801 -0.43990636083662721 0 -0.1608923776004684 -0.44311220292948461 0 -0.15915325296150121 -0.4378187190218702 0 -0.16580394671519641 -0.47148040354224291 0 -0.17904451850490299 -0.46990928437783819 0 -0.16357226095903529 -0.46152767143089229 0 -0.17083334260301139 -0.45440112532062488 0 -0.16579548550599291 -0.45333950133425449 0 -0.16638699308116189 -0.4571799104591725 0 -0.16579548550599291 -0.45333950133425449 0 -0.16638699308116189 -0.4571799104591725 0 -0.16281589362685611 -0.45580728517470709 0 -0.17083334260301139 -0.45440112532062488 0 -0.16638699308116189 -0.4571799104591725 0 -0.16357226095903529 -0.46152767143089229 0 -0.16638699308116189 -0.4571799104591725 0 -0.16361406571904891 -0.46001257070896778 0 -0.16357226095903529 -0.46152767143089229 0 -0.16638699308116189 -0.4571799104591725 0 -0.16361406571904891 -0.46001257070896778 0 -0.16281589362685611 -0.45580728517470709 0 -0.16361406571904891 -0.46001257070896778 0 -0.16281589362685611 -0.45580728517470709 0 -0.15382955158342429 -0.45706207345882022 0 -0.16281589362685611 -0.45580728517470709 0 -0.15942948626233419 -0.45384698164412268 0 -0.15382955158342429 -0.45706207345882022 0 -0.16229611681921871 -0.45151037622965351 0 -0.16281589362685611 -0.45580728517470709 0 -0.15942948626233419 -0.45384698164412268 0 -0.16229611681921871 -0.45151037622965351 0 -0.16579548550599291 -0.45333950133425449 0 -0.16281589362685611 -0.45580728517470709 0 -0.1578124700041896 -0.45159842948617801 0 -0.15942948626233419 -0.45384698164412268 0 -0.15382955158342429 -0.45706207345882022 0 -0.16580394671519641 -0.47148040354224291 0 -0.16357226095903529 -0.46152767143089229 0 -0.15675771862551441 -0.46750219023205208 0 -0.16361406571904891 -0.46001257070896778 0 -0.16357226095903529 -0.46152767143089229 0 -0.15675771862551441 -0.46750219023205208 0 -0.16361406571904891 -0.46001257070896778 0 -0.15675771862551441 -0.46750219023205208 0 -0.13545041771799241 -0.46844291207037669 0 -0.16361406571904891 -0.46001257070896778 0 -0.13545041771799241 -0.46844291207037669 0 -0.15382955158342429 -0.45706207345882022 0 -0.14522342121958159 -0.45326379580925591 0 -0.13545041771799241 -0.46844291207037669 0 -0.16361406571904891 -0.46001257070896778 0 -0.15382955158342429 -0.45706207345882022 0 -0.13545041771799241 -0.46844291207037669 0 -0.15382955158342429 -0.45706207345882022 0 -0.14522342121958159 -0.45326379580925591 0 -0.15356460799086011 -0.45215459871695912 0 -0.1578124700041896 -0.45159842948617801 0 -0.15382955158342429 -0.45706207345882022 0 -0.15356460799086011 -0.45215459871695912 0 -0.15915325296150121 -0.4378187190218702 0 -0.15419176131949949 -0.44187236887896958 0 -0.1511653777761324 -0.43598816266390922 0 -0.15419176131949949 -0.44187236887896958 0 -0.14357057307677079 -0.44412804376861842 0 -0.1511653777761324 -0.43598816266390922 0 -0.15419176131949949 -0.44187236887896958 0 -0.15063855217754729 -0.44770957250188642 0 -0.14357057307677079 -0.44412804376861842 0 -0.14522342121958159 -0.45326379580925591 0 -0.15063855217754729 -0.44770957250188642 0 -0.15356460799086011 -0.45215459871695912 0 -0.1566423972810248 -0.44712905533562891 0 -0.15063855217754729 -0.44770957250188642 0 -0.15356460799086011 -0.45215459871695912 0 -0.1566423972810248 -0.44712905533562891 0 -0.15419176131949949 -0.44187236887896958 0 -0.15063855217754729 -0.44770957250188642 0 -0.1578124700041896 -0.45159842948617801 0 -0.1566423972810248 -0.44712905533562891 0 -0.15356460799086011 -0.45215459871695912 0 -0.14522342121958159 -0.45326379580925591 0 -0.14357057307677079 -0.44412804376861842 0 -0.1350483802510902 -0.45039230739748293 0 -0.14522342121958159 -0.45326379580925591 0 -0.15063855217754729 -0.44770957250188642 0 -0.14357057307677079 -0.44412804376861842 0 -0.14357057307677079 -0.44412804376861842 0 -0.14303758403021621 -0.43477703649594401 0 -0.1511653777761324 -0.43598816266390922 0 -0.1314970434196209 -0.43964534301865071 0 -0.1195004458214851 -0.44648144232051318 0 -0.1248065124882853 -0.42948908947785502 0 -0.14357057307677079 -0.44412804376861842 0 -0.1350483802510902 -0.45039230739748293 0 -0.1314970434196209 -0.43964534301865071 0 -0.14357057307677079 -0.44412804376861842 0 -0.1314970434196209 -0.43964534301865071 0 -0.14303758403021621 -0.43477703649594401 0 -0.1350483802510902 -0.45039230739748293 0 -0.1314970434196209 -0.43964534301865071 0 -0.1195004458214851 -0.44648144232051318 0 -0.13545041771799241 -0.46844291207037669 0 -0.12793195049855721 -0.47069344599169177 0 -0.1195004458214851 -0.44648144232051318 0 -0.1350483802510902 -0.45039230739748293 0 -0.13545041771799241 -0.46844291207037669 0 -0.1195004458214851 -0.44648144232051318 0 -0.14522342121958159 -0.45326379580925591 0 -0.1350483802510902 -0.45039230739748293 0 -0.13545041771799241 -0.46844291207037669 0 -0.13545041771799241 -0.46844291207037669 0 -0.1195004458214851 -0.44648144232051318 0 -0.13545041771799241 -0.46844291207037669 0 -0.12793195049855721 -0.47069344599169177 0 -0.13249264396597141 -0.48378998465297668 0 -0.13545041771799241 -0.46844291207037669 0 -0.13249264396597141 -0.48378998465297668 0 -0.14690991180800481 -0.48422145603519062 0 -0.13545041771799241 -0.46844291207037669 0 -0.12793195049855721 -0.47069344599169177 0 -0.12793195049855721 -0.47069344599169177 0 -0.13249264396597141 -0.48378998465297668 0 -0.1217458590182483 -0.4801900385742689 0 -0.12793195049855721 -0.47069344599169177 0 -0.13249264396597141 -0.48378998465297668 0 -0.13249264396597141 -0.48378998465297668 0 -0.13115677027651459 -0.5 0 -0.1185994718412884 -0.489375690700944 0 -0.13249264396597141 -0.48378998465297668 0 -0.13115677027651459 -0.5 0 -0.14223218298712709 -0.49200286017204292 0 -0.13249264396597141 -0.48378998465297668 0 -0.14223218298712709 -0.49200286017204292 0 -0.14690991180800481 -0.48422145603519062 0 -0.15836940589801901 -0.50000000000000311 0 -0.13115677027651459 -0.5 0 -0.14223218298712709 -0.49200286017204292 0 -0.15836940589801901 -0.50000000000000311 0 -0.14690991180800481 -0.48422145603519062 0 -0.15836940589801901 -0.50000000000000311 0 -0.15688554365799251 -0.48536705961690157 0 -0.14690991180800481 -0.48422145603519062 0 -0.15836940589801901 -0.50000000000000311 0 -0.14223218298712709 -0.49200286017204292 0 -0.14690991180800481 -0.48422145603519062 0 -0.13545041771799241 -0.46844291207037669 0 -0.15534790201629911 -0.47604739340778029 0 -0.14690991180800481 -0.48422145603519062 0 -0.13545041771799241 -0.46844291207037669 0 -0.14690991180800481 -0.48422145603519062 0 -0.15675771862551441 -0.46750219023205208 0 -0.13545041771799241 -0.46844291207037669 0 -0.15534790201629911 -0.47604739340778029 0 -0.15688554365799251 -0.48536705961690157 0 -0.15534790201629911 -0.47604739340778029 0 -0.14690991180800481 -0.48422145603519062 0 -0.1437805364741164 -0.40281291116566231 0 -0.14930092164919109 -0.39137787809920532 0 -0.13597123280452919 -0.39180486036017409 0 -0.1437805364741164 -0.40281291116566231 0 -0.14930092164919109 -0.39137787809920532 0 -0.15692361101729119 -0.403555323635717 0 -0.1437805364741164 -0.40281291116566231 0 -0.148859434788845 -0.41160246374951548 0 -0.15692361101729119 -0.403555323635717 0 -0.14930092164919109 -0.39137787809920532 0 -0.15463914349879329 -0.37955765680605358 0 -0.16259450941099129 -0.39213838644785037 0 -0.14930092164919109 -0.39137787809920532 0 -0.15463914349879329 -0.37955765680605358 0 -0.1428118710121411 -0.3793884711109255 0 -0.14930092164919109 -0.39137787809920532 0 -0.1428118710121411 -0.3793884711109255 0 -0.13597123280452919 -0.39180486036017409 0 -0.1428118710121411 -0.3793884711109255 0 -0.12634844977110091 -0.37919111576772918 0 -0.13597123280452919 -0.39180486036017409 0 -0.12634844977110091 -0.37919111576772918 0 -0.13597123280452919 -0.39180486036017409 0 -0.12322006064050869 -0.39242971681371103 0 -0.13597123280452919 -0.39180486036017409 0 -0.13212610183730519 -0.40449217328391418 0 -0.12322006064050869 -0.39242971681371103 0 -0.1437805364741164 -0.40281291116566231 0 -0.13597123280452919 -0.39180486036017409 0 -0.13212610183730519 -0.40449217328391418 0 -0.12834302053328461 -0.418479642121733 0 -0.1395019167475367 -0.41404476786544803 0 -0.1371738998848997 -0.42577443350973587 0 -0.1437805364741164 -0.40281291116566231 0 -0.13212610183730519 -0.40449217328391418 0 -0.1395019167475367 -0.41404476786544803 0 -0.13212610183730519 -0.40449217328391418 0 -0.12834302053328461 -0.418479642121733 0 -0.1395019167475367 -0.41404476786544803 0 -0.1314970434196209 -0.43964534301865071 0 -0.1371738998848997 -0.42577443350973587 0 -0.1248065124882853 -0.42948908947785502 0 -0.12834302053328461 -0.418479642121733 0 -0.1371738998848997 -0.42577443350973587 0 -0.1248065124882853 -0.42948908947785502 0 -0.1314970434196209 -0.43964534301865071 0 -0.1371738998848997 -0.42577443350973587 0 -0.14303758403021621 -0.43477703649594401 0 -0.1371738998848997 -0.42577443350973587 0 -0.14303758403021621 -0.43477703649594401 0 -0.14929801928428041 -0.42871199509273988 0 -0.14303758403021621 -0.43477703649594401 0 -0.14929801928428041 -0.42871199509273988 0 -0.1511653777761324 -0.43598816266390922 0 -0.1371738998848997 -0.42577443350973587 0 -0.14929801928428041 -0.42871199509273988 0 -0.1484890515239575 -0.41997008744223002 0 -0.14929801928428041 -0.42871199509273988 0 -0.15823494430601329 -0.43135870503859319 0 -0.15768725818446289 -0.42440354540602793 0 -0.14929801928428041 -0.42871199509273988 0 -0.1484890515239575 -0.41997008744223002 0 -0.15768725818446289 -0.42440354540602793 0 -0.15915325296150121 -0.4378187190218702 0 -0.1511653777761324 -0.43598816266390922 0 -0.15823494430601329 -0.43135870503859319 0 -0.14929801928428041 -0.42871199509273988 0 -0.1511653777761324 -0.43598816266390922 0 -0.15823494430601329 -0.43135870503859319 0 -0.1437805364741164 -0.40281291116566231 0 -0.1395019167475367 -0.41404476786544803 0 -0.148859434788845 -0.41160246374951548 0 -0.1395019167475367 -0.41404476786544803 0 -0.1371738998848997 -0.42577443350973587 0 -0.1484890515239575 -0.41997008744223002 0 -0.1395019167475367 -0.41404476786544803 0 -0.1484890515239575 -0.41997008744223002 0 -0.148859434788845 -0.41160246374951548 0 -0.1484890515239575 -0.41997008744223002 0 -0.148859434788845 -0.41160246374951548 0 -0.15759381569110961 -0.41558693108350808 0 -0.1484890515239575 -0.41997008744223002 0 -0.15759381569110961 -0.41558693108350808 0 -0.15768725818446289 -0.42440354540602793 0 -0.148859434788845 -0.41160246374951548 0 -0.15759381569110961 -0.41558693108350808 0 -0.15692361101729119 -0.403555323635717 0 -0.15759381569110961 -0.41558693108350808 0 -0.16709232605278959 -0.41067403806872688 0 -0.15692361101729119 -0.403555323635717 0 -0.15759381569110961 -0.41558693108350808 0 -0.16384334072831791 -0.41962611144283551 0 -0.16709232605278959 -0.41067403806872688 0 -0.15759381569110961 -0.41558693108350808 0 -0.16384334072831791 -0.41962611144283551 0 -0.15768725818446289 -0.42440354540602793 0 -0.1710638933530807 -0.42003420065119462 0 -0.16709232605278959 -0.41067403806872688 0 -0.17580056149334369 -0.41387025863873689 0 -0.16384334072831791 -0.41962611144283551 0 -0.1710638933530807 -0.42003420065119462 0 -0.16709232605278959 -0.41067403806872688 0 -0.16675711537292801 -0.43990636083662721 0 -0.15915325296150121 -0.4378187190218702 0 -0.16384334056017991 -0.43416076161622641 0 -0.15915325296150121 -0.4378187190218702 0 -0.16384334056017991 -0.43416076161622641 0 -0.15823494430601329 -0.43135870503859319 0 -0.16384334056017991 -0.43416076161622641 0 -0.15823494430601329 -0.43135870503859319 0 -0.1657794103601464 -0.42743184200471968 0 -0.16384334072831791 -0.41962611144283551 0 -0.15768725818446289 -0.42440354540602793 0 -0.1657794103601464 -0.42743184200471968 0 -0.15823494430601329 -0.43135870503859319 0 -0.15768725818446289 -0.42440354540602793 0 -0.1657794103601464 -0.42743184200471968 0 -0.1657794103601464 -0.42743184200471968 0 -0.1726254072564587 -0.43404095020928851 0 -0.1749295030994352 -0.42617117112195457 0 -0.1710638933530807 -0.42003420065119462 0 -0.1657794103601464 -0.42743184200471968 0 -0.1749295030994352 -0.42617117112195457 0 -0.16384334072831791 -0.41962611144283551 0 -0.1710638933530807 -0.42003420065119462 0 -0.1657794103601464 -0.42743184200471968 0 -0.16384334056017991 -0.43416076161622641 0 -0.1657794103601464 -0.42743184200471968 0 -0.1726254072564587 -0.43404095020928851 0 -0.16675711537292801 -0.43990636083662721 0 -0.16384334056017991 -0.43416076161622641 0 -0.1726254072564587 -0.43404095020928851 0 -0.18322276193633269 -0.4386415453097533 0 -0.1726254072564587 -0.43404095020928851 0 -0.18308711341371081 -0.42966329436277539 0 -0.1726254072564587 -0.43404095020928851 0 -0.1749295030994352 -0.42617117112195457 0 -0.18308711341371081 -0.42966329436277539 0 -0.1710638933530807 -0.42003420065119462 0 -0.1749295030994352 -0.42617117112195457 0 -0.1809143640989524 -0.42058316894448139 0 -0.1749295030994352 -0.42617117112195457 0 -0.18308711341371081 -0.42966329436277539 0 -0.1809143640989524 -0.42058316894448139 0 -0.18308711341371081 -0.42966329436277539 0 -0.1809143640989524 -0.42058316894448139 0 -0.19216471722840689 -0.42379091975650163 0 -0.18322276193633269 -0.4386415453097533 0 -0.18308711341371081 -0.42966329436277539 0 -0.19466592686267889 -0.43475201083467369 0 -0.16709232605278959 -0.41067403806872688 0 -0.17580056149334369 -0.41387025863873689 0 -0.1804414918109222 -0.40561666401957408 0 -0.1710638933530807 -0.42003420065119462 0 -0.17580056149334369 -0.41387025863873689 0 -0.1809143640989524 -0.42058316894448139 0 -0.17580056149334369 -0.41387025863873689 0 -0.1809143640989524 -0.42058316894448139 0 -0.18833648935313399 -0.41330019436680621 0 -0.1809143640989524 -0.42058316894448139 0 -0.19216471722840689 -0.42379091975650163 0 -0.18833648935313399 -0.41330019436680621 0 -0.17580056149334369 -0.41387025863873689 0 -0.1804414918109222 -0.40561666401957408 0 -0.18833648935313399 -0.41330019436680621 0 -0.1804414918109222 -0.40561666401957408 0 -0.1690874536446208 -0.39950542809394979 0 -0.1745516819979851 -0.38543806265447372 0 -0.1745516819979851 -0.38543806265447372 0 -0.19405822070969439 -0.40041884820935458 0 -0.1804414918109222 -0.40561666401957408 0 -0.1745516819979851 -0.38543806265447372 0 -0.19405822070969439 -0.40041884820935458 0 -0.16709232605278959 -0.41067403806872688 0 -0.1804414918109222 -0.40561666401957408 0 -0.1690874536446208 -0.39950542809394979 0 -0.16709232605278959 -0.41067403806872688 0 -0.1690874536446208 -0.39950542809394979 0 -0.15692361101729119 -0.403555323635717 0 -0.1690874536446208 -0.39950542809394979 0 -0.16259450941099129 -0.39213838644785037 0 -0.1745516819979851 -0.38543806265447372 0 -0.14930092164919109 -0.39137787809920532 0 -0.16259450941099129 -0.39213838644785037 0 -0.15692361101729119 -0.403555323635717 0 -0.1690874536446208 -0.39950542809394979 0 -0.16259450941099129 -0.39213838644785037 0 -0.15692361101729119 -0.403555323635717 0 -0.16259450941099129 -0.39213838644785037 0 -0.1745516819979851 -0.38543806265447372 0 -0.1645812107499795 -0.37044369774895719 0 -0.15463914349879329 -0.37955765680605358 0 -0.16259450941099129 -0.39213838644785037 0 -0.1645812107499795 -0.37044369774895719 0 -0.16259450941099129 -0.39213838644785037 0 -0.1645812107499795 -0.37044369774895719 0 -0.1745516819979851 -0.38543806265447372 0 -0.1902911931832888 -0.38513374683295448 0 -0.19405822070969439 -0.40041884820935458 0 -0.1745516819979851 -0.38543806265447372 0 -0.1902911931832888 -0.38513374683295448 0 -0.17777253165165521 -0.36955751567468348 0 -0.1745516819979851 -0.38543806265447372 0 -0.1645812107499795 -0.37044369774895719 0 -0.17777253165165521 -0.36955751567468348 0 -0.1902911931832888 -0.38513374683295448 0 -0.20546707978150411 -0.38094838108673351 0 -0.188384204354035 -0.36716854662672532 0 -0.1902911931832888 -0.38513374683295448 0 -0.19405822070969439 -0.40041884820935458 0 -0.20546707978150411 -0.38094838108673351 0 -0.19405822070969439 -0.40041884820935458 0 -0.21003632588759649 -0.40026556592311352 0 -0.2135647594214049 -0.41539963376423439 0 -0.21003632588759649 -0.40026556592311352 0 -0.20546707978150411 -0.38094838108673351 0 -0.22254995520897311 -0.39472821554674159 0 -0.19405822070969439 -0.40041884820935458 0 -0.21003632588759649 -0.40026556592311352 0 -0.20546707978150411 -0.38094838108673351 0 -0.21003632588759649 -0.40026556592311352 0 -0.22254995520897311 -0.39472821554674159 0 -0.22144596778860401 -0.40472536631021022 0 -0.20546707978150411 -0.38094838108673351 0 -0.22254995520897311 -0.39472821554674159 0 -0.20546707978150411 -0.38094838108673351 0 -0.21885125477521741 -0.37765677194968361 0 -0.22254995520897311 -0.39472821554674159 0 -0.20665296900240299 -0.43936094953474042 0 -0.19466592686267889 -0.43475201083467369 0 -0.20236251766272631 -0.42870048707859781 0 -0.18308711341371081 -0.42966329436277539 0 -0.19466592686267889 -0.43475201083467369 0 -0.19216471722840689 -0.42379091975650163 0 -0.19216471722840689 -0.42379091975650163 0 -0.20236251766272631 -0.42870048707859781 0 -0.20470552472506079 -0.41774173868766268 0 -0.19466592686267889 -0.43475201083467369 0 -0.19216471722840689 -0.42379091975650163 0 -0.20236251766272631 -0.42870048707859781 0 -0.19216471722840689 -0.42379091975650163 0 -0.18833648935313399 -0.41330019436680621 0 -0.20470552472506079 -0.41774173868766268 0 -0.19405822070969439 -0.40041884820935458 0 -0.18833648935313399 -0.41330019436680621 0 -0.20470552472506079 -0.41774173868766268 0 -0.1804414918109222 -0.40561666401957408 0 -0.19405822070969439 -0.40041884820935458 0 -0.18833648935313399 -0.41330019436680621 0 -0.19405822070969439 -0.40041884820935458 0 -0.2135647594214049 -0.41539963376423439 0 -0.19405822070969439 -0.40041884820935458 0 -0.2135647594214049 -0.41539963376423439 0 -0.20470552472506079 -0.41774173868766268 0 -0.21003632588759649 -0.40026556592311352 0 -0.2135647594214049 -0.41539963376423439 0 -0.22144596778860401 -0.40472536631021022 0 -0.2135647594214049 -0.41539963376423439 0 -0.20470552472506079 -0.41774173868766268 0 -0.2135647594214049 -0.41539963376423439 0 -0.20470552472506079 -0.41774173868766268 0 -0.21375638856774631 -0.42968277463569271 0 -0.20236251766272631 -0.42870048707859781 0 -0.20470552472506079 -0.41774173868766268 0 -0.21375638856774631 -0.42968277463569271 0 -0.2194346907730981 -0.43882938849312192 0 -0.20665296900240299 -0.43936094953474042 0 -0.21375638856774631 -0.42968277463569271 0 -0.20665296900240299 -0.43936094953474042 0 -0.20236251766272631 -0.42870048707859781 0 -0.21375638856774631 -0.42968277463569271 0 -0.2194346907730981 -0.43882938849312192 0 -0.21375638856774631 -0.42968277463569271 0 -0.2299744433966058 -0.43663455919964961 0 -0.21375638856774631 -0.42968277463569271 0 -0.2299744433966058 -0.43663455919964961 0 -0.2135647594214049 -0.41539963376423439 0 -0.21375638856774631 -0.42968277463569271 0 -0.2344890091948581 -0.43146920424957858 0 -0.2135647594214049 -0.41539963376423439 0 -0.2392516088024223 -0.42047939132705731 0 -0.2344890091948581 -0.43146920424957858 0 -0.2135647594214049 -0.41539963376423439 0 -0.2344890091948581 -0.43146920424957858 0 -0.21375638856774631 -0.42968277463569271 0 -0.2299744433966058 -0.43663455919964961 0 -0.2344890091948581 -0.43146920424957858 0 -0.2135647594214049 -0.41539963376423439 0 -0.23963283063644131 -0.40850805000675111 0 -0.2392516088024223 -0.42047939132705731 0 -0.2135647594214049 -0.41539963376423439 0 -0.23963283063644131 -0.40850805000675111 0 -0.2135647594214049 -0.41539963376423439 0 -0.23963283063644131 -0.40850805000675111 0 -0.22144596778860401 -0.40472536631021022 0 -0.25690768733536362 -0.42244274540637439 0 -0.23963283063644131 -0.40850805000675111 0 -0.25107417819920053 -0.42239907774736918 0 -0.25690768733536362 -0.42244274540637439 0 -0.23963283063644131 -0.40850805000675111 0 -0.25107417819920053 -0.42239907774736918 0 -0.23963283063644131 -0.40850805000675111 0 -0.2392516088024223 -0.42047939132705731 0 -0.24619249822546571 -0.44358634376360562 0 -0.2299744433966058 -0.43663455919964961 0 -0.2344890091948581 -0.43146920424957858 0 -0.25107417819920053 -0.42239907774736918 0 -0.25389784775590313 -0.43485602435084841 0 -0.2344890091948581 -0.43146920424957858 0 -0.25107417819920053 -0.42239907774736918 0 -0.2392516088024223 -0.42047939132705731 0 -0.2344890091948581 -0.43146920424957858 0 -0.2301649338686764 -0.38316483690977149 0 -0.21885125477521741 -0.37765677194968361 0 -0.22254995520897311 -0.39472821554674159 0 -0.2301649338686764 -0.38316483690977149 0 -0.2424843067608366 -0.37974243096664217 0 -0.22833480147926019 -0.36878991790737148 0 -0.2301649338686764 -0.38316483690977149 0 -0.21885125477521741 -0.37765677194968361 0 -0.22833480147926019 -0.36878991790737148 0 -0.23963283063644131 -0.40850805000675111 0 -0.22254995520897311 -0.39472821554674159 0 -0.23855445867667421 -0.39497373890637372 0 -0.23963283063644131 -0.40850805000675111 0 -0.22254995520897311 -0.39472821554674159 0 -0.23963283063644131 -0.40850805000675111 0 -0.22254995520897311 -0.39472821554674159 0 -0.22144596778860401 -0.40472536631021022 0 -0.2301649338686764 -0.38316483690977149 0 -0.22254995520897311 -0.39472821554674159 0 -0.23855445867667421 -0.39497373890637372 0 -0.25683670818194188 -0.40395988217030993 0 -0.23963283063644131 -0.40850805000675111 0 -0.25683670818194188 -0.40395988217030993 0 -0.25213462016759353 -0.38939159419676339 0 -0.23855445867667421 -0.39497373890637372 0 -0.25683670818194188 -0.40395988217030993 0 -0.23855445867667421 -0.39497373890637372 0 -0.25683670818194188 -0.40395988217030993 0 -0.23963283063644131 -0.40850805000675111 0 -0.23855445867667421 -0.39497373890637372 0 -0.25213462016759353 -0.38939159419676339 0 -0.23855445867667421 -0.39497373890637372 0 -0.2424843067608366 -0.37974243096664217 0 -0.2301649338686764 -0.38316483690977149 0 -0.23855445867667421 -0.39497373890637372 0 -0.2424843067608366 -0.37974243096664217 0 -0.2424843067608366 -0.37974243096664217 0 -0.24630243871924559 -0.36205139153478738 0 -0.22833480147926019 -0.36878991790737148 0 -0.25821379615068463 -0.37605829592724382 0 -0.2424843067608366 -0.37974243096664217 0 -0.24630243871924559 -0.36205139153478738 0 -0.22833480147926019 -0.36878991790737148 0 -0.22263129308526231 -0.34667678055064888 0 -0.20773950353767301 -0.36065250829779988 0 -0.24630243871924559 -0.36205139153478738 0 -0.22833480147926019 -0.36878991790737148 0 -0.22263129308526231 -0.34667678055064888 0 -0.24630243871924559 -0.36205139153478738 0 -0.22263129308526231 -0.34667678055064888 0 -0.24542841783316471 -0.336473339357658 0 -0.24542841783316471 -0.336473339357658 0 -0.22734057355162629 -0.31871307279135391 0 -0.24542841783316471 -0.336473339357658 0 -0.22734057355162629 -0.31871307279135391 0 -0.24747303332317511 -0.30996554385585889 0 -0.22263129308526231 -0.34667678055064888 0 -0.24542841783316471 -0.336473339357658 0 -0.22734057355162629 -0.31871307279135391 0 -0.22263129308526231 -0.34667678055064888 0 -0.22734057355162629 -0.31871307279135391 0 -0.21305786349691341 -0.33057654920317991 0 -0.21305786349691341 -0.33057654920317991 0 -0.20082957199103549 -0.31830316223260902 0 -0.19559295325660861 -0.33686555045091082 0 -0.22263129308526231 -0.34667678055064888 0 -0.19559295325660861 -0.33686555045091082 0 -0.22263129308526231 -0.34667678055064888 0 -0.21305786349691341 -0.33057654920317991 0 -0.19559295325660861 -0.33686555045091082 0 -0.22734057355162629 -0.31871307279135391 0 -0.21305786349691341 -0.33057654920317991 0 -0.20082957199103549 -0.31830316223260902 0 -0.22734057355162629 -0.31871307279135391 0 -0.20082957199103549 -0.31830316223260902 0 -0.20925272927008801 -0.30095280622504961 0 -0.20082957199103549 -0.31830316223260902 0 -0.18899670418075201 -0.30536816162016289 0 -0.1848718756618852 -0.31893038587272837 0 -0.20082957199103549 -0.31830316223260902 0 -0.19559295325660861 -0.33686555045091082 0 -0.1848718756618852 -0.31893038587272837 0 -0.19559295325660861 -0.33686555045091082 0 -0.20773950353767301 -0.36065250829779988 0 -0.18398227996728719 -0.35224194235182971 0 -0.188384204354035 -0.36716854662672532 0 -0.20773950353767301 -0.36065250829779988 0 -0.18398227996728719 -0.35224194235182971 0 -0.20546707978150411 -0.38094838108673351 0 -0.188384204354035 -0.36716854662672532 0 -0.20546707978150411 -0.38094838108673351 0 -0.188384204354035 -0.36716854662672532 0 -0.20773950353767301 -0.36065250829779988 0 -0.21885125477521741 -0.37765677194968361 0 -0.22833480147926019 -0.36878991790737148 0 -0.20773950353767301 -0.36065250829779988 0 -0.20546707978150411 -0.38094838108673351 0 -0.21885125477521741 -0.37765677194968361 0 -0.20773950353767301 -0.36065250829779988 0 -0.22263129308526231 -0.34667678055064888 0 -0.19559295325660861 -0.33686555045091082 0 -0.20773950353767301 -0.36065250829779988 0 -0.22594205141076409 -0.25909075745192978 0 -0.23705785292516399 -0.25892742240092292 0 -0.23700924490415251 -0.26626320932094438 0 -0.22594205141076409 -0.25909075745192978 0 -0.23700924490415251 -0.26626320932094438 0 -0.22179836293773841 -0.2682208190818377 0 -0.22594205141076409 -0.25909075745192978 0 -0.23705785292516399 -0.25892742240092292 0 -0.24529662185020609 -0.24800308606113189 0 -0.22594205141076409 -0.25909075745192978 0 -0.24529662185020609 -0.24800308606113189 0 -0.25105164704398369 -0.25406639741667619 0 -0.2469913533248437 -0.26105532489032163 0 -0.24529662185020609 -0.24800308606113189 0 -0.2469913533248437 -0.26105532489032163 0 -0.23705785292516399 -0.25892742240092292 0 -0.24529662185020609 -0.24800308606113189 0 -0.2469913533248437 -0.26105532489032163 0 -0.24529662185020609 -0.24800308606113189 0 -0.2474923788552765 -0.26491405117266731 0 -0.2469913533248437 -0.26105532489032163 0 -0.23700924490415251 -0.26626320932094438 0 -0.2474923788552765 -0.26491405117266731 0 -0.23700924490415251 -0.26626320932094438 0 -0.25388734026545601 -0.2613223404218053 0 -0.24859083492894701 -0.26280953494247072 0 -0.2469913533248437 -0.26105532489032163 0 -0.25164316424336208 -0.26437985348386628 0 -0.2474923788552765 -0.26491405117266731 0 -0.25164316424336208 -0.26437985348386628 0 -0.2474923788552765 -0.26491405117266731 0 -0.24859083492894701 -0.26280953494247072 0 -0.2474923788552765 -0.26491405117266731 0 -0.2469913533248437 -0.26105532489032163 0 -0.2474923788552765 -0.26491405117266731 0 -0.24859083492894701 -0.26280953494247072 0 -0.2469913533248437 -0.26105532489032163 0 -0.2469913533248437 -0.26105532489032163 0 -0.23700924490415251 -0.26626320932094438 0 -0.2469913533248437 -0.26105532489032163 0 -0.23705785292516399 -0.25892742240092292 0 -0.2469913533248437 -0.26105532489032163 0 -0.23705785292516399 -0.25892742240092292 0 -0.23700924490415251 -0.26626320932094438 0 -0.23700924490415251 -0.26626320932094438 0 -0.24173201830643459 -0.27071309263997673 0 -0.23363576529586871 -0.27639342367215491 0 -0.2474923788552765 -0.26491405117266731 0 -0.23700924490415251 -0.26626320932094438 0 -0.24173201830643459 -0.27071309263997673 0 -0.2480573476132158 -0.26926524619677639 0 -0.24224687887629839 -0.27718155217497398 0 -0.24173201830643459 -0.27071309263997673 0 -0.2480573476132158 -0.26926524619677639 0 -0.24224687887629839 -0.27718155217497398 0 -0.2474923788552765 -0.26491405117266731 0 -0.24173201830643459 -0.27071309263997673 0 -0.2480573476132158 -0.26926524619677639 0 -0.25164316424336208 -0.26437985348386628 0 -0.2474923788552765 -0.26491405117266731 0 -0.2480573476132158 -0.26926524619677639 0 -0.25164316424336208 -0.26437985348386628 0 -0.2480573476132158 -0.26926524619677639 0 -0.2474923788552765 -0.26491405117266731 0 -0.2480573476132158 -0.26926524619677639 0 -0.25004096594495628 -0.28454239222215422 0 -0.2480573476132158 -0.26926524619677639 0 -0.25004096594495628 -0.28454239222215422 0 -0.2480573476132158 -0.26926524619677639 0 -0.24224687887629839 -0.27718155217497398 0 -0.24173201830643459 -0.27071309263997673 0 -0.24224687887629839 -0.27718155217497398 0 -0.23363576529586871 -0.27639342367215491 0 -0.24224687887629839 -0.27718155217497398 0 -0.23363576529586871 -0.27639342367215491 0 -0.23652190437444509 -0.28544768637249768 0 -0.23363576529586871 -0.27639342367215491 0 -0.22009752998987209 -0.27508642112003179 0 -0.22608846826586321 -0.28410608524836639 0 -0.23700924490415251 -0.26626320932094438 0 -0.23363576529586871 -0.27639342367215491 0 -0.22009752998987209 -0.27508642112003179 0 -0.23700924490415251 -0.26626320932094438 0 -0.22179836293773841 -0.2682208190818377 0 -0.22009752998987209 -0.27508642112003179 0 -0.23700924490415251 -0.26626320932094438 0 -0.22009752998987209 -0.27508642112003179 0 -0.23700924490415251 -0.26626320932094438 0 -0.22179836293773841 -0.2682208190818377 0 -0.22009752998987209 -0.27508642112003179 0 -0.22608846826586321 -0.28410608524836639 0 -0.21645627895250391 -0.28872632767128009 0 -0.22608846826586321 -0.28410608524836639 0 -0.22919035252044689 -0.29670385274593741 0 -0.21645627895250391 -0.28872632767128009 0 -0.23363576529586871 -0.27639342367215491 0 -0.22608846826586321 -0.28410608524836639 0 -0.23652190437444509 -0.28544768637249768 0 -0.22608846826586321 -0.28410608524836639 0 -0.22919035252044689 -0.29670385274593741 0 -0.23652190437444509 -0.28544768637249768 0 -0.25004096594495628 -0.28454239222215422 0 -0.24224687887629839 -0.27718155217497398 0 -0.23652190437444509 -0.28544768637249768 0 -0.25004096594495628 -0.28454239222215422 0 -0.23652190437444509 -0.28544768637249768 0 -0.24402504585694401 -0.29454115716951529 0 -0.22919035252044689 -0.29670385274593741 0 -0.23652190437444509 -0.28544768637249768 0 -0.24402504585694401 -0.29454115716951529 0 -0.22919035252044689 -0.29670385274593741 0 -0.24402504585694401 -0.29454115716951529 0 -0.24747303332317511 -0.30996554385585889 0 -0.22734057355162629 -0.31871307279135391 0 -0.22919035252044689 -0.29670385274593741 0 -0.24747303332317511 -0.30996554385585889 0 -0.25689897312169663 -0.29604631065112869 0 -0.24402504585694401 -0.29454115716951529 0 -0.24747303332317511 -0.30996554385585889 0 -0.22734057355162629 -0.31871307279135391 0 -0.22919035252044689 -0.29670385274593741 0 -0.20925272927008801 -0.30095280622504961 0 -0.22734057355162629 -0.31871307279135391 0 -0.20925272927008801 -0.30095280622504961 0 -0.20082957199103549 -0.31830316223260902 0 -0.20925272927008801 -0.30095280622504961 0 -0.18899670418075201 -0.30536816162016289 0 -0.20925272927008801 -0.30095280622504961 0 -0.18899670418075201 -0.30536816162016289 0 -0.19206204666426049 -0.29330470512191392 0 -0.20925272927008801 -0.30095280622504961 0 -0.19206204666426049 -0.29330470512191392 0 -0.20318581507559191 -0.28390963291911958 0 -0.19206204666426049 -0.29330470512191392 0 -0.20318581507559191 -0.28390963291911958 0 -0.18046065100693509 -0.2851457310639281 0 -0.22009752998987209 -0.27508642112003179 0 -0.20318581507559191 -0.28390963291911958 0 -0.21645627895250391 -0.28872632767128009 0 -0.20925272927008801 -0.30095280622504961 0 -0.20318581507559191 -0.28390963291911958 0 -0.21645627895250391 -0.28872632767128009 0 -0.22919035252044689 -0.29670385274593741 0 -0.20925272927008801 -0.30095280622504961 0 -0.21645627895250391 -0.28872632767128009 0 -0.22009752998987209 -0.27508642112003179 0 -0.20318581507559191 -0.28390963291911958 0 -0.22009752998987209 -0.27508642112003179 0 -0.20318581507559191 -0.28390963291911958 0 -0.20658748097132421 -0.27017842884273141 0 -0.22594205141076409 -0.25909075745192978 0 -0.22179836293773841 -0.2682208190818377 0 -0.20658748097132421 -0.27017842884273141 0 -0.22179836293773841 -0.2682208190818377 0 -0.20658748097132421 -0.27017842884273141 0 -0.22179836293773841 -0.2682208190818377 0 -0.22009752998987209 -0.27508642112003179 0 -0.20658748097132421 -0.27017842884273141 0 -0.20658748097132421 -0.27017842884273141 0 -0.18400190477403319 -0.27308514684348978 0 -0.20658748097132421 -0.27017842884273141 0 -0.19456467773217581 -0.26214725406788719 0 -0.18400190477403319 -0.27308514684348978 0 -0.20318581507559191 -0.28390963291911958 0 -0.20658748097132421 -0.27017842884273141 0 -0.18046065100693509 -0.2851457310639281 0 -0.20658748097132421 -0.27017842884273141 0 -0.18400190477403319 -0.27308514684348978 0 -0.18046065100693509 -0.2851457310639281 0 -0.20658748097132421 -0.27017842884273141 0 -0.18046065100693509 -0.2851457310639281 0 -0.20658748097132421 -0.27017842884273141 0 -0.19456467773217581 -0.26214725406788719 0 -0.2061036536383313 -0.2545790306017891 0 -0.19456467773217581 -0.26214725406788719 0 -0.19311314254712919 -0.25232173563348459 0 -0.18196120209849609 -0.26010280978110428 0 -0.19456467773217581 -0.26214725406788719 0 -0.19311314254712919 -0.25232173563348459 0 -0.2061036536383313 -0.2545790306017891 0 -0.22594205141076409 -0.25909075745192978 0 -0.20658748097132421 -0.27017842884273141 0 -0.22594205141076409 -0.25909075745192978 0 -0.2061036536383313 -0.2545790306017891 0 -0.21331627539138501 -0.240919888355382 0 -0.22594205141076409 -0.25909075745192978 0 -0.20658748097132421 -0.27017842884273141 0 -0.2061036536383313 -0.2545790306017891 0 -0.17072838630347209 -0.25267455159468022 0 -0.18196120209849609 -0.26010280978110428 0 -0.1614163285767421 -0.27599186484424931 0 -0.17072838630347209 -0.25267455159468022 0 -0.1614163285767421 -0.27599186484424931 0 -0.14210774621310221 -0.2585177989733945 0 -0.19311314254712919 -0.25232173563348459 0 -0.18196120209849609 -0.26010280978110428 0 -0.18433619587835781 -0.24326141651095701 0 -0.17072838630347209 -0.25267455159468022 0 -0.18196120209849609 -0.26010280978110428 0 -0.18433619587835781 -0.24326141651095701 0 -0.19456467773217581 -0.26214725406788719 0 -0.18196120209849609 -0.26010280978110428 0 -0.18400190477403319 -0.27308514684348978 0 -0.18400190477403319 -0.27308514684348978 0 -0.1614163285767421 -0.27599186484424931 0 -0.18400190477403319 -0.27308514684348978 0 -0.1614163285767421 -0.27599186484424931 0 -0.18046065100693509 -0.2851457310639281 0 -0.18196120209849609 -0.26010280978110428 0 -0.18400190477403319 -0.27308514684348978 0 -0.1614163285767421 -0.27599186484424931 0 -0.1614163285767421 -0.27599186484424931 0 -0.16622140518700629 -0.29187618574762791 0 -0.18046065100693509 -0.2851457310639281 0 -0.1614163285767421 -0.27599186484424931 0 -0.16622140518700629 -0.29187618574762791 0 -0.1489022853584574 -0.29764600197081581 0 -0.19206204666426049 -0.29330470512191392 0 -0.18046065100693509 -0.2851457310639281 0 -0.1789654343861406 -0.2969746212965792 0 -0.16622140518700629 -0.29187618574762791 0 -0.18046065100693509 -0.2851457310639281 0 -0.1789654343861406 -0.2969746212965792 0 -0.18899670418075201 -0.30536816162016289 0 -0.17038553545307461 -0.3070607347087882 0 -0.1848718756618852 -0.31893038587272837 0 -0.18899670418075201 -0.30536816162016289 0 -0.1789654343861406 -0.2969746212965792 0 -0.17038553545307461 -0.3070607347087882 0 -0.18899670418075201 -0.30536816162016289 0 -0.19206204666426049 -0.29330470512191392 0 -0.1789654343861406 -0.2969746212965792 0 -0.16622140518700629 -0.29187618574762791 0 -0.17038553545307461 -0.3070607347087882 0 -0.1489022853584574 -0.29764600197081581 0 -0.17038553545307461 -0.3070607347087882 0 -0.1489022853584574 -0.29764600197081581 0 -0.14976381220797291 -0.32023582203744472 0 -0.16622140518700629 -0.29187618574762791 0 -0.1789654343861406 -0.2969746212965792 0 -0.17038553545307461 -0.3070607347087882 0 -0.1489022853584574 -0.29764600197081581 0 -0.14976381220797291 -0.32023582203744472 0 -0.130973010987991 -0.31341732372371672 0 -0.1489022853584574 -0.29764600197081581 0 -0.130973010987991 -0.31341732372371672 0 -0.12110058664470449 -0.29153557823393628 0 -0.1415730350965661 -0.27901761801656549 0 -0.12546363293652599 -0.27397563102871902 0 -0.12110058664470449 -0.29153557823393628 0 -0.1489022853584574 -0.29764600197081581 0 -0.1415730350965661 -0.27901761801656549 0 -0.12110058664470449 -0.29153557823393628 0 -0.1614163285767421 -0.27599186484424931 0 -0.1489022853584574 -0.29764600197081581 0 -0.1415730350965661 -0.27901761801656549 0 -0.1614163285767421 -0.27599186484424931 0 -0.1415730350965661 -0.27901761801656549 0 -0.14210774621310221 -0.2585177989733945 0 -0.1415730350965661 -0.27901761801656549 0 -0.12546363293652599 -0.27397563102871902 0 -0.14210774621310221 -0.2585177989733945 0 -0.14210774621310221 -0.2585177989733945 0 -0.1190216414505445 -0.25916129566749718 0 -0.1234847116318686 -0.23681649950817571 0 -0.12546363293652599 -0.27397563102871902 0 -0.14210774621310221 -0.2585177989733945 0 -0.1190216414505445 -0.25916129566749718 0 -0.16656791208896771 -0.34874900905006412 0 -0.1645812107499795 -0.37044369774895719 0 -0.16656791208896771 -0.34874900905006412 0 -0.1645812107499795 -0.37044369774895719 0 -0.15112225743131449 -0.3623570130572335 0 -0.16656791208896771 -0.34874900905006412 0 -0.1645812107499795 -0.37044369774895719 0 -0.17777253165165521 -0.36955751567468348 0 -0.15463914349879329 -0.37955765680605358 0 -0.1645812107499795 -0.37044369774895719 0 -0.15112225743131449 -0.3623570130572335 0 -0.1902911931832888 -0.38513374683295448 0 -0.188384204354035 -0.36716854662672532 0 -0.17777253165165521 -0.36955751567468348 0 -0.188384204354035 -0.36716854662672532 0 -0.17777253165165521 -0.36955751567468348 0 -0.18398227996728719 -0.35224194235182971 0 -0.16656791208896771 -0.34874900905006412 0 -0.17777253165165521 -0.36955751567468348 0 -0.18398227996728719 -0.35224194235182971 0 -0.16656791208896771 -0.34874900905006412 0 -0.18398227996728719 -0.35224194235182971 0 -0.16855461342795541 -0.32705432035117088 0 -0.19559295325660861 -0.33686555045091082 0 -0.16855461342795541 -0.32705432035117088 0 -0.19559295325660861 -0.33686555045091082 0 -0.18398227996728719 -0.35224194235182971 0 -0.16855461342795541 -0.32705432035117088 0 -0.17038553545307461 -0.3070607347087882 0 -0.1848718756618852 -0.31893038587272837 0 -0.16855461342795541 -0.32705432035117088 0 -0.19559295325660861 -0.33686555045091082 0 -0.1848718756618852 -0.31893038587272837 0 -0.16855461342795541 -0.32705432035117088 0 -0.17038553545307461 -0.3070607347087882 0 -0.16855461342795541 -0.32705432035117088 0 -0.14976381220797291 -0.32023582203744472 0 -0.17038553545307461 -0.3070607347087882 0 -0.16855461342795541 -0.32705432035117088 0 -0.16855461342795541 -0.32705432035117088 0 -0.14976381220797291 -0.32023582203744472 0 -0.16656791208896771 -0.34874900905006412 0 -0.16855461342795541 -0.32705432035117088 0 -0.16855461342795541 -0.32705432035117088 0 -0.15075951521869951 -0.34021209941271618 0 -0.14976381220797291 -0.32023582203744472 0 -0.16656791208896771 -0.34874900905006412 0 -0.16855461342795541 -0.32705432035117088 0 -0.15075951521869951 -0.34021209941271618 0 -0.15075951521869951 -0.34021209941271618 0 -0.14976381220797291 -0.32023582203744472 0 -0.1314295291486158 -0.33562631948928479 0 -0.14976381220797291 -0.32023582203744472 0 -0.130973010987991 -0.31341732372371672 0 -0.1314295291486158 -0.33562631948928479 0 -0.14976381220797291 -0.32023582203744472 0 -0.130973010987991 -0.31341732372371672 0 -0.15075951521869951 -0.34021209941271618 0 -0.1314295291486158 -0.33562631948928479 0 -0.13189474248665009 -0.35813258110661572 0 -0.1314295291486158 -0.33562631948928479 0 -0.13189474248665009 -0.35813258110661572 0 -0.11315441532947509 -0.3521667117234879 0 -0.16656791208896771 -0.34874900905006412 0 -0.15075951521869951 -0.34021209941271618 0 -0.15112225743131449 -0.3623570130572335 0 -0.15075951521869951 -0.34021209941271618 0 -0.13189474248665009 -0.35813258110661572 0 -0.15112225743131449 -0.3623570130572335 0 -0.1428118710121411 -0.3793884711109255 0 -0.13189474248665009 -0.35813258110661572 0 -0.15112225743131449 -0.3623570130572335 0 -0.15463914349879329 -0.37955765680605358 0 -0.1428118710121411 -0.3793884711109255 0 -0.15112225743131449 -0.3623570130572335 0 -0.1428118710121411 -0.3793884711109255 0 -0.12634844977110091 -0.37919111576772918 0 -0.13189474248665009 -0.35813258110661572 0 -0.12634844977110091 -0.37919111576772918 0 -0.13189474248665009 -0.35813258110661572 0 -0.1128536337482762 -0.37056275964886942 0 -0.13189474248665009 -0.35813258110661572 0 -0.1128536337482762 -0.37056275964886942 0 -0.11315441532947509 -0.3521667117234879 0 -0.1128536337482762 -0.37056275964886942 0 -0.11315441532947509 -0.3521667117234879 0 -0.088859511034097879 -0.35849258932518641 0 -0.1128536337482762 -0.37056275964886942 0 -0.088859511034097879 -0.35849258932518641 0 -0.09840371342823695 -0.385899828276697 0 -0.11315441532947509 -0.3521667117234879 0 -0.10667677027167891 -0.33186765983170458 0 -0.088859511034097879 -0.35849258932518641 0 -0.1314295291486158 -0.33562631948928479 0 -0.11315441532947509 -0.3521667117234879 0 -0.10667677027167891 -0.33186765983170458 0 -0.130973010987991 -0.31341732372371672 0 -0.10667677027167891 -0.33186765983170458 0 -0.1068501050600932 -0.31055633741095628 0 -0.130973010987991 -0.31341732372371672 0 -0.1314295291486158 -0.33562631948928479 0 -0.10667677027167891 -0.33186765983170458 0 -0.10667677027167891 -0.33186765983170458 0 -0.089109189328625035 -0.31416004082734311 0 -0.1068501050600932 -0.31055633741095628 0 -0.10667677027167891 -0.33186765983170458 0 -0.079315308639958795 -0.3310853503736757 0 -0.088859511034097879 -0.35849258932518641 0 -0.079315308639958795 -0.3310853503736757 0 -0.089109189328625035 -0.31416004082734311 0 -0.072370437588373249 -0.30997249710884223 0 -0.10667677027167891 -0.33186765983170458 0 -0.079315308639958795 -0.3310853503736757 0 -0.089109189328625035 -0.31416004082734311 0 -0.079315308639958795 -0.3310853503736757 0 -0.072370437588373249 -0.30997249710884223 0 -0.057762608587515307 -0.32600877188069127 0 -0.079315308639958795 -0.3310853503736757 0 -0.070304949343713535 -0.35240761587485631 0 -0.057762608587515307 -0.32600877188069127 0 -0.070304949343713535 -0.35240761587485631 0 -0.066353798881262777 -0.37330397927180958 0 -0.083966483399473643 -0.37556195994057051 0 -0.088859511034097879 -0.35849258932518641 0 -0.09840371342823695 -0.385899828276697 0 -0.083966483399473643 -0.37556195994057051 0 -0.088859511034097879 -0.35849258932518641 0 -0.09840371342823695 -0.385899828276697 0 -0.070304949343713535 -0.35240761587485631 0 -0.088859511034097879 -0.35849258932518641 0 -0.083966483399473643 -0.37556195994057051 0 -0.079315308639958795 -0.3310853503736757 0 -0.070304949343713535 -0.35240761587485631 0 -0.088859511034097879 -0.35849258932518641 0 -0.079315308639958795 -0.3310853503736757 0 -0.088859511034097879 -0.35849258932518641 0 -0.098712312536955171 -0.25311690173674462 0 -0.1053398039342705 -0.27337964709045232 0 -0.087528608871283359 -0.26885048696161162 0 -0.098712312536955171 -0.25311690173674462 0 -0.1190216414505445 -0.25916129566749718 0 -0.1053398039342705 -0.27337964709045232 0 -0.12546363293652599 -0.27397563102871902 0 -0.1053398039342705 -0.27337964709045232 0 -0.12110058664470449 -0.29153557823393628 0 -0.12546363293652599 -0.27397563102871902 0 -0.1190216414505445 -0.25916129566749718 0 -0.1053398039342705 -0.27337964709045232 0 -0.1053398039342705 -0.27337964709045232 0 -0.088627593657082906 -0.29205304187817038 0 -0.087528608871283359 -0.26885048696161162 0 -0.12110058664470449 -0.29153557823393628 0 -0.1068501050600932 -0.31055633741095628 0 -0.088627593657082906 -0.29205304187817038 0 -0.1053398039342705 -0.27337964709045232 0 -0.12110058664470449 -0.29153557823393628 0 -0.088627593657082906 -0.29205304187817038 0 -0.130973010987991 -0.31341732372371672 0 -0.12110058664470449 -0.29153557823393628 0 -0.1068501050600932 -0.31055633741095628 0 -0.089109189328625035 -0.31416004082734311 0 -0.1068501050600932 -0.31055633741095628 0 -0.088627593657082906 -0.29205304187817038 0 -0.089109189328625035 -0.31416004082734311 0 -0.072370437588373249 -0.30997249710884223 0 -0.088627593657082906 -0.29205304187817038 0 -0.072370437588373249 -0.30997249710884223 0 -0.06602385550457382 -0.29141272404625251 0 -0.088627593657082906 -0.29205304187817038 0 -0.072370437588373249 -0.30997249710884223 0 -0.06602385550457382 -0.29141272404625251 0 -0.056570274277969602 -0.30237088481819591 0 -0.06602385550457382 -0.29141272404625251 0 -0.088627593657082906 -0.29205304187817038 0 -0.070376129718385666 -0.27450171280308361 0 -0.06602385550457382 -0.29141272404625251 0 -0.070376129718385666 -0.27450171280308361 0 -0.057369926604562048 -0.28273428195774553 0 -0.088627593657082906 -0.29205304187817038 0 -0.087528608871283359 -0.26885048696161162 0 -0.070376129718385666 -0.27450171280308361 0 -0.087528608871283359 -0.26885048696161162 0 -0.070376129718385666 -0.27450171280308361 0 -0.074587204509722504 -0.25120113129960742 0 -0.070376129718385666 -0.27450171280308361 0 -0.074587204509722504 -0.25120113129960742 0 -0.050902551452052087 -0.26736662009328432 0 -0.098712312536955171 -0.25311690173674462 0 -0.087528608871283359 -0.26885048696161162 0 -0.074587204509722504 -0.25120113129960742 0 -0.032549413998237353 -0.25471329752969468 0 -0.050902551452052087 -0.26736662009328432 0 -0.052709625368028062 -0.24475884000504461 0 -0.032549413998237353 -0.25471329752969468 0 -0.050902551452052087 -0.26736662009328432 0 -0.029209165937952569 -0.26847295026467699 0 -0.074587204509722504 -0.25120113129960742 0 -0.050902551452052087 -0.26736662009328432 0 -0.052709625368028062 -0.24475884000504461 0 -0.050902551452052087 -0.26736662009328432 0 -0.052709625368028062 -0.24475884000504461 0 -0.050902551452052087 -0.26736662009328432 0 -0.049095477536077042 -0.28997440018152409 0 -0.070376129718385666 -0.27450171280308361 0 -0.050902551452052087 -0.26736662009328432 0 -0.057369926604562048 -0.28273428195774553 0 -0.050902551452052087 -0.26736662009328432 0 -0.057369926604562048 -0.28273428195774553 0 -0.049095477536077042 -0.28997440018152409 0 -0.050902551452052087 -0.26736662009328432 0 -0.039812834908510647 -0.27785631345994849 0 -0.049095477536077042 -0.28997440018152409 0 -0.050902551452052087 -0.26736662009328432 0 -0.039812834908510647 -0.27785631345994849 0 -0.029209165937952569 -0.26847295026467699 0 -0.039812834908510647 -0.27785631345994849 0 -0.025174889408446231 -0.28218598220938762 0 -0.029209165937952569 -0.26847295026467699 0 -0.039812834908510647 -0.27785631345994849 0 -0.049095477536077042 -0.28997440018152409 0 -0.025174889408446231 -0.28218598220938762 0 -0.049095477536077042 -0.28997440018152409 0 -0.034208810107178238 -0.30250002927988939 0 -0.025174889408446231 -0.28218598220938762 0 -0.049095477536077042 -0.28997440018152409 0 -0.025174889408446231 -0.28218598220938762 0 -0.06602385550457382 -0.29141272404625251 0 -0.049095477536077042 -0.28997440018152409 0 -0.056570274277969602 -0.30237088481819591 0 -0.06602385550457382 -0.29141272404625251 0 -0.057369926604562048 -0.28273428195774553 0 -0.049095477536077042 -0.28997440018152409 0 -0.049095477536077042 -0.28997440018152409 0 -0.047325939490032887 -0.31211257983706558 0 -0.056570274277969602 -0.30237088481819591 0 -0.049095477536077042 -0.28997440018152409 0 -0.047325939490032887 -0.31211257983706558 0 -0.049095477536077042 -0.28997440018152409 0 -0.047325939490032887 -0.31211257983706558 0 -0.034208810107178238 -0.30250002927988939 0 -0.034208810107178238 -0.30250002927988939 0 -0.018394970837694691 -0.30352908403669049 0 -0.031052773263640379 -0.32469810013477968 0 -0.018394970837694691 -0.30352908403669049 0 -0.003644792104612295 -0.30332558072780258 0 -0.012138033302980611 -0.31920249897911551 0 -0.018394970837694691 -0.30352908403669049 0 -0.003644792104612295 -0.30332558072780258 0 -0.0098531833721392809 -0.29053880084694439 0 -0.0098531833721392809 -0.29053880084694439 0 -0.0012543012808153319 -0.27439756423725131 0 0.0028597103056559152 -0.29037927018753767 0 -0.0098531833721392809 -0.29053880084694439 0 -0.025174889408446231 -0.28218598220938762 0 -0.0012543012808153319 -0.27439756423725131 0 -0.003644792104612295 -0.30332558072780258 0 -0.0098531833721392809 -0.29053880084694439 0 0.0028597103056559152 -0.29037927018753767 0 -0.018394970837694691 -0.30352908403669049 0 -0.0098531833721392809 -0.29053880084694439 0 -0.025174889408446231 -0.28218598220938762 0 -0.034208810107178238 -0.30250002927988939 0 -0.018394970837694691 -0.30352908403669049 0 -0.025174889408446231 -0.28218598220938762 0 -0.025174889408446231 -0.28218598220938762 0 -0.029209165937952569 -0.26847295026467699 0 -0.01656861759038853 -0.2667105077586055 0 -0.01656861759038853 -0.2667105077586055 0 -0.0012543012808153319 -0.27439756423725131 0 -0.008221464826988106 -0.25745829618483229 0 -0.025174889408446231 -0.28218598220938762 0 -0.0012543012808153319 -0.27439756423725131 0 -0.025174889408446231 -0.28218598220938762 0 -0.01656861759038853 -0.2667105077586055 0 -0.0012543012808153319 -0.27439756423725131 0 -0.01656861759038853 -0.2667105077586055 0 -0.008221464826988106 -0.25745829618483229 0 -0.02021848155134303 -0.25554247062537899 0 -0.0012543012808153319 -0.27439756423725131 0 -0.008221464826988106 -0.25745829618483229 0 0.004897229345786373 -0.25506191711222109 0 -0.008221464826988106 -0.25745829618483229 0 -0.01247735014896041 -0.24501502556364771 0 0.004897229345786373 -0.25506191711222109 0 -0.008221464826988106 -0.25745829618483229 0 -0.02021848155134303 -0.25554247062537899 0 -0.01247735014896041 -0.24501502556364771 0 -0.029209165937952569 -0.26847295026467699 0 -0.01656861759038853 -0.2667105077586055 0 -0.02021848155134303 -0.25554247062537899 0 -0.032549413998237353 -0.25471329752969468 0 -0.029209165937952569 -0.26847295026467699 0 -0.02021848155134303 -0.25554247062537899 0 -0.032549413998237353 -0.25471329752969468 0 -0.02021848155134303 -0.25554247062537899 0 -0.023225334532777159 -0.2428505806951807 0 -0.048703286072451578 -0.34900103970329471 0 -0.022750394211972981 -0.36293727687331029 0 -0.037102698913385343 -0.37916115429532199 0 -0.066353798881262777 -0.37330397927180958 0 -0.048703286072451578 -0.34900103970329471 0 -0.066353798881262777 -0.37330397927180958 0 -0.048703286072451578 -0.34900103970329471 0 -0.037102698913385343 -0.37916115429532199 0 -0.070304949343713535 -0.35240761587485631 0 -0.066353798881262777 -0.37330397927180958 0 -0.048703286072451578 -0.34900103970329471 0 -0.070304949343713535 -0.35240761587485631 0 -0.048703286072451578 -0.34900103970329471 0 -0.057762608587515307 -0.32600877188069127 0 -0.048703286072451578 -0.34900103970329471 0 -0.016033861776168161 -0.3412321337165985 0 -0.031052773263640379 -0.32469810013477968 0 -0.072370437588373249 -0.30997249710884223 0 -0.056570274277969602 -0.30237088481819591 0 -0.057762608587515307 -0.32600877188069127 0 -0.047325939490032887 -0.31211257983706558 0 -0.056570274277969602 -0.30237088481819591 0 -0.057762608587515307 -0.32600877188069127 0 -0.047325939490032887 -0.31211257983706558 0 -0.057762608587515307 -0.32600877188069127 0 -0.031052773263640379 -0.32469810013477968 0 -0.047325939490032887 -0.31211257983706558 0 -0.034208810107178238 -0.30250002927988939 0 -0.031052773263640379 -0.32469810013477968 0 -0.048703286072451578 -0.34900103970329471 0 -0.031052773263640379 -0.32469810013477968 0 -0.048703286072451578 -0.34900103970329471 0 -0.057762608587515307 -0.32600877188069127 0 -0.031052773263640379 -0.32469810013477968 0 -0.016033861776168161 -0.3412321337165985 0 -0.031052773263640379 -0.32469810013477968 0 -0.012138033302980611 -0.31920249897911551 0 -0.018394970837694691 -0.30352908403669049 0 -0.031052773263640379 -0.32469810013477968 0 -0.012138033302980611 -0.31920249897911551 0 -0.003644792104612295 -0.30332558072780258 0 -0.012138033302980611 -0.31920249897911551 0 0.0033270364102864318 -0.31596183121665189 0 -0.012138033302980611 -0.31920249897911551 0 -0.001501907781919306 -0.32997618914196097 0 0.0033270364102864318 -0.31596183121665189 0 -0.016033861776168161 -0.3412321337165985 0 -0.012138033302980611 -0.31920249897911551 0 -0.001501907781919306 -0.32997618914196097 0 -0.016033861776168161 -0.3412321337165985 0 -0.001501907781919306 -0.32997618914196097 0 0.0062711073261811443 -0.34180278176557022 0 -0.048703286072451578 -0.34900103970329471 0 -0.016033861776168161 -0.3412321337165985 0 -0.022750394211972981 -0.36293727687331029 0 -0.016033861776168161 -0.3412321337165985 0 -0.022750394211972981 -0.36293727687331029 0 0.0017546008502676231 -0.35921499686869551 0 -0.016033861776168161 -0.3412321337165985 0 0.0017546008502676231 -0.35921499686869551 0 0.0062711073261811443 -0.34180278176557022 0 -0.022750394211972981 -0.36293727687331029 0 -0.0083876326739897138 -0.38025561398471153 0 -0.037102698913385343 -0.37916115429532199 0 -0.022750394211972981 -0.36293727687331029 0 -0.0083876326739897138 -0.38025561398471153 0 0.0017546008502676231 -0.35921499686869551 0 -0.012354499048216909 -0.40122703861588799 0 -0.037102698913385343 -0.37916115429532199 0 -0.043660021523194918 -0.39969023362574979 0 -0.012354499048216909 -0.40122703861588799 0 -0.043660021523194918 -0.39969023362574979 0 -0.033833682425557628 -0.41390410558562502 0 -0.0083876326739897138 -0.38025561398471153 0 -0.012354499048216909 -0.40122703861588799 0 0.0075023266872388302 -0.39965810289103038 0 -0.0083876326739897138 -0.38025561398471153 0 -0.012354499048216909 -0.40122703861588799 0 -0.037102698913385343 -0.37916115429532199 0 -0.037102698913385343 -0.37916115429532199 0 -0.043660021523194918 -0.39969023362574979 0 -0.055126248651300919 -0.38659974474511288 0 -0.043660021523194918 -0.39969023362574979 0 -0.060596025160118867 -0.40311993870980339 0 -0.055126248651300919 -0.38659974474511288 0 -0.066353798881262777 -0.37330397927180958 0 -0.037102698913385343 -0.37916115429532199 0 -0.055126248651300919 -0.38659974474511288 0 -0.055312865802898403 -0.42658117255536199 0 -0.039157637336112001 -0.43961123402893698 0 -0.056866697187008319 -0.4394110224204279 0 -0.060596025160118867 -0.40311993870980339 0 -0.055312865802898403 -0.42658117255536199 0 -0.067877485965980505 -0.41738741418247027 0 -0.043660021523194918 -0.39969023362574979 0 -0.060596025160118867 -0.40311993870980339 0 -0.055312865802898403 -0.42658117255536199 0 -0.055312865802898403 -0.42658117255536199 0 -0.033833682425557628 -0.41390410558562502 0 -0.043660021523194918 -0.39969023362574979 0 -0.055312865802898403 -0.42658117255536199 0 -0.033833682425557628 -0.41390410558562502 0 -0.055312865802898403 -0.42658117255536199 0 -0.033833682425557628 -0.41390410558562502 0 -0.039157637336112001 -0.43961123402893698 0 -0.033833682425557628 -0.41390410558562502 0 -0.01911359982961694 -0.42759610124234082 0 -0.039157637336112001 -0.43961123402893698 0 -0.012354499048216909 -0.40122703861588799 0 -0.033833682425557628 -0.41390410558562502 0 -0.01911359982961694 -0.42759610124234082 0 -0.012354499048216909 -0.40122703861588799 0 -0.033833682425557628 -0.41390410558562502 0 -0.012354499048216909 -0.40122703861588799 0 0.0075023266872388302 -0.39965810289103038 0 0.0025665329022295309 -0.43021143016787788 0 -0.012354499048216909 -0.40122703861588799 0 -0.01911359982961694 -0.42759610124234082 0 0.0025665329022295309 -0.43021143016787788 0 -0.01911359982961694 -0.42759610124234082 0 -0.0127887132404277 -0.45302669781337601 0 0.0025665329022295309 -0.43021143016787788 0 -0.0127887132404277 -0.45302669781337601 0 0.0025665329022295309 -0.43021143016787788 0 0.0059697679477151763 -0.45108080644805099 0 -0.0127887132404277 -0.45302669781337601 0 0.0059697679477151763 -0.45108080644805099 0 0.0065228899031663876 -0.47869149377101322 0 -0.0127887132404277 -0.45302669781337601 0 -0.01970020976925815 -0.4795012147348518 0 -0.035616423677330929 -0.46512864761952127 0 -0.0127887132404277 -0.45302669781337601 0 -0.039157637336112001 -0.43961123402893698 0 -0.035616423677330929 -0.46512864761952127 0 -0.01911359982961694 -0.42759610124234082 0 -0.0127887132404277 -0.45302669781337601 0 -0.039157637336112001 -0.43961123402893698 0 -0.0075329328076548787 -0.50000000000000044 0 0.0065228899031663876 -0.47869149377101322 0 -0.0075329328076548787 -0.50000000000000044 0 -0.01970020976925815 -0.4795012147348518 0 0.0065228899031663876 -0.47869149377101322 0 -0.0127887132404277 -0.45302669781337601 0 -0.01970020976925815 -0.4795012147348518 0 0.0065228899031663876 -0.47869149377101322 0 -0.0075329328076548787 -0.50000000000000044 0 -0.01970020976925815 -0.4795012147348518 0 -0.030599121549605202 -0.5 0 -0.01970020976925815 -0.4795012147348518 0 -0.030599121549605202 -0.5 0 -0.042344188681664653 -0.4821840861842373 0 -0.030599121549605202 -0.5 0 -0.042344188681664653 -0.4821840861842373 0 -0.053665310291555517 -0.5 0 -0.01970020976925815 -0.4795012147348518 0 -0.042344188681664653 -0.4821840861842373 0 -0.035616423677330929 -0.46512864761952127 0 -0.042344188681664653 -0.4821840861842373 0 -0.052932146059368648 -0.4694839931315411 0 -0.035616423677330929 -0.46512864761952127 0 -0.042344188681664653 -0.4821840861842373 0 -0.052932146059368648 -0.4694839931315411 0 -0.062171088118010157 -0.48072241775151842 0 -0.052932146059368648 -0.4694839931315411 0 -0.062171088118010157 -0.48072241775151842 0 -0.068324793391052699 -0.46719137053011678 0 -0.042344188681664653 -0.4821840861842373 0 -0.062171088118010157 -0.48072241775151842 0 -0.053665310291555517 -0.5 0 -0.062171088118010157 -0.48072241775151842 0 -0.053665310291555517 -0.5 0 -0.070527604767087332 -0.48901741581228553 0 -0.039157637336112001 -0.43961123402893698 0 -0.035616423677330929 -0.46512864761952127 0 -0.05620423642878479 -0.4521934435723115 0 -0.035616423677330929 -0.46512864761952127 0 -0.05620423642878479 -0.4521934435723115 0 -0.052932146059368648 -0.4694839931315411 0 -0.035616423677330929 -0.46512864761952127 0 -0.05620423642878479 -0.4521934435723115 0 -0.052932146059368648 -0.4694839931315411 0 -0.05620423642878479 -0.4521934435723115 0 -0.068324793391052699 -0.46719137053011678 0 -0.039157637336112001 -0.43961123402893698 0 -0.056866697187008319 -0.4394110224204279 0 -0.05620423642878479 -0.4521934435723115 0 -0.05620423642878479 -0.4521934435723115 0 -0.076792049180238076 -0.43925823952510079 0 -0.056866697187008319 -0.4394110224204279 0 -0.05620423642878479 -0.4521934435723115 0 -0.076792049180238076 -0.43925823952510079 0 -0.05620423642878479 -0.4521934435723115 0 -0.076792049180238076 -0.43925823952510079 0 -0.076263186037994091 -0.45662077426638242 0 -0.05620423642878479 -0.4521934435723115 0 -0.068324793391052699 -0.46719137053011678 0 -0.076263186037994091 -0.45662077426638242 0 -0.068324793391052699 -0.46719137053011678 0 -0.076263186037994091 -0.45662077426638242 0 -0.085990324923372483 -0.46783355139319771 0 -0.076263186037994091 -0.45662077426638242 0 -0.085990324923372483 -0.46783355139319771 0 -0.08876157688455194 -0.45778326388617641 0 -0.076263186037994091 -0.45662077426638242 0 -0.08876157688455194 -0.45778326388617641 0 -0.089401543891778928 -0.44906359179401262 0 -0.085990324923372483 -0.46783355139319771 0 -0.08876157688455194 -0.45778326388617641 0 -0.095526067711130203 -0.45882950833746428 0 -0.08876157688455194 -0.45778326388617641 0 -0.096986416310780879 -0.45145869056441013 0 -0.095526067711130203 -0.45882950833746428 0 -0.08876157688455194 -0.45778326388617641 0 -0.089401543891778928 -0.44906359179401262 0 -0.096986416310780879 -0.45145869056441013 0 -0.076792049180238076 -0.43925823952510079 0 -0.076263186037994091 -0.45662077426638242 0 -0.083025636202372272 -0.44293731794968338 0 -0.076263186037994091 -0.45662077426638242 0 -0.087789938684800978 -0.44086345549980732 0 -0.076263186037994091 -0.45662077426638242 0 -0.089401543891778928 -0.44906359179401262 0 -0.087789938684800978 -0.44086345549980732 0 -0.076263186037994091 -0.45662077426638242 0 -0.087789938684800978 -0.44086345549980732 0 -0.083025636202372272 -0.44293731794968338 0 -0.089401543891778928 -0.44906359179401262 0 -0.091606822050971468 -0.44311262626049769 0 -0.095154973592534969 -0.44451425158249491 0 -0.091606822050971468 -0.44311262626049769 0 -0.094024648818854584 -0.43949581511155328 0 -0.095154973592534969 -0.44451425158249491 0 -0.089401543891778928 -0.44906359179401262 0 -0.091606822050971468 -0.44311262626049769 0 -0.087789938684800978 -0.44086345549980732 0 -0.087789938684800978 -0.44086345549980732 0 -0.094024648818854584 -0.43949581511155328 0 -0.095262416706029446 -0.43433202146287792 0 -0.091606822050971468 -0.44311262626049769 0 -0.087789938684800978 -0.44086345549980732 0 -0.094024648818854584 -0.43949581511155328 0 -0.076792049180238076 -0.43925823952510079 0 -0.087789938684800978 -0.44086345549980732 0 -0.083025636202372272 -0.44293731794968338 0 -0.076792049180238076 -0.43925823952510079 0 -0.083025636202372272 -0.44293731794968338 0 -0.053665310291555517 -0.5 0 -0.076731499033505859 -0.50000000000000133 0 -0.070527604767087332 -0.48901741581228553 0 -0.070527604767087332 -0.48901741581228553 0 -0.077006946153926725 -0.47802579919775889 0 -0.07913577764190971 -0.48624228130526043 0 -0.076731499033505859 -0.50000000000000133 0 -0.070527604767087332 -0.48901741581228553 0 -0.07913577764190971 -0.48624228130526043 0 -0.068324793391052699 -0.46719137053011678 0 -0.085990324923372483 -0.46783355139319771 0 -0.077006946153926725 -0.47802579919775889 0 -0.062171088118010157 -0.48072241775151842 0 -0.070527604767087332 -0.48901741581228553 0 -0.077006946153926725 -0.47802579919775889 0 -0.062171088118010157 -0.48072241775151842 0 -0.068324793391052699 -0.46719137053011678 0 -0.077006946153926725 -0.47802579919775889 0 -0.085990324923372483 -0.46783355139319771 0 -0.089454538087888266 -0.48221104915565072 0 -0.1022903814228668 -0.46426437893356159 0 -0.085990324923372483 -0.46783355139319771 0 -0.077006946153926725 -0.47802579919775889 0 -0.084772929484043122 -0.4784477182525726 0 -0.085990324923372483 -0.46783355139319771 0 -0.089454538087888266 -0.48221104915565072 0 -0.084772929484043122 -0.4784477182525726 0 -0.089454538087888266 -0.48221104915565072 0 -0.082676913356091689 -0.48160262144751659 0 -0.084772929484043122 -0.4784477182525726 0 -0.077006946153926725 -0.47802579919775889 0 -0.082676913356091689 -0.48160262144751659 0 -0.07913577764190971 -0.48624228130526043 0 -0.089454538087888266 -0.48221104915565072 0 -0.082676913356091689 -0.48160262144751659 0 -0.07913577764190971 -0.48624228130526043 0 -0.077006946153926725 -0.47802579919775889 0 -0.082676913356091689 -0.48160262144751659 0 -0.084772929484043122 -0.4784477182525726 0 -0.076731499033505859 -0.50000000000000133 0 -0.089454538087888266 -0.48221104915565072 0 -0.07913577764190971 -0.48624228130526043 0 -0.076731499033505859 -0.50000000000000133 0 -0.089454538087888266 -0.48221104915565072 0 -0.1039441346550101 -0.5 0 -0.076731499033505859 -0.50000000000000133 0 -0.089454538087888266 -0.48221104915565072 0 -0.089454538087888266 -0.48221104915565072 0 -0.1039441346550101 -0.5 0 -0.1086932442932228 -0.47645224757367161 0 -0.089454538087888266 -0.48221104915565072 0 -0.1022903814228668 -0.46426437893356159 0 -0.089454538087888266 -0.48221104915565072 0 -0.1086932442932228 -0.47645224757367161 0 -0.1022903814228668 -0.46426437893356159 0 -0.089454538087888266 -0.48221104915565072 0 -0.1086932442932228 -0.47645224757367161 0 -0.12793195049855721 -0.47069344599169177 0 -0.1086932442932228 -0.47645224757367161 0 -0.1217458590182483 -0.4801900385742689 0 -0.12793195049855721 -0.47069344599169177 0 -0.1086932442932228 -0.47645224757367161 0 -0.1162028384027094 -0.46097911989280488 0 -0.12793195049855721 -0.47069344599169177 0 -0.1086932442932228 -0.47645224757367161 0 -0.1086932442932228 -0.47645224757367161 0 -0.1217458590182483 -0.4801900385742689 0 -0.1185994718412884 -0.489375690700944 0 -0.13115677027651459 -0.5 0 -0.1039441346550101 -0.5 0 -0.1185994718412884 -0.489375690700944 0 -0.1039441346550101 -0.5 0 -0.1086932442932228 -0.47645224757367161 0 -0.1185994718412884 -0.489375690700944 0 -0.13249264396597141 -0.48378998465297668 0 -0.1217458590182483 -0.4801900385742689 0 -0.1185994718412884 -0.489375690700944 0 -0.1036016390140789 -0.45280765690997549 0 -0.1079347899541717 -0.44692637105856831 0 -0.1151262247578458 -0.4463177087114728 0 -0.103199537719615 -0.4485356533972657 0 -0.1047927948346002 -0.44289633107308052 0 -0.101052488240772 -0.44503831397155558 0 -0.103199537719615 -0.4485356533972657 0 -0.1079347899541717 -0.44692637105856831 0 -0.1047927948346002 -0.44289633107308052 0 -0.103199537719615 -0.4485356533972657 0 -0.1036016390140789 -0.45280765690997549 0 -0.1079347899541717 -0.44692637105856831 0 -0.1047927948346002 -0.44289633107308052 0 -0.101052488240772 -0.44503831397155558 0 -0.1019987559039847 -0.43671929549675043 0 -0.1079347899541717 -0.44692637105856831 0 -0.1090276306397626 -0.44042294972156948 0 -0.1047927948346002 -0.44289633107308052 0 -0.1090276306397626 -0.44042294972156948 0 -0.1047927948346002 -0.44289633107308052 0 -0.1019987559039847 -0.43671929549675043 0 -0.101052488240772 -0.44503831397155558 0 -0.09820328182208854 -0.44070173365876492 0 -0.095154973592534969 -0.44451425158249491 0 -0.101052488240772 -0.44503831397155558 0 -0.09820328182208854 -0.44070173365876492 0 -0.1019987559039847 -0.43671929549675043 0 -0.09820328182208854 -0.44070173365876492 0 -0.1019987559039847 -0.43671929549675043 0 -0.098219759318993127 -0.43660861457184807 0 -0.09820328182208854 -0.44070173365876492 0 -0.094024648818854584 -0.43949581511155328 0 -0.098219759318993127 -0.43660861457184807 0 -0.09820328182208854 -0.44070173365876492 0 -0.094024648818854584 -0.43949581511155328 0 -0.095154973592534969 -0.44451425158249491 0 -0.089401543891778928 -0.44906359179401262 0 -0.095154973592534969 -0.44451425158249491 0 -0.096986416310780879 -0.45145869056441013 0 -0.101052488240772 -0.44503831397155558 0 -0.095154973592534969 -0.44451425158249491 0 -0.096986416310780879 -0.45145869056441013 0 -0.103199537719615 -0.4485356533972657 0 -0.101052488240772 -0.44503831397155558 0 -0.096986416310780879 -0.45145869056441013 0 -0.103199537719615 -0.4485356533972657 0 -0.1036016390140789 -0.45280765690997549 0 -0.096986416310780879 -0.45145869056441013 0 -0.085990324923372483 -0.46783355139319771 0 -0.095526067711130203 -0.45882950833746428 0 -0.1022903814228668 -0.46426437893356159 0 -0.1036016390140789 -0.45280765690997549 0 -0.096986416310780879 -0.45145869056441013 0 -0.095526067711130203 -0.45882950833746428 0 -0.1036016390140789 -0.45280765690997549 0 -0.1022903814228668 -0.46426437893356159 0 -0.1151262247578458 -0.4463177087114728 0 -0.1022903814228668 -0.46426437893356159 0 -0.1151262247578458 -0.4463177087114728 0 -0.1036016390140789 -0.45280765690997549 0 -0.095526067711130203 -0.45882950833746428 0 -0.1022903814228668 -0.46426437893356159 0 -0.1086932442932228 -0.47645224757367161 0 -0.1022903814228668 -0.46426437893356159 0 -0.1162028384027094 -0.46097911989280488 0 -0.12793195049855721 -0.47069344599169177 0 -0.1162028384027094 -0.46097911989280488 0 -0.1195004458214851 -0.44648144232051318 0 -0.12793195049855721 -0.47069344599169177 0 -0.1195004458214851 -0.44648144232051318 0 -0.1022903814228668 -0.46426437893356159 0 -0.1162028384027094 -0.46097911989280488 0 -0.1151262247578458 -0.4463177087114728 0 -0.1162028384027094 -0.46097911989280488 0 -0.1195004458214851 -0.44648144232051318 0 -0.1151262247578458 -0.4463177087114728 0 -0.1090276306397626 -0.44042294972156948 0 -0.1195004458214851 -0.44648144232051318 0 -0.1151262247578458 -0.4463177087114728 0 -0.1079347899541717 -0.44692637105856831 0 -0.1090276306397626 -0.44042294972156948 0 -0.1151262247578458 -0.4463177087114728 0 -0.1090276306397626 -0.44042294972156948 0 -0.1195004458214851 -0.44648144232051318 0 -0.1025162100052026 -0.42309589759829402 0 -0.1195004458214851 -0.44648144232051318 0 -0.1025162100052026 -0.42309589759829402 0 -0.12834302053328461 -0.418479642121733 0 -0.1248065124882853 -0.42948908947785502 0 -0.1097697138551617 -0.41853856295137409 0 -0.1195004458214851 -0.44648144232051318 0 -0.1248065124882853 -0.42948908947785502 0 -0.1097697138551617 -0.41853856295137409 0 -0.1195004458214851 -0.44648144232051318 0 -0.1025162100052026 -0.42309589759829402 0 -0.1097697138551617 -0.41853856295137409 0 -0.1195004458214851 -0.44648144232051318 0 -0.1097697138551617 -0.41853856295137409 0 -0.1090276306397626 -0.44042294972156948 0 -0.1019987559039847 -0.43671929549675043 0 -0.1025162100052026 -0.42309589759829402 0 -0.087789938684800978 -0.44086345549980732 0 -0.099316691331607643 -0.42510613673323222 0 -0.095262416706029446 -0.43433202146287792 0 -0.1019987559039847 -0.43671929549675043 0 -0.1025162100052026 -0.42309589759829402 0 -0.099316691331607643 -0.42510613673323222 0 -0.1025162100052026 -0.42309589759829402 0 -0.099316691331607643 -0.42510613673323222 0 -0.095938889613548559 -0.42145216965969368 0 -0.1025162100052026 -0.42309589759829402 0 -0.099316691331607643 -0.42510613673323222 0 -0.099316691331607643 -0.42510613673323222 0 -0.095938889613548559 -0.42145216965969368 0 -0.091738925651267761 -0.4221906789177009 0 -0.099316691331607643 -0.42510613673323222 0 -0.095262416706029446 -0.43433202146287792 0 -0.098219759318993127 -0.43660861457184807 0 -0.1019987559039847 -0.43671929549675043 0 -0.099316691331607643 -0.42510613673323222 0 -0.098219759318993127 -0.43660861457184807 0 -0.094024648818854584 -0.43949581511155328 0 -0.095262416706029446 -0.43433202146287792 0 -0.098219759318993127 -0.43660861457184807 0 -0.1025162100052026 -0.42309589759829402 0 -0.10794791582237601 -0.4133070672282077 0 -0.084004311690074052 -0.39760691884032462 0 -0.1025162100052026 -0.42309589759829402 0 -0.095938889613548559 -0.42145216965969368 0 -0.091045116972427134 -0.41660200457899982 0 -0.1025162100052026 -0.42309589759829402 0 -0.10794791582237601 -0.4133070672282077 0 -0.1097697138551617 -0.41853856295137409 0 -0.1025162100052026 -0.42309589759829402 0 -0.10794791582237601 -0.4133070672282077 0 -0.1025162100052026 -0.42309589759829402 0 -0.1097697138551617 -0.41853856295137409 0 -0.10794791582237601 -0.4133070672282077 0 -0.1097697138551617 -0.41853856295137409 0 -0.13212610183730519 -0.40449217328391418 0 -0.10794791582237601 -0.4133070672282077 0 -0.1097697138551617 -0.41853856295137409 0 -0.13212610183730519 -0.40449217328391418 0 -0.1097697138551617 -0.41853856295137409 0 -0.13212610183730519 -0.40449217328391418 0 -0.12834302053328461 -0.418479642121733 0 -0.1097697138551617 -0.41853856295137409 0 -0.10794791582237601 -0.4133070672282077 0 -0.12322006064050869 -0.39242971681371103 0 -0.1109706537030405 -0.39427915976930328 0 -0.10794791582237601 -0.4133070672282077 0 -0.12322006064050869 -0.39242971681371103 0 -0.13212610183730519 -0.40449217328391418 0 -0.10794791582237601 -0.4133070672282077 0 -0.12322006064050869 -0.39242971681371103 0 -0.12322006064050869 -0.39242971681371103 0 -0.1109706537030405 -0.39427915976930328 0 -0.1143109249210401 -0.3854800267585976 0 -0.12634844977110091 -0.37919111576772918 0 -0.1128536337482762 -0.37056275964886942 0 -0.1143109249210401 -0.3854800267585976 0 -0.12634844977110091 -0.37919111576772918 0 -0.12322006064050869 -0.39242971681371103 0 -0.1143109249210401 -0.3854800267585976 0 -0.1109706537030405 -0.39427915976930328 0 -0.1143109249210401 -0.3854800267585976 0 -0.09840371342823695 -0.385899828276697 0 -0.1128536337482762 -0.37056275964886942 0 -0.1143109249210401 -0.3854800267585976 0 -0.09840371342823695 -0.385899828276697 0 -0.10794791582237601 -0.4133070672282077 0 -0.09840371342823695 -0.385899828276697 0 -0.084004311690074052 -0.39760691884032462 0 -0.10794791582237601 -0.4133070672282077 0 -0.1109706537030405 -0.39427915976930328 0 -0.09840371342823695 -0.385899828276697 0 -0.10794791582237601 -0.4133070672282077 0 -0.09840371342823695 -0.385899828276697 0 -0.084004311690074052 -0.39760691884032462 0 -0.07312734314805476 -0.4088686968894234 0 -0.08142236958917054 -0.41004565333880949 0 -0.09840371342823695 -0.385899828276697 0 -0.084004311690074052 -0.39760691884032462 0 -0.083966483399473643 -0.37556195994057051 0 -0.066353798881262777 -0.37330397927180958 0 -0.084004311690074052 -0.39760691884032462 0 -0.083966483399473643 -0.37556195994057051 0 -0.066353798881262777 -0.37330397927180958 0 -0.055126248651300919 -0.38659974474511288 0 -0.084004311690074052 -0.39760691884032462 0 -0.066353798881262777 -0.37330397927180958 0 -0.084004311690074052 -0.39760691884032462 0 -0.060596025160118867 -0.40311993870980339 0 -0.055126248651300919 -0.38659974474511288 0 -0.084004311690074052 -0.39760691884032462 0 -0.060596025160118867 -0.40311993870980339 0 -0.084004311690074052 -0.39760691884032462 0 -0.07312734314805476 -0.4088686968894234 0 -0.060596025160118867 -0.40311993870980339 0 -0.07312734314805476 -0.4088686968894234 0 -0.067877485965980505 -0.41738741418247027 0 -0.07312734314805476 -0.4088686968894234 0 -0.08142236958917054 -0.41004565333880949 0 -0.079032754759598964 -0.41734747559143248 0 -0.067877485965980505 -0.41738741418247027 0 -0.075811493845144989 -0.42646695662132672 0 -0.079032754759598964 -0.41734747559143248 0 -0.07312734314805476 -0.4088686968894234 0 -0.067877485965980505 -0.41738741418247027 0 -0.079032754759598964 -0.41734747559143248 0 -0.055312865802898403 -0.42658117255536199 0 -0.076792049180238076 -0.43925823952510079 0 -0.055312865802898403 -0.42658117255536199 0 -0.076792049180238076 -0.43925823952510079 0 -0.075811493845144989 -0.42646695662132672 0 -0.055312865802898403 -0.42658117255536199 0 -0.067877485965980505 -0.41738741418247027 0 -0.075811493845144989 -0.42646695662132672 0 -0.055312865802898403 -0.42658117255536199 0 -0.056866697187008319 -0.4394110224204279 0 -0.076792049180238076 -0.43925823952510079 0 -0.076792049180238076 -0.43925823952510079 0 -0.099316691331607643 -0.42510613673323222 0 -0.083673002429392185 -0.43055950446124192 0 -0.076792049180238076 -0.43925823952510079 0 -0.099316691331607643 -0.42510613673323222 0 -0.099316691331607643 -0.42510613673323222 0 -0.083673002429392185 -0.43055950446124192 0 -0.086759089031431882 -0.42663334259744778 0 -0.075811493845144989 -0.42646695662132672 0 -0.079032754759598964 -0.41734747559143248 0 -0.084877476051974141 -0.4218480916613816 0 -0.075811493845144989 -0.42646695662132672 0 -0.083673002429392185 -0.43055950446124192 0 -0.086759089031431882 -0.42663334259744778 0 -0.076792049180238076 -0.43925823952510079 0 -0.087789938684800978 -0.44086345549980732 0 -0.099316691331607643 -0.42510613673323222 0 -0.075811493845144989 -0.42646695662132672 0 -0.086759089031431882 -0.42663334259744778 0 -0.084877476051974141 -0.4218480916613816 0 -0.087789938684800978 -0.44086345549980732 0 -0.099316691331607643 -0.42510613673323222 0 -0.076792049180238076 -0.43925823952510079 0 -0.075811493845144989 -0.42646695662132672 0 -0.083673002429392185 -0.43055950446124192 0 -0.099316691331607643 -0.42510613673323222 0 -0.086759089031431882 -0.42663334259744778 0 -0.091738925651267761 -0.4221906789177009 0 -0.086759089031431882 -0.42663334259744778 0 -0.091738925651267761 -0.4221906789177009 0 -0.084877476051974141 -0.4218480916613816 0 -0.095938889613548559 -0.42145216965969368 0 -0.091738925651267761 -0.4221906789177009 0 -0.091045116972427134 -0.41660200457899982 0 -0.1025162100052026 -0.42309589759829402 0 -0.084004311690074052 -0.39760691884032462 0 -0.091045116972427134 -0.41660200457899982 0 -0.1025162100052026 -0.42309589759829402 0 -0.084004311690074052 -0.39760691884032462 0 -0.084004311690074052 -0.39760691884032462 0 -0.091045116972427134 -0.41660200457899982 0 -0.08142236958917054 -0.41004565333880949 0 -0.091738925651267761 -0.4221906789177009 0 -0.091045116972427134 -0.41660200457899982 0 -0.084877476051974141 -0.4218480916613816 0 -0.091045116972427134 -0.41660200457899982 0 -0.08142236958917054 -0.41004565333880949 0 -0.079032754759598964 -0.41734747559143248 0 -0.091045116972427134 -0.41660200457899982 0 -0.079032754759598964 -0.41734747559143248 0 -0.084877476051974141 -0.4218480916613816 0 -0.082264052221871581 -0.082976433067825817 0 -0.086084854103272157 -0.10369493095593579 0 -0.082264052221871581 -0.082976433067825817 0 -0.075391054436308599 -0.098637876112545653 0 -0.082264052221871581 -0.082976433067825817 0 -0.092582176028011609 -0.09497786469436266 0 -0.094842841509163736 -0.08547364653569732 0 -0.082264052221871581 -0.082976433067825817 0 -0.094842841509163736 -0.08547364653569732 0 -0.09748858202933669 -0.072072083276736643 0 -0.082264052221871581 -0.082976433067825817 0 -0.078827697733134 -0.06434262125876819 0 -0.091946067672171963 -0.060914104770340011 0 -0.082264052221871581 -0.082976433067825817 0 -0.091946067672171963 -0.060914104770340011 0 -0.082264052221871581 -0.082976433067825817 0 -0.09748858202933669 -0.072072083276736643 0 -0.091946067672171963 -0.060914104770340011 0 -0.082264052221871581 -0.082976433067825817 0 -0.078827697733134 -0.06434262125876819 0 -0.082264052221871581 -0.082976433067825817 0 -0.078827697733134 -0.06434262125876819 0 -0.072096625466661915 -0.072997654244653737 0 -0.065270936187460701 -0.086323627269761879 0 -0.062023815724181267 -0.058347935382259103 0 -0.078827697733134 -0.06434262125876819 0 -0.072096625466661915 -0.072997654244653737 0 -0.062023815724181267 -0.058347935382259103 0 -0.072096625466661915 -0.072997654244653737 0 -0.065270936187460701 -0.086323627269761879 0 -0.062023815724181267 -0.058347935382259103 0 -0.082264052221871581 -0.082976433067825817 0 -0.072096625466661915 -0.072997654244653737 0 -0.065270936187460701 -0.086323627269761879 0 -0.082264052221871581 -0.082976433067825817 0 -0.065270936187460701 -0.086323627269761879 0 -0.075391054436308599 -0.098637876112545653 0 -0.075391054436308599 -0.098637876112545653 0 -0.068518056650742842 -0.1142993191572643 0 -0.080895502171533892 -0.1151551191210205 0 -0.075391054436308599 -0.098637876112545653 0 -0.068518056650742842 -0.1142993191572643 0 -0.065270936187460701 -0.086323627269761879 0 -0.075391054436308599 -0.098637876112545653 0 -0.068518056650742842 -0.1142993191572643 0 -0.065270936187460701 -0.086323627269761879 0 -0.068518056650742842 -0.1142993191572643 0 -0.065270936187460701 -0.086323627269761879 0 -0.068518056650742842 -0.1142993191572643 0 -0.058662499667136783 -0.1047073412464599 0 -0.068518056650742842 -0.1142993191572643 0 -0.080895502171533892 -0.1151551191210205 0 -0.081393552917400885 -0.13235687645585489 0 -0.068518056650742842 -0.1142993191572643 0 -0.067790494661074008 -0.1159572086282446 0 -0.071900414983819549 -0.1434401581404269 0 -0.067790494661074008 -0.1159572086282446 0 -0.059213806750165798 -0.1207213381732562 0 -0.062303563524087301 -0.1148596706269112 0 -0.068518056650742842 -0.1142993191572643 0 -0.062303563524087301 -0.1148596706269112 0 -0.058662499667136783 -0.1047073412464599 0 -0.068518056650742842 -0.1142993191572643 0 -0.067790494661074008 -0.1159572086282446 0 -0.068518056650742842 -0.1142993191572643 0 -0.067790494661074008 -0.1159572086282446 0 -0.062303563524087301 -0.1148596706269112 0 -0.089905655984672608 -0.12441342884404601 0 -0.086084854103272157 -0.10369493095593579 0 -0.089905655984672608 -0.12441342884404601 0 -0.086084854103272157 -0.10369493095593579 0 -0.098901971712017256 -0.1069903236108825 0 -0.080895502171533892 -0.1151551191210205 0 -0.089905655984672608 -0.12441342884404601 0 -0.086084854103272157 -0.10369493095593579 0 -0.080895502171533892 -0.1151551191210205 0 -0.089905655984672608 -0.12441342884404601 0 -0.081393552917400885 -0.13235687645585489 0 -0.082264052221871581 -0.082976433067825817 0 -0.075391054436308599 -0.098637876112545653 0 -0.086084854103272157 -0.10369493095593579 0 -0.075391054436308599 -0.098637876112545653 0 -0.080895502171533892 -0.1151551191210205 0 -0.086084854103272157 -0.10369493095593579 0 -0.082264052221871581 -0.082976433067825817 0 -0.086084854103272157 -0.10369493095593579 0 -0.092582176028011609 -0.09497786469436266 0 -0.086084854103272157 -0.10369493095593579 0 -0.092582176028011609 -0.09497786469436266 0 -0.098901971712017256 -0.1069903236108825 0 -0.092582176028011609 -0.09497786469436266 0 -0.1008171605937332 -0.095753989301471845 0 -0.098901971712017256 -0.1069903236108825 0 -0.098901971712017256 -0.1069903236108825 0 -0.1101553237054283 -0.098947075924003258 0 -0.1113741160697729 -0.1087405246348622 0 -0.1008171605937332 -0.095753989301471845 0 -0.098901971712017256 -0.1069903236108825 0 -0.1101553237054283 -0.098947075924003258 0 -0.1008171605937332 -0.095753989301471845 0 -0.1101553237054283 -0.098947075924003258 0 -0.1132555854694262 -0.088712910902226216 0 -0.1039139340048571 -0.11726132512550611 0 -0.1113741160697729 -0.1087405246348622 0 -0.1097489604694359 -0.12727138220150791 0 -0.089905655984672608 -0.12441342884404601 0 -0.098901971712017256 -0.1069903236108825 0 -0.1039139340048571 -0.11726132512550611 0 -0.089905655984672608 -0.12441342884404601 0 -0.1039139340048571 -0.11726132512550611 0 -0.1097489604694359 -0.12727138220150791 0 -0.098901971712017256 -0.1069903236108825 0 -0.1039139340048571 -0.11726132512550611 0 -0.1113741160697729 -0.1087405246348622 0 -0.11971335000294719 -0.1182033562068175 0 -0.1113741160697729 -0.1087405246348622 0 -0.1097489604694359 -0.12727138220150791 0 -0.1113741160697729 -0.1087405246348622 0 -0.1097489604694359 -0.12727138220150791 0 -0.11971335000294719 -0.1182033562068175 0 -0.1097489604694359 -0.12727138220150791 0 -0.1199214401770993 -0.1284407076122579 0 -0.11971335000294719 -0.1182033562068175 0 -0.1234500347531652 -0.098322277205308617 0 -0.11971335000294719 -0.1182033562068175 0 -0.1113741160697729 -0.1087405246348622 0 -0.1234500347531652 -0.098322277205308617 0 -0.1101553237054283 -0.098947075924003258 0 -0.1234500347531652 -0.098322277205308617 0 -0.1132555854694262 -0.088712910902226216 0 -0.1101553237054283 -0.098947075924003258 0 -0.1113741160697729 -0.1087405246348622 0 -0.1234500347531652 -0.098322277205308617 0 -0.1234500347531652 -0.098322277205308617 0 -0.1132555854694262 -0.088712910902226216 0 -0.12718671950338331 -0.078441198203799772 0 -0.1132555854694262 -0.088712910902226216 0 -0.1151035536516837 -0.07608159604834927 0 -0.12718671950338331 -0.078441198203799772 0 -0.1132555854694262 -0.088712910902226216 0 -0.1044947931080164 -0.080275640507752252 0 -0.1151035536516837 -0.07608159604834927 0 -0.1008171605937332 -0.095753989301471845 0 -0.1132555854694262 -0.088712910902226216 0 -0.1044947931080164 -0.080275640507752252 0 -0.1044947931080164 -0.080275640507752252 0 -0.094842841509163736 -0.08547364653569732 0 -0.09748858202933669 -0.072072083276736643 0 -0.1008171605937332 -0.095753989301471845 0 -0.1044947931080164 -0.080275640507752252 0 -0.094842841509163736 -0.08547364653569732 0 -0.092582176028011609 -0.09497786469436266 0 -0.1008171605937332 -0.095753989301471845 0 -0.094842841509163736 -0.08547364653569732 0 -0.09748858202933669 -0.072072083276736643 0 -0.1018226095147353 -0.05480280446485801 0 -0.091946067672171963 -0.060914104770340011 0 -0.09748858202933669 -0.072072083276736643 0 -0.11052149330109109 -0.067498718559824505 0 -0.1018226095147353 -0.05480280446485801 0 -0.1044947931080164 -0.080275640507752252 0 -0.09748858202933669 -0.072072083276736643 0 -0.11052149330109109 -0.067498718559824505 0 -0.11052149330109109 -0.067498718559824505 0 -0.1151035536516837 -0.07608159604834927 0 -0.121440858330366 -0.066241351988670483 0 -0.1044947931080164 -0.080275640507752252 0 -0.11052149330109109 -0.067498718559824505 0 -0.1151035536516837 -0.07608159604834927 0 -0.1151035536516837 -0.07608159604834927 0 -0.121440858330366 -0.066241351988670483 0 -0.12718671950338331 -0.078441198203799772 0 -0.11052149330109109 -0.067498718559824505 0 -0.121440858330366 -0.066241351988670483 0 -0.1226094055406128 -0.057486667079361967 0 -0.11052149330109109 -0.067498718559824505 0 -0.1226094055406128 -0.057486667079361967 0 -0.1018226095147353 -0.05480280446485801 0 -0.121440858330366 -0.066241351988670483 0 -0.1226094055406128 -0.057486667079361967 0 -0.1309234042536013 -0.058560119202291018 0 -0.121440858330366 -0.066241351988670483 0 -0.1226094055406128 -0.057486667079361967 0 -0.1226094055406128 -0.057486667079361967 0 -0.1018226095147353 -0.05480280446485801 0 -0.1226094055406128 -0.057486667079361967 0 -0.1135258714090633 -0.043562507235954451 0 -0.1018226095147353 -0.05480280446485801 0 -0.1226094055406128 -0.057486667079361967 0 -0.1135258714090633 -0.043562507235954451 0 -0.12550458704224179 -0.035796142657438579 0 -0.1226094055406128 -0.057486667079361967 0 -0.12550458704224179 -0.035796142657438579 0 -0.1135258714090633 -0.043562507235954451 0 -0.1016280831224725 -0.038851776472854323 0 -0.11745804594768269 -0.030262987510727691 0 -0.1135258714090633 -0.043562507235954451 0 -0.11745804594768269 -0.030262987510727691 0 -0.12550458704224179 -0.035796142657438579 0 -0.1016280831224725 -0.038851776472854323 0 -0.09228570392825633 -0.028416949282448419 0 -0.088831761798797468 -0.047214815803510182 0 -0.1135258714090633 -0.043562507235954451 0 -0.1016280831224725 -0.038851776472854323 0 -0.1018226095147353 -0.05480280446485801 0 -0.1016280831224725 -0.038851776472854323 0 -0.091946067672171963 -0.060914104770340011 0 -0.1016280831224725 -0.038851776472854323 0 -0.088831761798797468 -0.047214815803510182 0 -0.091946067672171963 -0.060914104770340011 0 -0.1016280831224725 -0.038851776472854323 0 -0.1018226095147353 -0.05480280446485801 0 -0.091946067672171963 -0.060914104770340011 0 -0.1091800646121141 -0.01112508911518531 0 -0.12878995460800041 -0.0111823678802991 0 -0.11131009857277301 -0.016789448175368659 0 -0.1091800646121141 -0.01112508911518531 0 -0.12878995460800041 -0.0111823678802991 0 -0.1091800646121141 -0.01112508911518531 0 -0.1023836710997944 0.0029247472907288821 0 -0.1205409219509347 0.00050307250390628326 0 -0.1091800646121141 -0.01112508911518531 0 -0.12878995460800041 -0.0111823678802991 0 -0.1205409219509347 0.00050307250390628326 0 -0.1091800646121141 -0.01112508911518531 0 -0.1205409219509347 0.00050307250390628326 0 -0.11131009857277301 -0.016789448175368659 0 -0.11745804594768269 -0.030262987510727691 0 -0.12878995460800041 -0.0111823678802991 0 -0.1016280831224725 -0.038851776472854323 0 -0.11131009857277301 -0.016789448175368659 0 -0.11745804594768269 -0.030262987510727691 0 -0.11745804594768269 -0.030262987510727691 0 -0.12878995460800041 -0.0111823678802991 0 -0.12550458704224179 -0.035796142657438579 0 -0.1091800646121141 -0.01112508911518531 0 -0.09228570392825633 -0.028416949282448419 0 -0.1016280831224725 -0.038851776472854323 0 -0.11131009857277301 -0.016789448175368659 0 -0.09228570392825633 -0.028416949282448419 0 -0.1016280831224725 -0.038851776472854323 0 -0.11131009857277301 -0.016789448175368659 0 -0.1091800646121141 -0.01112508911518531 0 -0.093228860037682632 -0.011078497048614879 0 -0.09228570392825633 -0.028416949282448419 0 -0.11131009857277301 -0.016789448175368659 0 -0.1091800646121141 -0.01112508911518531 0 -0.09228570392825633 -0.028416949282448419 0 -0.1091800646121141 -0.01112508911518531 0 -0.093228860037682632 -0.011078497048614879 0 -0.1023836710997944 0.0029247472907288821 0 -0.1091800646121141 -0.01112508911518531 0 -0.093228860037682632 -0.011078497048614879 0 -0.093228860037682632 -0.011078497048614879 0 -0.079537176198849244 -0.0086505373403951199 0 -0.084851511341870078 0.0048440916435468304 0 -0.093228860037682632 -0.011078497048614879 0 -0.1023836710997944 0.0029247472907288821 0 -0.084851511341870078 0.0048440916435468304 0 -0.093228860037682632 -0.011078497048614879 0 -0.079537176198849244 -0.0086505373403951199 0 -0.082238510651097885 -0.022878560294385501 0 -0.093228860037682632 -0.011078497048614879 0 -0.09228570392825633 -0.028416949282448419 0 -0.082238510651097885 -0.022878560294385501 0 -0.070749469846304841 -0.020538008350758551 0 -0.068318591023519656 -0.040286584534204507 0 -0.058776695260901839 -0.030372243494756378 0 -0.082238510651097885 -0.022878560294385501 0 -0.070749469846304841 -0.020538008350758551 0 -0.075391343244397446 -0.045708809449710369 0 -0.079537176198849244 -0.0086505373403951199 0 -0.082238510651097885 -0.022878560294385501 0 -0.070749469846304841 -0.020538008350758551 0 -0.070749469846304841 -0.020538008350758551 0 -0.055379950602752047 -0.010680595874188801 0 -0.06610759644821336 0.0046327927481935594 0 -0.070749469846304841 -0.020538008350758551 0 -0.06610759644821336 0.0046327927481935594 0 -0.079537176198849244 -0.0086505373403951199 0 -0.070749469846304841 -0.020538008350758551 0 -0.06610759644821336 0.0046327927481935594 0 -0.078827697733134 -0.06434262125876819 0 -0.088831761798797468 -0.047214815803510182 0 -0.091946067672171963 -0.060914104770340011 0 -0.078827697733134 -0.06434262125876819 0 -0.088831761798797468 -0.047214815803510182 0 -0.075391343244397446 -0.045708809449710369 0 -0.09228570392825633 -0.028416949282448419 0 -0.082238510651097885 -0.022878560294385501 0 -0.075391343244397446 -0.045708809449710369 0 -0.09228570392825633 -0.028416949282448419 0 -0.088831761798797468 -0.047214815803510182 0 -0.075391343244397446 -0.045708809449710369 0 -0.09228570392825633 -0.028416949282448419 0 -0.075391343244397446 -0.045708809449710369 0 -0.070749469846304841 -0.020538008350758551 0 -0.075391343244397446 -0.045708809449710369 0 -0.068318591023519656 -0.040286584534204507 0 -0.062023815724181267 -0.058347935382259103 0 -0.058776695260901839 -0.030372243494756378 0 -0.070749469846304841 -0.020538008350758551 0 -0.068318591023519656 -0.040286584534204507 0 -0.075391343244397446 -0.045708809449710369 0 -0.078827697733134 -0.06434262125876819 0 -0.075391343244397446 -0.045708809449710369 0 -0.068318591023519656 -0.040286584534204507 0 -0.075391343244397446 -0.045708809449710369 0 -0.062023815724181267 -0.058347935382259103 0 -0.078827697733134 -0.06434262125876819 0 -0.075391343244397446 -0.045708809449710369 0 -0.062023815724181267 -0.058347935382259103 0 -0.062023815724181267 -0.058347935382259103 0 -0.052141319318952807 -0.045591435653044493 0 -0.043756849863330477 -0.060215068358139383 0 -0.062023815724181267 -0.058347935382259103 0 -0.058776695260901839 -0.030372243494756378 0 -0.052141319318952807 -0.045591435653044493 0 -0.058776695260901839 -0.030372243494756378 0 -0.040683199129030997 -0.026175590641044629 0 -0.062023815724181267 -0.058347935382259103 0 -0.052141319318952807 -0.045591435653044493 0 -0.058776695260901839 -0.030372243494756378 0 -0.032520258332325518 -0.035135828942053499 0 -0.038868901975114598 -0.044908858480966429 0 -0.040683199129030997 -0.026175590641044629 0 -0.052141319318952807 -0.045591435653044493 0 -0.038868901975114598 -0.044908858480966429 0 -0.040683199129030997 -0.026175590641044629 0 -0.052141319318952807 -0.045591435653044493 0 -0.040683199129030997 -0.026175590641044629 0 -0.038868901975114598 -0.044908858480966429 0 -0.043756849863330477 -0.060215068358139383 0 -0.030916226827309792 -0.058422776542695488 0 -0.052141319318952807 -0.045591435653044493 0 -0.038868901975114598 -0.044908858480966429 0 -0.043756849863330477 -0.060215068358139383 0 -0.055379950602752047 -0.010680595874188801 0 -0.046414023650903087 -0.00032657086204536661 0 -0.06610759644821336 0.0046327927481935594 0 -0.055379950602752047 -0.010680595874188801 0 -0.052371856096473567 -0.021508089796660419 0 -0.044814821683653881 -0.01309011856059674 0 -0.055379950602752047 -0.010680595874188801 0 -0.044814821683653881 -0.01309011856059674 0 -0.046414023650903087 -0.00032657086204536661 0 -0.070749469846304841 -0.020538008350758551 0 -0.055379950602752047 -0.010680595874188801 0 -0.052371856096473567 -0.021508089796660419 0 -0.070749469846304841 -0.020538008350758551 0 -0.058776695260901839 -0.030372243494756378 0 -0.052371856096473567 -0.021508089796660419 0 -0.058776695260901839 -0.030372243494756378 0 -0.052371856096473567 -0.021508089796660419 0 -0.040683199129030997 -0.026175590641044629 0 -0.040683199129030997 -0.026175590641044629 0 -0.029225078939109691 -0.0067597456290444773 0 -0.032520258332325518 -0.035135828942053499 0 -0.040683199129030997 -0.026175590641044629 0 -0.029225078939109691 -0.0067597456290444773 0 -0.052371856096473567 -0.021508089796660419 0 -0.040683199129030997 -0.026175590641044629 0 -0.044814821683653881 -0.01309011856059674 0 -0.040683199129030997 -0.026175590641044629 0 -0.044814821683653881 -0.01309011856059674 0 -0.029225078939109691 -0.0067597456290444773 0 -0.044814821683653881 -0.01309011856059674 0 -0.046414023650903087 -0.00032657086204536661 0 -0.029225078939109691 -0.0067597456290444773 0 -0.017135514851257739 -0.007068046532979072 0 -0.029225078939109691 -0.0067597456290444773 0 -0.01840312437406549 0.01157811338090039 0 -0.017135514851257739 -0.007068046532979072 0 -0.029225078939109691 -0.0067597456290444773 0 -0.015172060344448859 -0.017257570151518461 0 -0.029225078939109691 -0.0067597456290444773 0 -0.019001442126707131 -0.030292832022154201 0 -0.015172060344448859 -0.017257570151518461 0 -0.032520258332325518 -0.035135828942053499 0 -0.029225078939109691 -0.0067597456290444773 0 -0.032520258332325518 -0.035135828942053499 0 -0.029225078939109691 -0.0067597456290444773 0 -0.019001442126707131 -0.030292832022154201 0 -0.019001442126707131 -0.030292832022154201 0 -0.0047114028551372249 -0.023444793805012711 0 -0.015172060344448859 -0.017257570151518461 0 -0.019001442126707131 -0.030292832022154201 0 -0.0047114028551372249 -0.023444793805012711 0 -0.0067430223989054742 -0.037029472840029068 0 -0.0047114028551372249 -0.023444793805012711 0 -0.0067430223989054742 -0.037029472840029068 0 0.0083248151089817569 -0.028439918966423759 0 -0.0047114028551372249 -0.023444793805012711 0 -0.0067584952547709957 -0.0114534521297706 0 0.0034903030010913871 -0.01370431260535356 0 -0.0047114028551372249 -0.023444793805012711 0 -0.015172060344448859 -0.017257570151518461 0 -0.0067584952547709957 -0.0114534521297706 0 -0.017135514851257739 -0.007068046532979072 0 -0.015172060344448859 -0.017257570151518461 0 -0.0067584952547709957 -0.0114534521297706 0 -0.0067584952547709957 -0.0114534521297706 0 0.0020533051244099 -0.0035640895905235922 0 0.0034903030010913871 -0.01370431260535356 0 -0.0067584952547709957 -0.0114534521297706 0 -0.0079817712674107172 -0.001518037905350671 0 0.0020533051244099 -0.0035640895905235922 0 -0.017135514851257739 -0.007068046532979072 0 -0.0067584952547709957 -0.0114534521297706 0 -0.0079817712674107172 -0.001518037905350671 0 -0.038868901975114598 -0.044908858480966429 0 -0.030916226827309792 -0.058422776542695488 0 -0.02113233035970731 -0.046131210479950682 0 -0.030916226827309792 -0.058422776542695488 0 -0.02113233035970731 -0.046131210479950682 0 -0.016178457834350839 -0.063039655068715575 0 -0.032520258332325518 -0.035135828942053499 0 -0.019001442126707131 -0.030292832022154201 0 -0.02113233035970731 -0.046131210479950682 0 -0.032520258332325518 -0.035135828942053499 0 -0.038868901975114598 -0.044908858480966429 0 -0.02113233035970731 -0.046131210479950682 0 -0.02113233035970731 -0.046131210479950682 0 -0.0067430223989054742 -0.037029472840029068 0 -0.0036713122119488239 -0.051505838307399077 0 -0.019001442126707131 -0.030292832022154201 0 -0.02113233035970731 -0.046131210479950682 0 -0.0067430223989054742 -0.037029472840029068 0 -0.0067430223989054742 -0.037029472840029068 0 -0.0036713122119488239 -0.051505838307399077 0 0.0045013610606372146 -0.041874211663710817 0 -0.02113233035970731 -0.046131210479950682 0 -0.0036713122119488239 -0.051505838307399077 0 -0.016178457834350839 -0.063039655068715575 0 -0.0036713122119488239 -0.051505838307399077 0 -0.00087353409189452013 -0.064965971100641742 0 -0.016178457834350839 -0.063039655068715575 0 -0.00087353409189452013 -0.064965971100641742 0 -0.0091166406272196483 -0.083338187847176518 0 -0.016178457834350839 -0.063039655068715575 0 -0.0091166406272196483 -0.083338187847176518 0 -0.027562852837047149 -0.093287112550947765 0 -0.029996676371586931 -0.073724618800005831 0 -0.0091166406272196483 -0.083338187847176518 0 -0.016178457834350839 -0.063039655068715575 0 -0.029996676371586931 -0.073724618800005831 0 -0.030916226827309792 -0.058422776542695488 0 -0.016178457834350839 -0.063039655068715575 0 -0.029996676371586931 -0.073724618800005831 0 -0.043756849863330477 -0.060215068358139383 0 -0.029996676371586931 -0.073724618800005831 0 -0.047441327538904919 -0.080506822725943852 0 -0.043756849863330477 -0.060215068358139383 0 -0.030916226827309792 -0.058422776542695488 0 -0.029996676371586931 -0.073724618800005831 0 -0.027562852837047149 -0.093287112550947765 0 -0.029996676371586931 -0.073724618800005831 0 -0.047441327538904919 -0.080506822725943852 0 -0.027562852837047149 -0.093287112550947765 0 -0.047441327538904919 -0.080506822725943852 0 -0.041968901351125597 -0.096146372489243015 0 -0.027562852837047149 -0.093287112550947765 0 -0.047441327538904919 -0.080506822725943852 0 -0.047441327538904919 -0.080506822725943852 0 -0.053118900497411553 -0.093337952832652366 0 -0.041968901351125597 -0.096146372489243015 0 -0.065270936187460701 -0.086323627269761879 0 -0.047441327538904919 -0.080506822725943852 0 -0.053118900497411553 -0.093337952832652366 0 -0.062023815724181267 -0.058347935382259103 0 -0.043756849863330477 -0.060215068358139383 0 -0.047441327538904919 -0.080506822725943852 0 -0.065270936187460701 -0.086323627269761879 0 -0.062023815724181267 -0.058347935382259103 0 -0.047441327538904919 -0.080506822725943852 0 -0.067790494661074008 -0.1159572086282446 0 -0.059213806750165798 -0.1207213381732562 0 -0.059212676162634613 -0.1332174371409974 0 -0.054402693433579737 -0.11390932581874 0 -0.048360847709541341 -0.1055141517734291 0 -0.044702164735366007 -0.11556742271297051 0 -0.054402693433579737 -0.11390932581874 0 -0.05105368335759071 -0.1235200425705066 0 -0.044702164735366007 -0.11556742271297051 0 -0.054402693433579737 -0.11390932581874 0 -0.05105368335759071 -0.1235200425705066 0 -0.059213806750165798 -0.1207213381732562 0 -0.054402693433579737 -0.11390932581874 0 -0.062303563524087301 -0.1148596706269112 0 -0.058662499667136783 -0.1047073412464599 0 -0.054402693433579737 -0.11390932581874 0 -0.059213806750165798 -0.1207213381732562 0 -0.062303563524087301 -0.1148596706269112 0 -0.065270936187460701 -0.086323627269761879 0 -0.053118900497411553 -0.093337952832652366 0 -0.058662499667136783 -0.1047073412464599 0 -0.053118900497411553 -0.093337952832652366 0 -0.048360847709541341 -0.1055141517734291 0 -0.041968901351125597 -0.096146372489243015 0 -0.053118900497411553 -0.093337952832652366 0 -0.058662499667136783 -0.1047073412464599 0 -0.048360847709541341 -0.1055141517734291 0 -0.054402693433579737 -0.11390932581874 0 -0.058662499667136783 -0.1047073412464599 0 -0.048360847709541341 -0.1055141517734291 0 -0.048360847709541341 -0.1055141517734291 0 -0.041968901351125597 -0.096146372489243015 0 -0.033360578172723067 -0.10808582256324201 0 -0.027562852837047149 -0.093287112550947765 0 -0.041968901351125597 -0.096146372489243015 0 -0.033360578172723067 -0.10808582256324201 0 -0.033360578172723067 -0.10808582256324201 0 -0.044702164735366007 -0.11556742271297051 0 -0.03700669146975067 -0.1235558353273335 0 -0.033360578172723067 -0.10808582256324201 0 -0.03700669146975067 -0.1235558353273335 0 -0.023485941967188239 -0.11956145351084831 0 -0.048360847709541341 -0.1055141517734291 0 -0.033360578172723067 -0.10808582256324201 0 -0.044702164735366007 -0.11556742271297051 0 -0.05105368335759071 -0.1235200425705066 0 -0.044702164735366007 -0.11556742271297051 0 -0.03700669146975067 -0.1235558353273335 0 -0.033360578172723067 -0.10808582256324201 0 -0.023485941967188239 -0.11956145351084831 0 -0.0076843781351893757 -0.10606740237595171 0 -0.027562852837047149 -0.093287112550947765 0 -0.033360578172723067 -0.10808582256324201 0 -0.0076843781351893757 -0.10606740237595171 0 -0.027562852837047149 -0.093287112550947765 0 -0.0076843781351893757 -0.10606740237595171 0 -0.0091166406272196483 -0.083338187847176518 0 -0.027562852837047149 -0.093287112550947765 0 -0.0076843781351893757 -0.10606740237595171 0 -0.0091166406272196483 -0.083338187847176518 0 -0.0076843781351893757 -0.10606740237595171 0 0.0084840851135539117 -0.096376839781666168 0 -0.0076843781351893757 -0.10606740237595171 0 -0.01341318319950496 -0.12978821585405831 0 0.0019435164470631961 -0.13029362006472539 0 -0.023485941967188239 -0.11956145351084831 0 -0.0076843781351893757 -0.10606740237595171 0 -0.01341318319950496 -0.12978821585405831 0 -0.01341318319950496 -0.12978821585405831 0 -0.0074400666190326962 -0.14507421674357951 0 0.0019435164470631961 -0.13029362006472539 0 -0.03700669146975067 -0.1235558353273335 0 -0.023485941967188239 -0.11956145351084831 0 -0.029364481148596269 -0.13808578597173621 0 -0.023485941967188239 -0.11956145351084831 0 -0.01341318319950496 -0.12978821585405831 0 -0.029364481148596269 -0.13808578597173621 0 -0.01341318319950496 -0.12978821585405831 0 -0.029364481148596269 -0.13808578597173621 0 -0.0074400666190326962 -0.14507421674357951 0 -0.029364481148596269 -0.13808578597173621 0 -0.023246353730338291 -0.15212215766556131 0 -0.037123787055095232 -0.1570282924213387 0 -0.029364481148596269 -0.13808578597173621 0 -0.023246353730338291 -0.15212215766556131 0 -0.0074400666190326962 -0.14507421674357951 0 -0.023246353730338291 -0.15212215766556131 0 -0.0074400666190326962 -0.14507421674357951 0 -0.001892497474233291 -0.16332992046528971 0 -0.001892497474233291 -0.16332992046528971 0 -0.016315255526319881 -0.1826582720285333 0 -0.022977123763360498 -0.16811571651215601 0 -0.001892497474233291 -0.16332992046528971 0 -0.001330278071214278 -0.18489008768358481 0 -0.016315255526319881 -0.1826582720285333 0 -0.016315255526319881 -0.1826582720285333 0 -0.022977123763360498 -0.16811571651215601 0 -0.032869108608445441 -0.18318378537280461 0 -0.023246353730338291 -0.15212215766556131 0 -0.022977123763360498 -0.16811571651215601 0 -0.037123787055095232 -0.1570282924213387 0 -0.023246353730338291 -0.15212215766556131 0 -0.001892497474233291 -0.16332992046528971 0 -0.022977123763360498 -0.16811571651215601 0 -0.037123787055095232 -0.1570282924213387 0 -0.03857168728038237 -0.17167605330355329 0 -0.054024568659469363 -0.16538046504807369 0 -0.022977123763360498 -0.16811571651215601 0 -0.037123787055095232 -0.1570282924213387 0 -0.03857168728038237 -0.17167605330355329 0 -0.03857168728038237 -0.17167605330355329 0 -0.046715131078541493 -0.18163718201909809 0 -0.054024568659469363 -0.16538046504807369 0 -0.022977123763360498 -0.16811571651215601 0 -0.03857168728038237 -0.17167605330355329 0 -0.032869108608445441 -0.18318378537280461 0 -0.03857168728038237 -0.17167605330355329 0 -0.032869108608445441 -0.18318378537280461 0 -0.046715131078541493 -0.18163718201909809 0 -0.032869108608445441 -0.18318378537280461 0 -0.046715131078541493 -0.18163718201909809 0 -0.044780445029113783 -0.19570539390549471 0 -0.046715131078541493 -0.18163718201909809 0 -0.060031609173006442 -0.184143195514542 0 -0.054024568659469363 -0.16538046504807369 0 -0.046715131078541493 -0.18163718201909809 0 -0.060031609173006442 -0.184143195514542 0 -0.044780445029113783 -0.19570539390549471 0 -0.047859445094730953 -0.14547049828250469 0 -0.059212676162634613 -0.1332174371409974 0 -0.071900414983819549 -0.1434401581404269 0 -0.054024568659469363 -0.16538046504807369 0 -0.047859445094730953 -0.14547049828250469 0 -0.071900414983819549 -0.1434401581404269 0 -0.05105368335759071 -0.1235200425705066 0 -0.059213806750165798 -0.1207213381732562 0 -0.059212676162634613 -0.1332174371409974 0 -0.05105368335759071 -0.1235200425705066 0 -0.059212676162634613 -0.1332174371409974 0 -0.044899395446660648 -0.13276991985861569 0 -0.047859445094730953 -0.14547049828250469 0 -0.059212676162634613 -0.1332174371409974 0 -0.044899395446660648 -0.13276991985861569 0 -0.029364481148596269 -0.13808578597173621 0 -0.047859445094730953 -0.14547049828250469 0 -0.044899395446660648 -0.13276991985861569 0 -0.05105368335759071 -0.1235200425705066 0 -0.03700669146975067 -0.1235558353273335 0 -0.044899395446660648 -0.13276991985861569 0 -0.03700669146975067 -0.1235558353273335 0 -0.029364481148596269 -0.13808578597173621 0 -0.044899395446660648 -0.13276991985861569 0 -0.029364481148596269 -0.13808578597173621 0 -0.037123787055095232 -0.1570282924213387 0 -0.047859445094730953 -0.14547049828250469 0 -0.037123787055095232 -0.1570282924213387 0 -0.054024568659469363 -0.16538046504807369 0 -0.047859445094730953 -0.14547049828250469 0 -0.032549413998237353 -0.25471329752969468 0 -0.023225334532777159 -0.2428505806951807 0 -0.035961229380009077 -0.24146100971261719 0 -0.02868939473398097 -0.23472535687482651 0 -0.023225334532777159 -0.2428505806951807 0 -0.01871430339147475 -0.23304823668389771 0 -0.02868939473398097 -0.23472535687482651 0 -0.023225334532777159 -0.2428505806951807 0 -0.035961229380009077 -0.24146100971261719 0 -0.023225334532777159 -0.2428505806951807 0 -0.01247735014896041 -0.24501502556364771 0 -0.01438926550211969 -0.2379320350071146 0 -0.023225334532777159 -0.2428505806951807 0 -0.01438926550211969 -0.2379320350071146 0 -0.01871430339147475 -0.23304823668389771 0 -0.02021848155134303 -0.25554247062537899 0 -0.023225334532777159 -0.2428505806951807 0 -0.01247735014896041 -0.24501502556364771 0 -0.01247735014896041 -0.24501502556364771 0 0.0094824717876406221 -0.23622953251737161 0 -0.01247735014896041 -0.24501502556364771 0 -0.0083816709171281659 -0.23401414779484689 0 0.0094824717876406221 -0.23622953251737161 0 -0.01247735014896041 -0.24501502556364771 0 -0.01438926550211969 -0.2379320350071146 0 -0.0083816709171281659 -0.23401414779484689 0 -0.01438926550211969 -0.2379320350071146 0 -0.012630936626811209 -0.23286826757221021 0 -0.0083816709171281659 -0.23401414779484689 0 -0.01438926550211969 -0.2379320350071146 0 -0.012630936626811209 -0.23286826757221021 0 -0.01871430339147475 -0.23304823668389771 0 -0.0061721193154433817 -0.22939129141800901 0 -0.0140970911225353 -0.2216520242449509 0 -0.0092914808269759681 -0.2137333260714972 0 -0.013893705503887979 -0.22874868849908481 0 -0.0061721193154433817 -0.22939129141800901 0 -0.0140970911225353 -0.2216520242449509 0 -0.0083816709171281659 -0.23401414779484689 0 -0.0061721193154433817 -0.22939129141800901 0 0.0094824717876406221 -0.23622953251737161 0 -0.012630936626811209 -0.23286826757221021 0 -0.013893705503887979 -0.22874868849908481 0 -0.01871430339147475 -0.23304823668389771 0 -0.013893705503887979 -0.22874868849908481 0 -0.0084152299326026581 -0.23111501652535499 0 -0.0061721193154433817 -0.22939129141800901 0 -0.012630936626811209 -0.23286826757221021 0 -0.013893705503887979 -0.22874868849908481 0 -0.0084152299326026581 -0.23111501652535499 0 -0.012630936626811209 -0.23286826757221021 0 -0.0083816709171281659 -0.23401414779484689 0 -0.0084152299326026581 -0.23111501652535499 0 -0.0083816709171281659 -0.23401414779484689 0 -0.0084152299326026581 -0.23111501652535499 0 -0.0061721193154433817 -0.22939129141800901 0 -0.0083816709171281659 -0.23401414779484689 0 -0.0061721193154433817 -0.22939129141800901 0 -0.0084152299326026581 -0.23111501652535499 0 -0.0061721193154433817 -0.22939129141800901 0 -0.0140970911225353 -0.2216520242449509 0 -0.02458272952424697 -0.2248976247150882 0 -0.019922698049754089 -0.21245167706051851 0 -0.013893705503887979 -0.22874868849908481 0 -0.0140970911225353 -0.2216520242449509 0 -0.02458272952424697 -0.2248976247150882 0 -0.013893705503887979 -0.22874868849908481 0 -0.01871430339147475 -0.23304823668389771 0 -0.02458272952424697 -0.2248976247150882 0 -0.02868939473398097 -0.23472535687482651 0 -0.01871430339147475 -0.23304823668389771 0 -0.02458272952424697 -0.2248976247150882 0 -0.02458272952424697 -0.2248976247150882 0 -0.019922698049754089 -0.21245167706051851 0 -0.037120077841725593 -0.21238734797201511 0 -0.019922698049754089 -0.21245167706051851 0 -0.027167876339144258 -0.19762321593652959 0 -0.037120077841725593 -0.21238734797201511 0 -0.0140970911225353 -0.2216520242449509 0 -0.019922698049754089 -0.21245167706051851 0 -0.0092914808269759681 -0.2137333260714972 0 -0.0061721193154433817 -0.22939129141800901 0 0.0047167531058395417 -0.2066094322974148 0 -0.0092914808269759681 -0.2137333260714972 0 -0.01098224875298595 -0.1985622053365938 0 0.0047167531058395417 -0.2066094322974148 0 -0.0061721193154433817 -0.22939129141800901 0 -0.0092914808269759681 -0.2137333260714972 0 0.0047167531058395417 -0.2066094322974148 0 -0.019922698049754089 -0.21245167706051851 0 -0.0092914808269759681 -0.2137333260714972 0 -0.01098224875298595 -0.1985622053365938 0 -0.001330278071214278 -0.18489008768358481 0 -0.01098224875298595 -0.1985622053365938 0 0.0047167531058395417 -0.2066094322974148 0 -0.001330278071214278 -0.18489008768358481 0 -0.016315255526319881 -0.1826582720285333 0 -0.01098224875298595 -0.1985622053365938 0 -0.019922698049754089 -0.21245167706051851 0 -0.01098224875298595 -0.1985622053365938 0 -0.027167876339144258 -0.19762321593652959 0 -0.016315255526319881 -0.1826582720285333 0 -0.01098224875298595 -0.1985622053365938 0 -0.027167876339144258 -0.19762321593652959 0 -0.016315255526319881 -0.1826582720285333 0 -0.032869108608445441 -0.18318378537280461 0 -0.027167876339144258 -0.19762321593652959 0 -0.032869108608445441 -0.18318378537280461 0 -0.027167876339144258 -0.19762321593652959 0 -0.044780445029113783 -0.19570539390549471 0 -0.027167876339144258 -0.19762321593652959 0 -0.044780445029113783 -0.19570539390549471 0 -0.037120077841725593 -0.21238734797201511 0 -0.060031609173006442 -0.184143195514542 0 -0.044780445029113783 -0.19570539390549471 0 -0.056323773199979998 -0.1995432798285651 0 -0.060031609173006442 -0.184143195514542 0 -0.044780445029113783 -0.19570539390549471 0 -0.060031609173006442 -0.184143195514542 0 -0.056323773199979998 -0.1995432798285651 0 -0.067521060999945814 -0.19394379013683291 0 -0.044780445029113783 -0.19570539390549471 0 -0.056323773199979998 -0.1995432798285651 0 -0.047521920189389749 -0.20673832980062701 0 -0.056323773199979998 -0.1995432798285651 0 -0.05451669928400403 -0.22215105991680489 0 -0.056323773199979998 -0.1995432798285651 0 -0.05451669928400403 -0.22215105991680489 0 -0.067462837484648708 -0.21311519152855499 0 -0.056323773199979998 -0.1995432798285651 0 -0.047521920189389749 -0.20673832980062701 0 -0.05451669928400403 -0.22215105991680489 0 -0.044780445029113783 -0.19570539390549471 0 -0.047521920189389749 -0.20673832980062701 0 -0.037120077841725593 -0.21238734797201511 0 -0.047521920189389749 -0.20673832980062701 0 -0.037120077841725593 -0.21238734797201511 0 -0.05451669928400403 -0.22215105991680489 0 -0.02868939473398097 -0.23472535687482651 0 -0.02458272952424697 -0.2248976247150882 0 -0.040743389026363999 -0.2301582828500367 0 -0.037120077841725593 -0.21238734797201511 0 -0.040743389026363999 -0.2301582828500367 0 -0.05451669928400403 -0.22215105991680489 0 -0.02458272952424697 -0.2248976247150882 0 -0.037120077841725593 -0.21238734797201511 0 -0.040743389026363999 -0.2301582828500367 0 -0.05451669928400403 -0.22215105991680489 0 -0.052709625368028062 -0.24475884000504461 0 -0.066084175507042847 -0.23445177682925361 0 -0.05451669928400403 -0.22215105991680489 0 -0.052709625368028062 -0.24475884000504461 0 -0.040743389026363999 -0.2301582828500367 0 -0.05451669928400403 -0.22215105991680489 0 -0.052709625368028062 -0.24475884000504461 0 -0.032549413998237353 -0.25471329752969468 0 -0.052709625368028062 -0.24475884000504461 0 -0.035961229380009077 -0.24146100971261719 0 -0.040743389026363999 -0.2301582828500367 0 -0.052709625368028062 -0.24475884000504461 0 -0.035961229380009077 -0.24146100971261719 0 -0.02868939473398097 -0.23472535687482651 0 -0.040743389026363999 -0.2301582828500367 0 -0.035961229380009077 -0.24146100971261719 0 -0.098712312536955171 -0.25311690173674462 0 -0.074587204509722504 -0.25120113129960742 0 -0.081725850333490627 -0.22809157625423709 0 -0.074587204509722504 -0.25120113129960742 0 -0.052709625368028062 -0.24475884000504461 0 -0.066084175507042847 -0.23445177682925361 0 -0.074587204509722504 -0.25120113129960742 0 -0.066084175507042847 -0.23445177682925361 0 -0.081725850333490627 -0.22809157625423709 0 -0.066084175507042847 -0.23445177682925361 0 -0.081725850333490627 -0.22809157625423709 0 -0.067462837484648708 -0.21311519152855499 0 -0.05451669928400403 -0.22215105991680489 0 -0.066084175507042847 -0.23445177682925361 0 -0.067462837484648708 -0.21311519152855499 0 -0.081725850333490627 -0.22809157625423709 0 -0.090928665849241502 -0.2129711753850877 0 -0.101020999331133 -0.22679207096975071 0 -0.090928665849241502 -0.2129711753850877 0 -0.078504311825194795 -0.20033628668891321 0 -0.10332968612531079 -0.20046724020275669 0 -0.081725850333490627 -0.22809157625423709 0 -0.090928665849241502 -0.2129711753850877 0 -0.078504311825194795 -0.20033628668891321 0 -0.081725850333490627 -0.22809157625423709 0 -0.078504311825194795 -0.20033628668891321 0 -0.081725850333490627 -0.22809157625423709 0 -0.067462837484648708 -0.21311519152855499 0 -0.078504311825194795 -0.20033628668891321 0 -0.067462837484648708 -0.21311519152855499 0 -0.067521060999945814 -0.19394379013683291 0 -0.078504311825194795 -0.20033628668891321 0 -0.067521060999945814 -0.19394379013683291 0 -0.078504311825194795 -0.20033628668891321 0 -0.075282773316899115 -0.17258099712358921 0 -0.056323773199979998 -0.1995432798285651 0 -0.067462837484648708 -0.21311519152855499 0 -0.067521060999945814 -0.19394379013683291 0 -0.078504311825194795 -0.20033628668891321 0 -0.10332968612531079 -0.20046724020275669 0 -0.090961528396863417 -0.18493033921341459 0 -0.10332968612531079 -0.20046724020275669 0 -0.1178270218200517 -0.19021061341531409 0 -0.1056383729194886 -0.17414240943576281 0 -0.10332968612531079 -0.20046724020275669 0 -0.1178270218200517 -0.19021061341531409 0 -0.11639427452781741 -0.21487665543835521 0 -0.1178270218200517 -0.19021061341531409 0 -0.11639427452781741 -0.21487665543835521 0 -0.13546080998119189 -0.2110319261417696 0 -0.10332968612531079 -0.20046724020275669 0 -0.101020999331133 -0.22679207096975071 0 -0.10332968612531079 -0.20046724020275669 0 -0.11639427452781741 -0.21487665543835521 0 -0.101020999331133 -0.22679207096975071 0 -0.090928665849241502 -0.2129711753850877 0 -0.10332968612531079 -0.20046724020275669 0 -0.101020999331133 -0.22679207096975071 0 -0.11639427452781741 -0.21487665543835521 0 -0.101020999331133 -0.22679207096975071 0 -0.1234847116318686 -0.23681649950817571 0 -0.098712312536955171 -0.25311690173674462 0 -0.1190216414505445 -0.25916129566749718 0 -0.1234847116318686 -0.23681649950817571 0 -0.098712312536955171 -0.25311690173674462 0 -0.081725850333490627 -0.22809157625423709 0 -0.101020999331133 -0.22679207096975071 0 -0.098712312536955171 -0.25311690173674462 0 -0.101020999331133 -0.22679207096975071 0 -0.098712312536955171 -0.25311690173674462 0 -0.101020999331133 -0.22679207096975071 0 -0.1234847116318686 -0.23681649950817571 0 -0.083191107045956031 -0.15153427661074939 0 -0.081393552917400885 -0.13235687645585489 0 -0.071900414983819549 -0.1434401581404269 0 -0.083191107045956031 -0.15153427661074939 0 -0.093726457866073073 -0.14513192673215611 0 -0.081393552917400885 -0.13235687645585489 0 -0.083191107045956031 -0.15153427661074939 0 -0.093726457866073073 -0.14513192673215611 0 -0.091614916515284056 -0.1601992878961796 0 -0.089905655984672608 -0.12441342884404601 0 -0.093726457866073073 -0.14513192673215611 0 -0.081393552917400885 -0.13235687645585489 0 -0.089905655984672608 -0.12441342884404601 0 -0.093726457866073073 -0.14513192673215611 0 -0.068518056650742842 -0.1142993191572643 0 -0.071900414983819549 -0.1434401581404269 0 -0.067790494661074008 -0.1159572086282446 0 -0.059212676162634613 -0.1332174371409974 0 -0.071900414983819549 -0.1434401581404269 0 -0.068518056650742842 -0.1142993191572643 0 -0.081393552917400885 -0.13235687645585489 0 -0.071900414983819549 -0.1434401581404269 0 -0.083191107045956031 -0.15153427661074939 0 -0.071900414983819549 -0.1434401581404269 0 -0.075282773316899115 -0.17258099712358921 0 -0.054024568659469363 -0.16538046504807369 0 -0.071900414983819549 -0.1434401581404269 0 -0.075282773316899115 -0.17258099712358921 0 -0.071900414983819549 -0.1434401581404269 0 -0.075282773316899115 -0.17258099712358921 0 -0.060031609173006442 -0.184143195514542 0 -0.054024568659469363 -0.16538046504807369 0 -0.075282773316899115 -0.17258099712358921 0 -0.078504311825194795 -0.20033628668891321 0 -0.075282773316899115 -0.17258099712358921 0 -0.060031609173006442 -0.184143195514542 0 -0.067521060999945814 -0.19394379013683291 0 -0.075282773316899115 -0.17258099712358921 0 -0.060031609173006442 -0.184143195514542 0 -0.075282773316899115 -0.17258099712358921 0 -0.078504311825194795 -0.20033628668891321 0 -0.075282773316899115 -0.17258099712358921 0 -0.090961528396863417 -0.18493033921341459 0 -0.075282773316899115 -0.17258099712358921 0 -0.090961528396863417 -0.18493033921341459 0 -0.091614916515284056 -0.1601992878961796 0 -0.083191107045956031 -0.15153427661074939 0 -0.075282773316899115 -0.17258099712358921 0 -0.091614916515284056 -0.1601992878961796 0 -0.075282773316899115 -0.17258099712358921 0 -0.091614916515284056 -0.1601992878961796 0 -0.091614916515284056 -0.1601992878961796 0 -0.1056383729194886 -0.17414240943576281 0 -0.10794705971366821 -0.14781757866876899 0 -0.1056383729194886 -0.17414240943576281 0 -0.10794705971366821 -0.14781757866876899 0 -0.10332968612531079 -0.20046724020275669 0 -0.1056383729194886 -0.17414240943576281 0 -0.090961528396863417 -0.18493033921341459 0 -0.091614916515284056 -0.1601992878961796 0 -0.1056383729194886 -0.17414240943576281 0 -0.10332968612531079 -0.20046724020275669 0 -0.090961528396863417 -0.18493033921341459 0 -0.1056383729194886 -0.17414240943576281 0 -0.1178270218200517 -0.19021061341531409 0 -0.1056383729194886 -0.17414240943576281 0 -0.1203980020695488 -0.17522539075038771 0 -0.1178270218200517 -0.19021061341531409 0 -0.1203980020695488 -0.17522539075038771 0 -0.13255910040130081 -0.17821706989431349 0 -0.1056383729194886 -0.17414240943576281 0 -0.1189870006635098 -0.1614424817728346 0 -0.10794705971366821 -0.14781757866876899 0 -0.1056383729194886 -0.17414240943576281 0 -0.1203980020695488 -0.17522539075038771 0 -0.1189870006635098 -0.1614424817728346 0 -0.1203980020695488 -0.17522539075038771 0 -0.1189870006635098 -0.1614424817728346 0 -0.13128650507453629 -0.1665426194287801 0 -0.1189870006635098 -0.1614424817728346 0 -0.1180906566456519 -0.15076751780451081 0 -0.12722801308593271 -0.15560127441722121 0 -0.1180906566456519 -0.15076751780451081 0 -0.12500482043435651 -0.1432432869889336 0 -0.12722801308593271 -0.15560127441722121 0 -0.1180906566456519 -0.15076751780451081 0 -0.12500482043435651 -0.1432432869889336 0 -0.1112256143288449 -0.1453320438900105 0 -0.12500482043435651 -0.1432432869889336 0 -0.1112256143288449 -0.1453320438900105 0 -0.1180906566456519 -0.15076751780451081 0 -0.1112256143288449 -0.1453320438900105 0 -0.10794705971366821 -0.14781757866876899 0 -0.1112256143288449 -0.1453320438900105 0 -0.1081238048690983 -0.14580223976815371 0 -0.11389641200315399 -0.13602298034534349 0 -0.1112256143288449 -0.1453320438900105 0 -0.10794705971366821 -0.14781757866876899 0 -0.1112256143288449 -0.1453320438900105 0 -0.1081238048690983 -0.14580223976815371 0 -0.1189870006635098 -0.1614424817728346 0 -0.1180906566456519 -0.15076751780451081 0 -0.10794705971366821 -0.14781757866876899 0 -0.091614916515284056 -0.1601992878961796 0 -0.10794705971366821 -0.14781757866876899 0 -0.1037225720589752 -0.14646941212445619 0 -0.091614916515284056 -0.1601992878961796 0 -0.10794705971366821 -0.14781757866876899 0 -0.10794705971366821 -0.14781757866876899 0 -0.1081238048690983 -0.14580223976815371 0 -0.1081238048690983 -0.14580223976815371 0 -0.1037225720589752 -0.14646941212445619 0 -0.1037225720589752 -0.14646941212445619 0 -0.098388315678689248 -0.13862074285143211 0 -0.10414090551821011 -0.13849771725299989 0 -0.1081238048690983 -0.14580223976815371 0 -0.1037225720589752 -0.14646941212445619 0 -0.10414090551821011 -0.13849771725299989 0 -0.10794705971366821 -0.14781757866876899 0 -0.1081238048690983 -0.14580223976815371 0 -0.1037225720589752 -0.14646941212445619 0 -0.1112256143288449 -0.1453320438900105 0 -0.10794705971366821 -0.14781757866876899 0 -0.1081238048690983 -0.14580223976815371 0 -0.093726457866073073 -0.14513192673215611 0 -0.1037225720589752 -0.14646941212445619 0 -0.098388315678689248 -0.13862074285143211 0 -0.093726457866073073 -0.14513192673215611 0 -0.091614916515284056 -0.1601992878961796 0 -0.1037225720589752 -0.14646941212445619 0 -0.089905655984672608 -0.12441342884404601 0 -0.093726457866073073 -0.14513192673215611 0 -0.098388315678689248 -0.13862074285143211 0 -0.1081238048690983 -0.14580223976815371 0 -0.1097489604694359 -0.12727138220150791 0 -0.1081238048690983 -0.14580223976815371 0 -0.10414090551821011 -0.13849771725299989 0 -0.1097489604694359 -0.12727138220150791 0 -0.089905655984672608 -0.12441342884404601 0 -0.100793213343625 -0.13320206721838321 0 -0.1097489604694359 -0.12727138220150791 0 -0.089905655984672608 -0.12441342884404601 0 -0.098388315678689248 -0.13862074285143211 0 -0.100793213343625 -0.13320206721838321 0 -0.098388315678689248 -0.13862074285143211 0 -0.100793213343625 -0.13320206721838321 0 -0.10414090551821011 -0.13849771725299989 0 -0.100793213343625 -0.13320206721838321 0 -0.10414090551821011 -0.13849771725299989 0 -0.1097489604694359 -0.12727138220150791 0 -0.1097489604694359 -0.12727138220150791 0 -0.11389641200315399 -0.13602298034534349 0 -0.1199214401770993 -0.1284407076122579 0 -0.1112256143288449 -0.1453320438900105 0 -0.12975892229568811 -0.1312815896734319 0 -0.1081238048690983 -0.14580223976815371 0 -0.1097489604694359 -0.12727138220150791 0 -0.11389641200315399 -0.13602298034534349 0 -0.12500482043435651 -0.1432432869889336 0 -0.1112256143288449 -0.1453320438900105 0 -0.12975892229568811 -0.1312815896734319 0 -0.11389641200315399 -0.13602298034534349 0 -0.1199214401770993 -0.1284407076122579 0 -0.12975892229568811 -0.1312815896734319 0 -0.1112256143288449 -0.1453320438900105 0 -0.11389641200315399 -0.13602298034534349 0 -0.12975892229568811 -0.1312815896734319 0 -0.11971335000294719 -0.1182033562068175 0 -0.1199214401770993 -0.1284407076122579 0 -0.12975892229568811 -0.1312815896734319 0 -0.12975892229568811 -0.1312815896734319 0 -0.1405403200892941 -0.13263453442451961 0 -0.14829223026253421 -0.117231135456857 0 -0.12500482043435651 -0.1432432869889336 0 -0.12975892229568811 -0.1312815896734319 0 -0.1346698380689309 -0.14177819007923781 0 -0.12975892229568811 -0.1312815896734319 0 -0.1405403200892941 -0.13263453442451961 0 -0.1346698380689309 -0.14177819007923781 0 -0.1405403200892941 -0.13263453442451961 0 -0.15028599074513299 -0.137439833723355 0 -0.14829223026253421 -0.117231135456857 0 -0.15028599074513299 -0.137439833723355 0 -0.1346698380689309 -0.14177819007923781 0 -0.1581140618090166 -0.1382243362684635 0 -0.15028599074513299 -0.137439833723355 0 -0.14829223026253421 -0.117231135456857 0 -0.1346698380689309 -0.14177819007923781 0 -0.1581140618090166 -0.1382243362684635 0 -0.15028599074513299 -0.137439833723355 0 -0.15531150445838751 -0.12674132404997959 0 -0.14829223026253421 -0.117231135456857 0 -0.1405403200892941 -0.13263453442451961 0 -0.15028599074513299 -0.137439833723355 0 -0.1346698380689309 -0.14177819007923781 0 -0.15028599074513299 -0.137439833723355 0 -0.15531150445838751 -0.12674132404997959 0 -0.1581140618090166 -0.1382243362684635 0 -0.14769440778514159 -0.14546063853941629 0 -0.1346698380689309 -0.14177819007923781 0 -0.1581140618090166 -0.1382243362684635 0 -0.15557968438136119 -0.14685719009843709 0 -0.14292233082965339 -0.15591654911506089 0 -0.1618897113376335 -0.15394969992860449 0 -0.15557968438136119 -0.14685719009843709 0 -0.14769440778514159 -0.14546063853941629 0 -0.14292233082965339 -0.15591654911506089 0 -0.15557968438136119 -0.14685719009843709 0 -0.14769440778514159 -0.14546063853941629 0 -0.1581140618090166 -0.1382243362684635 0 -0.14769440778514159 -0.14546063853941629 0 -0.14292233082965339 -0.15591654911506089 0 -0.1346698380689309 -0.14177819007923781 0 -0.12500482043435651 -0.1432432869889336 0 -0.14292233082965339 -0.15591654911506089 0 -0.12722801308593271 -0.15560127441722121 0 -0.12500482043435651 -0.1432432869889336 0 -0.14292233082965339 -0.15591654911506089 0 -0.1346698380689309 -0.14177819007923781 0 -0.12500482043435651 -0.1432432869889336 0 -0.14292233082965339 -0.15591654911506089 0 -0.12500482043435651 -0.1432432869889336 0 -0.1346698380689309 -0.14177819007923781 0 -0.1189870006635098 -0.1614424817728346 0 -0.12722801308593271 -0.15560127441722121 0 -0.13128650507453629 -0.1665426194287801 0 -0.14292233082965339 -0.15591654911506089 0 -0.13128650507453629 -0.1665426194287801 0 -0.14562458339727269 -0.17285295062286291 0 -0.14292233082965339 -0.15591654911506089 0 -0.12722801308593271 -0.15560127441722121 0 -0.13128650507453629 -0.1665426194287801 0 -0.1178270218200517 -0.19021061341531409 0 -0.13255910040130081 -0.17821706989431349 0 -0.14265412539958111 -0.19193770756715911 0 -0.13255910040130081 -0.17821706989431349 0 -0.14562458339727269 -0.17285295062286291 0 -0.14265412539958111 -0.19193770756715911 0 -0.1203980020695488 -0.17522539075038771 0 -0.13128650507453629 -0.1665426194287801 0 -0.13255910040130081 -0.17821706989431349 0 -0.13128650507453629 -0.1665426194287801 0 -0.13255910040130081 -0.17821706989431349 0 -0.14562458339727269 -0.17285295062286291 0 -0.14562458339727269 -0.17285295062286291 0 -0.16077906622300281 -0.16818888795640299 0 -0.16147030060636311 -0.18554653348412239 0 -0.14562458339727269 -0.17285295062286291 0 -0.16147030060636311 -0.18554653348412239 0 -0.14265412539958111 -0.19193770756715911 0 -0.14292233082965339 -0.15591654911506089 0 -0.16077906622300281 -0.16818888795640299 0 -0.14292233082965339 -0.15591654911506089 0 -0.16077906622300281 -0.16818888795640299 0 -0.1618897113376335 -0.15394969992860449 0 -0.14292233082965339 -0.15591654911506089 0 -0.14562458339727269 -0.17285295062286291 0 -0.16077906622300281 -0.16818888795640299 0 -0.16077906622300281 -0.16818888795640299 0 -0.1795336275226701 -0.15465697163903699 0 -0.1618897113376335 -0.15394969992860449 0 -0.16077906622300281 -0.16818888795640299 0 -0.16147030060636311 -0.18554653348412239 0 -0.17863200592097761 -0.18046674968370971 0 -0.16147030060636311 -0.18554653348412239 0 -0.17863200592097761 -0.18046674968370971 0 -0.175550283460189 -0.19365409442573669 0 -0.16077906622300281 -0.16818888795640299 0 -0.17863200592097761 -0.18046674968370971 0 -0.17863200592097761 -0.18046674968370971 0 -0.19473543950132599 -0.17822655357882949 0 -0.18880341127890779 -0.18685459464046381 0 -0.17863200592097761 -0.18046674968370971 0 -0.18312592140216061 -0.16942697893929071 0 -0.19473543950132599 -0.17822655357882949 0 -0.16077906622300281 -0.16818888795640299 0 -0.17863200592097761 -0.18046674968370971 0 -0.18312592140216061 -0.16942697893929071 0 -0.17863200592097761 -0.18046674968370971 0 -0.18880341127890779 -0.18685459464046381 0 -0.17863200592097761 -0.18046674968370971 0 -0.175550283460189 -0.19365409442573669 0 -0.18880341127890779 -0.18685459464046381 0 -0.16077906622300281 -0.16818888795640299 0 -0.18312592140216061 -0.16942697893929071 0 -0.1795336275226701 -0.15465697163903699 0 -0.1795336275226701 -0.15465697163903699 0 -0.1815582855491025 -0.13467048245768931 0 -0.19656250219915619 -0.14614244331865439 0 -0.1795336275226701 -0.15465697163903699 0 -0.1815582855491025 -0.13467048245768931 0 -0.1697176730976605 -0.14521654137760431 0 -0.1815582855491025 -0.13467048245768931 0 -0.1581140618090166 -0.1382243362684635 0 -0.16750039760822599 -0.1210386560133071 0 -0.15531150445838751 -0.12674132404997959 0 -0.1581140618090166 -0.1382243362684635 0 -0.16750039760822599 -0.1210386560133071 0 -0.1815582855491025 -0.13467048245768931 0 -0.1581140618090166 -0.1382243362684635 0 -0.1697176730976605 -0.14521654137760431 0 -0.1815582855491025 -0.13467048245768931 0 -0.1581140618090166 -0.1382243362684635 0 -0.15557968438136119 -0.14685719009843709 0 -0.1581140618090166 -0.1382243362684635 0 -0.1697176730976605 -0.14521654137760431 0 -0.1795336275226701 -0.15465697163903699 0 -0.1618897113376335 -0.15394969992860449 0 -0.1697176730976605 -0.14521654137760431 0 -0.15557968438136119 -0.14685719009843709 0 -0.1618897113376335 -0.15394969992860449 0 -0.1697176730976605 -0.14521654137760431 0 -0.17072838630347209 -0.25267455159468022 0 -0.14210774621310221 -0.2585177989733945 0 -0.15309459814233201 -0.2318532388682249 0 -0.14210774621310221 -0.2585177989733945 0 -0.1234847116318686 -0.23681649950817571 0 -0.15309459814233201 -0.2318532388682249 0 -0.11639427452781741 -0.21487665543835521 0 -0.1234847116318686 -0.23681649950817571 0 -0.13546080998119189 -0.2110319261417696 0 -0.1234847116318686 -0.23681649950817571 0 -0.15309459814233201 -0.2318532388682249 0 -0.13546080998119189 -0.2110319261417696 0 -0.15309459814233201 -0.2318532388682249 0 -0.13546080998119189 -0.2110319261417696 0 -0.13546080998119189 -0.2110319261417696 0 -0.14265412539958111 -0.19193770756715911 0 -0.16399130241758789 -0.20710936859089171 0 -0.15309459814233201 -0.2318532388682249 0 -0.13546080998119189 -0.2110319261417696 0 -0.16399130241758789 -0.20710936859089171 0 -0.1178270218200517 -0.19021061341531409 0 -0.13546080998119189 -0.2110319261417696 0 -0.14265412539958111 -0.19193770756715911 0 -0.1178270218200517 -0.19021061341531409 0 -0.13546080998119189 -0.2110319261417696 0 -0.16147030060636311 -0.18554653348412239 0 -0.14265412539958111 -0.19193770756715911 0 -0.16399130241758789 -0.20710936859089171 0 -0.16147030060636311 -0.18554653348412239 0 -0.175550283460189 -0.19365409442573669 0 -0.16399130241758789 -0.20710936859089171 0 -0.175550283460189 -0.19365409442573669 0 -0.18374100224327561 -0.20603509293676539 0 -0.18880341127890779 -0.18685459464046381 0 -0.175550283460189 -0.19365409442573669 0 -0.18374100224327561 -0.20603509293676539 0 -0.16399130241758789 -0.20710936859089171 0 -0.18374100224327561 -0.20603509293676539 0 -0.16399130241758789 -0.20710936859089171 0 -0.17368033818725609 -0.22783062114939129 0 -0.15309459814233201 -0.2318532388682249 0 -0.16399130241758789 -0.20710936859089171 0 -0.17368033818725609 -0.22783062114939129 0 -0.17368033818725609 -0.22783062114939129 0 -0.18433619587835781 -0.24326141651095701 0 -0.18866655403725721 -0.22761729255112689 0 -0.18374100224327561 -0.20603509293676539 0 -0.17368033818725609 -0.22783062114939129 0 -0.18866655403725721 -0.22761729255112689 0 -0.17072838630347209 -0.25267455159468022 0 -0.17368033818725609 -0.22783062114939129 0 -0.18433619587835781 -0.24326141651095701 0 -0.17072838630347209 -0.25267455159468022 0 -0.15309459814233201 -0.2318532388682249 0 -0.17072838630347209 -0.25267455159468022 0 -0.15309459814233201 -0.2318532388682249 0 -0.17368033818725609 -0.22783062114939129 0 -0.2061036536383313 -0.2545790306017891 0 -0.21331627539138501 -0.240919888355382 0 -0.20013376442127701 -0.23799109072085131 0 -0.21331627539138501 -0.240919888355382 0 -0.20013376442127701 -0.23799109072085131 0 -0.21677573565489941 -0.2269211822189188 0 -0.18433619587835781 -0.24326141651095701 0 -0.20013376442127701 -0.23799109072085131 0 -0.18866655403725721 -0.22761729255112689 0 -0.19311314254712919 -0.25232173563348459 0 -0.2061036536383313 -0.2545790306017891 0 -0.20013376442127701 -0.23799109072085131 0 -0.19311314254712919 -0.25232173563348459 0 -0.18433619587835781 -0.24326141651095701 0 -0.20013376442127701 -0.23799109072085131 0 -0.18866655403725721 -0.22761729255112689 0 -0.2049701883108534 -0.2174319757960114 0 -0.20013376442127701 -0.23799109072085131 0 -0.18866655403725721 -0.22761729255112689 0 -0.2049701883108534 -0.2174319757960114 0 -0.20013376442127701 -0.23799109072085131 0 -0.21677573565489941 -0.2269211822189188 0 -0.2049701883108534 -0.2174319757960114 0 -0.2049701883108534 -0.2174319757960114 0 -0.19877475521341029 -0.20752484367620949 0 -0.22127382258445061 -0.20724665904089751 0 -0.21677573565489941 -0.2269211822189188 0 -0.2049701883108534 -0.2174319757960114 0 -0.22127382258445061 -0.20724665904089751 0 -0.2049701883108534 -0.2174319757960114 0 -0.22127382258445061 -0.20724665904089751 0 -0.18374100224327561 -0.20603509293676539 0 -0.18866655403725721 -0.22761729255112689 0 -0.19877475521341029 -0.20752484367620949 0 -0.18866655403725721 -0.22761729255112689 0 -0.2049701883108534 -0.2174319757960114 0 -0.19877475521341029 -0.20752484367620949 0 -0.18374100224327561 -0.20603509293676539 0 -0.19877475521341029 -0.20752484367620949 0 -0.1999529142527138 -0.1938567043623039 0 -0.18374100224327561 -0.20603509293676539 0 -0.1999529142527138 -0.1938567043623039 0 -0.18880341127890779 -0.18685459464046381 0 -0.1999529142527138 -0.1938567043623039 0 -0.18880341127890779 -0.18685459464046381 0 -0.1999529142527138 -0.1938567043623039 0 -0.22127382258445061 -0.20724665904089751 0 -0.1999529142527138 -0.1938567043623039 0 -0.21402432186434159 -0.19067641790992501 0 -0.22127382258445061 -0.20724665904089751 0 -0.1999529142527138 -0.1938567043623039 0 -0.21402432186434159 -0.19067641790992501 0 -0.2048611572427671 -0.1836512615525962 0 -0.19877475521341029 -0.20752484367620949 0 -0.1999529142527138 -0.1938567043623039 0 -0.22127382258445061 -0.20724665904089751 0 -0.2268015245341512 -0.18913851837288259 0 -0.23859934233157329 -0.19642294307608871 0 -0.22127382258445061 -0.20724665904089751 0 -0.23859934233157329 -0.19642294307608871 0 -0.22127382258445061 -0.20724665904089751 0 -0.2268015245341512 -0.18913851837288259 0 -0.23859934233157329 -0.19642294307608871 0 -0.23622223907057449 -0.17811531148458681 0 -0.21402432186434159 -0.19067641790992501 0 -0.2268015245341512 -0.18913851837288259 0 -0.22127382258445061 -0.20724665904089751 0 -0.23859934233157329 -0.19642294307608871 0 -0.25328323905258199 -0.19989932017130971 0 -0.25635833317692719 -0.18532842611283559 0 -0.23859934233157329 -0.19642294307608871 0 -0.25635833317692719 -0.18532842611283559 0 -0.23859934233157329 -0.19642294307608871 0 -0.24349599673476849 -0.20701396575694631 0 -0.25328323905258199 -0.19989932017130971 0 -0.23859934233157329 -0.19642294307608871 0 -0.24166770587196959 -0.22005442354565541 0 -0.24349599673476849 -0.20701396575694631 0 -0.24327366739152129 -0.22106299933557089 0 -0.26073165293652012 -0.21351444326509811 0 -0.23859934233157329 -0.19642294307608871 0 -0.24349599673476849 -0.20701396575694631 0 -0.24166770587196959 -0.22005442354565541 0 -0.24349599673476849 -0.20701396575694631 0 -0.24166770587196959 -0.22005442354565541 0 -0.24327366739152129 -0.22106299933557089 0 -0.22127382258445061 -0.20724665904089751 0 -0.24166770587196959 -0.22005442354565541 0 -0.22127382258445061 -0.20724665904089751 0 -0.2316809878282686 -0.22607549012178241 0 -0.24166770587196959 -0.22005442354565541 0 -0.23859934233157329 -0.19642294307608871 0 -0.22127382258445061 -0.20724665904089751 0 -0.24166770587196959 -0.22005442354565541 0 -0.21677573565489941 -0.2269211822189188 0 -0.2316809878282686 -0.22607549012178241 0 -0.22901148932501719 -0.2426178838696329 0 -0.21677573565489941 -0.2269211822189188 0 -0.22127382258445061 -0.20724665904089751 0 -0.2316809878282686 -0.22607549012178241 0 -0.2316809878282686 -0.22607549012178241 0 -0.24327366739152129 -0.22106299933557089 0 -0.2316809878282686 -0.22607549012178241 0 -0.24327366739152129 -0.22106299933557089 0 -0.24529662185020609 -0.24800308606113189 0 -0.2316809878282686 -0.22607549012178241 0 -0.24166770587196959 -0.22005442354565541 0 -0.24327366739152129 -0.22106299933557089 0 -0.24327366739152129 -0.22106299933557089 0 -0.24529662185020609 -0.24800308606113189 0 -0.25092660033086928 -0.2318764600486789 0 -0.24327366739152129 -0.22106299933557089 0 -0.24693301325251121 -0.22336114135042201 0 -0.25092660033086928 -0.2318764600486789 0 -0.24166770587196959 -0.22005442354565541 0 -0.24327366739152129 -0.22106299933557089 0 -0.24327366739152129 -0.22106299933557089 0 -0.24693301325251121 -0.22336114135042201 0 -0.2316809878282686 -0.22607549012178241 0 -0.24529662185020609 -0.24800308606113189 0 -0.22901148932501719 -0.2426178838696329 0 -0.24327366739152129 -0.22106299933557089 0 -0.24529662185020609 -0.24800308606113189 0 -0.22594205141076409 -0.25909075745192978 0 -0.21331627539138501 -0.240919888355382 0 -0.22901148932501719 -0.2426178838696329 0 -0.22594205141076409 -0.25909075745192978 0 -0.24529662185020609 -0.24800308606113189 0 -0.22901148932501719 -0.2426178838696329 0 -0.21331627539138501 -0.240919888355382 0 -0.21677573565489941 -0.2269211822189188 0 -0.22901148932501719 -0.2426178838696329 0 -0.21330436302111769 -0.14778959257961061 0 -0.2068196243435857 -0.12866994851781721 0 -0.19656250219915619 -0.14614244331865439 0 -0.21330436302111769 -0.14778959257961061 0 -0.19656250219915619 -0.14614244331865439 0 -0.20194946784282661 -0.16559573183847409 0 -0.21330436302111769 -0.14778959257961061 0 -0.2068196243435857 -0.12866994851781721 0 -0.22749825566753021 -0.13234541910737049 0 -0.1815582855491025 -0.13467048245768931 0 -0.2068196243435857 -0.12866994851781721 0 -0.19656250219915619 -0.14614244331865439 0 -0.1795336275226701 -0.15465697163903699 0 -0.19656250219915619 -0.14614244331865439 0 -0.20194946784282661 -0.16559573183847409 0 -0.18312592140216061 -0.16942697893929071 0 -0.20194946784282661 -0.16559573183847409 0 -0.19473543950132599 -0.17822655357882949 0 -0.18312592140216061 -0.16942697893929071 0 -0.1795336275226701 -0.15465697163903699 0 -0.20194946784282661 -0.16559573183847409 0 -0.20194946784282661 -0.16559573183847409 0 -0.19473543950132599 -0.17822655357882949 0 -0.2048611572427671 -0.1836512615525962 0 -0.1999529142527138 -0.1938567043623039 0 -0.19473543950132599 -0.17822655357882949 0 -0.2048611572427671 -0.1836512615525962 0 -0.1999529142527138 -0.1938567043623039 0 -0.19473543950132599 -0.17822655357882949 0 -0.18880341127890779 -0.18685459464046381 0 -0.20194946784282661 -0.16559573183847409 0 -0.2048611572427671 -0.1836512615525962 0 -0.21723219070762589 -0.1794889462209443 0 -0.21402432186434159 -0.19067641790992501 0 -0.2048611572427671 -0.1836512615525962 0 -0.21723219070762589 -0.1794889462209443 0 -0.21330436302111769 -0.14778959257961061 0 -0.20194946784282661 -0.16559573183847409 0 -0.22003667966248469 -0.1649088211935523 0 -0.20194946784282661 -0.16559573183847409 0 -0.21723219070762589 -0.1794889462209443 0 -0.22003667966248469 -0.1649088211935523 0 -0.2338451358095765 -0.1598076798930847 0 -0.22003667966248469 -0.1649088211935523 0 -0.2288566788723205 -0.14759103700141921 0 -0.2338451358095765 -0.1598076798930847 0 -0.22003667966248469 -0.1649088211935523 0 -0.23622223907057449 -0.17811531148458681 0 -0.2268015245341512 -0.18913851837288259 0 -0.21723219070762589 -0.1794889462209443 0 -0.23622223907057449 -0.17811531148458681 0 -0.21723219070762589 -0.1794889462209443 0 -0.22003667966248469 -0.1649088211935523 0 -0.23622223907057449 -0.17811531148458681 0 -0.21402432186434159 -0.19067641790992501 0 -0.2268015245341512 -0.18913851837288259 0 -0.21723219070762589 -0.1794889462209443 0 -0.23859934233157329 -0.19642294307608871 0 -0.23622223907057449 -0.17811531148458681 0 -0.25635833317692719 -0.18532842611283559 0 -0.23622223907057449 -0.17811531148458681 0 -0.25635833317692719 -0.18532842611283559 0 -0.25064182486038422 -0.16754634941910679 0 -0.23859934233157329 -0.19642294307608871 0 -0.23622223907057449 -0.17811531148458681 0 -0.2338451358095765 -0.1598076798930847 0 -0.23622223907057449 -0.17811531148458681 0 -0.2338451358095765 -0.1598076798930847 0 -0.23622223907057449 -0.17811531148458681 0 -0.25064182486038422 -0.16754634941910679 0 -0.2338451358095765 -0.1598076798930847 0 -0.24767147066233511 -0.1513775437953267 0 -0.25064182486038422 -0.16754634941910679 0 -0.24767147066233511 -0.1513775437953267 0 -0.23982981867410991 -0.14026155754870681 0 -0.25256765633437772 -0.1346759160703011 0 -0.24767147066233511 -0.1513775437953267 0 -0.2288566788723205 -0.14759103700141921 0 -0.23982981867410991 -0.14026155754870681 0 -0.2338451358095765 -0.1598076798930847 0 -0.24767147066233511 -0.1513775437953267 0 -0.2288566788723205 -0.14759103700141921 0 -0.21330436302111769 -0.14778959257961061 0 -0.22003667966248469 -0.1649088211935523 0 -0.2288566788723205 -0.14759103700141921 0 -0.21330436302111769 -0.14778959257961061 0 -0.2288566788723205 -0.14759103700141921 0 -0.22749825566753021 -0.13234541910737049 0 -0.2068196243435857 -0.12866994851781721 0 -0.22749825566753021 -0.13234541910737049 0 -0.22238174030824401 -0.1201484833346714 0 -0.2288566788723205 -0.14759103700141921 0 -0.22749825566753021 -0.13234541910737049 0 -0.23982981867410991 -0.14026155754870681 0 -0.23982981867410991 -0.14026155754870681 0 -0.24723841178782471 -0.12256456812724879 0 -0.25256765633437772 -0.1346759160703011 0 -0.22749825566753021 -0.13234541910737049 0 -0.23982981867410991 -0.14026155754870681 0 -0.24723841178782471 -0.12256456812724879 0 -0.22749825566753021 -0.13234541910737049 0 -0.24723841178782471 -0.12256456812724879 0 -0.23539758344160261 -0.11546037152814589 0 -0.24723841178782471 -0.12256456812724879 0 -0.23539758344160261 -0.11546037152814589 0 -0.24958325644947271 -0.1099876227097302 0 -0.23539758344160261 -0.11546037152814589 0 -0.24958325644947271 -0.1099876227097302 0 -0.2309995318412397 -0.102343675797009 0 -0.24958325644947271 -0.1099876227097302 0 -0.2309995318412397 -0.102343675797009 0 -0.25295980532715101 -0.094200119686167566 0 -0.2309995318412397 -0.102343675797009 0 -0.21246161737811739 -0.089811266453357158 0 -0.2131214512494497 -0.10945854926609939 0 -0.2309995318412397 -0.102343675797009 0 -0.22238174030824401 -0.1201484833346714 0 -0.2131214512494497 -0.10945854926609939 0 -0.23539758344160261 -0.11546037152814589 0 -0.2309995318412397 -0.102343675797009 0 -0.22238174030824401 -0.1201484833346714 0 -0.22749825566753021 -0.13234541910737049 0 -0.23539758344160261 -0.11546037152814589 0 -0.22238174030824401 -0.1201484833346714 0 -0.2309995318412397 -0.102343675797009 0 -0.22238174030824401 -0.1201484833346714 0 -0.24505876230926349 -0.07329657113540769 0 -0.23961732337423869 -0.084538868259348143 0 -0.21954135811794409 -0.070001921635646364 0 -0.24505876230926349 -0.07329657113540769 0 -0.24744353253544329 -0.073604477926154502 0 -0.25663590770049333 -0.049377583917265981 0 -0.24505876230926349 -0.07329657113540769 0 -0.24744353253544329 -0.073604477926154502 0 -0.24505876230926349 -0.07329657113540769 0 -0.24744353253544329 -0.073604477926154502 0 -0.2472989616693945 -0.078526265968722808 0 -0.24744353253544329 -0.073604477926154502 0 -0.2472989616693945 -0.078526265968722808 0 -0.2541168565020816 -0.077304290612557891 0 -0.2309995318412397 -0.102343675797009 0 -0.23961732337423869 -0.084538868259348143 0 -0.2309995318412397 -0.102343675797009 0 -0.23961732337423869 -0.084538868259348143 0 -0.25295980532715101 -0.094200119686167566 0 -0.24505876230926349 -0.07329657113540769 0 -0.23961732337423869 -0.084538868259348143 0 -0.23961732337423869 -0.084538868259348143 0 -0.2472989616693945 -0.078526265968722808 0 -0.25025833362594568 -0.083887121910146648 0 -0.24505876230926349 -0.07329657113540769 0 -0.23961732337423869 -0.084538868259348143 0 -0.2472989616693945 -0.078526265968722808 0 -0.23961732337423869 -0.084538868259348143 0 -0.25295980532715101 -0.094200119686167566 0 -0.23961732337423869 -0.084538868259348143 0 -0.25025833362594568 -0.083887121910146648 0 -0.25295980532715101 -0.094200119686167566 0 -0.2309995318412397 -0.102343675797009 0 -0.22565495767788499 -0.086673933036340162 0 -0.21246161737811739 -0.089811266453357158 0 -0.23961732337423869 -0.084538868259348143 0 -0.22565495767788499 -0.086673933036340162 0 -0.21954135811794409 -0.070001921635646364 0 -0.2309995318412397 -0.102343675797009 0 -0.23961732337423869 -0.084538868259348143 0 -0.22565495767788499 -0.086673933036340162 0 -0.22565495767788499 -0.086673933036340162 0 -0.21954135811794409 -0.070001921635646364 0 -0.21246161737811739 -0.089811266453357158 0 -0.23961732337423869 -0.084538868259348143 0 -0.21954135811794409 -0.070001921635646364 0 -0.24505876230926349 -0.07329657113540769 0 -0.21954135811794409 -0.070001921635646364 0 -0.24505876230926349 -0.07329657113540769 0 -0.2291065794908701 -0.05318587465917185 0 -0.22115864911632269 -0.061989713695410342 0 -0.24505876230926349 -0.07329657113540769 0 -0.21954135811794409 -0.070001921635646364 0 -0.22115864911632269 -0.061989713695410342 0 -0.21954135811794409 -0.070001921635646364 0 -0.2118927363521127 -0.069014378871276844 0 -0.21246161737811739 -0.089811266453357158 0 -0.21496300491358569 -0.066686749722039099 0 -0.2118927363521127 -0.069014378871276844 0 -0.20157725128124679 -0.05699416540107817 0 -0.21954135811794409 -0.070001921635646364 0 -0.21496300491358569 -0.066686749722039099 0 -0.22115864911632269 -0.061989713695410342 0 -0.21496300491358569 -0.066686749722039099 0 -0.22115864911632269 -0.061989713695410342 0 -0.21954135811794409 -0.070001921635646364 0 -0.21496300491358569 -0.066686749722039099 0 -0.21954135811794409 -0.070001921635646364 0 -0.21496300491358569 -0.066686749722039099 0 -0.2118927363521127 -0.069014378871276844 0 -0.21954135811794409 -0.070001921635646364 0 -0.2118927363521127 -0.069014378871276844 0 -0.21496300491358569 -0.066686749722039099 0 -0.2118927363521127 -0.069014378871276844 0 -0.2118927363521127 -0.069014378871276844 0 -0.21246161737811739 -0.089811266453357158 0 -0.1906925676555864 -0.085086631066470186 0 -0.2118927363521127 -0.069014378871276844 0 -0.1906925676555864 -0.085086631066470186 0 -0.18675301897591459 -0.06576849395850462 0 -0.2118927363521127 -0.069014378871276844 0 -0.18675301897591459 -0.06576849395850462 0 -0.20157725128124679 -0.05699416540107817 0 -0.2118927363521127 -0.069014378871276844 0 -0.18675301897591459 -0.06576849395850462 0 -0.2118927363521127 -0.069014378871276844 0 -0.1906925676555864 -0.085086631066470186 0 -0.2068196243435857 -0.12866994851781721 0 -0.22238174030824401 -0.1201484833346714 0 -0.2131214512494497 -0.10945854926609939 0 -0.2068196243435857 -0.12866994851781721 0 -0.2131214512494497 -0.10945854926609939 0 -0.1946342529992908 -0.11114112752648379 0 -0.21246161737811739 -0.089811266453357158 0 -0.2131214512494497 -0.10945854926609939 0 -0.1946342529992908 -0.11114112752648379 0 -0.21246161737811739 -0.089811266453357158 0 -0.1906925676555864 -0.085086631066470186 0 -0.1946342529992908 -0.11114112752648379 0 -0.1815582855491025 -0.13467048245768931 0 -0.2068196243435857 -0.12866994851781721 0 -0.1946342529992908 -0.11114112752648379 0 -0.1815582855491025 -0.13467048245768931 0 -0.1946342529992908 -0.11114112752648379 0 -0.16750039760822599 -0.1210386560133071 0 -0.1946342529992908 -0.11114112752648379 0 -0.16750039760822599 -0.1210386560133071 0 -0.16949239895905921 -0.1011588832616622 0 -0.16750039760822599 -0.1210386560133071 0 -0.16949239895905921 -0.1011588832616622 0 -0.14829223026253421 -0.117231135456857 0 -0.15531150445838751 -0.12674132404997959 0 -0.16750039760822599 -0.1210386560133071 0 -0.14829223026253421 -0.117231135456857 0 -0.16949239895905921 -0.1011588832616622 0 -0.14829223026253421 -0.117231135456857 0 -0.1906925676555864 -0.085086631066470186 0 -0.1946342529992908 -0.11114112752648379 0 -0.16949239895905921 -0.1011588832616622 0 -0.1906925676555864 -0.085086631066470186 0 -0.16949239895905921 -0.1011588832616622 0 -0.1906925676555864 -0.085086631066470186 0 -0.16949239895905921 -0.1011588832616622 0 -0.17255561154745039 -0.078337213562656119 0 -0.18675301897591459 -0.06576849395850462 0 -0.16161330159971651 -0.062522609045732286 0 -0.18159527644048129 -0.059758387223403001 0 -0.1906925676555864 -0.085086631066470186 0 -0.17255561154745039 -0.078337213562656119 0 -0.18675301897591459 -0.06576849395850462 0 -0.18675301897591459 -0.06576849395850462 0 -0.16161330159971651 -0.062522609045732286 0 -0.17255561154745039 -0.078337213562656119 0 -0.18675301897591459 -0.06576849395850462 0 -0.16161330159971651 -0.062522609045732286 0 -0.17255561154745039 -0.078337213562656119 0 -0.16161330159971651 -0.062522609045732286 0 -0.15640980850458519 -0.078425246563957829 0 -0.16949239895905921 -0.1011588832616622 0 -0.15640980850458519 -0.078425246563957829 0 -0.1457195142919212 -0.091154161201736777 0 -0.16949239895905921 -0.1011588832616622 0 -0.17255561154745039 -0.078337213562656119 0 -0.15640980850458519 -0.078425246563957829 0 -0.15640980850458519 -0.078425246563957829 0 -0.1457195142919212 -0.091154161201736777 0 -0.14314679832130631 -0.065077186946616877 0 -0.1457195142919212 -0.091154161201736777 0 -0.14314679832130631 -0.065077186946616877 0 -0.16161330159971651 -0.062522609045732286 0 -0.14314679832130631 -0.065077186946616877 0 -0.14265325088580311 -0.060074604494340447 0 -0.16161330159971651 -0.062522609045732286 0 -0.15640980850458519 -0.078425246563957829 0 -0.14314679832130631 -0.065077186946616877 0 -0.1457195142919212 -0.091154161201736777 0 -0.14314679832130631 -0.065077186946616877 0 -0.13489704536400809 -0.066218422852229633 0 -0.16161330159971651 -0.062522609045732286 0 -0.14314679832130631 -0.065077186946616877 0 -0.14314679832130631 -0.065077186946616877 0 -0.14265325088580311 -0.060074604494340447 0 -0.121440858330366 -0.066241351988670483 0 -0.12718671950338331 -0.078441198203799772 0 -0.1309234042536013 -0.058560119202291018 0 -0.13489704536400809 -0.066218422852229633 0 -0.12718671950338331 -0.078441198203799772 0 -0.1309234042536013 -0.058560119202291018 0 -0.12718671950338331 -0.078441198203799772 0 -0.1309234042536013 -0.058560119202291018 0 -0.14314679832130631 -0.065077186946616877 0 -0.13489704536400809 -0.066218422852229633 0 -0.14265325088580311 -0.060074604494340447 0 -0.14314679832130631 -0.065077186946616877 0 -0.13489704536400809 -0.066218422852229633 0 -0.1457195142919212 -0.091154161201736777 0 -0.13489704536400809 -0.066218422852229633 0 -0.12718671950338331 -0.078441198203799772 0 -0.1234500347531652 -0.098322277205308617 0 -0.1457195142919212 -0.091154161201736777 0 -0.12718671950338331 -0.078441198203799772 0 -0.1234500347531652 -0.098322277205308617 0 -0.12718671950338331 -0.078441198203799772 0 -0.1234500347531652 -0.098322277205308617 0 -0.1457195142919212 -0.091154161201736777 0 -0.13375902198010869 -0.1105515678256032 0 -0.11971335000294719 -0.1182033562068175 0 -0.1234500347531652 -0.098322277205308617 0 -0.13375902198010869 -0.1105515678256032 0 -0.11971335000294719 -0.1182033562068175 0 -0.12975892229568811 -0.1312815896734319 0 -0.13375902198010869 -0.1105515678256032 0 -0.12975892229568811 -0.1312815896734319 0 -0.14829223026253421 -0.117231135456857 0 -0.12975892229568811 -0.1312815896734319 0 -0.13375902198010869 -0.1105515678256032 0 -0.14829223026253421 -0.117231135456857 0 -0.1457195142919212 -0.091154161201736777 0 -0.14829223026253421 -0.117231135456857 0 -0.1457195142919212 -0.091154161201736777 0 -0.13375902198010869 -0.1105515678256032 0 -0.14829223026253421 -0.117231135456857 0 -0.16949239895905921 -0.1011588832616622 0 -0.1457195142919212 -0.091154161201736777 0 -0.14829223026253421 -0.117231135456857 0 -0.142384966020033 -0.018577178817779001 0 -0.15297187060721359 -0.021799154079693728 0 -0.14006752097624131 -0.029398136344516861 0 -0.15463045491024091 -0.02300013003159556 0 -0.14006752097624131 -0.029398136344516861 0 -0.14631212708443159 -0.034085745397352513 0 -0.15463045491024091 -0.02300013003159556 0 -0.14006752097624131 -0.029398136344516861 0 -0.15463045491024091 -0.02300013003159556 0 -0.15297187060721359 -0.021799154079693728 0 -0.14006752097624131 -0.029398136344516861 0 -0.15463045491024091 -0.02300013003159556 0 -0.14631212708443159 -0.034085745397352513 0 -0.15297594020256311 -0.035790801222429322 0 -0.142384966020033 -0.018577178817779001 0 -0.15297187060721359 -0.021799154079693728 0 -0.15067482529906259 -0.01124629166407492 0 -0.15463045491024091 -0.02300013003159556 0 -0.15297187060721359 -0.021799154079693728 0 -0.15067482529906259 -0.01124629166407492 0 -0.15463045491024091 -0.02300013003159556 0 -0.15297187060721359 -0.021799154079693728 0 -0.15067482529906259 -0.01124629166407492 0 -0.14735073421913381 -0.0015831955866701831 0 -0.12878995460800041 -0.0111823678802991 0 -0.15067482529906259 -0.01124629166407492 0 -0.14735073421913381 -0.0015831955866701831 0 -0.15666255756651601 -0.0023757106973261912 0 -0.14735073421913381 -0.0015831955866701831 0 -0.12878995460800041 -0.0111823678802991 0 -0.1396693605120094 0.0042269717197601442 0 -0.142384966020033 -0.018577178817779001 0 -0.15067482529906259 -0.01124629166407492 0 -0.12878995460800041 -0.0111823678802991 0 -0.15067482529906259 -0.01124629166407492 0 -0.12878995460800041 -0.0111823678802991 0 -0.12878995460800041 -0.0111823678802991 0 -0.12550458704224179 -0.035796142657438579 0 -0.12878995460800041 -0.0111823678802991 0 -0.14006752097624131 -0.029398136344516861 0 -0.12550458704224179 -0.035796142657438579 0 -0.142384966020033 -0.018577178817779001 0 -0.12878995460800041 -0.0111823678802991 0 -0.14006752097624131 -0.029398136344516861 0 -0.14006752097624131 -0.029398136344516861 0 -0.12550458704224179 -0.035796142657438579 0 -0.12550458704224179 -0.035796142657438579 0 -0.13426321862768231 -0.040790594112542981 0 -0.12832515386603471 -0.048158380762908778 0 -0.1406232926077039 -0.039499006425377882 0 -0.13426321862768231 -0.040790594112542981 0 -0.13711579159369761 -0.049731081058638688 0 -0.14006752097624131 -0.029398136344516861 0 -0.1406232926077039 -0.039499006425377882 0 -0.13426321862768231 -0.040790594112542981 0 -0.14006752097624131 -0.029398136344516861 0 -0.12550458704224179 -0.035796142657438579 0 -0.13426321862768231 -0.040790594112542981 0 -0.1226094055406128 -0.057486667079361967 0 -0.12550458704224179 -0.035796142657438579 0 -0.12832515386603471 -0.048158380762908778 0 -0.1406232926077039 -0.039499006425377882 0 -0.13711579159369761 -0.049731081058638688 0 -0.14265325088580311 -0.060074604494340447 0 -0.13426321862768231 -0.040790594112542981 0 -0.1309234042536013 -0.058560119202291018 0 -0.13426321862768231 -0.040790594112542981 0 -0.1309234042536013 -0.058560119202291018 0 -0.12832515386603471 -0.048158380762908778 0 -0.13426321862768231 -0.040790594112542981 0 -0.1309234042536013 -0.058560119202291018 0 -0.13711579159369761 -0.049731081058638688 0 -0.1226094055406128 -0.057486667079361967 0 -0.1309234042536013 -0.058560119202291018 0 -0.1226094055406128 -0.057486667079361967 0 -0.1309234042536013 -0.058560119202291018 0 -0.12832515386603471 -0.048158380762908778 0 -0.1309234042536013 -0.058560119202291018 0 -0.13711579159369761 -0.049731081058638688 0 -0.14265325088580311 -0.060074604494340447 0 -0.13489704536400809 -0.066218422852229633 0 -0.1309234042536013 -0.058560119202291018 0 -0.14265325088580311 -0.060074604494340447 0 -0.1309234042536013 -0.058560119202291018 0 -0.14265325088580311 -0.060074604494340447 0 -0.14265325088580311 -0.060074604494340447 0 -0.1527890792060522 -0.048686683177454421 0 -0.15864000432478509 -0.054124523553644187 0 -0.1406232926077039 -0.039499006425377882 0 -0.14265325088580311 -0.060074604494340447 0 -0.14815811424764491 -0.042170285831775442 0 -0.14265325088580311 -0.060074604494340447 0 -0.1527890792060522 -0.048686683177454421 0 -0.14815811424764491 -0.042170285831775442 0 -0.16161330159971651 -0.062522609045732286 0 -0.14265325088580311 -0.060074604494340447 0 -0.1406232926077039 -0.039499006425377882 0 -0.14265325088580311 -0.060074604494340447 0 -0.16161330159971651 -0.062522609045732286 0 -0.14265325088580311 -0.060074604494340447 0 -0.15864000432478509 -0.054124523553644187 0 -0.14006752097624131 -0.029398136344516861 0 -0.1406232926077039 -0.039499006425377882 0 -0.14631212708443159 -0.034085745397352513 0 -0.1406232926077039 -0.039499006425377882 0 -0.14631212708443159 -0.034085745397352513 0 -0.14815811424764491 -0.042170285831775442 0 -0.1527890792060522 -0.048686683177454421 0 -0.14815811424764491 -0.042170285831775442 0 -0.15297594020256311 -0.035790801222429322 0 -0.1527890792060522 -0.048686683177454421 0 -0.15297594020256311 -0.035790801222429322 0 -0.16253612857409391 -0.042378622888074452 0 -0.14631212708443159 -0.034085745397352513 0 -0.14815811424764491 -0.042170285831775442 0 -0.15297594020256311 -0.035790801222429322 0 -0.15463045491024091 -0.02300013003159556 0 -0.17742466062908799 -0.039505346474955169 0 -0.15463045491024091 -0.02300013003159556 0 -0.16253612857409391 -0.042378622888074452 0 -0.17742466062908799 -0.039505346474955169 0 -0.15463045491024091 -0.02300013003159556 0 -0.15297594020256311 -0.035790801222429322 0 -0.16253612857409391 -0.042378622888074452 0 -0.16253612857409391 -0.042378622888074452 0 -0.1674399415683423 -0.052902368139406589 0 -0.17742466062908799 -0.039505346474955169 0 -0.16161330159971651 -0.062522609045732286 0 -0.1674399415683423 -0.052902368139406589 0 -0.18159527644048129 -0.059758387223403001 0 -0.16161330159971651 -0.062522609045732286 0 -0.18159527644048129 -0.059758387223403001 0 -0.16161330159971651 -0.062522609045732286 0 -0.15864000432478509 -0.054124523553644187 0 -0.1674399415683423 -0.052902368139406589 0 -0.1527890792060522 -0.048686683177454421 0 -0.16253612857409391 -0.042378622888074452 0 -0.15864000432478509 -0.054124523553644187 0 -0.16253612857409391 -0.042378622888074452 0 -0.15864000432478509 -0.054124523553644187 0 -0.1674399415683423 -0.052902368139406589 0 -0.1807404362247324 -0.051644819580553038 0 -0.17742466062908799 -0.039505346474955169 0 -0.20157725128124679 -0.05699416540107817 0 -0.1674399415683423 -0.052902368139406589 0 -0.1807404362247324 -0.051644819580553038 0 -0.18159527644048129 -0.059758387223403001 0 -0.1674399415683423 -0.052902368139406589 0 -0.1807404362247324 -0.051644819580553038 0 -0.17742466062908799 -0.039505346474955169 0 -0.1674399415683423 -0.052902368139406589 0 -0.17742466062908799 -0.039505346474955169 0 -0.17742466062908799 -0.039505346474955169 0 -0.1807211492292935 -0.011537575321240671 0 -0.19211825208871761 -0.019790183542920611 0 -0.17742466062908799 -0.039505346474955169 0 -0.19211825208871761 -0.019790183542920611 0 -0.15463045491024091 -0.02300013003159556 0 -0.1807211492292935 -0.011537575321240671 0 -0.15463045491024091 -0.02300013003159556 0 -0.17742466062908799 -0.039505346474955169 0 -0.1807211492292935 -0.011537575321240671 0 -0.15067482529906259 -0.01124629166407492 0 -0.16328226626862341 -0.0049600730790920608 0 -0.17255969599012491 -0.01131021544784791 0 -0.15067482529906259 -0.01124629166407492 0 -0.17255969599012491 -0.01131021544784791 0 -0.15463045491024091 -0.02300013003159556 0 -0.15067482529906259 -0.01124629166407492 0 -0.17255969599012491 -0.01131021544784791 0 -0.15463045491024091 -0.02300013003159556 0 -0.17255969599012491 -0.01131021544784791 0 -0.1807211492292935 -0.011537575321240671 0 -0.15666255756651601 -0.0023757106973261912 0 -0.16328226626862341 -0.0049600730790920608 0 -0.16610387703846169 0.0026642923803521022 0 -0.15067482529906259 -0.01124629166407492 0 -0.15666255756651601 -0.0023757106973261912 0 -0.16328226626862341 -0.0049600730790920608 0 -0.16328226626862341 -0.0049600730790920608 0 -0.17041037544895199 -0.0025324399665633841 0 -0.17255969599012491 -0.01131021544784791 0 -0.16328226626862341 -0.0049600730790920608 0 -0.17041037544895199 -0.0025324399665633841 0 -0.16610387703846169 0.0026642923803521022 0 -0.17041037544895199 -0.0025324399665633841 0 -0.17833868767887739 -0.0001939062256226343 0 -0.17255969599012491 -0.01131021544784791 0 -0.17833868767887739 -0.0001939062256226343 0 -0.17255969599012491 -0.01131021544784791 0 -0.1807211492292935 -0.011537575321240671 0 -0.17833868767887739 -0.0001939062256226343 0 -0.1807211492292935 -0.011537575321240671 0 -0.19059271996149829 0.0011396430374954491 0 -0.19211825208871761 -0.019790183542920611 0 -0.20681184354834589 -7.5020610885059846e-05 0 -0.1807211492292935 -0.011537575321240671 0 -0.20681184354834589 -7.5020610885059846e-05 0 -0.19059271996149829 0.0011396430374954491 0 -0.1807211492292935 -0.011537575321240671 0 -0.19211825208871761 -0.019790183542920611 0 -0.20681184354834589 -7.5020610885059846e-05 0 -0.1807211492292935 -0.011537575321240671 0 -0.20681184354834589 -7.5020610885059846e-05 0 -0.19211825208871761 -0.019790183542920611 0 -0.2149051615496396 -0.02949258657905568 0 -0.1965063313871728 -0.036445570499502741 0 -0.19211825208871761 -0.019790183542920611 0 -0.2149051615496396 -0.02949258657905568 0 -0.20681184354834589 -7.5020610885059846e-05 0 -0.2149051615496396 -0.02949258657905568 0 -0.20681184354834589 -7.5020610885059846e-05 0 -0.2300888093112464 -0.0099263731460148569 0 -0.18159527644048129 -0.059758387223403001 0 -0.20157725128124679 -0.05699416540107817 0 -0.1807404362247324 -0.051644819580553038 0 -0.18159527644048129 -0.059758387223403001 0 -0.20157725128124679 -0.05699416540107817 0 -0.17742466062908799 -0.039505346474955169 0 -0.20157725128124679 -0.05699416540107817 0 -0.18675301897591459 -0.06576849395850462 0 -0.18159527644048129 -0.059758387223403001 0 -0.20157725128124679 -0.05699416540107817 0 -0.17742466062908799 -0.039505346474955169 0 -0.19211825208871761 -0.019790183542920611 0 -0.1965063313871728 -0.036445570499502741 0 -0.17742466062908799 -0.039505346474955169 0 -0.20157725128124679 -0.05699416540107817 0 -0.1965063313871728 -0.036445570499502741 0 -0.2149051615496396 -0.02949258657905568 0 -0.20157725128124679 -0.05699416540107817 0 -0.1965063313871728 -0.036445570499502741 0 -0.2149051615496396 -0.02949258657905568 0 -0.20157725128124679 -0.05699416540107817 0 -0.2291065794908701 -0.05318587465917185 0 -0.20157725128124679 -0.05699416540107817 0 -0.2291065794908701 -0.05318587465917185 0 -0.22115864911632269 -0.061989713695410342 0 -0.21496300491358569 -0.066686749722039099 0 -0.20157725128124679 -0.05699416540107817 0 -0.22115864911632269 -0.061989713695410342 0 -0.20157725128124679 -0.05699416540107817 0 -0.2291065794908701 -0.05318587465917185 0 -0.21496300491358569 -0.066686749722039099 0 -0.20157725128124679 -0.05699416540107817 0 -0.2149051615496396 -0.02949258657905568 0 -0.2291065794908701 -0.05318587465917185 0 -0.23703280074732899 -0.027174195478368739 0 -0.2291065794908701 -0.05318587465917185 0 -0.25169077717831001 -0.034826942415051132 0 -0.25663590770049333 -0.049377583917265981 0 -0.2291065794908701 -0.05318587465917185 0 -0.23703280074732899 -0.027174195478368739 0 -0.25169077717831001 -0.034826942415051132 0 -0.2291065794908701 -0.05318587465917185 0 -0.25663590770049333 -0.049377583917265981 0 -0.24505876230926349 -0.07329657113540769 0 -0.2291065794908701 -0.05318587465917185 0 -0.25663590770049333 -0.049377583917265981 0 -0.2149051615496396 -0.02949258657905568 0 -0.2300888093112464 -0.0099263731460148569 0 -0.23703280074732899 -0.027174195478368739 0 -0.2300888093112464 -0.0099263731460148569 0 -0.23703280074732899 -0.027174195478368739 0 -0.24200503398952081 -0.014655914739986431 0 -0.23703280074732899 -0.027174195478368739 0 -0.24873542282958769 -0.02093994479205431 0 -0.25169077717831001 -0.034826942415051132 0 -0.23703280074732899 -0.027174195478368739 0 -0.24873542282958769 -0.02093994479205431 0 -0.24200503398952081 -0.014655914739986431 0 -0.2300888093112464 -0.0099263731460148569 0 -0.24200503398952081 -0.014655914739986431 0 -0.25064685395634662 -0.0047082398918306921 0 -0.24873542282958769 -0.02093994479205431 0 -0.24200503398952081 -0.014655914739986431 0 -0.25064685395634662 -0.0047082398918306921 0 -0.2300888093112464 -0.0099263731460148569 0 -0.25064685395634662 -0.0047082398918306921 0 -0.23238273657359551 0.01115916720758893 0 -0.25064685395634662 -0.0047082398918306921 0 -0.26531916069329109 -0.0055041925913227978 0 -0.26891097133909547 -0.020575646991252861 0 -0.25064685395634662 -0.0047082398918306921 0 -0.26891097133909547 -0.020575646991252861 0 -0.25064685395634662 -0.0047082398918306921 0 -0.26531916069329109 -0.0055041925913227978 0 -0.25837076835969591 0.0062747578328909252 0 -0.25064685395634662 -0.0047082398918306921 0 -0.2572319563645255 -0.022143706389017269 0 -0.26891097133909547 -0.020575646991252861 0 -0.24873542282958769 -0.02093994479205431 0 -0.25064685395634662 -0.0047082398918306921 0 -0.2572319563645255 -0.022143706389017269 0 -0.24873542282958769 -0.02093994479205431 0 -0.2572319563645255 -0.022143706389017269 0 -0.25169077717831001 -0.034826942415051132 0 -0.2572319563645255 -0.022143706389017269 0 -0.26617575651928782 -0.029667757854897371 0 -0.26891097133909547 -0.020575646991252861 0 -0.2572319563645255 -0.022143706389017269 0 -0.26617575651928782 -0.029667757854897371 0 -0.25169077717831001 -0.034826942415051132 0 -0.26617575651928782 -0.029667757854897371 0 -0.26891097133909547 -0.020575646991252861 0 -0.27571560533808531 -0.0099579317925301697 0 -0.26617575651928782 -0.029667757854897371 0 -0.27571560533808531 -0.0099579317925301697 0 -0.28175251345964891 -0.026072259360840629 0 -0.26617575651928782 -0.029667757854897371 0 -0.27571560533808531 -0.0099579317925301697 0 -0.26617575651928782 -0.029667757854897371 0 -0.28175251345964891 -0.026072259360840629 0 -0.27355887005502461 -0.037231268729763303 0 -0.26531916069329109 -0.0055041925913227978 0 -0.27571560533808531 -0.0099579317925301697 0 -0.27216223606456191 0.0039542708222756054 0 -0.26531916069329109 -0.0055041925913227978 0 -0.26891097133909547 -0.020575646991252861 0 -0.27571560533808531 -0.0099579317925301697 0 -0.27571560533808531 -0.0099579317925301697 0 -0.27216223606456191 0.0039542708222756054 0 -0.28576025019424761 0.000126971543058669 0 -0.27571560533808531 -0.0099579317925301697 0 -0.28866522262487693 -0.01124802856467666 0 -0.28576025019424761 0.000126971543058669 0 -0.28866522262487693 -0.01124802856467666 0 -0.30000288603786712 -0.020980957222671619 0 -0.30009485809453529 0.00064403400960046239 0 -0.28866522262487693 -0.01124802856467666 0 -0.28576025019424761 0.000126971543058669 0 -0.30009485809453529 0.00064403400960046239 0 -0.28866522262487693 -0.01124802856467666 0 -0.28175251345964891 -0.026072259360840629 0 -0.30000288603786712 -0.020980957222671619 0 -0.27571560533808531 -0.0099579317925301697 0 -0.28866522262487693 -0.01124802856467666 0 -0.28175251345964891 -0.026072259360840629 0 -0.28175251345964891 -0.026072259360840629 0 -0.30000288603786712 -0.020980957222671619 0 -0.28472992621291499 -0.045491176309023461 0 -0.30000288603786712 -0.020980957222671619 0 -0.31956291231135292 -0.018356571063333969 0 -0.31282394472533659 -0.041604768700779123 0 -0.30000288603786712 -0.020980957222671619 0 -0.31487099677836922 -0.003370318319593731 0 -0.30009485809453529 0.00064403400960046239 0 -0.30000288603786712 -0.020980957222671619 0 -0.31487099677836922 -0.003370318319593731 0 -0.31956291231135292 -0.018356571063333969 0 -0.31242704174119418 -0.059261649291870833 0 -0.28472992621291499 -0.045491176309023461 0 -0.31282394472533659 -0.041604768700779123 0 -0.28472992621291499 -0.045491176309023461 0 -0.31282394472533659 -0.041604768700779123 0 -0.30000288603786712 -0.020980957222671619 0 -0.28472992621291499 -0.045491176309023461 0 -0.31282394472533659 -0.041604768700779123 0 -0.28472992621291499 -0.045491176309023461 0 -0.27433929106897498 -0.060730790869902802 0 -0.29304459894916779 -0.0650878071683062 0 -0.31242704174119418 -0.059261649291870833 0 -0.28472992621291499 -0.045491176309023461 0 -0.29304459894916779 -0.0650878071683062 0 -0.28472992621291499 -0.045491176309023461 0 -0.25663590770049333 -0.049377583917265981 0 -0.28472992621291499 -0.045491176309023461 0 -0.27433929106897498 -0.060730790869902802 0 -0.25663590770049333 -0.049377583917265981 0 -0.28472992621291499 -0.045491176309023461 0 -0.27355887005502461 -0.037231268729763303 0 -0.25663590770049333 -0.049377583917265981 0 -0.28175251345964891 -0.026072259360840629 0 -0.28472992621291499 -0.045491176309023461 0 -0.27355887005502461 -0.037231268729763303 0 -0.26617575651928782 -0.029667757854897371 0 -0.27355887005502461 -0.037231268729763303 0 -0.25663590770049333 -0.049377583917265981 0 -0.26617575651928782 -0.029667757854897371 0 -0.25663590770049333 -0.049377583917265981 0 -0.26617575651928782 -0.029667757854897371 0 -0.25169077717831001 -0.034826942415051132 0 -0.25663590770049333 -0.049377583917265981 0 -0.27433929106897498 -0.060730790869902802 0 -0.25663590770049333 -0.049377583917265981 0 -0.26170263524705528 -0.068242794302085893 0 -0.24505876230926349 -0.07329657113540769 0 -0.25663590770049333 -0.049377583917265981 0 -0.24744353253544329 -0.073604477926154502 0 -0.25663590770049333 -0.049377583917265981 0 -0.26170263524705528 -0.068242794302085893 0 -0.26170263524705528 -0.068242794302085893 0 -0.2541168565020816 -0.077304290612557891 0 -0.26086500345152941 -0.081060649604789092 0 -0.24744353253544329 -0.073604477926154502 0 -0.26170263524705528 -0.068242794302085893 0 -0.2541168565020816 -0.077304290612557891 0 -0.2472989616693945 -0.078526265968722808 0 -0.2541168565020816 -0.077304290612557891 0 -0.25025833362594568 -0.083887121910146648 0 -0.26086500345152941 -0.081060649604789092 0 -0.27244481805552218 -0.089100078463940607 0 -0.25295980532715101 -0.094200119686167566 0 -0.2541168565020816 -0.077304290612557891 0 -0.25025833362594568 -0.083887121910146648 0 -0.26086500345152941 -0.081060649604789092 0 -0.25025833362594568 -0.083887121910146648 0 -0.26086500345152941 -0.081060649604789092 0 -0.25295980532715101 -0.094200119686167566 0 -0.26086500345152941 -0.081060649604789092 0 -0.27244481805552218 -0.089100078463940607 0 -0.2755833872352435 -0.07545459265283061 0 -0.27244481805552218 -0.089100078463940607 0 -0.2755833872352435 -0.07545459265283061 0 -0.29089147969394669 -0.080765719855425258 0 -0.27433929106897498 -0.060730790869902802 0 -0.2755833872352435 -0.07545459265283061 0 -0.29304459894916779 -0.0650878071683062 0 -0.27433929106897498 -0.060730790869902802 0 -0.26170263524705528 -0.068242794302085893 0 -0.2755833872352435 -0.07545459265283061 0 -0.26170263524705528 -0.068242794302085893 0 -0.26086500345152941 -0.081060649604789092 0 -0.2755833872352435 -0.07545459265283061 0 -0.24958325644947271 -0.1099876227097302 0 -0.26460191901895541 -0.12149563000682261 0 -0.26630228728006289 -0.1038613711129875 0 -0.24723841178782471 -0.12256456812724879 0 -0.24958325644947271 -0.1099876227097302 0 -0.26460191901895541 -0.12149563000682261 0 -0.27244481805552218 -0.089100078463940607 0 -0.25295980532715101 -0.094200119686167566 0 -0.26630228728006289 -0.1038613711129875 0 -0.24958325644947271 -0.1099876227097302 0 -0.25295980532715101 -0.094200119686167566 0 -0.26630228728006289 -0.1038613711129875 0 -0.25295980532715101 -0.094200119686167566 0 -0.26630228728006289 -0.1038613711129875 0 -0.27244481805552218 -0.089100078463940607 0 -0.26630228728006289 -0.1038613711129875 0 -0.28806694534520028 -0.099258017871443699 0 -0.26630228728006289 -0.1038613711129875 0 -0.28383495276823262 -0.11640101432239509 0 -0.28806694534520028 -0.099258017871443699 0 -0.26460191901895541 -0.12149563000682261 0 -0.28383495276823262 -0.11640101432239509 0 -0.28062078202597168 -0.13145283347434911 0 -0.26460191901895541 -0.12149563000682261 0 -0.26630228728006289 -0.1038613711129875 0 -0.28383495276823262 -0.11640101432239509 0 -0.28383495276823262 -0.11640101432239509 0 -0.3043924484776262 -0.1115632599287034 0 -0.29902533446157892 -0.13077497354006409 0 -0.28383495276823262 -0.11640101432239509 0 -0.28806694534520028 -0.099258017871443699 0 -0.3043924484776262 -0.1115632599287034 0 -0.28806694534520028 -0.099258017871443699 0 -0.3043924484776262 -0.1115632599287034 0 -0.31374628728565263 -0.09509123381862733 0 -0.3043924484776262 -0.1115632599287034 0 -0.29902533446157892 -0.13077497354006409 0 -0.31793097432928819 -0.1260088570853794 0 -0.2755833872352435 -0.07545459265283061 0 -0.29304459894916779 -0.0650878071683062 0 -0.29089147969394669 -0.080765719855425258 0 -0.27244481805552218 -0.089100078463940607 0 -0.28806694534520028 -0.099258017871443699 0 -0.29089147969394669 -0.080765719855425258 0 -0.28806694534520028 -0.099258017871443699 0 -0.29089147969394669 -0.080765719855425258 0 -0.31374628728565263 -0.09509123381862733 0 -0.29089147969394669 -0.080765719855425258 0 -0.31255319140663951 -0.076755473586782669 0 -0.31374628728565263 -0.09509123381862733 0 -0.31242704174119418 -0.059261649291870833 0 -0.29304459894916779 -0.0650878071683062 0 -0.31255319140663951 -0.076755473586782669 0 -0.29304459894916779 -0.0650878071683062 0 -0.29089147969394669 -0.080765719855425258 0 -0.31255319140663951 -0.076755473586782669 0 -0.31242704174119418 -0.059261649291870833 0 -0.31255319140663951 -0.076755473586782669 0 -0.33579151008389369 -0.069739697834785896 0 -0.31255319140663951 -0.076755473586782669 0 -0.3374892823086682 -0.088236536836331994 0 -0.31374628728565263 -0.09509123381862733 0 -0.31255319140663951 -0.076755473586782669 0 -0.3374892823086682 -0.088236536836331994 0 -0.33579151008389369 -0.069739697834785896 0 -0.3374892823086682 -0.088236536836331994 0 -0.33579151008389369 -0.069739697834785896 0 -0.35168960299242652 -0.071023331437723464 0 -0.3043924484776262 -0.1115632599287034 0 -0.33053593561756162 -0.1079545682218184 0 -0.3043924484776262 -0.1115632599287034 0 -0.33053593561756162 -0.1079545682218184 0 -0.31793097432928819 -0.1260088570853794 0 -0.3374892823086682 -0.088236536836331994 0 -0.31374628728565263 -0.09509123381862733 0 -0.33053593561756162 -0.1079545682218184 0 -0.3043924484776262 -0.1115632599287034 0 -0.31374628728565263 -0.09509123381862733 0 -0.33053593561756162 -0.1079545682218184 0 -0.33053593561756162 -0.1079545682218184 0 -0.3566794227574967 -0.1043458765149315 0 -0.3374892823086682 -0.088236536836331994 0 -0.33053593561756162 -0.1079545682218184 0 -0.3566794227574967 -0.1043458765149315 0 -0.33053593561756162 -0.1079545682218184 0 -0.34527152564456909 -0.1172886434696201 0 -0.33763308218656729 -0.12975648469309381 0 -0.33053593561756162 -0.1079545682218184 0 -0.31793097432928819 -0.1260088570853794 0 -0.33763308218656729 -0.12975648469309381 0 -0.34527152564456909 -0.1172886434696201 0 -0.33763308218656729 -0.12975648469309381 0 -0.35623766201665091 -0.12709764444863669 0 -0.33053593561756162 -0.1079545682218184 0 -0.34527152564456909 -0.1172886434696201 0 -0.3566794227574967 -0.1043458765149315 0 -0.34527152564456909 -0.1172886434696201 0 -0.3566794227574967 -0.1043458765149315 0 -0.35623766201665091 -0.12709764444863669 0 -0.3566794227574967 -0.1043458765149315 0 -0.35623766201665091 -0.12709764444863669 0 -0.3566794227574967 -0.1043458765149315 0 -0.3570612707838684 -0.084679761175365811 0 -0.3566794227574967 -0.1043458765149315 0 -0.37582622230550999 -0.10170296601212001 0 -0.3566794227574967 -0.1043458765149315 0 -0.37548934796079347 -0.1189308273034652 0 -0.37582622230550999 -0.10170296601212001 0 -0.3566794227574967 -0.1043458765149315 0 -0.3570612707838684 -0.084679761175365811 0 -0.37582622230550999 -0.10170296601212001 0 -0.3566794227574967 -0.1043458765149315 0 -0.35623766201665091 -0.12709764444863669 0 -0.37548934796079347 -0.1189308273034652 0 -0.33579151008389369 -0.069739697834785896 0 -0.35168960299242652 -0.071023331437723464 0 -0.35439507793220532 -0.055934437563443948 0 -0.35168960299242652 -0.071023331437723464 0 -0.3570612707838684 -0.084679761175365811 0 -0.36688099077600378 -0.069320548482430216 0 -0.35168960299242652 -0.071023331437723464 0 -0.36688099077600378 -0.069320548482430216 0 -0.35439507793220532 -0.055934437563443948 0 -0.3374892823086682 -0.088236536836331994 0 -0.35168960299242652 -0.071023331437723464 0 -0.3570612707838684 -0.084679761175365811 0 -0.3374892823086682 -0.088236536836331994 0 -0.3566794227574967 -0.1043458765149315 0 -0.3570612707838684 -0.084679761175365811 0 -0.3570612707838684 -0.084679761175365811 0 -0.37930620853551672 -0.082121161243906143 0 -0.37582622230550999 -0.10170296601212001 0 -0.3570612707838684 -0.084679761175365811 0 -0.36688099077600378 -0.069320548482430216 0 -0.37930620853551672 -0.082121161243906143 0 -0.36688099077600378 -0.069320548482430216 0 -0.3696328168892376 -0.050494029857093198 0 -0.35439507793220532 -0.055934437563443948 0 -0.36688099077600378 -0.069320548482430216 0 -0.3696328168892376 -0.050494029857093198 0 -0.38200511134853471 -0.06041813338368434 0 -0.3696328168892376 -0.050494029857093198 0 -0.35439507793220532 -0.055934437563443948 0 -0.3584894599523451 -0.04449469549934059 0 -0.36901198175017957 -0.033831953484290439 0 -0.34091796323775808 -0.037718361092534777 0 -0.35439507793220532 -0.055934437563443948 0 -0.3584894599523451 -0.04449469549934059 0 -0.34091796323775808 -0.037718361092534777 0 -0.3584894599523451 -0.04449469549934059 0 -0.36901198175017957 -0.033831953484290439 0 -0.34091796323775808 -0.037718361092534777 0 -0.3696328168892376 -0.050494029857093198 0 -0.36901198175017957 -0.033831953484290439 0 -0.38401104986803258 -0.038770981803002993 0 -0.3696328168892376 -0.050494029857093198 0 -0.3584894599523451 -0.04449469549934059 0 -0.36901198175017957 -0.033831953484290439 0 -0.36901198175017957 -0.033831953484290439 0 -0.35371581064066782 -0.021931131075452481 0 -0.3752081615310342 -0.02214199608524952 0 -0.35371581064066782 -0.021931131075452481 0 -0.3752081615310342 -0.02214199608524952 0 -0.36376506397630098 -0.011726461012886691 0 -0.35371581064066782 -0.021931131075452481 0 -0.3752081615310342 -0.02214199608524952 0 -0.36376506397630098 -0.011726461012886691 0 -0.34475105475159351 -0.0078954650700983463 0 -0.3699391971918341 0.002565640923137285 0 -0.36376506397630098 -0.011726461012886691 0 -0.37543431854078851 -0.01113292883406072 0 -0.3699391971918341 0.002565640923137285 0 -0.36376506397630098 -0.011726461012886691 0 -0.37543431854078851 -0.01113292883406072 0 -0.3752081615310342 -0.02214199608524952 0 -0.36376506397630098 -0.011726461012886691 0 -0.34475105475159351 -0.0078954650700983463 0 -0.35371581064066782 -0.021931131075452481 0 -0.34475105475159351 -0.0078954650700983463 0 -0.3699391971918341 0.002565640923137285 0 -0.35371581064066782 -0.021931131075452481 0 -0.33920443110562332 -0.021673627144924511 0 -0.34091796323775808 -0.037718361092534777 0 -0.36901198175017957 -0.033831953484290439 0 -0.35371581064066782 -0.021931131075452481 0 -0.34091796323775808 -0.037718361092534777 0 -0.34475105475159351 -0.0078954650700983463 0 -0.35371581064066782 -0.021931131075452481 0 -0.33920443110562332 -0.021673627144924511 0 -0.34475105475159351 -0.0078954650700983463 0 -0.33920443110562332 -0.021673627144924511 0 -0.31956291231135292 -0.018356571063333969 0 -0.33920443110562332 -0.021673627144924511 0 -0.31956291231135292 -0.018356571063333969 0 -0.34091796323775808 -0.037718361092534777 0 -0.34475105475159351 -0.0078954650700983463 0 -0.31956291231135292 -0.018356571063333969 0 -0.34475105475159351 -0.0078954650700983463 0 -0.31956291231135292 -0.018356571063333969 0 -0.32877656592731658 0.00059326591614831232 0 -0.34475105475159351 -0.0078954650700983463 0 -0.3403814197383756 0.0055432326035753784 0 -0.32877656592731658 0.00059326591614831232 0 -0.31487099677836922 -0.003370318319593731 0 -0.31956291231135292 -0.018356571063333969 0 -0.32877656592731658 0.00059326591614831232 0 -0.31282394472533659 -0.041604768700779123 0 -0.3286009723034925 -0.052167501397103293 0 -0.34091796323775808 -0.037718361092534777 0 -0.31956291231135292 -0.018356571063333969 0 -0.31282394472533659 -0.041604768700779123 0 -0.34091796323775808 -0.037718361092534777 0 -0.31282394472533659 -0.041604768700779123 0 -0.34091796323775808 -0.037718361092534777 0 -0.31242704174119418 -0.059261649291870833 0 -0.31282394472533659 -0.041604768700779123 0 -0.3286009723034925 -0.052167501397103293 0 -0.31242704174119418 -0.059261649291870833 0 -0.33579151008389369 -0.069739697834785896 0 -0.3286009723034925 -0.052167501397103293 0 -0.35439507793220532 -0.055934437563443948 0 -0.3286009723034925 -0.052167501397103293 0 -0.34091796323775808 -0.037718361092534777 0 -0.33579151008389369 -0.069739697834785896 0 -0.35439507793220532 -0.055934437563443948 0 -0.3286009723034925 -0.052167501397103293 0 -0.31148366188368759 -0.25416726984867177 0 -0.29927525302170749 -0.22805127334012151 0 -0.29517551715597379 -0.24544518745146579 0 -0.29927525302170749 -0.22805127334012151 0 -0.31450630497678389 -0.24691573354700411 0 -0.3226212693971201 -0.2368562908327464 0 -0.31148366188368759 -0.25416726984867177 0 -0.29927525302170749 -0.22805127334012151 0 -0.31148366188368759 -0.25416726984867177 0 -0.29927525302170749 -0.22805127334012151 0 -0.31450630497678389 -0.24691573354700411 0 -0.29927525302170749 -0.22805127334012151 0 -0.3226212693971201 -0.2368562908327464 0 -0.29927525302170749 -0.22805127334012151 0 -0.30531389398759567 -0.20949750276821391 0 -0.31407370803600593 -0.22352529402207361 0 -0.29927525302170749 -0.22805127334012151 0 -0.31407370803600593 -0.22352529402207361 0 -0.3226212693971201 -0.2368562908327464 0 -0.29927525302170749 -0.22805127334012151 0 -0.28285376880579138 -0.22185786314754111 0 -0.2857984794964385 -0.22996887673698871 0 -0.29927525302170749 -0.22805127334012151 0 -0.28285376880579138 -0.22185786314754111 0 -0.2911171622658657 -0.21059964044469809 0 -0.29927525302170749 -0.22805127334012151 0 -0.28285376880579138 -0.22185786314754111 0 -0.29927525302170749 -0.22805127334012151 0 -0.2857984794964385 -0.22996887673698871 0 -0.28909781208052349 -0.23595759489966739 0 -0.29927525302170749 -0.22805127334012151 0 -0.2911171622658657 -0.21059964044469809 0 -0.28285376880579138 -0.22185786314754111 0 -0.2857984794964385 -0.22996887673698871 0 -0.27698989392253393 -0.22984693079346871 0 -0.2857984794964385 -0.22996887673698871 0 -0.28909781208052349 -0.23595759489966739 0 -0.27980409023704961 -0.23468731113823679 0 -0.28909781208052349 -0.23595759489966739 0 -0.29517551715597379 -0.24544518745146579 0 -0.28270905799553009 -0.2424206166490751 0 -0.29927525302170749 -0.22805127334012151 0 -0.28909781208052349 -0.23595759489966739 0 -0.29517551715597379 -0.24544518745146579 0 -0.28909781208052349 -0.23595759489966739 0 -0.28270905799553009 -0.2424206166490751 0 -0.27980409023704961 -0.23468731113823679 0 -0.28914091809102288 -0.25527920891883887 0 -0.29517551715597379 -0.24544518745146579 0 -0.28270905799553009 -0.2424206166490751 0 -0.25848446866677771 -0.25505911507912138 0 -0.28270905799553009 -0.2424206166490751 0 -0.26773718129465579 -0.24245302293629509 0 -0.26114325788636877 -0.23892500842729841 0 -0.27698989392253393 -0.22984693079346871 0 -0.26114325788636877 -0.23892500842729841 0 -0.27698989392253393 -0.22984693079346871 0 -0.25848446866677771 -0.25505911507912138 0 -0.28270905799553009 -0.2424206166490751 0 -0.26773718129465579 -0.24245302293629509 0 -0.28270905799553009 -0.2424206166490751 0 -0.27980409023704961 -0.23468731113823679 0 -0.26773718129465579 -0.24245302293629509 0 -0.27980409023704961 -0.23468731113823679 0 -0.26773718129465579 -0.24245302293629509 0 -0.27698989392253393 -0.22984693079346871 0 -0.26773718129465579 -0.24245302293629509 0 -0.27698989392253393 -0.22984693079346871 0 -0.24529662185020609 -0.24800308606113189 0 -0.26114325788636877 -0.23892500842729841 0 -0.25092660033086928 -0.2318764600486789 0 -0.25848446866677771 -0.25505911507912138 0 -0.26773718129465579 -0.24245302293629509 0 -0.26773718129465579 -0.24245302293629509 0 -0.26114325788636877 -0.23892500842729841 0 -0.25674263534839881 -0.24770132598410441 0 -0.24529662185020609 -0.24800308606113189 0 -0.26114325788636877 -0.23892500842729841 0 -0.25674263534839881 -0.24770132598410441 0 -0.24529662185020609 -0.24800308606113189 0 -0.26114325788636877 -0.23892500842729841 0 -0.25848446866677771 -0.25505911507912138 0 -0.26773718129465579 -0.24245302293629509 0 -0.25674263534839881 -0.24770132598410441 0 -0.25105164704398369 -0.25406639741667619 0 -0.24529662185020609 -0.24800308606113189 0 -0.25674263534839881 -0.24770132598410441 0 -0.24327366739152129 -0.22106299933557089 0 -0.24693301325251121 -0.22336114135042201 0 -0.26073165293652012 -0.21351444326509811 0 -0.24693301325251121 -0.22336114135042201 0 -0.25938303966603832 -0.22742619807383679 0 -0.26073165293652012 -0.21351444326509811 0 -0.24693301325251121 -0.22336114135042201 0 -0.25092660033086928 -0.2318764600486789 0 -0.25938303966603832 -0.22742619807383679 0 -0.26114325788636877 -0.23892500842729841 0 -0.25092660033086928 -0.2318764600486789 0 -0.25938303966603832 -0.22742619807383679 0 -0.26114325788636877 -0.23892500842729841 0 -0.25938303966603832 -0.22742619807383679 0 -0.27698989392253393 -0.22984693079346871 0 -0.25938303966603832 -0.22742619807383679 0 -0.27698989392253393 -0.22984693079346871 0 -0.26073165293652012 -0.21351444326509811 0 -0.28285376880579138 -0.22185786314754111 0 -0.27698989392253393 -0.22984693079346871 0 -0.26073165293652012 -0.21351444326509811 0 -0.2857984794964385 -0.22996887673698871 0 -0.27980409023704961 -0.23468731113823679 0 -0.27698989392253393 -0.22984693079346871 0 -0.28285376880579138 -0.22185786314754111 0 -0.27698989392253393 -0.22984693079346871 0 -0.26073165293652012 -0.21351444326509811 0 -0.28714160307353392 -0.20209519968093151 0 -0.28285376880579138 -0.22185786314754111 0 -0.26073165293652012 -0.21351444326509811 0 -0.28714160307353392 -0.20209519968093151 0 -0.28285376880579138 -0.22185786314754111 0 -0.26073165293652012 -0.21351444326509811 0 -0.26073165293652012 -0.21351444326509811 0 -0.26723087008311791 -0.19721682264557039 0 -0.28714160307353392 -0.20209519968093151 0 -0.24349599673476849 -0.20701396575694631 0 -0.26073165293652012 -0.21351444326509811 0 -0.25328323905258199 -0.19989932017130971 0 -0.24327366739152129 -0.22106299933557089 0 -0.26073165293652012 -0.21351444326509811 0 -0.26073165293652012 -0.21351444326509811 0 -0.25328323905258199 -0.19989932017130971 0 -0.26723087008311791 -0.19721682264557039 0 -0.24349599673476849 -0.20701396575694631 0 -0.26073165293652012 -0.21351444326509811 0 -0.25328323905258199 -0.19989932017130971 0 -0.26723087008311791 -0.19721682264557039 0 -0.25635833317692719 -0.18532842611283559 0 -0.26723087008311791 -0.19721682264557039 0 -0.28062946354790858 -0.18816455441525559 0 -0.28714160307353392 -0.20209519968093151 0 -0.26723087008311791 -0.19721682264557039 0 -0.28062946354790858 -0.18816455441525559 0 -0.25635833317692719 -0.18532842611283559 0 -0.28062946354790858 -0.18816455441525559 0 -0.28714160307353392 -0.20209519968093151 0 -0.28062946354790858 -0.18816455441525559 0 -0.29191085750268381 -0.1884737507052372 0 -0.28714160307353392 -0.20209519968093151 0 -0.2911171622658657 -0.21059964044469809 0 -0.30210963728859869 -0.19562325907554229 0 -0.29191085750268381 -0.1884737507052372 0 -0.28714160307353392 -0.20209519968093151 0 -0.30210963728859869 -0.19562325907554229 0 -0.28714160307353392 -0.20209519968093151 0 -0.2911171622658657 -0.21059964044469809 0 -0.30210963728859869 -0.19562325907554229 0 -0.28714160307353392 -0.20209519968093151 0 -0.30210963728859869 -0.19562325907554229 0 -0.28285376880579138 -0.22185786314754111 0 -0.28714160307353392 -0.20209519968093151 0 -0.2911171622658657 -0.21059964044469809 0 -0.28285376880579138 -0.22185786314754111 0 -0.2911171622658657 -0.21059964044469809 0 -0.28714160307353392 -0.20209519968093151 0 -0.2911171622658657 -0.21059964044469809 0 -0.29927525302170749 -0.22805127334012151 0 -0.2911171622658657 -0.21059964044469809 0 -0.30531389398759567 -0.20949750276821391 0 -0.2911171622658657 -0.21059964044469809 0 -0.30531389398759567 -0.20949750276821391 0 -0.30210963728859869 -0.19562325907554229 0 -0.30531389398759567 -0.20949750276821391 0 -0.30210963728859869 -0.19562325907554229 0 -0.3152456128148392 -0.18994347159121441 0 -0.30210963728859869 -0.19562325907554229 0 -0.31239107264268617 -0.1816156132481293 0 -0.30210963728859869 -0.19562325907554229 0 -0.31239107264268617 -0.1816156132481293 0 -0.3152456128148392 -0.18994347159121441 0 -0.30210963728859869 -0.19562325907554229 0 -0.3152456128148392 -0.18994347159121441 0 -0.30210963728859869 -0.19562325907554229 0 -0.29889643235399183 -0.17792931050830699 0 -0.31239107264268617 -0.1816156132481293 0 -0.29191085750268381 -0.1884737507052372 0 -0.30210963728859869 -0.19562325907554229 0 -0.29889643235399183 -0.17792931050830699 0 -0.29889643235399183 -0.17792931050830699 0 -0.31156512085873 -0.17154102074038641 0 -0.30184371215732442 -0.1670227758757713 0 -0.29889643235399183 -0.17792931050830699 0 -0.31239107264268617 -0.1816156132481293 0 -0.31156512085873 -0.17154102074038641 0 -0.31156512085873 -0.17154102074038641 0 -0.30788462890262108 -0.15313856988955829 0 -0.29100097646245082 -0.16368623951956979 0 -0.30788462890262108 -0.15313856988955829 0 -0.30184371215732442 -0.1670227758757713 0 -0.29100097646245082 -0.16368623951956979 0 -0.30788462890262108 -0.15313856988955829 0 -0.31156512085873 -0.17154102074038641 0 -0.30184371215732442 -0.1670227758757713 0 -0.30788462890262108 -0.15313856988955829 0 -0.29889643235399183 -0.17792931050830699 0 -0.30184371215732442 -0.1670227758757713 0 -0.29100097646245082 -0.16368623951956979 0 -0.29100097646245082 -0.16368623951956979 0 -0.27411732402228028 -0.17423390914958109 0 -0.29100097646245082 -0.16368623951956979 0 -0.28731101077786297 -0.1784975528595901 0 -0.27411732402228028 -0.17423390914958109 0 -0.29889643235399183 -0.17792931050830699 0 -0.29100097646245082 -0.16368623951956979 0 -0.28731101077786297 -0.1784975528595901 0 -0.29191085750268381 -0.1884737507052372 0 -0.29889643235399183 -0.17792931050830699 0 -0.28731101077786297 -0.1784975528595901 0 -0.28062946354790858 -0.18816455441525559 0 -0.29191085750268381 -0.1884737507052372 0 -0.28731101077786297 -0.1784975528595901 0 -0.28062946354790858 -0.18816455441525559 0 -0.27411732402228028 -0.17423390914958109 0 -0.25635833317692719 -0.18532842611283559 0 -0.28062946354790858 -0.18816455441525559 0 -0.27411732402228028 -0.17423390914958109 0 -0.28062946354790858 -0.18816455441525559 0 -0.28731101077786297 -0.1784975528595901 0 -0.27411732402228028 -0.17423390914958109 0 -0.27411732402228028 -0.17423390914958109 0 -0.25635833317692719 -0.18532842611283559 0 -0.27411732402228028 -0.17423390914958109 0 -0.25635833317692719 -0.18532842611283559 0 -0.26239455398392342 -0.17047704049125989 0 -0.25635833317692719 -0.18532842611283559 0 -0.25064182486038422 -0.16754634941910679 0 -0.26239455398392342 -0.17047704049125989 0 -0.25064182486038422 -0.16754634941910679 0 -0.26239455398392342 -0.17047704049125989 0 -0.26703014540241038 -0.15907315116836149 0 -0.24767147066233511 -0.1513775437953267 0 -0.25064182486038422 -0.16754634941910679 0 -0.26703014540241038 -0.15907315116836149 0 -0.29100097646245082 -0.16368623951956979 0 -0.27411732402228028 -0.17423390914958109 0 -0.26703014540241038 -0.15907315116836149 0 -0.29100097646245082 -0.16368623951956979 0 -0.26703014540241038 -0.15907315116836149 0 -0.27558528847992841 -0.14647060902337949 0 -0.27411732402228028 -0.17423390914958109 0 -0.26703014540241038 -0.15907315116836149 0 -0.27411732402228028 -0.17423390914958109 0 -0.26239455398392342 -0.17047704049125989 0 -0.26703014540241038 -0.15907315116836149 0 -0.26703014540241038 -0.15907315116836149 0 -0.27558528847992841 -0.14647060902337949 0 -0.25994296678253748 -0.1439123931871433 0 -0.27558528847992841 -0.14647060902337949 0 -0.25994296678253748 -0.1439123931871433 0 -0.26777999628544291 -0.13522297935083241 0 -0.24767147066233511 -0.1513775437953267 0 -0.26703014540241038 -0.15907315116836149 0 -0.25994296678253748 -0.1439123931871433 0 -0.26703014540241038 -0.15907315116836149 0 -0.25994296678253748 -0.1439123931871433 0 -0.24767147066233511 -0.1513775437953267 0 -0.25994296678253748 -0.1439123931871433 0 -0.25256765633437772 -0.1346759160703011 0 -0.24723841178782471 -0.12256456812724879 0 -0.26460191901895541 -0.12149563000682261 0 -0.25256765633437772 -0.1346759160703011 0 -0.25994296678253748 -0.1439123931871433 0 -0.25256765633437772 -0.1346759160703011 0 -0.26777999628544291 -0.13522297935083241 0 -0.26460191901895541 -0.12149563000682261 0 -0.25256765633437772 -0.1346759160703011 0 -0.26777999628544291 -0.13522297935083241 0 -0.26460191901895541 -0.12149563000682261 0 -0.26777999628544291 -0.13522297935083241 0 -0.28062078202597168 -0.13145283347434911 0 -0.27558528847992841 -0.14647060902337949 0 -0.26777999628544291 -0.13522297935083241 0 -0.28062078202597168 -0.13145283347434911 0 -0.28383495276823262 -0.11640101432239509 0 -0.28062078202597168 -0.13145283347434911 0 -0.29902533446157892 -0.13077497354006409 0 -0.28062078202597168 -0.13145283347434911 0 -0.28937017752604882 -0.14580343054752259 0 -0.29902533446157892 -0.13077497354006409 0 -0.29100097646245082 -0.16368623951956979 0 -0.28937017752604882 -0.14580343054752259 0 -0.29785198545540659 -0.15079413577228989 0 -0.27558528847992841 -0.14647060902337949 0 -0.28062078202597168 -0.13145283347434911 0 -0.28937017752604882 -0.14580343054752259 0 -0.29100097646245082 -0.16368623951956979 0 -0.27558528847992841 -0.14647060902337949 0 -0.28937017752604882 -0.14580343054752259 0 -0.28937017752604882 -0.14580343054752259 0 -0.29785198545540659 -0.15079413577228989 0 -0.30621118054521612 -0.14477133216270369 0 -0.29100097646245082 -0.16368623951956979 0 -0.29785198545540659 -0.15079413577228989 0 -0.30788462890262108 -0.15313856988955829 0 -0.29785198545540659 -0.15079413577228989 0 -0.30788462890262108 -0.15313856988955829 0 -0.30621118054521612 -0.14477133216270369 0 -0.30788462890262108 -0.15313856988955829 0 -0.30621118054521612 -0.14477133216270369 0 -0.30788462890262108 -0.15313856988955829 0 -0.30621118054521612 -0.14477133216270369 0 -0.31926142531180512 -0.1460311806325722 0 -0.29902533446157892 -0.13077497354006409 0 -0.31793097432928819 -0.1260088570853794 0 -0.31346163851278008 -0.1373664431626028 0 -0.30621118054521612 -0.14477133216270369 0 -0.29902533446157892 -0.13077497354006409 0 -0.31346163851278008 -0.1373664431626028 0 -0.28937017752604882 -0.14580343054752259 0 -0.30621118054521612 -0.14477133216270369 0 -0.29902533446157892 -0.13077497354006409 0 -0.32439010987805639 -0.1372860566724608 0 -0.31793097432928819 -0.1260088570853794 0 -0.33763308218656729 -0.12975648469309381 0 -0.32439010987805639 -0.1372860566724608 0 -0.31346163851278008 -0.1373664431626028 0 -0.31926142531180512 -0.1460311806325722 0 -0.32439010987805639 -0.1372860566724608 0 -0.31793097432928819 -0.1260088570853794 0 -0.31346163851278008 -0.1373664431626028 0 -0.30788462890262108 -0.15313856988955829 0 -0.31926142531180512 -0.1460311806325722 0 -0.32454778722478578 -0.15996560699540049 0 -0.30621118054521612 -0.14477133216270369 0 -0.31346163851278008 -0.1373664431626028 0 -0.31926142531180512 -0.1460311806325722 0 -0.30788462890262108 -0.15313856988955829 0 -0.31926142531180512 -0.1460311806325722 0 -0.31926142531180512 -0.1460311806325722 0 -0.33366342904984131 -0.14726731778865579 0 -0.32454778722478578 -0.15996560699540049 0 -0.32439010987805639 -0.1372860566724608 0 -0.31926142531180512 -0.1460311806325722 0 -0.33366342904984131 -0.14726731778865579 0 -0.33366342904984131 -0.14726731778865579 0 -0.35579590127580529 -0.14984941238234201 0 -0.33999242054423751 -0.16196207434069221 0 -0.33366342904984131 -0.14726731778865579 0 -0.33763308218656729 -0.12975648469309381 0 -0.35579590127580529 -0.14984941238234201 0 -0.32439010987805639 -0.1372860566724608 0 -0.33366342904984131 -0.14726731778865579 0 -0.33763308218656729 -0.12975648469309381 0 -0.35623766201665091 -0.12709764444863669 0 -0.35579590127580529 -0.14984941238234201 0 -0.33763308218656729 -0.12975648469309381 0 -0.35623766201665091 -0.12709764444863669 0 -0.35579590127580529 -0.14984941238234201 0 -0.35623766201665091 -0.12709764444863669 0 -0.37210300239949251 -0.14056846175292109 0 -0.37548934796079347 -0.1189308273034652 0 -0.35623766201665091 -0.12709764444863669 0 -0.37210300239949251 -0.14056846175292109 0 -0.35579590127580529 -0.14984941238234201 0 -0.37210300239949251 -0.14056846175292109 0 -0.37412081938027919 -0.15525793490428341 0 -0.35579590127580529 -0.14984941238234201 0 -0.35579590127580529 -0.14984941238234201 0 -0.35535414053496028 -0.17260118031604721 0 -0.33999242054423751 -0.16196207434069221 0 -0.35579590127580529 -0.14984941238234201 0 -0.35535414053496028 -0.17260118031604721 0 -0.35579590127580529 -0.14984941238234201 0 -0.37069564673777022 -0.1659677563463263 0 -0.35535414053496028 -0.17260118031604721 0 -0.37412081938027919 -0.15525793490428341 0 -0.35579590127580529 -0.14984941238234201 0 -0.37069564673777022 -0.1659677563463263 0 -0.37069564673777022 -0.1659677563463263 0 -0.35535414053496028 -0.17260118031604721 0 -0.37069564673777022 -0.1659677563463263 0 -0.36869813265349749 -0.17632361733689869 0 -0.35535414053496028 -0.17260118031604721 0 -0.37069564673777022 -0.1659677563463263 0 -0.36869813265349749 -0.17632361733689869 0 -0.37991803898494342 -0.1721945107571162 0 -0.36763217405699061 -0.18531209582662089 0 -0.36043307169770722 -0.17808610025188279 0 -0.3614699592615459 -0.19409999413633511 0 -0.36763217405699061 -0.18531209582662089 0 -0.36869813265349749 -0.17632361733689869 0 -0.37815572390861341 -0.18378006052339821 0 -0.36869813265349749 -0.17632361733689869 0 -0.36043307169770722 -0.17808610025188279 0 -0.35535414053496028 -0.17260118031604721 0 -0.36763217405699061 -0.18531209582662089 0 -0.36869813265349749 -0.17632361733689869 0 -0.36043307169770722 -0.17808610025188279 0 -0.35535414053496028 -0.17260118031604721 0 -0.33529987667490002 -0.18127232595363149 0 -0.36043307169770722 -0.17808610025188279 0 -0.35515164666445542 -0.18303011417942261 0 -0.34782913759751288 -0.19767616377883829 0 -0.35535414053496028 -0.17260118031604721 0 -0.34479588137309047 -0.1870061193346402 0 -0.33529987667490002 -0.18127232595363149 0 -0.35515164666445542 -0.18303011417942261 0 -0.35535414053496028 -0.17260118031604721 0 -0.34479588137309047 -0.1870061193346402 0 -0.36043307169770722 -0.17808610025188279 0 -0.35515164666445542 -0.18303011417942261 0 -0.35535414053496028 -0.17260118031604721 0 -0.35515164666445542 -0.18303011417942261 0 -0.35535414053496028 -0.17260118031604721 0 -0.35535414053496028 -0.17260118031604721 0 -0.33529987667490002 -0.18127232595363149 0 -0.33999242054423751 -0.16196207434069221 0 -0.33529987667490002 -0.18127232595363149 0 -0.33999242054423751 -0.16196207434069221 0 -0.32454778722478578 -0.15996560699540049 0 -0.33366342904984131 -0.14726731778865579 0 -0.33999242054423751 -0.16196207434069221 0 -0.32454778722478578 -0.15996560699540049 0 -0.31156512085873 -0.17154102074038641 0 -0.30788462890262108 -0.15313856988955829 0 -0.32454778722478578 -0.15996560699540049 0 -0.31156512085873 -0.17154102074038641 0 -0.33529987667490002 -0.18127232595363149 0 -0.32454778722478578 -0.15996560699540049 0 -0.31239107264268617 -0.1816156132481293 0 -0.31156512085873 -0.17154102074038641 0 -0.3152456128148392 -0.18994347159121441 0 -0.33529987667490002 -0.18127232595363149 0 -0.3152456128148392 -0.18994347159121441 0 -0.31156512085873 -0.17154102074038641 0 -0.33529987667490002 -0.18127232595363149 0 -0.3152456128148392 -0.18994347159121441 0 -0.31156512085873 -0.17154102074038641 0 -0.3152456128148392 -0.18994347159121441 0 -0.3152456128148392 -0.18994347159121441 0 -0.31946791219614912 -0.21105495825349821 0 -0.33228918302500948 -0.19750899075063039 0 -0.33529987667490002 -0.18127232595363149 0 -0.3152456128148392 -0.18994347159121441 0 -0.33228918302500948 -0.19750899075063039 0 -0.3152456128148392 -0.18994347159121441 0 -0.31946791219614912 -0.21105495825349821 0 -0.30531389398759567 -0.20949750276821391 0 -0.3152456128148392 -0.18994347159121441 0 -0.31946791219614912 -0.21105495825349821 0 -0.30531389398759567 -0.20949750276821391 0 -0.31946791219614912 -0.21105495825349821 0 -0.31407370803600593 -0.22352529402207361 0 -0.33522520349731882 -0.21726622730579381 0 -0.34782913759751288 -0.19767616377883829 0 -0.33522520349731882 -0.21726622730579381 0 -0.33228918302500948 -0.19750899075063039 0 -0.34782913759751288 -0.19767616377883829 0 -0.31946791219614912 -0.21105495825349821 0 -0.33522520349731882 -0.21726622730579381 0 -0.33228918302500948 -0.19750899075063039 0 -0.34479588137309047 -0.1870061193346402 0 -0.33529987667490002 -0.18127232595363149 0 -0.33228918302500948 -0.19750899075063039 0 -0.34479588137309047 -0.1870061193346402 0 -0.33228918302500948 -0.19750899075063039 0 -0.34782913759751288 -0.19767616377883829 0 -0.36043307169770722 -0.17808610025188279 0 -0.34782913759751288 -0.19767616377883829 0 -0.34782913759751288 -0.19767616377883829 0 -0.3614699592615459 -0.19409999413633511 0 -0.3579574684028356 -0.2138364238928703 0 -0.35515164666445542 -0.18303011417942261 0 -0.34479588137309047 -0.1870061193346402 0 -0.34782913759751288 -0.19767616377883829 0 -0.36043307169770722 -0.17808610025188279 0 -0.34782913759751288 -0.19767616377883829 0 -0.3614699592615459 -0.19409999413633511 0 -0.36763217405699061 -0.18531209582662089 0 -0.37364372095024873 -0.19961687191018571 0 -0.37815572390861341 -0.18378006052339821 0 -0.3614699592615459 -0.19409999413633511 0 -0.37364372095024873 -0.19961687191018571 0 -0.3579574684028356 -0.2138364238928703 0 -0.36763217405699061 -0.18531209582662089 0 -0.3614699592615459 -0.19409999413633511 0 -0.37364372095024873 -0.19961687191018571 0 -0.37364372095024873 -0.19961687191018571 0 -0.3579574684028356 -0.2138364238928703 0 -0.38063695286564081 -0.22563938994649729 0 -0.33522520349731882 -0.21726622730579381 0 -0.34782913759751288 -0.19767616377883829 0 -0.3579574684028356 -0.2138364238928703 0 -0.35695802844078461 -0.2332576569412558 0 -0.33327910401592797 -0.2408759239360132 0 -0.34120821475079749 -0.2284185045817359 0 -0.33522520349731882 -0.21726622730579381 0 -0.3579574684028356 -0.2138364238928703 0 -0.34120821475079749 -0.2284185045817359 0 -0.3579574684028356 -0.2138364238928703 0 -0.35695802844078461 -0.2332576569412558 0 -0.34120821475079749 -0.2284185045817359 0 -0.35695802844078461 -0.2332576569412558 0 -0.38063695286564081 -0.22563938994649729 0 -0.35695802844078461 -0.2332576569412558 0 -0.36991953160555702 -0.23068638894131191 0 -0.38063695286564081 -0.22563938994649729 0 -0.3579574684028356 -0.2138364238928703 0 -0.35695802844078461 -0.2332576569412558 0 -0.38063695286564081 -0.22563938994649729 0 -0.37305331466023822 -0.25587688233707589 0 -0.36690541196772852 -0.24304584131912851 0 -0.35316620933808329 -0.24837640313654391 0 -0.36991953160555702 -0.23068638894131191 0 -0.36690541196772852 -0.24304584131912851 0 -0.3814299757939793 -0.24703187523945491 0 -0.37305331466023822 -0.25587688233707589 0 -0.36690541196772852 -0.24304584131912851 0 -0.3814299757939793 -0.24703187523945491 0 -0.35695802844078461 -0.2332576569412558 0 -0.36991953160555702 -0.23068638894131191 0 -0.36690541196772852 -0.24304584131912851 0 -0.35695802844078461 -0.2332576569412558 0 -0.35316620933808329 -0.24837640313654391 0 -0.33327910401592797 -0.2408759239360132 0 -0.35695802844078461 -0.2332576569412558 0 -0.33327910401592797 -0.2408759239360132 0 -0.35695802844078461 -0.2332576569412558 0 -0.36690541196772852 -0.24304584131912851 0 -0.35316620933808329 -0.24837640313654391 0 -0.32873314082181709 -0.2553878574993193 0 -0.35316620933808329 -0.24837640313654391 0 -0.33327910401592797 -0.2408759239360132 0 -0.33327910401592797 -0.2408759239360132 0 -0.34120821475079749 -0.2284185045817359 0 -0.3226212693971201 -0.2368562908327464 0 -0.35316620933808329 -0.24837640313654391 0 -0.33327910401592797 -0.2408759239360132 0 -0.33522520349731882 -0.21726622730579381 0 -0.3226212693971201 -0.2368562908327464 0 -0.33522520349731882 -0.21726622730579381 0 -0.34120821475079749 -0.2284185045817359 0 -0.3226212693971201 -0.2368562908327464 0 -0.31946791219614912 -0.21105495825349821 0 -0.32369021157745909 -0.23216644491578181 0 -0.31407370803600593 -0.22352529402207361 0 -0.31946791219614912 -0.21105495825349821 0 -0.33522520349731882 -0.21726622730579381 0 -0.32369021157745909 -0.23216644491578181 0 -0.31946791219614912 -0.21105495825349821 0 -0.32369021157745909 -0.23216644491578181 0 -0.33522520349731882 -0.21726622730579381 0 -0.32369021157745909 -0.23216644491578181 0 -0.3226212693971201 -0.2368562908327464 0 -0.32369021157745909 -0.23216644491578181 0 -0.31407370803600593 -0.22352529402207361 0 -0.3226212693971201 -0.2368562908327464 0 -0.33327910401592797 -0.2408759239360132 0 -0.31657802478918762 -0.24624919505116691 0 -0.31657802478918762 -0.24624919505116691 0 -0.3226212693971201 -0.2368562908327464 0 -0.33327910401592797 -0.2408759239360132 0 -0.31657802478918762 -0.24624919505116691 0 -0.3226212693971201 -0.2368562908327464 0 -0.32873314082181709 -0.2553878574993193 0 -0.33327910401592797 -0.2408759239360132 0 -0.31657802478918762 -0.24624919505116691 0 -0.31450630497678389 -0.24691573354700411 0 -0.31657802478918762 -0.24624919505116691 0 -0.3226212693971201 -0.2368562908327464 0 -0.31148366188368759 -0.25416726984867177 0 -0.31450630497678389 -0.24691573354700411 0 -0.31657802478918762 -0.24624919505116691 0 -0.31450630497678389 -0.24691573354700411 0 -0.31657802478918762 -0.24624919505116691 0 -0.33327910401592797 -0.2408759239360132 0 -0.3226212693971201 -0.2368562908327464 0 -0.43321302190924449 -0.25212477803607758 0 -0.42864520684391288 -0.23111737672994839 0 -0.44672017067712888 -0.23927377781782111 0 -0.43321302190924449 -0.25212477803607758 0 -0.42864520684391288 -0.23111737672994839 0 -0.41095069587899469 -0.23932327738842341 0 -0.43321302190924449 -0.25212477803607758 0 -0.41095069587899469 -0.23932327738842341 0 -0.42864520684391288 -0.23111737672994839 0 -0.42823690796787373 -0.2103249626354888 0 -0.44779680674811978 -0.22080461398017309 0 -0.41095069587899469 -0.23932327738842341 0 -0.40431587729049701 -0.21802112295173889 0 -0.42864520684391288 -0.23111737672994839 0 -0.41095069587899469 -0.23932327738842341 0 -0.40431587729049701 -0.21802112295173889 0 -0.41095069587899469 -0.23932327738842341 0 -0.40565193536376032 -0.2362763322455243 0 -0.40431587729049701 -0.21802112295173889 0 -0.42864520684391288 -0.23111737672994839 0 -0.40431587729049701 -0.21802112295173889 0 -0.42823690796787373 -0.2103249626354888 0 -0.41503188342946329 -0.25242658779931848 0 -0.43321302190924449 -0.25212477803607758 0 -0.41095069587899469 -0.23932327738842341 0 -0.41095069587899469 -0.23932327738842341 0 -0.40565193536376032 -0.2362763322455243 0 -0.41095069587899469 -0.23932327738842341 0 -0.40492002755051032 -0.24323987483949081 0 -0.40565193536376032 -0.2362763322455243 0 -0.41503188342946329 -0.25242658779931848 0 -0.41095069587899469 -0.23932327738842341 0 -0.41503188342946329 -0.25242658779931848 0 -0.40051534185056292 -0.24980493919758259 0 -0.40492002755051032 -0.24323987483949081 0 -0.41503188342946329 -0.25242658779931848 0 -0.41095069587899469 -0.23932327738842341 0 -0.40492002755051032 -0.24323987483949081 0 -0.40051534185056292 -0.24980493919758259 0 -0.40492002755051032 -0.24323987483949081 0 -0.39822594898453822 -0.24118660265644309 0 -0.40565193536376032 -0.2362763322455243 0 -0.39822594898453822 -0.24118660265644309 0 -0.39656145224072509 -0.2304274576942576 0 -0.40492002755051032 -0.24323987483949081 0 -0.40565193536376032 -0.2362763322455243 0 -0.39822594898453822 -0.24118660265644309 0 -0.39822594898453822 -0.24118660265644309 0 -0.39007165429735141 -0.23662424995425141 0 -0.39656145224072509 -0.2304274576942576 0 -0.39822594898453822 -0.24118660265644309 0 -0.39205957158950933 -0.24818750209485629 0 -0.39007165429735141 -0.23662424995425141 0 -0.40051534185056292 -0.24980493919758259 0 -0.39822594898453822 -0.24118660265644309 0 -0.39205957158950933 -0.24818750209485629 0 -0.36991953160555702 -0.23068638894131191 0 -0.38051452864063212 -0.2349954760203789 0 -0.3814299757939793 -0.24703187523945491 0 -0.39205957158950933 -0.24818750209485629 0 -0.39007165429735141 -0.23662424995425141 0 -0.3814299757939793 -0.24703187523945491 0 -0.36991953160555702 -0.23068638894131191 0 -0.3814299757939793 -0.24703187523945491 0 -0.39007165429735141 -0.23662424995425141 0 -0.38051452864063212 -0.2349954760203789 0 -0.3814299757939793 -0.24703187523945491 0 -0.39007165429735141 -0.23662424995425141 0 -0.38063695286564081 -0.22563938994649729 0 -0.39656145224072509 -0.2304274576942576 0 -0.36991953160555702 -0.23068638894131191 0 -0.38051452864063212 -0.2349954760203789 0 -0.38063695286564081 -0.22563938994649729 0 -0.39007165429735141 -0.23662424995425141 0 -0.38051452864063212 -0.2349954760203789 0 -0.38063695286564081 -0.22563938994649729 0 -0.40565193536376032 -0.2362763322455243 0 -0.39656145224072509 -0.2304274576942576 0 -0.40431587729049701 -0.21802112295173889 0 -0.38063695286564081 -0.22563938994649729 0 -0.39656145224072509 -0.2304274576942576 0 -0.40431587729049701 -0.21802112295173889 0 -0.38063695286564081 -0.22563938994649729 0 -0.40431587729049701 -0.21802112295173889 0 -0.40431587729049701 -0.21802112295173889 0 -0.39822296917385591 -0.19845885942669461 0 -0.41421710258065531 -0.20314948797086779 0 -0.40431587729049701 -0.21802112295173889 0 -0.38843458294503419 -0.20690630619589501 0 -0.39822296917385591 -0.19845885942669461 0 -0.38063695286564081 -0.22563938994649729 0 -0.40431587729049701 -0.21802112295173889 0 -0.38843458294503419 -0.20690630619589501 0 -0.40431587729049701 -0.21802112295173889 0 -0.39822296917385591 -0.19845885942669461 0 -0.37364372095024873 -0.19961687191018571 0 -0.38063695286564081 -0.22563938994649729 0 -0.38843458294503419 -0.20690630619589501 0 -0.37364372095024873 -0.19961687191018571 0 -0.385353394444929 -0.19279528674435839 0 -0.37815572390861341 -0.18378006052339821 0 -0.37364372095024873 -0.19961687191018571 0 -0.38843458294503419 -0.20690630619589501 0 -0.385353394444929 -0.19279528674435839 0 -0.385353394444929 -0.19279528674435839 0 -0.39822296917385591 -0.19845885942669461 0 -0.3921300610572177 -0.1788965959016493 0 -0.39822296917385591 -0.19845885942669461 0 -0.41009469882065652 -0.18778581543915701 0 -0.3921300610572177 -0.1788965959016493 0 -0.39822296917385591 -0.19845885942669461 0 -0.3921300610572177 -0.1788965959016493 0 -0.38843458294503419 -0.20690630619589501 0 -0.385353394444929 -0.19279528674435839 0 -0.39822296917385591 -0.19845885942669461 0 -0.41009469882065652 -0.18778581543915701 0 -0.42870102908347418 -0.20096849817935611 0 -0.42141039757524562 -0.17408017701158329 0 -0.41009469882065652 -0.18778581543915701 0 -0.41421710258065531 -0.20314948797086779 0 -0.42870102908347418 -0.20096849817935611 0 -0.39822296917385591 -0.19845885942669461 0 -0.41009469882065652 -0.18778581543915701 0 -0.41421710258065531 -0.20314948797086779 0 -0.40431587729049701 -0.21802112295173889 0 -0.42823690796787373 -0.2103249626354888 0 -0.40431587729049701 -0.21802112295173889 0 -0.41421710258065531 -0.20314948797086779 0 -0.42823690796787373 -0.2103249626354888 0 -0.41421710258065531 -0.20314948797086779 0 -0.42823690796787373 -0.2103249626354888 0 -0.42870102908347418 -0.20096849817935611 0 -0.42870102908347418 -0.20096849817935611 0 -0.44168207281167632 -0.18410197350830959 0 -0.43997732393367939 -0.19753164685659211 0 -0.42823690796787373 -0.2103249626354888 0 -0.42870102908347418 -0.20096849817935611 0 -0.43997732393367939 -0.19753164685659211 0 -0.42870102908347418 -0.20096849817935611 0 -0.42141039757524562 -0.17408017701158329 0 -0.42870102908347418 -0.20096849817935611 0 -0.42141039757524562 -0.17408017701158329 0 -0.44168207281167632 -0.18410197350830959 0 -0.42141039757524562 -0.17408017701158329 0 -0.41411976606701678 -0.1471918558438105 0 -0.43277428016671771 -0.15558317978589159 0 -0.42141039757524562 -0.17408017701158329 0 -0.43277428016671771 -0.15558317978589159 0 -0.44168207281167632 -0.18410197350830959 0 -0.42141039757524562 -0.17408017701158329 0 -0.41411976606701678 -0.1471918558438105 0 -0.42141039757524562 -0.17408017701158329 0 -0.40007845950379828 -0.15326309411020739 0 -0.41411976606701678 -0.1471918558438105 0 -0.42141039757524562 -0.17408017701158329 0 -0.40225296009288353 -0.17070963921222099 0 -0.40007845950379828 -0.15326309411020739 0 -0.41009469882065652 -0.18778581543915701 0 -0.42141039757524562 -0.17408017701158329 0 -0.40225296009288353 -0.17070963921222099 0 -0.41009469882065652 -0.18778581543915701 0 -0.3921300610572177 -0.1788965959016493 0 -0.40225296009288353 -0.17070963921222099 0 -0.385353394444929 -0.19279528674435839 0 -0.3921300610572177 -0.1788965959016493 0 -0.37815572390861341 -0.18378006052339821 0 -0.3921300610572177 -0.1788965959016493 0 -0.37991803898494342 -0.1721945107571162 0 -0.37815572390861341 -0.18378006052339821 0 -0.36869813265349749 -0.17632361733689869 0 -0.37991803898494342 -0.1721945107571162 0 -0.37815572390861341 -0.18378006052339821 0 -0.3921300610572177 -0.1788965959016493 0 -0.37991803898494342 -0.1721945107571162 0 -0.38603715294057961 -0.15933433237660391 0 -0.3921300610572177 -0.1788965959016493 0 -0.38603715294057961 -0.15933433237660391 0 -0.37412081938027919 -0.15525793490428341 0 -0.38603715294057961 -0.15933433237660391 0 -0.38525538206829563 -0.15682433099022791 0 -0.37412081938027919 -0.15525793490428341 0 -0.37069564673777022 -0.1659677563463263 0 -0.38603715294057961 -0.15933433237660391 0 -0.37069564673777022 -0.1659677563463263 0 -0.38603715294057961 -0.15933433237660391 0 -0.37069564673777022 -0.1659677563463263 0 -0.37991803898494342 -0.1721945107571162 0 -0.38603715294057961 -0.15933433237660391 0 -0.38603715294057961 -0.15933433237660391 0 -0.38525538206829563 -0.15682433099022791 0 -0.40007845950379828 -0.15326309411020739 0 -0.38603715294057961 -0.15933433237660391 0 -0.38525538206829563 -0.15682433099022791 0 -0.3921300610572177 -0.1788965959016493 0 -0.38603715294057961 -0.15933433237660391 0 -0.40225296009288353 -0.17070963921222099 0 -0.38603715294057961 -0.15933433237660391 0 -0.40007845950379828 -0.15326309411020739 0 -0.38603715294057961 -0.15933433237660391 0 -0.40225296009288353 -0.17070963921222099 0 -0.40007845950379828 -0.15326309411020739 0 -0.40007845950379828 -0.15326309411020739 0 -0.40024385575755927 -0.14114386308033211 0 -0.41411976606701678 -0.1471918558438105 0 -0.40007845950379828 -0.15326309411020739 0 -0.40024385575755927 -0.14114386308033211 0 -0.39138827930767001 -0.14651917581728391 0 -0.40024385575755927 -0.14114386308033211 0 -0.39138827930767001 -0.14651917581728391 0 -0.38770350067843917 -0.13438427228305361 0 -0.38525538206829563 -0.15682433099022791 0 -0.40007845950379828 -0.15326309411020739 0 -0.39138827930767001 -0.14651917581728391 0 -0.38525538206829563 -0.15682433099022791 0 -0.39138827930767001 -0.14651917581728391 0 -0.38126570801401483 -0.14821338140546181 0 -0.39138827930767001 -0.14651917581728391 0 -0.38126570801401483 -0.14821338140546181 0 -0.38770350067843917 -0.13438427228305361 0 -0.37210300239949251 -0.14056846175292109 0 -0.38126570801401483 -0.14821338140546181 0 -0.38770350067843917 -0.13438427228305361 0 -0.37210300239949251 -0.14056846175292109 0 -0.37412081938027919 -0.15525793490428341 0 -0.38126570801401483 -0.14821338140546181 0 -0.37412081938027919 -0.15525793490428341 0 -0.38525538206829563 -0.15682433099022791 0 -0.38126570801401483 -0.14821338140546181 0 -0.37210300239949251 -0.14056846175292109 0 -0.38770350067843917 -0.13438427228305361 0 -0.37548934796079347 -0.1189308273034652 0 -0.40024385575755927 -0.14114386308033211 0 -0.38770350067843917 -0.13438427228305361 0 -0.40792927323087219 -0.12436091734730501 0 -0.38770350067843917 -0.13438427228305361 0 -0.39359183590846208 -0.1176296288982845 0 -0.40792927323087219 -0.12436091734730501 0 -0.41411976606701678 -0.1471918558438105 0 -0.40792927323087219 -0.12436091734730501 0 -0.40024385575755927 -0.14114386308033211 0 -0.41411976606701678 -0.1471918558438105 0 -0.40792927323087219 -0.12436091734730501 0 -0.41411976606701678 -0.1471918558438105 0 -0.42462014100749618 -0.12562138867587089 0 -0.40792927323087219 -0.12436091734730501 0 -0.40007845950379828 -0.15326309411020739 0 -0.41411976606701678 -0.1471918558438105 0 -0.41411976606701678 -0.1471918558438105 0 -0.43277428016671771 -0.15558317978589159 0 -0.43943871326465939 -0.13624434462759061 0 -0.41411976606701678 -0.1471918558438105 0 -0.43943871326465939 -0.13624434462759061 0 -0.41411976606701678 -0.1471918558438105 0 -0.42462014100749618 -0.12562138867587089 0 -0.43943871326465939 -0.13624434462759061 0 -0.44971512069566172 -0.1392637724684033 0 -0.45143097484308531 -0.12782663656008031 0 -0.43943871326465939 -0.13624434462759061 0 -0.44971512069566172 -0.1392637724684033 0 -0.43943871326465939 -0.13624434462759061 0 -0.44393173981582312 -0.14837684617488761 0 -0.43277428016671771 -0.15558317978589159 0 -0.43943871326465939 -0.13624434462759061 0 -0.44393173981582312 -0.14837684617488761 0 -0.44393173981582312 -0.14837684617488761 0 -0.45580604690400828 -0.1469224976170227 0 -0.45096001864735402 -0.16494716022749789 0 -0.44971512069566172 -0.1392637724684033 0 -0.44393173981582312 -0.14837684617488761 0 -0.45580604690400828 -0.1469224976170227 0 -0.45580604690400828 -0.1469224976170227 0 -0.45900430761854061 -0.13707201486839499 0 -0.47683364024882768 -0.14800172407768619 0 -0.44971512069566172 -0.1392637724684033 0 -0.45580604690400828 -0.1469224976170227 0 -0.45900430761854061 -0.13707201486839499 0 -0.45580604690400828 -0.1469224976170227 0 -0.47683364024882768 -0.14800172407768619 0 -0.45096001864735402 -0.16494716022749789 0 -0.45900430761854061 -0.13707201486839499 0 -0.4616742490939163 -0.1251005413816702 0 -0.47683364024882768 -0.14800172407768619 0 -0.44971512069566172 -0.1392637724684033 0 -0.45143097484308531 -0.12782663656008031 0 -0.45900430761854061 -0.13707201486839499 0 -0.45143097484308531 -0.12782663656008031 0 -0.45900430761854061 -0.13707201486839499 0 -0.4616742490939163 -0.1251005413816702 0 -0.4616742490939163 -0.1251005413816702 0 -0.47873396331015772 -0.1259187214799401 0 -0.47683364024882768 -0.14800172407768619 0 -0.4616742490939163 -0.1251005413816702 0 -0.47683364024882768 -0.14800172407768619 0 -0.47873396331015772 -0.1259187214799401 0 -0.5 -0.12750905806396209 0 -0.47683364024882768 -0.14800172407768619 0 -0.5 -0.12750905806396209 0 -0.47683364024882768 -0.14800172407768619 0 -0.5 -0.1573727698753499 0 -0.47683364024882768 -0.14800172407768619 0 -0.5 -0.1573727698753499 0 -0.47846284100880238 -0.1721388434711425 0 -0.50000000000000333 -0.18723648168673759 0 -0.47846284100880238 -0.1721388434711425 0 -0.476078969322627 -0.19493264200298849 0 -0.5 -0.1573727698753499 0 -0.50000000000000333 -0.18723648168673759 0 -0.47846284100880238 -0.1721388434711425 0 -0.47846284100880238 -0.1721388434711425 0 -0.45986836808714199 -0.1837498843058355 0 -0.476078969322627 -0.19493264200298849 0 -0.47846284100880238 -0.1721388434711425 0 -0.45986836808714199 -0.1837498843058355 0 -0.45096001864735402 -0.16494716022749789 0 -0.47683364024882768 -0.14800172407768619 0 -0.47846284100880238 -0.1721388434711425 0 -0.45096001864735402 -0.16494716022749789 0 -0.43277428016671771 -0.15558317978589159 0 -0.45096001864735402 -0.16494716022749789 0 -0.44168207281167632 -0.18410197350830959 0 -0.43277428016671771 -0.15558317978589159 0 -0.44393173981582312 -0.14837684617488761 0 -0.45096001864735402 -0.16494716022749789 0 -0.45986836808714199 -0.1837498843058355 0 -0.45096001864735402 -0.16494716022749789 0 -0.44168207281167632 -0.18410197350830959 0 -0.45986836808714199 -0.1837498843058355 0 -0.44168207281167632 -0.18410197350830959 0 -0.45215793864525028 -0.2026288023192386 0 -0.44168207281167632 -0.18410197350830959 0 -0.45215793864525028 -0.2026288023192386 0 -0.43997732393367939 -0.19753164685659211 0 -0.42823690796787373 -0.2103249626354888 0 -0.45215793864525028 -0.2026288023192386 0 -0.43997732393367939 -0.19753164685659211 0 -0.42823690796787373 -0.2103249626354888 0 -0.45215793864525028 -0.2026288023192386 0 -0.44779680674811978 -0.22080461398017309 0 -0.42823690796787373 -0.2103249626354888 0 -0.45215793864525028 -0.2026288023192386 0 -0.45215793864525028 -0.2026288023192386 0 -0.4665405025698004 -0.2121725896797956 0 -0.44779680674811978 -0.22080461398017309 0 -0.45215793864525028 -0.2026288023192386 0 -0.4665405025698004 -0.2121725896797956 0 -0.476078969322627 -0.19493264200298849 0 -0.45986836808714199 -0.1837498843058355 0 -0.45215793864525028 -0.2026288023192386 0 -0.476078969322627 -0.19493264200298849 0 -0.45215793864525028 -0.2026288023192386 0 -0.476078969322627 -0.19493264200298849 0 -0.50000000000000333 -0.18723648168673759 0 -0.476078969322627 -0.19493264200298849 0 -0.50000000000000333 -0.18723648168673759 0 -0.476078969322627 -0.19493264200298849 0 -0.50000000000000167 -0.2093829684605954 0 -0.476078969322627 -0.19493264200298849 0 -0.50000000000000167 -0.2093829684605954 0 -0.4822400568923777 -0.21934657157967111 0 -0.50000000000000167 -0.2093829684605954 0 -0.4822400568923777 -0.21934657157967111 0 -0.4665405025698004 -0.2121725896797956 0 -0.476078969322627 -0.19493264200298849 0 -0.4822400568923777 -0.21934657157967111 0 -0.4822400568923777 -0.21934657157967111 0 -0.4791601912007078 -0.23575225554908941 0 -0.46448011378475329 -0.22931017469874609 0 -0.4822400568923777 -0.21934657157967111 0 -0.46448011378475329 -0.22931017469874609 0 -0.4665405025698004 -0.2121725896797956 0 -0.4822400568923777 -0.21934657157967111 0 -0.46448011378475329 -0.22931017469874609 0 -0.4822400568923777 -0.21934657157967111 0 -0.5 -0.23643173896674219 0 -0.4791601912007078 -0.23575225554908941 0 -0.50000000000000167 -0.2093829684605954 0 -0.4822400568923777 -0.21934657157967111 0 -0.5 -0.23643173896674219 0 -0.47912016890944142 -0.2539254698580008 0 -0.5 -0.23643173896674219 0 -0.4791601912007078 -0.23575225554908941 0 -0.47912016890944142 -0.2539254698580008 0 -0.4791601912007078 -0.23575225554908941 0 -0.46417779739008952 -0.24485946834976219 0 -0.4791601912007078 -0.23575225554908941 0 -0.46417779739008952 -0.24485946834976219 0 -0.46448011378475329 -0.22931017469874609 0 -0.45547534793949468 -0.26492627868373092 0 -0.46417779739008952 -0.24485946834976219 0 -0.44672017067712888 -0.23927377781782111 0 -0.46417779739008952 -0.24485946834976219 0 -0.46448011378475329 -0.22931017469874609 0 -0.44672017067712888 -0.23927377781782111 0 -0.4665405025698004 -0.2121725896797956 0 -0.46448011378475329 -0.22931017469874609 0 -0.44779680674811978 -0.22080461398017309 0 -0.46448011378475329 -0.22931017469874609 0 -0.44672017067712888 -0.23927377781782111 0 -0.42864520684391288 -0.23111737672994839 0 -0.44779680674811978 -0.22080461398017309 0 -0.44672017067712888 -0.23927377781782111 0 -0.46448011378475329 -0.22931017469874609 0 -0.44779680674811978 -0.22080461398017309 0 -0.44672017067712888 -0.23927377781782111 0 -0.41323155847793469 -0.037772892167853567 0 -0.42520001877502178 -0.026059138267794459 0 -0.39710600026260118 -0.02994554587604609 0 -0.41323155847793469 -0.037772892167853567 0 -0.40887680684100652 -0.048759097710076672 0 -0.42371977450497311 -0.046297247177006992 0 -0.41323155847793469 -0.037772892167853567 0 -0.42371977450497311 -0.046297247177006992 0 -0.42395185442022931 -0.035934453059293311 0 -0.41323155847793469 -0.037772892167853567 0 -0.42395185442022931 -0.035934453059293311 0 -0.42520001877502178 -0.026059138267794459 0 -0.41323155847793469 -0.037772892167853567 0 -0.40887680684100652 -0.048759097710076672 0 -0.40111553084823648 -0.040554052168178353 0 -0.40887680684100652 -0.048759097710076672 0 -0.41699324206494842 -0.057601266868864263 0 -0.40257505781415159 -0.061010829119482801 0 -0.40887680684100652 -0.048759097710076672 0 -0.41699324206494842 -0.057601266868864263 0 -0.42371977450497311 -0.046297247177006992 0 -0.41699324206494842 -0.057601266868864263 0 -0.43159347909856433 -0.053952755373913808 0 -0.43414926511686819 -0.064539102505687063 0 -0.41699324206494842 -0.057601266868864263 0 -0.43159347909856433 -0.053952755373913808 0 -0.42371977450497311 -0.046297247177006992 0 -0.43159347909856433 -0.053952755373913808 0 -0.43414926511686819 -0.064539102505687063 0 -0.44475968032008878 -0.058294319846920163 0 -0.43159347909856433 -0.053952755373913808 0 -0.43638613251089819 -0.042878231771311219 0 -0.42371977450497311 -0.046297247177006992 0 -0.43638613251089819 -0.042878231771311219 0 -0.42371977450497311 -0.046297247177006992 0 -0.42395185442022931 -0.035934453059293311 0 -0.43638613251089819 -0.042878231771311219 0 -0.42395185442022931 -0.035934453059293311 0 -0.42801258470170739 -0.027462143695702389 0 -0.43638613251089819 -0.042878231771311219 0 -0.42801258470170739 -0.027462143695702389 0 -0.42801258470170739 -0.027462143695702389 0 -0.42710720920802242 -0.02579530561581185 0 -0.44833018919500628 -0.022859408394325442 0 -0.42539026987979328 -0.02263434105125792 0 -0.43762008327669188 -0.01185940819141002 0 -0.44833018919500628 -0.022859408394325442 0 -0.42539026987979328 -0.02263434105125792 0 -0.44833018919500628 -0.022859408394325442 0 -0.42539026987979328 -0.02263434105125792 0 -0.42710720920802242 -0.02579530561581185 0 -0.44833018919500628 -0.022859408394325442 0 -0.42395185442022931 -0.035934453059293311 0 -0.42520001877502178 -0.026059138267794459 0 -0.42801258470170739 -0.027462143695702389 0 -0.42539026987979328 -0.02263434105125792 0 -0.42520001877502178 -0.026059138267794459 0 -0.41819286331176692 -0.022563726104842849 0 -0.42539026987979328 -0.02263434105125792 0 -0.42520001877502178 -0.026059138267794459 0 -0.42710720920802242 -0.02579530561581185 0 -0.42539026987979328 -0.02263434105125792 0 -0.42710720920802242 -0.02579530561581185 0 -0.42520001877502178 -0.026059138267794459 0 -0.42801258470170739 -0.027462143695702389 0 -0.42710720920802242 -0.02579530561581185 0 -0.42520001877502178 -0.026059138267794459 0 -0.42801258470170739 -0.027462143695702389 0 -0.42520001877502178 -0.026059138267794459 0 -0.42710720920802242 -0.02579530561581185 0 -0.42801258470170739 -0.027462143695702389 0 -0.42710720920802242 -0.02579530561581185 0 -0.42539026987979328 -0.02263434105125792 0 -0.42734880615895121 -0.002244037478268312 0 -0.43762008327669188 -0.01185940819141002 0 -0.42734880615895121 -0.002244037478268312 0 -0.43762008327669188 -0.01185940819141002 0 -0.43887734338143058 0.001447242731946876 0 -0.42539026987979328 -0.02263434105125792 0 -0.41517537291386297 -0.01248207173642572 0 -0.41281378725210721 0.00051954405070704559 0 -0.42539026987979328 -0.02263434105125792 0 -0.41281378725210721 0.00051954405070704559 0 -0.42539026987979328 -0.02263434105125792 0 -0.42734880615895121 -0.002244037478268312 0 -0.41281378725210721 0.00051954405070704559 0 -0.41517537291386297 -0.01248207173642572 0 -0.40680383491494609 -0.011125324189921361 0 -0.40618844020912043 -0.0035992760663603441 0 -0.41517537291386297 -0.01248207173642572 0 -0.40680383491494609 -0.011125324189921361 0 -0.40730294447378601 -0.016676790861591191 0 -0.41517537291386297 -0.01248207173642572 0 -0.40618844020912043 -0.0035992760663603441 0 -0.41281378725210721 0.00051954405070704559 0 -0.41517537291386297 -0.01248207173642572 0 -0.41281378725210721 0.00051954405070704559 0 -0.42520001877502178 -0.026059138267794459 0 -0.40929984869269859 -0.025230317835930341 0 -0.39710600026260118 -0.02994554587604609 0 -0.42520001877502178 -0.026059138267794459 0 -0.41819286331176692 -0.022563726104842849 0 -0.40929984869269859 -0.025230317835930341 0 -0.41819286331176692 -0.022563726104842849 0 -0.39670051242140048 -0.022352861095046559 0 -0.41819286331176692 -0.022563726104842849 0 -0.40730294447378601 -0.016676790861591191 0 -0.39670051242140048 -0.022352861095046559 0 -0.42520001877502178 -0.026059138267794459 0 -0.39710600026260118 -0.02994554587604609 0 -0.41819286331176692 -0.022563726104842849 0 -0.40929984869269859 -0.025230317835930341 0 -0.39670051242140048 -0.022352861095046559 0 -0.42520001877502178 -0.026059138267794459 0 -0.41819286331176692 -0.022563726104842849 0 -0.42539026987979328 -0.02263434105125792 0 -0.41819286331176692 -0.022563726104842849 0 -0.42539026987979328 -0.02263434105125792 0 -0.41517537291386297 -0.01248207173642572 0 -0.41819286331176692 -0.022563726104842849 0 -0.41517537291386297 -0.01248207173642572 0 -0.41819286331176692 -0.022563726104842849 0 -0.40730294447378601 -0.016676790861591191 0 -0.40929984869269859 -0.025230317835930341 0 -0.39670051242140048 -0.022352861095046559 0 -0.39710600026260118 -0.02994554587604609 0 -0.40730294447378601 -0.016676790861591191 0 -0.39670051242140048 -0.022352861095046559 0 -0.39976294796400558 -0.01441483478809694 0 -0.39670051242140048 -0.022352861095046559 0 -0.39143924047298972 -0.0146300371560105 0 -0.38402605994311467 -0.015872595516232681 0 -0.39670051242140048 -0.022352861095046559 0 -0.39976294796400558 -0.01441483478809694 0 -0.39143924047298972 -0.0146300371560105 0 -0.39670051242140048 -0.022352861095046559 0 -0.39710600026260118 -0.02994554587604609 0 -0.38450666399130379 -0.027068089135158149 0 -0.39916392827186109 -6.9403041986405021e-05 0 -0.40618844020912043 -0.0035992760663603441 0 -0.39997052050111809 -0.0072206252320001973 0 -0.40680383491494609 -0.011125324189921361 0 -0.40618844020912043 -0.0035992760663603441 0 -0.39997052050111809 -0.0072206252320001973 0 -0.40680383491494609 -0.011125324189921361 0 -0.39997052050111809 -0.0072206252320001973 0 -0.39976294796400558 -0.01441483478809694 0 -0.40680383491494609 -0.011125324189921361 0 -0.40730294447378601 -0.016676790861591191 0 -0.39976294796400558 -0.01441483478809694 0 -0.39976294796400558 -0.01441483478809694 0 -0.39143924047298972 -0.0146300371560105 0 -0.39359242840711678 -0.0091190495281852565 0 -0.39997052050111809 -0.0072206252320001973 0 -0.39976294796400558 -0.01441483478809694 0 -0.39359242840711678 -0.0091190495281852565 0 -0.39997052050111809 -0.0072206252320001973 0 -0.39359242840711678 -0.0091190495281852565 0 -0.39033601841858651 -0.0027418742180337131 0 -0.39916392827186109 -6.9403041986405021e-05 0 -0.39997052050111809 -0.0072206252320001973 0 -0.39033601841858651 -0.0027418742180337131 0 -0.39033601841858651 -0.0027418742180337131 0 -0.3842331100616585 -0.0084892324790719863 0 -0.3699391971918341 0.002565640923137285 0 -0.39359242840711678 -0.0091190495281852565 0 -0.39033601841858651 -0.0027418742180337131 0 -0.3842331100616585 -0.0084892324790719863 0 -0.39143924047298972 -0.0146300371560105 0 -0.39359242840711678 -0.0091190495281852565 0 -0.3842331100616585 -0.0084892324790719863 0 -0.39143924047298972 -0.0146300371560105 0 -0.3842331100616585 -0.0084892324790719863 0 -0.38402605994311467 -0.015872595516232681 0 -0.3842331100616585 -0.0084892324790719863 0 -0.37543431854078851 -0.01113292883406072 0 -0.38402605994311467 -0.015872595516232681 0 -0.3842331100616585 -0.0084892324790719863 0 -0.37543431854078851 -0.01113292883406072 0 -0.3699391971918341 0.002565640923137285 0 -0.39670051242140048 -0.022352861095046559 0 -0.38450666399130379 -0.027068089135158149 0 -0.3752081615310342 -0.02214199608524952 0 -0.39670051242140048 -0.022352861095046559 0 -0.3752081615310342 -0.02214199608524952 0 -0.36901198175017957 -0.033831953484290439 0 -0.39710600026260118 -0.02994554587604609 0 -0.38450666399130379 -0.027068089135158149 0 -0.39670051242140048 -0.022352861095046559 0 -0.38402605994311467 -0.015872595516232681 0 -0.3752081615310342 -0.02214199608524952 0 -0.37543431854078851 -0.01113292883406072 0 -0.38402605994311467 -0.015872595516232681 0 -0.3752081615310342 -0.02214199608524952 0 -0.36901198175017957 -0.033831953484290439 0 -0.38450666399130379 -0.027068089135158149 0 -0.3752081615310342 -0.02214199608524952 0 -0.36901198175017957 -0.033831953484290439 0 -0.39710600026260118 -0.02994554587604609 0 -0.36901198175017957 -0.033831953484290439 0 -0.39710600026260118 -0.02994554587604609 0 -0.38401104986803258 -0.038770981803002993 0 -0.39710600026260118 -0.02994554587604609 0 -0.38401104986803258 -0.038770981803002993 0 -0.39429390613513637 -0.039313803009198213 0 -0.39710600026260118 -0.02994554587604609 0 -0.39429390613513637 -0.039313803009198213 0 -0.40111553084823648 -0.040554052168178353 0 -0.41323155847793469 -0.037772892167853567 0 -0.39710600026260118 -0.02994554587604609 0 -0.40111553084823648 -0.040554052168178353 0 -0.39429390613513637 -0.039313803009198213 0 -0.40111553084823648 -0.040554052168178353 0 -0.39494304356167531 -0.047984632189565453 0 -0.38401104986803258 -0.038770981803002993 0 -0.39429390613513637 -0.039313803009198213 0 -0.39494304356167531 -0.047984632189565453 0 -0.40887680684100652 -0.048759097710076672 0 -0.40111553084823648 -0.040554052168178353 0 -0.39494304356167531 -0.047984632189565453 0 -0.40257505781415159 -0.061010829119482801 0 -0.39494304356167531 -0.047984632189565453 0 -0.38200511134853471 -0.06041813338368434 0 -0.40887680684100652 -0.048759097710076672 0 -0.40257505781415159 -0.061010829119482801 0 -0.39494304356167531 -0.047984632189565453 0 -0.3696328168892376 -0.050494029857093198 0 -0.38401104986803258 -0.038770981803002993 0 -0.38200511134853471 -0.06041813338368434 0 -0.38401104986803258 -0.038770981803002993 0 -0.39494304356167531 -0.047984632189565453 0 -0.38200511134853471 -0.06041813338368434 0 -0.38200511134853471 -0.06041813338368434 0 -0.37930620853551672 -0.082121161243906143 0 -0.39844889587028881 -0.076384098304720344 0 -0.38200511134853471 -0.06041813338368434 0 -0.39844889587028881 -0.076384098304720344 0 -0.36688099077600378 -0.069320548482430216 0 -0.38200511134853471 -0.06041813338368434 0 -0.37930620853551672 -0.082121161243906143 0 -0.37930620853551672 -0.082121161243906143 0 -0.39844889587028881 -0.076384098304720344 0 -0.39497302185352301 -0.099060055509306535 0 -0.39844889587028881 -0.076384098304720344 0 -0.39497302185352301 -0.099060055509306535 0 -0.41489268039204302 -0.092350063225756257 0 -0.40257505781415159 -0.061010829119482801 0 -0.38200511134853471 -0.06041813338368434 0 -0.39844889587028881 -0.076384098304720344 0 -0.40257505781415159 -0.061010829119482801 0 -0.39844889587028881 -0.076384098304720344 0 -0.41418324719845617 -0.074917746259985804 0 -0.37548934796079347 -0.1189308273034652 0 -0.37582622230550999 -0.10170296601212001 0 -0.3870098262693778 -0.10833752205331811 0 -0.37548934796079347 -0.1189308273034652 0 -0.3870098262693778 -0.10833752205331811 0 -0.39359183590846208 -0.1176296288982845 0 -0.38770350067843917 -0.13438427228305361 0 -0.37548934796079347 -0.1189308273034652 0 -0.39359183590846208 -0.1176296288982845 0 -0.37930620853551672 -0.082121161243906143 0 -0.37582622230550999 -0.10170296601212001 0 -0.39497302185352301 -0.099060055509306535 0 -0.37582622230550999 -0.10170296601212001 0 -0.3870098262693778 -0.10833752205331811 0 -0.39497302185352301 -0.099060055509306535 0 -0.37582622230550999 -0.10170296601212001 0 -0.39497302185352301 -0.099060055509306535 0 -0.39497302185352301 -0.099060055509306535 0 -0.40301520588705469 -0.1017666622265043 0 -0.41489268039204302 -0.092350063225756257 0 -0.40301520588705469 -0.1017666622265043 0 -0.39711416627122009 -0.107889477260753 0 -0.40570353332598691 -0.1108047152575837 0 -0.3870098262693778 -0.10833752205331811 0 -0.39497302185352301 -0.099060055509306535 0 -0.39711416627122009 -0.107889477260753 0 -0.39497302185352301 -0.099060055509306535 0 -0.40301520588705469 -0.1017666622265043 0 -0.39711416627122009 -0.107889477260753 0 -0.3870098262693778 -0.10833752205331811 0 -0.39711416627122009 -0.107889477260753 0 -0.39359183590846208 -0.1176296288982845 0 -0.39711416627122009 -0.107889477260753 0 -0.40570353332598691 -0.1108047152575837 0 -0.39359183590846208 -0.1176296288982845 0 -0.40570353332598691 -0.1108047152575837 0 -0.39359183590846208 -0.1176296288982845 0 -0.40792927323087219 -0.12436091734730501 0 -0.42462014100749618 -0.12562138867587089 0 -0.40792927323087219 -0.12436091734730501 0 -0.41754539473874669 -0.1078950509319464 0 -0.40570353332598691 -0.1108047152575837 0 -0.40792927323087219 -0.12436091734730501 0 -0.41754539473874669 -0.1078950509319464 0 -0.41754539473874669 -0.1078950509319464 0 -0.43316182761756411 -0.11008834989291839 0 -0.41489268039204302 -0.092350063225756257 0 -0.40301520588705469 -0.1017666622265043 0 -0.40570353332598691 -0.1108047152575837 0 -0.41135081964627013 -0.1017075537425453 0 -0.40570353332598691 -0.1108047152575837 0 -0.41754539473874669 -0.1078950509319464 0 -0.41135081964627013 -0.1017075537425453 0 -0.40301520588705469 -0.1017666622265043 0 -0.41135081964627013 -0.1017075537425453 0 -0.41489268039204302 -0.092350063225756257 0 -0.40301520588705469 -0.1017666622265043 0 -0.41489268039204302 -0.092350063225756257 0 -0.41754539473874669 -0.1078950509319464 0 -0.41135081964627013 -0.1017075537425453 0 -0.41489268039204302 -0.092350063225756257 0 -0.43087772679522363 -0.095409539438359836 0 -0.43316182761756411 -0.11008834989291839 0 -0.41489268039204302 -0.092350063225756257 0 -0.43316182761756411 -0.11008834989291839 0 -0.41489268039204302 -0.092350063225756257 0 -0.43087772679522363 -0.095409539438359836 0 -0.43316182761756411 -0.11008834989291839 0 -0.44651485793900492 -0.1021993586856542 0 -0.42462014100749618 -0.12562138867587089 0 -0.41754539473874669 -0.1078950509319464 0 -0.43316182761756411 -0.11008834989291839 0 -0.42462014100749618 -0.12562138867587089 0 -0.43943871326465939 -0.13624434462759061 0 -0.43316182761756411 -0.11008834989291839 0 -0.41699324206494842 -0.057601266868864263 0 -0.40257505781415159 -0.061010829119482801 0 -0.41418324719845617 -0.074917746259985804 0 -0.41699324206494842 -0.057601266868864263 0 -0.41418324719845617 -0.074917746259985804 0 -0.43135546678409231 -0.07929817598963923 0 -0.39844889587028881 -0.076384098304720344 0 -0.41418324719845617 -0.074917746259985804 0 -0.41489268039204302 -0.092350063225756257 0 -0.41418324719845617 -0.074917746259985804 0 -0.41489268039204302 -0.092350063225756257 0 -0.43135546678409231 -0.07929817598963923 0 -0.39844889587028881 -0.076384098304720344 0 -0.41489268039204302 -0.092350063225756257 0 -0.41489268039204302 -0.092350063225756257 0 -0.43135546678409231 -0.07929817598963923 0 -0.43087772679522363 -0.095409539438359836 0 -0.43135546678409231 -0.07929817598963923 0 -0.44651485793900492 -0.1021993586856542 0 -0.43087772679522363 -0.095409539438359836 0 -0.41489268039204302 -0.092350063225756257 0 -0.43135546678409231 -0.07929817598963923 0 -0.41699324206494842 -0.057601266868864263 0 -0.43135546678409231 -0.07929817598963923 0 -0.41699324206494842 -0.057601266868864263 0 -0.43135546678409231 -0.07929817598963923 0 -0.43414926511686819 -0.064539102505687063 0 -0.43135546678409231 -0.07929817598963923 0 -0.43414926511686819 -0.064539102505687063 0 -0.44703019636990737 -0.066871069293444746 0 -0.43135546678409231 -0.07929817598963923 0 -0.44703019636990737 -0.066871069293444746 0 -0.44404995997826602 -0.079853932308616371 0 -0.43414926511686819 -0.064539102505687063 0 -0.44703019636990737 -0.066871069293444746 0 -0.44475968032008878 -0.058294319846920163 0 -0.43135546678409231 -0.07929817598963923 0 -0.44703019636990737 -0.066871069293444746 0 -0.44703019636990737 -0.066871069293444746 0 -0.45661124928919988 -0.066667546539632305 0 -0.453596804341446 -0.074646047668328483 0 -0.44703019636990737 -0.066871069293444746 0 -0.44404995997826602 -0.079853932308616371 0 -0.453596804341446 -0.074646047668328483 0 -0.43135546678409231 -0.07929817598963923 0 -0.44651485793900492 -0.1021993586856542 0 -0.44404995997826602 -0.079853932308616371 0 -0.45239819164912531 -0.086411556697447253 0 -0.44651485793900492 -0.1021993586856542 0 -0.43135546678409231 -0.07929817598963923 0 -0.44404995997826602 -0.079853932308616371 0 -0.44651485793900492 -0.1021993586856542 0 -0.44404995997826602 -0.079853932308616371 0 -0.45239819164912531 -0.086411556697447253 0 -0.453596804341446 -0.074646047668328483 0 -0.45239819164912531 -0.086411556697447253 0 -0.46015153990533658 -0.081736575190037603 0 -0.453596804341446 -0.074646047668328483 0 -0.45239819164912531 -0.086411556697447253 0 -0.46015153990533658 -0.081736575190037603 0 -0.45846564026673309 -0.095072095551039446 0 -0.46015153990533658 -0.081736575190037603 0 -0.45846564026673309 -0.095072095551039446 0 -0.47090483074221062 -0.084685670563034221 0 -0.46015153990533658 -0.081736575190037603 0 -0.46311307048972378 -0.070709106599505606 0 -0.47090483074221062 -0.084685670563034221 0 -0.46311307048972378 -0.070709106599505606 0 -0.45661124928919988 -0.066667546539632305 0 -0.46270492595572249 -0.054443962597250373 0 -0.46311307048972378 -0.070709106599505606 0 -0.47458756055244988 -0.064048365857782147 0 -0.46270492595572249 -0.054443962597250373 0 -0.44703019636990737 -0.066871069293444746 0 -0.45661124928919988 -0.066667546539632305 0 -0.46270492595572249 -0.054443962597250373 0 -0.46311307048972378 -0.070709106599505606 0 -0.45661124928919988 -0.066667546539632305 0 -0.453596804341446 -0.074646047668328483 0 -0.46015153990533658 -0.081736575190037603 0 -0.46311307048972378 -0.070709106599505606 0 -0.453596804341446 -0.074646047668328483 0 -0.45143097484308531 -0.12782663656008031 0 -0.43316182761756411 -0.11008834989291839 0 -0.44651485793900492 -0.1021993586856542 0 -0.45143097484308531 -0.12782663656008031 0 -0.43943871326465939 -0.13624434462759061 0 -0.43316182761756411 -0.11008834989291839 0 -0.45143097484308531 -0.12782663656008031 0 -0.43316182761756411 -0.11008834989291839 0 -0.45239819164912531 -0.086411556697447253 0 -0.44651485793900492 -0.1021993586856542 0 -0.45846564026673309 -0.095072095551039446 0 -0.45846564026673309 -0.095072095551039446 0 -0.46724971671998478 -0.10276262287744931 0 -0.47090483074221062 -0.084685670563034221 0 -0.46724971671998478 -0.10276262287744931 0 -0.4607920600134911 -0.10812813460062359 0 -0.47005583604781642 -0.11550605450730481 0 -0.45846564026673309 -0.095072095551039446 0 -0.46724971671998478 -0.10276262287744931 0 -0.4607920600134911 -0.10812813460062359 0 -0.44651485793900492 -0.1021993586856542 0 -0.45846564026673309 -0.095072095551039446 0 -0.4607920600134911 -0.10812813460062359 0 -0.45143097484308531 -0.12782663656008031 0 -0.4616742490939163 -0.1251005413816702 0 -0.44651485793900492 -0.1021993586856542 0 -0.4616742490939163 -0.1251005413816702 0 -0.4607920600134911 -0.10812813460062359 0 -0.47005583604781642 -0.11550605450730481 0 -0.4616742490939163 -0.1251005413816702 0 -0.44651485793900492 -0.1021993586856542 0 -0.4607920600134911 -0.10812813460062359 0 -0.4616742490939163 -0.1251005413816702 0 -0.44651485793900492 -0.1021993586856542 0 -0.4616742490939163 -0.1251005413816702 0 -0.47873396331015772 -0.1259187214799401 0 -0.47005583604781642 -0.11550605450730481 0 -0.47873396331015772 -0.1259187214799401 0 -0.47005583604781642 -0.11550605450730481 0 -0.4851060911602284 -0.11347622936907729 0 -0.47005583604781642 -0.11550605450730481 0 -0.48065317699480131 -0.098645931374922363 0 -0.4851060911602284 -0.11347622936907729 0 -0.46724971671998478 -0.10276262287744931 0 -0.47005583604781642 -0.11550605450730481 0 -0.48065317699480131 -0.098645931374922363 0 -0.46724971671998478 -0.10276262287744931 0 -0.48065317699480131 -0.098645931374922363 0 -0.47090483074221062 -0.084685670563034221 0 -0.48065317699480131 -0.098645931374922363 0 -0.5 -0.097645346252574372 0 -0.4851060911602284 -0.11347622936907729 0 -0.47873396331015772 -0.1259187214799401 0 -0.5 -0.12750905806396209 0 -0.4851060911602284 -0.11347622936907729 0 -0.5 -0.12750905806396209 0 -0.5 -0.097645346252574372 0 -0.4851060911602284 -0.11347622936907729 0 -0.47458756055244988 -0.064048365857782147 0 -0.48589299634119471 -0.078537844213842981 0 -0.48716226225565762 -0.059172889938115217 0 -0.46311307048972378 -0.070709106599505606 0 -0.47458756055244988 -0.064048365857782147 0 -0.47090483074221062 -0.084685670563034221 0 -0.47458756055244988 -0.064048365857782147 0 -0.47090483074221062 -0.084685670563034221 0 -0.48589299634119471 -0.078537844213842981 0 -0.48065317699480131 -0.098645931374922363 0 -0.47090483074221062 -0.084685670563034221 0 -0.48589299634119471 -0.078537844213842981 0 -0.48065317699480131 -0.098645931374922363 0 -0.5 -0.097645346252574372 0 -0.48589299634119471 -0.078537844213842981 0 -0.5 -0.097645346252574372 0 -0.48589299634119471 -0.078537844213842981 0 -0.50000000000000155 -0.067781634441186692 0 -0.48589299634119471 -0.078537844213842981 0 -0.50000000000000155 -0.067781634441186692 0 -0.48716226225565762 -0.059172889938115217 0 -0.50000000000000078 -0.063371963069906098 0 -0.50000000000000155 -0.067781634441186692 0 -0.48716226225565762 -0.059172889938115217 0 -0.50000000000000155 -0.067781634441186692 0 -0.48716226225565762 -0.059172889938115217 0 -0.50000000000000078 -0.063371963069906098 0 -0.49001591072842282 -0.058391553079178211 0 -0.48716226225565762 -0.059172889938115217 0 -0.50000000000000078 -0.063371963069906098 0 -0.49001591072842282 -0.058391553079178211 0 -0.5 -0.039541794269414732 0 -0.49001591072842282 -0.058391553079178211 0 -0.48306035783723589 -0.038298202814091367 0 -0.50000000000000078 -0.063371963069906098 0 -0.49001591072842282 -0.058391553079178211 0 -0.5 -0.039541794269414732 0 -0.48306035783723589 -0.038298202814091367 0 -0.48945615642874329 -0.02726234792193739 0 -0.49001591072842282 -0.058391553079178211 0 -0.5 -0.039541794269414732 0 -0.48306035783723589 -0.038298202814091367 0 -0.48306035783723589 -0.038298202814091367 0 -0.4701648796222091 -0.033044183513020728 0 -0.47432452451131307 -0.050564145435044512 0 -0.49001591072842282 -0.058391553079178211 0 -0.47432452451131307 -0.050564145435044512 0 -0.49001591072842282 -0.058391553079178211 0 -0.48716226225565762 -0.059172889938115217 0 -0.47432452451131307 -0.050564145435044512 0 -0.49001591072842282 -0.058391553079178211 0 -0.48306035783723589 -0.038298202814091367 0 -0.47432452451131307 -0.050564145435044512 0 -0.47458756055244988 -0.064048365857782147 0 -0.48716226225565762 -0.059172889938115217 0 -0.47432452451131307 -0.050564145435044512 0 -0.48716226225565762 -0.059172889938115217 0 -0.47432452451131307 -0.050564145435044512 0 -0.47458756055244988 -0.064048365857782147 0 -0.47432452451131307 -0.050564145435044512 0 -0.46270492595572249 -0.054443962597250373 0 -0.47432452451131307 -0.050564145435044512 0 -0.46270492595572249 -0.054443962597250373 0 -0.45116855460651012 -0.039013144565373692 0 -0.44703019636990737 -0.066871069293444746 0 -0.46270492595572249 -0.054443962597250373 0 -0.46270492595572249 -0.054443962597250373 0 -0.45116855460651012 -0.039013144565373692 0 -0.44875482334830491 -0.048657414695213848 0 -0.4701648796222091 -0.033044183513020728 0 -0.47432452451131307 -0.050564145435044512 0 -0.46014043394990911 -0.041052562157426933 0 -0.47432452451131307 -0.050564145435044512 0 -0.46014043394990911 -0.041052562157426933 0 -0.47432452451131307 -0.050564145435044512 0 -0.45116855460651012 -0.039013144565373692 0 -0.47432452451131307 -0.050564145435044512 0 -0.46014043394990911 -0.041052562157426933 0 -0.45116855460651012 -0.039013144565373692 0 -0.4701648796222091 -0.033044183513020728 0 -0.46014043394990911 -0.041052562157426933 0 -0.45689775545079281 -0.030695422088941011 0 -0.46014043394990911 -0.041052562157426933 0 -0.44595634338850498 -0.031540978879809459 0 -0.45689775545079281 -0.030695422088941011 0 -0.42801258470170739 -0.027462143695702389 0 -0.45116855460651012 -0.039013144565373692 0 -0.44595634338850498 -0.031540978879809459 0 -0.42801258470170739 -0.027462143695702389 0 -0.45116855460651012 -0.039013144565373692 0 -0.43638613251089819 -0.042878231771311219 0 -0.42801258470170739 -0.027462143695702389 0 -0.45116855460651012 -0.039013144565373692 0 -0.43638613251089819 -0.042878231771311219 0 -0.45116855460651012 -0.039013144565373692 0 -0.44875482334830491 -0.048657414695213848 0 -0.46014043394990911 -0.041052562157426933 0 -0.45116855460651012 -0.039013144565373692 0 -0.44595634338850498 -0.031540978879809459 0 -0.46014043394990911 -0.041052562157426933 0 -0.44595634338850498 -0.031540978879809459 0 -0.43159347909856433 -0.053952755373913808 0 -0.43638613251089819 -0.042878231771311219 0 -0.44475968032008878 -0.058294319846920163 0 -0.43638613251089819 -0.042878231771311219 0 -0.44475968032008878 -0.058294319846920163 0 -0.44875482334830491 -0.048657414695213848 0 -0.46270492595572249 -0.054443962597250373 0 -0.44475968032008878 -0.058294319846920163 0 -0.44875482334830491 -0.048657414695213848 0 -0.44703019636990737 -0.066871069293444746 0 -0.46270492595572249 -0.054443962597250373 0 -0.44475968032008878 -0.058294319846920163 0 -0.43638613251089819 -0.042878231771311219 0 -0.44475968032008878 -0.058294319846920163 0 -0.44799036219546229 -0.002835167322699022 0 -0.43762008327669188 -0.01185940819141002 0 -0.44833018919500628 -0.022859408394325442 0 -0.44799036219546229 -0.002835167322699022 0 -0.44833018919500628 -0.022859408394325442 0 -0.4586920934052956 -0.0072411997938068799 0 -0.44799036219546229 -0.002835167322699022 0 -0.43762008327669188 -0.01185940819141002 0 -0.43887734338143058 0.001447242731946876 0 -0.42801258470170739 -0.027462143695702389 0 -0.44595634338850498 -0.031540978879809459 0 -0.44833018919500628 -0.022859408394325442 0 -0.42710720920802242 -0.02579530561581185 0 -0.44833018919500628 -0.022859408394325442 0 -0.44595634338850498 -0.031540978879809459 0 -0.44833018919500628 -0.022859408394325442 0 -0.45689775545079281 -0.030695422088941011 0 -0.44833018919500628 -0.022859408394325442 0 -0.46141924600688172 -0.022987827295866951 0 -0.44833018919500628 -0.022859408394325442 0 -0.4586920934052956 -0.0072411997938068799 0 -0.47566954950935852 -0.01907739700698077 0 -0.44833018919500628 -0.022859408394325442 0 -0.47566954950935852 -0.01907739700698077 0 -0.44833018919500628 -0.022859408394325442 0 -0.46141924600688172 -0.022987827295866951 0 -0.47566954950935852 -0.01907739700698077 0 -0.44833018919500628 -0.022859408394325442 0 -0.45689775545079281 -0.030695422088941011 0 -0.46141924600688172 -0.022987827295866951 0 -0.4701648796222091 -0.033044183513020728 0 -0.45689775545079281 -0.030695422088941011 0 -0.46141924600688172 -0.022987827295866951 0 -0.4586920934052956 -0.0072411997938068799 0 -0.47566954950935852 -0.01907739700698077 0 -0.46430080948797359 0.0072624773857652494 0 -0.47566954950935852 -0.01907739700698077 0 -0.46430080948797359 0.0072624773857652494 0 -0.46497427387668849 0.008737127043612028 0 -0.44799036219546229 -0.002835167322699022 0 -0.4586920934052956 -0.0072411997938068799 0 -0.45543331921132651 0.0013023135892830059 0 -0.47566954950935852 -0.01907739700698077 0 -0.46497427387668849 0.008737127043612028 0 -0.48287145648349372 -0.002452531964265679 0 -0.47566954950935852 -0.01907739700698077 0 -0.46497427387668849 0.008737127043612028 0 -0.48306035783723589 -0.038298202814091367 0 -0.4701648796222091 -0.033044183513020728 0 -0.47566954950935852 -0.01907739700698077 0 -0.48306035783723589 -0.038298202814091367 0 -0.47566954950935852 -0.01907739700698077 0 -0.48945615642874329 -0.02726234792193739 0 -0.48306035783723589 -0.038298202814091367 0 -0.47566954950935852 -0.01907739700698077 0 -0.4701648796222091 -0.033044183513020728 0 -0.46141924600688172 -0.022987827295866951 0 -0.47566954950935852 -0.01907739700698077 0 -0.47566954950935852 -0.01907739700698077 0 -0.48945615642874329 -0.02726234792193739 0 -0.49999999999998967 -0.015711625468923469 0 -0.5 -0.039541794269414732 0 -0.48945615642874329 -0.02726234792193739 0 -0.49999999999998967 -0.015711625468923469 0 -0.47566954950935852 -0.01907739700698077 0 -0.49999999999998967 -0.015711625468923469 0 -0.48287145648349372 -0.002452531964265679 0 -0.49999999999998967 -0.015711625468923469 0 -0.50000000000000022 0.0086056342954226005 0 -0.48287145648349372 -0.002452531964265679 0 -0.47566954950935852 -0.01907739700698077 0 -0.49999999999998967 -0.015711625468923469 0 -0.48287145648349372 -0.002452531964265679 0 -0.49999999999998967 -0.015711625468923469 0 -0.48287145648349372 -0.002452531964265679 0 -0.50000000000000022 0.0086056342954226005 0 -0.48607402151308732 0.01652539373911072 0 -0.50000000000000022 0.0086056342954226005 0 -0.48607402151308732 0.01652539373911072 0 -0.48475881334220527 0.030416241475159859 0 -0.48607402151308732 0.01652539373911072 0 -0.5 0.035301987868860407 0 -0.50000000000000022 0.0086056342954226005 0 -0.48607402151308732 0.01652539373911072 0 -0.5 0.035301987868860407 0 -0.48607402151308732 0.01652539373911072 0 -0.47214804302617419 0.024445153182798499 0 -0.465742912966985 0.010420175754881369 0 -0.48607402151308732 0.01652539373911072 0 -0.47214804302617419 0.024445153182798499 0 -0.48475881334220527 0.030416241475159859 0 -0.48607402151308732 0.01652539373911072 0 -0.47214804302617419 0.024445153182798499 0 -0.47214804302617419 0.024445153182798499 0 -0.465742912966985 0.010420175754881369 0 -0.48287145648349372 -0.002452531964265679 0 -0.465742912966985 0.010420175754881369 0 -0.48287145648349372 -0.002452531964265679 0 -0.465742912966985 0.010420175754881369 0 -0.46497427387668849 0.008737127043612028 0 -0.48287145648349372 -0.002452531964265679 0 -0.48607402151308732 0.01652539373911072 0 -0.465742912966985 0.010420175754881369 0 -0.5 0.061998341442298321 0 -0.48101338050567177 0.043857117794279379 0 -0.48987871798517119 0.06326908240575943 0 -0.5 0.061998341442298321 0 -0.5 0.035301987868860407 0 -0.48101338050567177 0.043857117794279379 0 -0.48101338050567177 0.043857117794279379 0 -0.48987871798517119 0.06326908240575943 0 -0.48475881334220527 0.030416241475159859 0 -0.5 0.035301987868860407 0 -0.48101338050567177 0.043857117794279379 0 -0.47214804302617419 0.024445153182798499 0 -0.48101338050567177 0.043857117794279379 0 -0.46514913305524191 0.036357128346063618 0 -0.48101338050567177 0.043857117794279379 0 -0.47015707794038247 0.047697124682202989 0 -0.46514913305524191 0.036357128346063618 0 -0.47214804302617419 0.024445153182798499 0 -0.48101338050567177 0.043857117794279379 0 -0.48475881334220527 0.030416241475159859 0 -0.47214804302617419 0.024445153182798499 0 -0.48101338050567177 0.043857117794279379 0 -0.48101338050567177 0.043857117794279379 0 -0.476425739858931 0.056477915811894132 0 -0.48987871798517119 0.06326908240575943 0 -0.48101338050567177 0.043857117794279379 0 -0.47015707794038247 0.047697124682202989 0 -0.476425739858931 0.056477915811894132 0 -0.47015707794038247 0.047697124682202989 0 -0.476425739858931 0.056477915811894132 0 -0.46735584463257501 0.05479483890769124 0 -0.476425739858931 0.056477915811894132 0 -0.46735584463257501 0.05479483890769124 0 -0.47042782511850417 0.063950338338505261 0 -0.476425739858931 0.056477915811894132 0 -0.47972159297128181 0.065298992742926568 0 -0.47042782511850417 0.063950338338505261 0 -0.476425739858931 0.056477915811894132 0 -0.47972159297128181 0.065298992742926568 0 -0.48987871798517119 0.06326908240575943 0 -0.45836900755443899 0.061312978457578347 0 -0.46735584463257501 0.05479483890769124 0 -0.47042782511850417 0.063950338338505261 0 -0.47015707794038247 0.047697124682202989 0 -0.46735584463257501 0.05479483890769124 0 -0.46001885054131758 0.047562618477529787 0 -0.45836900755443899 0.061312978457578347 0 -0.46735584463257501 0.05479483890769124 0 -0.46001885054131758 0.047562618477529787 0 -0.45836900755443899 0.061312978457578347 0 -0.46001885054131758 0.047562618477529787 0 -0.44831104830726048 0.05275891821815621 0 -0.46001885054131758 0.047562618477529787 0 -0.45134451005472592 0.03627620526057803 0 -0.44831104830726048 0.05275891821815621 0 -0.47214804302617419 0.024445153182798499 0 -0.46514913305524191 0.036357128346063618 0 -0.45134451005472592 0.03627620526057803 0 -0.46001885054131758 0.047562618477529787 0 -0.46514913305524191 0.036357128346063618 0 -0.45134451005472592 0.03627620526057803 0 -0.47015707794038247 0.047697124682202989 0 -0.46001885054131758 0.047562618477529787 0 -0.46514913305524191 0.036357128346063618 0 -0.45134451005472592 0.03627620526057803 0 -0.44328902963503591 0.027295065147164999 0 -0.43054097708327738 0.048107257338357433 0 -0.45134451005472592 0.03627620526057803 0 -0.44831104830726048 0.05275891821815621 0 -0.44133008593063561 0.048619039945909687 0 -0.45134451005472592 0.03627620526057803 0 -0.44133008593063561 0.048619039945909687 0 -0.43054097708327738 0.048107257338357433 0 -0.45134451005472592 0.03627620526057803 0 -0.43054097708327738 0.048107257338357433 0 -0.44831104830726048 0.05275891821815621 0 -0.44133008593063561 0.048619039945909687 0 -0.4351238082772787 0.057333778966547122 0 -0.44831104830726048 0.05275891821815621 0 -0.4351238082772787 0.057333778966547122 0 -0.44540562896943658 0.063301418884240929 0 -0.45836900755443899 0.061312978457578347 0 -0.44831104830726048 0.05275891821815621 0 -0.44540562896943658 0.063301418884240929 0 -0.46430080948797359 0.0072624773857652494 0 -0.46375167532886491 0.011916661436234099 0 -0.45075001175657431 0.008023144087872679 0 -0.4586920934052956 -0.0072411997938068799 0 -0.45543331921132651 0.0013023135892830059 0 -0.46430080948797359 0.0072624773857652494 0 -0.45543331921132651 0.0013023135892830059 0 -0.46430080948797359 0.0072624773857652494 0 -0.45075001175657431 0.008023144087872679 0 -0.47214804302617419 0.024445153182798499 0 -0.465742912966985 0.010420175754881369 0 -0.46375167532886491 0.011916661436234099 0 -0.465742912966985 0.010420175754881369 0 -0.46497427387668849 0.008737127043612028 0 -0.46430080948797359 0.0072624773857652494 0 -0.46497427387668849 0.008737127043612028 0 -0.46375167532886491 0.011916661436234099 0 -0.46430080948797359 0.0072624773857652494 0 -0.46497427387668849 0.008737127043612028 0 -0.46497427387668849 0.008737127043612028 0 -0.46375167532886491 0.011916661436234099 0 -0.465742912966985 0.010420175754881369 0 -0.46375167532886491 0.011916661436234099 0 -0.465742912966985 0.010420175754881369 0 -0.46497427387668849 0.008737127043612028 0 -0.46375167532886491 0.011916661436234099 0 -0.47214804302617419 0.024445153182798499 0 -0.45134451005472592 0.03627620526057803 0 -0.45812381555683468 0.02655267890401538 0 -0.46375167532886491 0.011916661436234099 0 -0.45812381555683468 0.02655267890401538 0 -0.44328902963503591 0.027295065147164999 0 -0.47214804302617419 0.024445153182798499 0 -0.46375167532886491 0.011916661436234099 0 -0.45812381555683468 0.02655267890401538 0 -0.46375167532886491 0.011916661436234099 0 -0.44328902963503591 0.027295065147164999 0 -0.47214804302617419 0.024445153182798499 0 -0.45134451005472592 0.03627620526057803 0 -0.46375167532886491 0.011916661436234099 0 -0.45812381555683468 0.02655267890401538 0 -0.46375167532886491 0.011916661436234099 0 -0.44328902963503591 0.027295065147164999 0 -0.45075001175657431 0.008023144087872679 0 -0.44328902963503591 0.027295065147164999 0 -0.45075001175657431 0.008023144087872679 0 -0.43673998366563099 0.011889139444901419 0 -0.45134451005472592 0.03627620526057803 0 -0.45812381555683468 0.02655267890401538 0 -0.44328902963503591 0.027295065147164999 0 -0.44799036219546229 -0.002835167322699022 0 -0.45543331921132651 0.0013023135892830059 0 -0.45075001175657431 0.008023144087872679 0 -0.44799036219546229 -0.002835167322699022 0 -0.45075001175657431 0.008023144087872679 0 -0.43887734338143058 0.001447242731946876 0 -0.45075001175657431 0.008023144087872679 0 -0.43887734338143058 0.001447242731946876 0 -0.43673998366563099 0.011889139444901419 0 -0.42734880615895121 -0.002244037478268312 0 -0.43887734338143058 0.001447242731946876 0 -0.43206171775032659 0.0054079459573565022 0 -0.43887734338143058 0.001447242731946876 0 -0.43206171775032659 0.0054079459573565022 0 -0.43673998366563099 0.011889139444901419 0 -0.43206171775032659 0.0054079459573565022 0 -0.43673998366563099 0.011889139444901419 0 -0.42579772321371628 0.0094657814351281205 0 -0.43673998366563099 0.011889139444901419 0 -0.42579772321371628 0.0094657814351281205 0 -0.42998719214321701 0.019024621250115649 0 -0.42579772321371628 0.0094657814351281205 0 -0.41940028300524962 0.017275515040722899 0 -0.42998719214321701 0.019024621250115649 0 -0.42734880615895121 -0.002244037478268312 0 -0.43206171775032659 0.0054079459573565022 0 -0.42579772321371628 0.0094657814351281205 0 -0.42734880615895121 -0.002244037478268312 0 -0.42579772321371628 0.0094657814351281205 0 -0.41281378725210721 0.00051954405070704559 0 -0.41281378725210721 0.00051954405070704559 0 -0.40946072924723492 0.018979671327621701 0 -0.40521895095835292 0.01450198827773156 0 -0.41281378725210721 0.00051954405070704559 0 -0.40946072924723492 0.018979671327621701 0 -0.42579772321371628 0.0094657814351281205 0 -0.41281378725210721 0.00051954405070704559 0 -0.41940028300524962 0.017275515040722899 0 -0.41281378725210721 0.00051954405070704559 0 -0.40946072924723492 0.018979671327621701 0 -0.41940028300524962 0.017275515040722899 0 -0.40618844020912043 -0.0035992760663603441 0 -0.41281378725210721 0.00051954405070704559 0 -0.40357477184107798 0.0047859459425476951 0 -0.41281378725210721 0.00051954405070704559 0 -0.40521895095835292 0.01450198827773156 0 -0.41281378725210721 0.00051954405070704559 0 -0.40357477184107798 0.0047859459425476951 0 -0.40521895095835292 0.01450198827773156 0 -0.40946072924723492 0.018979671327621701 0 -0.41464925626985061 0.026175845667393879 0 -0.40591223374730567 0.038515771948323722 0 -0.40946072924723492 0.018979671327621701 0 -0.40591223374730567 0.038515771948323722 0 -0.40946072924723492 0.018979671327621701 0 -0.41940028300524962 0.017275515040722899 0 -0.41464925626985061 0.026175845667393879 0 -0.41464925626985061 0.026175845667393879 0 -0.42450479109092021 0.02827596665214837 0 -0.41737537836067617 0.034137687329182688 0 -0.41940028300524962 0.017275515040722899 0 -0.41464925626985061 0.026175845667393879 0 -0.42450479109092021 0.02827596665214837 0 -0.44328902963503591 0.027295065147164999 0 -0.42450479109092021 0.02827596665214837 0 -0.42998719214321701 0.019024621250115649 0 -0.41940028300524962 0.017275515040722899 0 -0.42450479109092021 0.02827596665214837 0 -0.42998719214321701 0.019024621250115649 0 -0.44328902963503591 0.027295065147164999 0 -0.43673998366563099 0.011889139444901419 0 -0.42998719214321701 0.019024621250115649 0 -0.44328902963503591 0.027295065147164999 0 -0.42282638394120692 0.042673468858095968 0 -0.44328902963503591 0.027295065147164999 0 -0.42450479109092021 0.02827596665214837 0 -0.42282638394120692 0.042673468858095968 0 -0.44328902963503591 0.027295065147164999 0 -0.42282638394120692 0.042673468858095968 0 -0.43054097708327738 0.048107257338357433 0 -0.4351238082772787 0.057333778966547122 0 -0.42174678538312582 0.054031445718311359 0 -0.4178790193664893 0.063990850859530504 0 -0.44133008593063561 0.048619039945909687 0 -0.4351238082772787 0.057333778966547122 0 -0.43054097708327738 0.048107257338357433 0 -0.42282638394120692 0.042673468858095968 0 -0.43054097708327738 0.048107257338357433 0 -0.42174678538312582 0.054031445718311359 0 -0.4351238082772787 0.057333778966547122 0 -0.43054097708327738 0.048107257338357433 0 -0.42174678538312582 0.054031445718311359 0 -0.42174678538312582 0.054031445718311359 0 -0.40236373824737731 0.058051872569025907 0 -0.4178790193664893 0.063990850859530504 0 -0.42282638394120692 0.042673468858095968 0 -0.42174678538312582 0.054031445718311359 0 -0.40236373824737731 0.058051872569025907 0 -0.42282638394120692 0.042673468858095968 0 -0.40236373824737731 0.058051872569025907 0 -0.40236373824737731 0.058051872569025907 0 -0.4178790193664893 0.063990850859530504 0 -0.42282638394120692 0.042673468858095968 0 -0.41737537836067617 0.034137687329182688 0 -0.40591223374730567 0.038515771948323722 0 -0.42282638394120692 0.042673468858095968 0 -0.40591223374730567 0.038515771948323722 0 -0.40236373824737731 0.058051872569025907 0 -0.42450479109092021 0.02827596665214837 0 -0.42282638394120692 0.042673468858095968 0 -0.41737537836067617 0.034137687329182688 0 -0.41464925626985061 0.026175845667393879 0 -0.41737537836067617 0.034137687329182688 0 -0.40591223374730567 0.038515771948323722 0 -0.40591223374730567 0.038515771948323722 0 -0.3951591163270522 0.034830517477718183 0 -0.39519089302203098 0.056634288039063098 0 -0.3951591163270522 0.034830517477718183 0 -0.39519089302203098 0.056634288039063098 0 -0.40591223374730567 0.038515771948323722 0 -0.40236373824737731 0.058051872569025907 0 -0.40591223374730567 0.038515771948323722 0 -0.40236373824737731 0.058051872569025907 0 -0.39519089302203098 0.056634288039063098 0 -0.40236373824737731 0.058051872569025907 0 -0.39520080444600858 0.063435071271694621 0 -0.40236373824737731 0.058051872569025907 0 -0.39519089302203098 0.056634288039063098 0 -0.39519089302203098 0.056634288039063098 0 -0.39199154412179171 0.06168498392430919 0 -0.38655809170814059 0.059265612993314343 0 -0.39519089302203098 0.056634288039063098 0 -0.39199154412179171 0.06168498392430919 0 -0.39520080444600858 0.063435071271694621 0 -0.39519089302203098 0.056634288039063098 0 -0.39520080444600858 0.063435071271694621 0 -0.40236373824737731 0.058051872569025907 0 -0.39519089302203098 0.056634288039063098 0 -0.39520080444600858 0.063435071271694621 0 -0.39519089302203098 0.056634288039063098 0 -0.37868160906569193 0.05128119793801935 0 -0.3951591163270522 0.034830517477718183 0 -0.39519089302203098 0.056634288039063098 0 -0.37868160906569193 0.05128119793801935 0 -0.39519089302203098 0.056634288039063098 0 -0.38655809170814059 0.059265612993314343 0 -0.37868160906569193 0.05128119793801935 0 -0.39199154412179171 0.06168498392430919 0 -0.38655809170814059 0.059265612993314343 0 -0.3886056292361022 0.065054773295721693 0 -0.38655809170814059 0.059265612993314343 0 -0.37868160906569193 0.05128119793801935 0 -0.37869921597754369 0.063362286502310974 0 -0.3951591163270522 0.034830517477718183 0 -0.37868160906569193 0.05128119793801935 0 -0.37463501926542542 0.03513036762076939 0 -0.38259525682936801 0.023039200665305331 0 -0.36852534481365917 0.02219079722054618 0 -0.37463501926542542 0.03513036762076939 0 -0.3951591163270522 0.034830517477718183 0 -0.38259525682936801 0.023039200665305331 0 -0.37463501926542542 0.03513036762076939 0 -0.39033601841858651 -0.0027418742180337131 0 -0.39511692607793092 0.0058814240499042783 0 -0.3699391971918341 0.002565640923137285 0 -0.39512733963207458 0.013026746916373309 0 -0.39511692607793092 0.0058814240499042783 0 -0.3699391971918341 0.002565640923137285 0 -0.38259525682936801 0.023039200665305331 0 -0.39512733963207458 0.013026746916373309 0 -0.3699391971918341 0.002565640923137285 0 -0.39512733963207458 0.013026746916373309 0 -0.3699391971918341 0.002565640923137285 0 -0.39512733963207458 0.013026746916373309 0 -0.39511692607793092 0.0058814240499042783 0 -0.39512733963207458 0.013026746916373309 0 -0.39511692607793092 0.0058814240499042783 0 -0.40071001210148832 0.01009184913002974 0 -0.39916392827186109 -6.9403041986405021e-05 0 -0.39033601841858651 -0.0027418742180337131 0 -0.39511692607793092 0.0058814240499042783 0 -0.39916392827186109 -6.9403041986405021e-05 0 -0.40618844020912043 -0.0035992760663603441 0 -0.40357477184107798 0.0047859459425476951 0 -0.39916392827186109 -6.9403041986405021e-05 0 -0.39511692607793092 0.0058814240499042783 0 -0.40357477184107798 0.0047859459425476951 0 -0.39511692607793092 0.0058814240499042783 0 -0.40357477184107798 0.0047859459425476951 0 -0.40071001210148832 0.01009184913002974 0 -0.40357477184107798 0.0047859459425476951 0 -0.40521895095835292 0.01450198827773156 0 -0.40071001210148832 0.01009184913002974 0 -0.40946072924723492 0.018979671327621701 0 -0.39512733963207458 0.013026746916373309 0 -0.40521895095835292 0.01450198827773156 0 -0.39512733963207458 0.013026746916373309 0 -0.40521895095835292 0.01450198827773156 0 -0.40071001210148832 0.01009184913002974 0 -0.3951591163270522 0.034830517477718183 0 -0.38259525682936801 0.023039200665305331 0 -0.39512733963207458 0.013026746916373309 0 -0.40946072924723492 0.018979671327621701 0 -0.39512733963207458 0.013026746916373309 0 -0.3951591163270522 0.034830517477718183 0 -0.39512733963207458 0.013026746916373309 0 -0.40946072924723492 0.018979671327621701 0 -0.40591223374730567 0.038515771948323722 0 -0.3951591163270522 0.034830517477718183 0 -0.40946072924723492 0.018979671327621701 0 -0.3951591163270522 0.034830517477718183 0 -0.39512733963207458 0.013026746916373309 0 -0.39577063143855712 0.094349959468867622 0 -0.39165298991780412 0.1170194708353091 0 -0.38845334141346222 0.1150951723775144 0 -0.39577063143855712 0.094349959468867622 0 -0.39165298991780412 0.1170194708353091 0 -0.39773914193632298 0.10194923121233131 0 -0.39577063143855712 0.094349959468867622 0 -0.39165298991780412 0.1170194708353091 0 -0.39773914193632298 0.10194923121233131 0 -0.39577063143855712 0.094349959468867622 0 -0.39693047073217519 0.08796451043999938 0 -0.39773914193632298 0.10194923121233131 0 -0.40191581754792122 0.094864686723045599 0 -0.40292281195275043 0.099522536216988228 0 -0.40292281195275043 0.099522536216988228 0 -0.40783459221741319 0.1049518870834429 0 -0.40764643091056291 0.096032755283787574 0 -0.39773914193632298 0.10194923121233131 0 -0.40191581754792122 0.094864686723045599 0 -0.39693047073217519 0.08796451043999938 0 -0.40191581754792122 0.094864686723045599 0 -0.40292281195275043 0.099522536216988228 0 -0.40764643091056291 0.096032755283787574 0 -0.39773914193632298 0.10194923121233131 0 -0.40061001176158051 0.1108454667692414 0 -0.39720085304664721 0.1120961142754122 0 -0.39773914193632298 0.10194923121233131 0 -0.40227815144608908 0.1042653402709068 0 -0.40061001176158051 0.1108454667692414 0 -0.40292281195275043 0.099522536216988228 0 -0.40227815144608908 0.1042653402709068 0 -0.40783459221741319 0.1049518870834429 0 -0.39773914193632298 0.10194923121233131 0 -0.40292281195275043 0.099522536216988228 0 -0.40227815144608908 0.1042653402709068 0 -0.40227815144608908 0.1042653402709068 0 -0.40061001176158051 0.1108454667692414 0 -0.40783459221741319 0.1049518870834429 0 -0.40061001176158051 0.1108454667692414 0 -0.4060618177361906 0.1194576147645459 0 -0.39880126857088127 0.11857028828476721 0 -0.40061001176158051 0.1108454667692414 0 -0.4060618177361906 0.1194576147645459 0 -0.40783459221741319 0.1049518870834429 0 -0.40061001176158051 0.1108454667692414 0 -0.39880126857088127 0.11857028828476721 0 -0.39720085304664721 0.1120961142754122 0 -0.4060618177361906 0.1194576147645459 0 -0.39880126857088127 0.11857028828476721 0 -0.39987500610222099 0.12712956518701379 0 -0.39880126857088127 0.11857028828476721 0 -0.394338053376597 0.1218929518693122 0 -0.39987500610222099 0.12712956518701379 0 -0.39880126857088127 0.11857028828476721 0 -0.394338053376597 0.1218929518693122 0 -0.39165298991780412 0.1170194708353091 0 -0.394338053376597 0.1218929518693122 0 -0.39165298991780412 0.1170194708353091 0 -0.38845334141346222 0.1150951723775144 0 -0.39773914193632298 0.10194923121233131 0 -0.39720085304664721 0.1120961142754122 0 -0.39165298991780412 0.1170194708353091 0 -0.39880126857088127 0.11857028828476721 0 -0.39720085304664721 0.1120961142754122 0 -0.39165298991780412 0.1170194708353091 0 -0.38054052477502082 0.1210556273550205 0 -0.37309794032827931 0.1327713578916784 0 -0.37202121306172109 0.11669332115117791 0 -0.38845334141346222 0.1150951723775144 0 -0.38054052477502082 0.1210556273550205 0 -0.37981041561354678 0.1097462275082678 0 -0.38845334141346222 0.1150951723775144 0 -0.38054052477502082 0.1210556273550205 0 -0.38469211178317048 0.1278066898442623 0 -0.37981041561354678 0.1097462275082678 0 -0.37487537076449529 0.1035958206050326 0 -0.37202121306172109 0.11669332115117791 0 -0.38054052477502082 0.1210556273550205 0 -0.37981041561354678 0.1097462275082678 0 -0.37202121306172109 0.11669332115117791 0 -0.39577063143855712 0.094349959468867622 0 -0.38845334141346222 0.1150951723775144 0 -0.38233791471361078 0.088527503986859934 0 -0.38845334141346222 0.1150951723775144 0 -0.37981041561354678 0.1097462275082678 0 -0.38233791471361078 0.088527503986859934 0 -0.38845334141346222 0.1150951723775144 0 -0.38233791471361078 0.088527503986859934 0 -0.37981041561354678 0.1097462275082678 0 -0.38233791471361078 0.088527503986859934 0 -0.37487537076449529 0.1035958206050326 0 -0.38233791471361078 0.088527503986859934 0 -0.37407990962534859 0.091485441523688704 0 -0.37487537076449529 0.1035958206050326 0 -0.38233791471361078 0.088527503986859934 0 -0.3728596014650033 0.08113890151639723 0 -0.37407990962534859 0.091485441523688704 0 -0.37622248801375918 0.061959835596205631 0 -0.38233791471361078 0.088527503986859934 0 -0.37622248801375918 0.061959835596205631 0 -0.38233791471361078 0.088527503986859934 0 -0.3728596014650033 0.08113890151639723 0 -0.37869921597754369 0.063362286502310974 0 -0.39522610684573473 0.080796465167646714 0 -0.38233791471361078 0.088527503986859934 0 -0.37869921597754369 0.063362286502310974 0 -0.39522610684573473 0.080796465167646714 0 -0.37622248801375918 0.061959835596205631 0 -0.38233791471361078 0.088527503986859934 0 -0.37869921597754369 0.063362286502310974 0 -0.37869921597754369 0.063362286502310974 0 -0.3886056292361022 0.065054773295721693 0 -0.39522610684573473 0.080796465167646714 0 -0.38655809170814059 0.059265612993314343 0 -0.37869921597754369 0.063362286502310974 0 -0.3886056292361022 0.065054773295721693 0 -0.40236373824737731 0.058051872569025907 0 -0.40402742783058559 0.078438511008843539 0 -0.40804322814952992 0.073877624928534988 0 -0.40236373824737731 0.058051872569025907 0 -0.39778814492316322 0.083242619346928406 0 -0.40236373824737731 0.058051872569025907 0 -0.39778814492316322 0.083242619346928406 0 -0.40402742783058559 0.078438511008843539 0 -0.39520080444600858 0.063435071271694621 0 -0.39522610684573473 0.080796465167646714 0 -0.40236373824737731 0.058051872569025907 0 -0.39520080444600858 0.063435071271694621 0 -0.39522610684573473 0.080796465167646714 0 -0.40236373824737731 0.058051872569025907 0 -0.39522610684573473 0.080796465167646714 0 -0.39778814492316322 0.083242619346928406 0 -0.3886056292361022 0.065054773295721693 0 -0.39520080444600858 0.063435071271694621 0 -0.39522610684573473 0.080796465167646714 0 -0.39199154412179171 0.06168498392430919 0 -0.3886056292361022 0.065054773295721693 0 -0.39520080444600858 0.063435071271694621 0 -0.39577063143855712 0.094349959468867622 0 -0.39693047073217519 0.08796451043999938 0 -0.39522610684573473 0.080796465167646714 0 -0.39577063143855712 0.094349959468867622 0 -0.39522610684573473 0.080796465167646714 0 -0.39577063143855712 0.094349959468867622 0 -0.38233791471361078 0.088527503986859934 0 -0.39522610684573473 0.080796465167646714 0 -0.39577063143855712 0.094349959468867622 0 -0.39693047073217519 0.08796451043999938 0 -0.39522610684573473 0.080796465167646714 0 -0.39778814492316322 0.083242619346928406 0 -0.39693047073217519 0.08796451043999938 0 -0.39778814492316322 0.083242619346928406 0 -0.39693047073217519 0.08796451043999938 0 -0.39522610684573473 0.080796465167646714 0 -0.39778814492316322 0.083242619346928406 0 -0.39693047073217519 0.08796451043999938 0 -0.39778814492316322 0.083242619346928406 0 -0.40402742783058559 0.078438511008843539 0 -0.39693047073217519 0.08796451043999938 0 -0.40402742783058559 0.078438511008843539 0 -0.40434023220779453 0.088854400462121452 0 -0.40402742783058559 0.078438511008843539 0 -0.40434023220779453 0.088854400462121452 0 -0.40861525651688241 0.082586469168872217 0 -0.40191581754792122 0.094864686723045599 0 -0.39693047073217519 0.08796451043999938 0 -0.40434023220779453 0.088854400462121452 0 -0.40191581754792122 0.094864686723045599 0 -0.40434023220779453 0.088854400462121452 0 -0.40764643091056291 0.096032755283787574 0 -0.40434023220779453 0.088854400462121452 0 -0.41352158249728371 0.089308091471531417 0 -0.40861525651688241 0.082586469168872217 0 -0.40434023220779453 0.088854400462121452 0 -0.41352158249728371 0.089308091471531417 0 -0.40764643091056291 0.096032755283787574 0 -0.41352158249728371 0.089308091471531417 0 -0.41942833858971262 0.077666763992630311 0 -0.43069859457449178 0.092998042309959575 0 -0.41352158249728371 0.089308091471531417 0 -0.40861525651688241 0.082586469168872217 0 -0.41942833858971262 0.077666763992630311 0 -0.40402742783058559 0.078438511008843539 0 -0.40861525651688241 0.082586469168872217 0 -0.40804322814952992 0.073877624928534988 0 -0.40236373824737731 0.058051872569025907 0 -0.40804322814952992 0.073877624928534988 0 -0.4178790193664893 0.063990850859530504 0 -0.40861525651688241 0.082586469168872217 0 -0.40804322814952992 0.073877624928534988 0 -0.41942833858971262 0.077666763992630311 0 -0.40804322814952992 0.073877624928534988 0 -0.41942833858971262 0.077666763992630311 0 -0.4178790193664893 0.063990850859530504 0 -0.4178790193664893 0.063990850859530504 0 -0.43355008718643379 0.069072151674367893 0 -0.41942833858971262 0.077666763992630311 0 -0.43355008718643379 0.069072151674367893 0 -0.43664961139122971 0.081132572545814269 0 -0.4351238082772787 0.057333778966547122 0 -0.4178790193664893 0.063990850859530504 0 -0.43355008718643379 0.069072151674367893 0 -0.41942833858971262 0.077666763992630311 0 -0.4178790193664893 0.063990850859530504 0 -0.43355008718643379 0.069072151674367893 0 -0.41942833858971262 0.077666763992630311 0 -0.43069859457449178 0.092998042309959575 0 -0.43664961139122971 0.081132572545814269 0 -0.43069859457449178 0.092998042309959575 0 -0.42583433746060401 0.1140886262047736 0 -0.43069859457449178 0.092998042309959575 0 -0.41675157749341241 0.101760832187516 0 -0.42583433746060401 0.1140886262047736 0 -0.43069859457449178 0.092998042309959575 0 -0.42583433746060401 0.1140886262047736 0 -0.43875825079961928 0.1117819732870324 0 -0.41352158249728371 0.089308091471531417 0 -0.43069859457449178 0.092998042309959575 0 -0.41675157749341241 0.101760832187516 0 -0.41675157749341241 0.101760832187516 0 -0.40783459221741319 0.1049518870834429 0 -0.41459655439385101 0.11293314595527749 0 -0.41352158249728371 0.089308091471531417 0 -0.41675157749341241 0.101760832187516 0 -0.40764643091056291 0.096032755283787574 0 -0.41675157749341241 0.101760832187516 0 -0.40783459221741319 0.1049518870834429 0 -0.40764643091056291 0.096032755283787574 0 -0.41468905711155041 0.1231950344177566 0 -0.42583433746060401 0.1140886262047736 0 -0.42097008034671612 0.13517921009958761 0 -0.4060618177361906 0.1194576147645459 0 -0.41459655439385101 0.11293314595527749 0 -0.41468905711155041 0.1231950344177566 0 -0.4060618177361906 0.1194576147645459 0 -0.40783459221741319 0.1049518870834429 0 -0.41459655439385101 0.11293314595527749 0 -0.41459655439385101 0.11293314595527749 0 -0.41468905711155041 0.1231950344177566 0 -0.42583433746060401 0.1140886262047736 0 -0.41675157749341241 0.101760832187516 0 -0.41459655439385101 0.11293314595527749 0 -0.42583433746060401 0.1140886262047736 0 -0.42583433746060401 0.1140886262047736 0 -0.42097008034671612 0.13517921009958761 0 -0.42583433746060401 0.1140886262047736 0 -0.43390428592112879 0.1237273915268962 0 -0.42097008034671612 0.13517921009958761 0 -0.42583433746060401 0.1140886262047736 0 -0.43390428592112879 0.1237273915268962 0 -0.43875825079961928 0.1117819732870324 0 -0.44645360197946171 0.12298946771065319 0 -0.43875825079961928 0.1117819732870324 0 -0.45041452466004128 0.1045396163966293 0 -0.43390428592112879 0.1237273915268962 0 -0.44645360197946171 0.12298946771065319 0 -0.43875825079961928 0.1117819732870324 0 -0.43069859457449178 0.092998042309959575 0 -0.43875825079961928 0.1117819732870324 0 -0.45041452466004128 0.1045396163966293 0 -0.43069859457449178 0.092998042309959575 0 -0.45041452466004128 0.1045396163966293 0 -0.44951563829987728 0.09003527253495254 0 -0.45041452466004128 0.1045396163966293 0 -0.46521429743665632 0.1005516975669223 0 -0.46411993524698197 0.1201692008717947 0 -0.45041452466004128 0.1045396163966293 0 -0.46521429743665632 0.1005516975669223 0 -0.44951563829987728 0.09003527253495254 0 -0.44645360197946171 0.12298946771065319 0 -0.45041452466004128 0.1045396163966293 0 -0.46411993524698197 0.1201692008717947 0 -0.43355008718643379 0.069072151674367893 0 -0.44540562896943658 0.063301418884240929 0 -0.45005539830563251 0.075890632217160997 0 -0.43355008718643379 0.069072151674367893 0 -0.43664961139122971 0.081132572545814269 0 -0.45005539830563251 0.075890632217160997 0 -0.45836900755443899 0.061312978457578347 0 -0.44540562896943658 0.063301418884240929 0 -0.45005539830563251 0.075890632217160997 0 -0.4351238082772787 0.057333778966547122 0 -0.43355008718643379 0.069072151674367893 0 -0.44540562896943658 0.063301418884240929 0 -0.43069859457449178 0.092998042309959575 0 -0.43664961139122971 0.081132572545814269 0 -0.44951563829987728 0.09003527253495254 0 -0.43664961139122971 0.081132572545814269 0 -0.45005539830563251 0.075890632217160997 0 -0.44951563829987728 0.09003527253495254 0 -0.46521429743665632 0.1005516975669223 0 -0.44951563829987728 0.09003527253495254 0 -0.46334724276341582 0.084572113231536156 0 -0.46521429743665632 0.1005516975669223 0 -0.46334724276341582 0.084572113231536156 0 -0.47615077805905781 0.08976916523238912 0 -0.45005539830563251 0.075890632217160997 0 -0.44951563829987728 0.09003527253495254 0 -0.46334724276341582 0.084572113231536156 0 -0.45005539830563251 0.075890632217160997 0 -0.46334724276341582 0.084572113231536156 0 -0.46308027202906132 0.071941927331402949 0 -0.46334724276341582 0.084572113231536156 0 -0.46308027202906132 0.071941927331402949 0 -0.47320188640331529 0.073983574412234049 0 -0.45836900755443899 0.061312978457578347 0 -0.46308027202906132 0.071941927331402949 0 -0.47042782511850417 0.063950338338505261 0 -0.45836900755443899 0.061312978457578347 0 -0.45005539830563251 0.075890632217160997 0 -0.46308027202906132 0.071941927331402949 0 -0.47972159297128181 0.065298992742926568 0 -0.483431437229636 0.071874825587575061 0 -0.48987871798517119 0.06326908240575943 0 -0.46308027202906132 0.071941927331402949 0 -0.47042782511850417 0.063950338338505261 0 -0.47320188640331529 0.073983574412234049 0 -0.47972159297128181 0.065298992742926568 0 -0.47042782511850417 0.063950338338505261 0 -0.47320188640331529 0.073983574412234049 0 -0.47972159297128181 0.065298992742926568 0 -0.47320188640331529 0.073983574412234049 0 -0.483431437229636 0.071874825587575061 0 -0.47320188640331529 0.073983574412234049 0 -0.483431437229636 0.071874825587575061 0 -0.48274159673683542 0.08050782596360119 0 -0.47320188640331529 0.073983574412234049 0 -0.48274159673683542 0.08050782596360119 0 -0.47615077805905781 0.08976916523238912 0 -0.46334724276341582 0.084572113231536156 0 -0.47320188640331529 0.073983574412234049 0 -0.47615077805905781 0.08976916523238912 0 -0.47615077805905781 0.08976916523238912 0 -0.48840332567726741 0.08751733437620679 0 -0.48234769145362899 0.1038346870035374 0 -0.48274159673683542 0.08050782596360119 0 -0.47615077805905781 0.08976916523238912 0 -0.48840332567726741 0.08751733437620679 0 -0.48840332567726741 0.08751733437620679 0 -0.5 0.088694695015736347 0 -0.48234769145362899 0.1038346870035374 0 -0.48840332567726741 0.08751733437620679 0 -0.5 0.088694695015736347 0 -0.49874405546467049 0.08268104701723944 0 -0.48840332567726741 0.08751733437620679 0 -0.49874405546467049 0.08268104701723944 0 -0.48940343347523829 0.07756304087079996 0 -0.48274159673683542 0.08050782596360119 0 -0.48840332567726741 0.08751733437620679 0 -0.48940343347523829 0.07756304087079996 0 -0.49874405546467049 0.08268104701723944 0 -0.48987871798517119 0.06326908240575943 0 -0.49874405546467049 0.08268104701723944 0 -0.48940343347523829 0.07756304087079996 0 -0.48987871798517119 0.06326908240575943 0 -0.5 0.061998341442298321 0 -0.5 0.088694695015736347 0 -0.49874405546467049 0.08268104701723944 0 -0.5 0.061998341442298321 0 -0.49874405546467049 0.08268104701723944 0 -0.48987871798517119 0.06326908240575943 0 -0.483431437229636 0.071874825587575061 0 -0.48274159673683542 0.08050782596360119 0 -0.48940343347523829 0.07756304087079996 0 -0.483431437229636 0.071874825587575061 0 -0.48940343347523829 0.07756304087079996 0 -0.48987871798517119 0.06326908240575943 0 -0.46411993524698197 0.1201692008717947 0 -0.48234769145362899 0.1038346870035374 0 -0.48375565605697862 0.12554776972164011 0 -0.46521429743665632 0.1005516975669223 0 -0.47615077805905781 0.08976916523238912 0 -0.48234769145362899 0.1038346870035374 0 -0.46521429743665632 0.1005516975669223 0 -0.46411993524698197 0.1201692008717947 0 -0.48234769145362899 0.1038346870035374 0 -0.5 0.088694695015736347 0 -0.48234769145362899 0.1038346870035374 0 -0.5 0.1153910485891744 0 -0.48234769145362899 0.1038346870035374 0 -0.5 0.1153910485891744 0 -0.48375565605697862 0.12554776972164011 0 -0.5 0.1153910485891744 0 -0.48375565605697862 0.12554776972164011 0 -0.5 0.14208740216261229 0 -0.48375565605697862 0.12554776972164011 0 -0.47111123504961522 0.14178556782015389 0 -0.5 0.14208740216261229 0 -0.46411993524698197 0.1201692008717947 0 -0.48375565605697862 0.12554776972164011 0 -0.47111123504961522 0.14178556782015389 0 -0.47111123504961522 0.14178556782015389 0 -0.5 0.14208740216261229 0 -0.47687939249212358 0.1624894930692625 0 -0.50000000000000044 0.16878375573605031 0 -0.48481603136231272 0.18306741782139971 0 -0.47687939249212358 0.1624894930692625 0 -0.5 0.14208740216261229 0 -0.50000000000000044 0.16878375573605031 0 -0.47687939249212358 0.1624894930692625 0 -0.50000000000000044 0.16878375573605031 0 -0.47687939249212358 0.1624894930692625 0 -0.50000000000000044 0.16878375573605031 0 -0.48481603136231272 0.18306741782139971 0 -0.5 0.1957177271850655 0 -0.48481603136231272 0.18306741782139971 0 -0.47687939249212358 0.1624894930692625 0 -0.46603987119167423 0.1845408752439075 0 -0.47687939249212358 0.1624894930692625 0 -0.45258444537674769 0.17282245969017471 0 -0.45375878498424671 0.1561952304024749 0 -0.47687939249212358 0.1624894930692625 0 -0.45375878498424671 0.1561952304024749 0 -0.46603987119167423 0.1845408752439075 0 -0.45258444537674769 0.17282245969017471 0 -0.44402031793288721 0.19031594783671341 0 -0.47687939249212358 0.1624894930692625 0 -0.46603987119167423 0.1845408752439075 0 -0.45258444537674769 0.17282245969017471 0 -0.45258444537674769 0.17282245969017471 0 -0.44402031793288721 0.19031594783671341 0 -0.43080427818916323 0.17004431331834849 0 -0.45258444537674769 0.17282245969017471 0 -0.45375878498424671 0.1561952304024749 0 -0.43080427818916323 0.17004431331834849 0 -0.45375878498424671 0.1561952304024749 0 -0.43063817747636979 0.1499009677356872 0 -0.43080427818916323 0.17004431331834849 0 -0.4418942604629984 0.145341971384784 0 -0.45013307175789868 0.13900256796170429 0 -0.45375878498424671 0.1561952304024749 0 -0.45375878498424671 0.1561952304024749 0 -0.43063817747636979 0.1499009677356872 0 -0.4418942604629984 0.145341971384784 0 -0.45375878498424671 0.1561952304024749 0 -0.43063817747636979 0.1499009677356872 0 -0.44645360197946171 0.12298946771065319 0 -0.45013307175789868 0.13900256796170429 0 -0.43304700763347831 0.1362691194392697 0 -0.4418942604629984 0.145341971384784 0 -0.45013307175789868 0.13900256796170429 0 -0.43304700763347831 0.1362691194392697 0 -0.43390428592112879 0.1237273915268962 0 -0.44645360197946171 0.12298946771065319 0 -0.43304700763347831 0.1362691194392697 0 -0.46411993524698197 0.1201692008717947 0 -0.47111123504961522 0.14178556782015389 0 -0.45013307175789868 0.13900256796170429 0 -0.44645360197946171 0.12298946771065319 0 -0.46411993524698197 0.1201692008717947 0 -0.45013307175789868 0.13900256796170429 0 -0.47111123504961522 0.14178556782015389 0 -0.45013307175789868 0.13900256796170429 0 -0.45375878498424671 0.1561952304024749 0 -0.47111123504961522 0.14178556782015389 0 -0.47687939249212358 0.1624894930692625 0 -0.45375878498424671 0.1561952304024749 0 -0.47326094330508539 0.2384675454074337 0 -0.50000000000000155 0.24958567008309579 0 -0.47326094330508539 0.2384675454074337 0 -0.50000000000000155 0.24958567008309579 0 -0.5 0.22265169863408071 0 -0.47326094330508539 0.2384675454074337 0 -0.50000000000000155 0.24958567008309579 0 -0.48628554246181999 0.25993147162813168 0 -0.47326094330508539 0.2384675454074337 0 -0.5 0.22265169863408071 0 -0.47523770806741322 0.2077252844047528 0 -0.5 0.22265169863408071 0 -0.47523770806741322 0.2077252844047528 0 -0.5 0.1957177271850655 0 -0.48481603136231272 0.18306741782139971 0 -0.47523770806741322 0.2077252844047528 0 -0.5 0.1957177271850655 0 -0.48481603136231272 0.18306741782139971 0 -0.46603987119167423 0.1845408752439075 0 -0.47523770806741322 0.2077252844047528 0 -0.46603987119167423 0.1845408752439075 0 -0.44402031793288721 0.19031594783671341 0 -0.45391467255724982 0.2037170660299692 0 -0.46603987119167423 0.1845408752439075 0 -0.47523770806741322 0.2077252844047528 0 -0.45391467255724982 0.2037170660299692 0 -0.44402031793288721 0.19031594783671341 0 -0.43775357898410538 0.20865380193270011 0 -0.45391467255724982 0.2037170660299692 0 -0.44402031793288721 0.19031594783671341 0 -0.43775357898410538 0.20865380193270011 0 -0.43235398992838098 0.19671850388204401 0 -0.43775357898410538 0.20865380193270011 0 -0.45391467255724982 0.2037170660299692 0 -0.44652188661016912 0.22734942073177211 0 -0.47523770806741322 0.2077252844047528 0 -0.45391467255724982 0.2037170660299692 0 -0.44652188661016912 0.22734942073177211 0 -0.47326094330508539 0.2384675454074337 0 -0.47523770806741322 0.2077252844047528 0 -0.44652188661016912 0.22734942073177211 0 -0.47326094330508539 0.2384675454074337 0 -0.44652188661016912 0.22734942073177211 0 -0.44652188661016912 0.22734942073177211 0 -0.44358916528756531 0.24503098276812851 0 -0.42544025009716568 0.24201363837963211 0 -0.47326094330508539 0.2384675454074337 0 -0.44358916528756531 0.24503098276812851 0 -0.45169033573505901 0.26258258505899518 0 -0.47326094330508539 0.2384675454074337 0 -0.44652188661016912 0.22734942073177211 0 -0.44358916528756531 0.24503098276812851 0 -0.44652188661016912 0.22734942073177211 0 -0.41491900947785448 0.2300717925517009 0 -0.41978282991525268 0.21623129605611041 0 -0.44652188661016912 0.22734942073177211 0 -0.42544025009716568 0.24201363837963211 0 -0.41491900947785448 0.2300717925517009 0 -0.41198548237826021 0.24087964673295781 0 -0.41491900947785448 0.2300717925517009 0 -0.39713138969261308 0.23853968085830329 0 -0.41198548237826021 0.24087964673295781 0 -0.39713138969261308 0.23853968085830329 0 -0.41140463820035678 0.25194223880614808 0 -0.41198548237826021 0.24087964673295781 0 -0.42544025009716568 0.24201363837963211 0 -0.41491900947785448 0.2300717925517009 0 -0.41198548237826021 0.24087964673295781 0 -0.42544025009716568 0.24201363837963211 0 -0.41140463820035678 0.25194223880614808 0 -0.44358916528756531 0.24503098276812851 0 -0.42544025009716568 0.24201363837963211 0 -0.42790676716876708 0.25837833751966982 0 -0.44652188661016912 0.22734942073177211 0 -0.41978282991525268 0.21623129605611041 0 -0.41491900947785448 0.2300717925517009 0 -0.41096425030728112 0.21289086056354611 0 -0.40809620669548058 0.2186585336860975 0 -0.41491900947785448 0.2300717925517009 0 -0.40809620669548058 0.2186585336860975 0 -0.39713138969261308 0.23853968085830329 0 -0.41491900947785448 0.2300717925517009 0 -0.41096425030728112 0.21289086056354611 0 -0.41978282991525268 0.21623129605611041 0 -0.41491900947785448 0.2300717925517009 0 -0.41096425030728112 0.21289086056354611 0 -0.41096425030728112 0.21289086056354611 0 -0.42127271928020932 0.20226834851595901 0 -0.4070094911367087 0.19570992857539099 0 -0.41096425030728112 0.21289086056354611 0 -0.4070094911367087 0.19570992857539099 0 -0.40275507324335252 0.21415635428905039 0 -0.41096425030728112 0.21289086056354611 0 -0.4070094911367087 0.19570992857539099 0 -0.41096425030728112 0.21289086056354611 0 -0.40809620669548058 0.2186585336860975 0 -0.40275507324335252 0.21415635428905039 0 -0.41096425030728112 0.21289086056354611 0 -0.41978282991525268 0.21623129605611041 0 -0.42127271928020932 0.20226834851595901 0 -0.43775357898410538 0.20865380193270011 0 -0.41978282991525268 0.21623129605611041 0 -0.42127271928020932 0.20226834851595901 0 -0.43775357898410538 0.20865380193270011 0 -0.44652188661016912 0.22734942073177211 0 -0.41978282991525268 0.21623129605611041 0 -0.44402031793288721 0.19031594783671341 0 -0.43235398992838098 0.19671850388204401 0 -0.4251111532560144 0.18573968117354239 0 -0.43775357898410538 0.20865380193270011 0 -0.43235398992838098 0.19671850388204401 0 -0.42127271928020932 0.20226834851595901 0 -0.43235398992838098 0.19671850388204401 0 -0.42127271928020932 0.20226834851595901 0 -0.4251111532560144 0.18573968117354239 0 -0.42127271928020932 0.20226834851595901 0 -0.4070094911367087 0.19570992857539099 0 -0.4251111532560144 0.18573968117354239 0 -0.4070094911367087 0.19570992857539099 0 -0.39589455092328152 0.19783756390505741 0 -0.40275507324335252 0.21415635428905039 0 -0.39589455092328152 0.19783756390505741 0 -0.38193752744284931 0.19660870702650601 0 -0.40275507324335252 0.21415635428905039 0 -0.4070094911367087 0.19570992857539099 0 -0.39589455092328152 0.19783756390505741 0 -0.39187611187021648 0.18487526572928201 0 -0.38193752744284931 0.19660870702650601 0 -0.39187611187021648 0.18487526572928201 0 -0.39589455092328152 0.19783756390505741 0 -0.38193752744284931 0.19660870702650601 0 -0.39187611187021648 0.18487526572928201 0 -0.37872867018819112 0.2003970672808085 0 -0.38193752744284931 0.19660870702650601 0 -0.36525299836202618 0.19756021895930551 0 -0.38193752744284931 0.19660870702650601 0 -0.39187611187021648 0.18487526572928201 0 -0.38146415098121739 0.18467681802036359 0 -0.38193752744284931 0.19660870702650601 0 -0.38146415098121739 0.18467681802036359 0 -0.366837691770037 0.18388066537125569 0 -0.37872867018819112 0.2003970672808085 0 -0.38193752744284931 0.19660870702650601 0 -0.38519908858973512 0.20757576178999709 0 -0.37872867018819112 0.2003970672808085 0 -0.38193752744284931 0.19660870702650601 0 -0.38193752744284931 0.19660870702650601 0 -0.38519908858973512 0.20757576178999709 0 -0.40275507324335252 0.21415635428905039 0 -0.37872867018819112 0.2003970672808085 0 -0.38519908858973512 0.20757576178999709 0 -0.37726323903782039 0.20995648967625169 0 -0.37872867018819112 0.2003970672808085 0 -0.37726323903782039 0.20995648967625169 0 -0.37105784726745877 0.20424500376303301 0 -0.38519908858973512 0.20757576178999709 0 -0.37726323903782039 0.20995648967625169 0 -0.38531093303646191 0.2167601906773694 0 -0.37726323903782039 0.20995648967625169 0 -0.38531093303646191 0.2167601906773694 0 -0.37668617291017742 0.2195424280511272 0 -0.4070094911367087 0.19570992857539099 0 -0.40275507324335252 0.21415635428905039 0 -0.38193752744284931 0.19660870702650601 0 -0.40275507324335252 0.21415635428905039 0 -0.38519908858973512 0.20757576178999709 0 -0.38531093303646191 0.2167601906773694 0 -0.40275507324335252 0.21415635428905039 0 -0.40809620669548058 0.2186585336860975 0 -0.40275507324335252 0.21415635428905039 0 -0.40275507324335252 0.21415635428905039 0 -0.39713138969261308 0.23853968085830329 0 -0.40275507324335252 0.21415635428905039 0 -0.38471559644030667 0.23061035285546849 0 -0.39713138969261308 0.23853968085830329 0 -0.38531093303646191 0.2167601906773694 0 -0.40275507324335252 0.21415635428905039 0 -0.38471559644030667 0.23061035285546849 0 -0.40809620669548058 0.2186585336860975 0 -0.40275507324335252 0.21415635428905039 0 -0.39713138969261308 0.23853968085830329 0 -0.37668617291017742 0.2195424280511272 0 -0.38471559644030667 0.23061035285546849 0 -0.36997881025317653 0.2273300108356392 0 -0.38531093303646191 0.2167601906773694 0 -0.37668617291017742 0.2195424280511272 0 -0.38471559644030667 0.23061035285546849 0 -0.38471559644030667 0.23061035285546849 0 -0.37376185818306151 0.23997046785271869 0 -0.36997881025317653 0.2273300108356392 0 -0.38471559644030667 0.23061035285546849 0 -0.38353470811242368 0.24827838943581121 0 -0.39713138969261308 0.23853968085830329 0 -0.38471559644030667 0.23061035285546849 0 -0.38353470811242368 0.24827838943581121 0 -0.37376185818306151 0.23997046785271869 0 -0.38353470811242368 0.24827838943581121 0 -0.39713138969261308 0.23853968085830329 0 -0.39150770614187452 0.26292300742755648 0 -0.39713138969261308 0.23853968085830329 0 -0.41140463820035678 0.25194223880614808 0 -0.40295440868181859 0.25761110128911169 0 -0.40692453059415568 0.14556824897636689 0 -0.41610582323282658 0.15626979399440119 0 -0.39819173220545201 0.1574023326001148 0 -0.40692453059415568 0.14556824897636689 0 -0.42097008034671612 0.13517921009958761 0 -0.41610582323282658 0.15626979399440119 0 -0.42097008034671612 0.13517921009958761 0 -0.41610582323282658 0.15626979399440119 0 -0.40692453059415568 0.14556824897636689 0 -0.42097008034671612 0.13517921009958761 0 -0.40560512271412219 0.13406413024827521 0 -0.41468905711155041 0.1231950344177566 0 -0.42097008034671612 0.13517921009958761 0 -0.40560512271412219 0.13406413024827521 0 -0.4060618177361906 0.1194576147645459 0 -0.41468905711155041 0.1231950344177566 0 -0.40560512271412219 0.13406413024827521 0 -0.43390428592112879 0.1237273915268962 0 -0.42097008034671612 0.13517921009958761 0 -0.43304700763347831 0.1362691194392697 0 -0.43304700763347831 0.1362691194392697 0 -0.43063817747636979 0.1499009677356872 0 -0.41610582323282658 0.15626979399440119 0 -0.43304700763347831 0.1362691194392697 0 -0.41610582323282658 0.15626979399440119 0 -0.4418942604629984 0.145341971384784 0 -0.43304700763347831 0.1362691194392697 0 -0.43063817747636979 0.1499009677356872 0 -0.42097008034671612 0.13517921009958761 0 -0.43304700763347831 0.1362691194392697 0 -0.41610582323282658 0.15626979399440119 0 -0.43063817747636979 0.1499009677356872 0 -0.43080427818916323 0.17004431331834849 0 -0.41610582323282658 0.15626979399440119 0 -0.43080427818916323 0.17004431331834849 0 -0.4251111532560144 0.18573968117354239 0 -0.41155765718476922 0.17598986128489649 0 -0.44402031793288721 0.19031594783671341 0 -0.43080427818916323 0.17004431331834849 0 -0.4251111532560144 0.18573968117354239 0 -0.4070094911367087 0.19570992857539099 0 -0.41155765718476922 0.17598986128489649 0 -0.40181469629758809 0.1731418244320615 0 -0.4070094911367087 0.19570992857539099 0 -0.4251111532560144 0.18573968117354239 0 -0.41155765718476922 0.17598986128489649 0 -0.4070094911367087 0.19570992857539099 0 -0.41155765718476922 0.17598986128489649 0 -0.41155765718476922 0.17598986128489649 0 -0.41610582323282658 0.15626979399440119 0 -0.41155765718476922 0.17598986128489649 0 -0.41610582323282658 0.15626979399440119 0 -0.40181469629758809 0.1731418244320615 0 -0.43080427818916323 0.17004431331834849 0 -0.41155765718476922 0.17598986128489649 0 -0.41610582323282658 0.15626979399440119 0 -0.41610582323282658 0.15626979399440119 0 -0.40181469629758809 0.1731418244320615 0 -0.41610582323282658 0.15626979399440119 0 -0.39819173220545201 0.1574023326001148 0 -0.40181469629758809 0.1731418244320615 0 -0.39819173220545201 0.1574023326001148 0 -0.40181469629758809 0.1731418244320615 0 -0.38520527284176731 0.17334263395441099 0 -0.39819173220545201 0.1574023326001148 0 -0.40181469629758809 0.1731418244320615 0 -0.40181469629758809 0.1731418244320615 0 -0.39187611187021648 0.18487526572928201 0 -0.38520527284176731 0.17334263395441099 0 -0.4070094911367087 0.19570992857539099 0 -0.40181469629758809 0.1731418244320615 0 -0.4070094911367087 0.19570992857539099 0 -0.40181469629758809 0.1731418244320615 0 -0.39187611187021648 0.18487526572928201 0 -0.40181469629758809 0.1731418244320615 0 -0.39187611187021648 0.18487526572928201 0 -0.38520527284176731 0.17334263395441099 0 -0.38146415098121739 0.18467681802036359 0 -0.366837691770037 0.18388066537125569 0 -0.39187611187021648 0.18487526572928201 0 -0.38520527284176731 0.17334263395441099 0 -0.38146415098121739 0.18467681802036359 0 -0.38520527284176731 0.17334263395441099 0 -0.37315331210526842 0.15640773224208579 0 -0.366837691770037 0.18388066537125569 0 -0.39819173220545201 0.1574023326001148 0 -0.38520527284176731 0.17334263395441099 0 -0.37315331210526842 0.15640773224208579 0 -0.39456876811331332 0.14166284076816871 0 -0.37309794032827931 0.1327713578916784 0 -0.37315331210526842 0.15640773224208579 0 -0.39819173220545201 0.1574023326001148 0 -0.39456876811331332 0.14166284076816871 0 -0.37315331210526842 0.15640773224208579 0 -0.39456876811331332 0.14166284076816871 0 -0.37315331210526842 0.15640773224208579 0 -0.39819173220545201 0.1574023326001148 0 -0.39456876811331332 0.14166284076816871 0 -0.40692453059415568 0.14556824897636689 0 -0.39819173220545201 0.1574023326001148 0 -0.39456876811331332 0.14166284076816871 0 -0.394338053376597 0.1218929518693122 0 -0.38845334141346222 0.1150951723775144 0 -0.39456876811331332 0.14166284076816871 0 -0.38845334141346222 0.1150951723775144 0 -0.39456876811331332 0.14166284076816871 0 -0.394338053376597 0.1218929518693122 0 -0.39456876811331332 0.14166284076816871 0 -0.39987500610222099 0.12712956518701379 0 -0.4060618177361906 0.1194576147645459 0 -0.39987500610222099 0.12712956518701379 0 -0.40560512271412219 0.13406413024827521 0 -0.40692453059415568 0.14556824897636689 0 -0.39456876811331332 0.14166284076816871 0 -0.40560512271412219 0.13406413024827521 0 -0.39456876811331332 0.14166284076816871 0 -0.40560512271412219 0.13406413024827521 0 -0.39456876811331332 0.14166284076816871 0 -0.39987500610222099 0.12712956518701379 0 -0.40560512271412219 0.13406413024827521 0 -0.38845334141346222 0.1150951723775144 0 -0.39456876811331332 0.14166284076816871 0 -0.38469211178317048 0.1278066898442623 0 -0.39456876811331332 0.14166284076816871 0 -0.38469211178317048 0.1278066898442623 0 -0.37309794032827931 0.1327713578916784 0 -0.38054052477502082 0.1210556273550205 0 -0.38469211178317048 0.1278066898442623 0 -0.37309794032827931 0.1327713578916784 0 -0.37309794032827931 0.1327713578916784 0 -0.35303199665353258 0.13897454056229519 0 -0.35586260728765601 0.12156183606264739 0 -0.35303199665353258 0.13897454056229519 0 -0.35586260728765601 0.12156183606264739 0 -0.33227125562741427 0.12311613588869411 0 -0.35303199665353258 0.13897454056229519 0 -0.35218645362094092 0.1549120967272431 0 -0.33679221019233291 0.1434997890648344 0 -0.37309794032827931 0.1327713578916784 0 -0.35303199665353258 0.13897454056229519 0 -0.37315331210526842 0.15640773224208579 0 -0.35303199665353258 0.13897454056229519 0 -0.35218645362094092 0.1549120967272431 0 -0.37315331210526842 0.15640773224208579 0 -0.37315331210526842 0.15640773224208579 0 -0.35173785609722502 0.17115262371600509 0 -0.37315331210526842 0.15640773224208579 0 -0.366837691770037 0.18388066537125569 0 -0.35173785609722502 0.17115262371600509 0 -0.366837691770037 0.18388066537125569 0 -0.35173785609722502 0.17115262371600509 0 -0.35072330393942142 0.19082261493437161 0 -0.35173785609722502 0.17115262371600509 0 -0.3347144453251914 0.18287352026171719 0 -0.35072330393942142 0.19082261493437161 0 -0.366837691770037 0.18388066537125569 0 -0.35173785609722502 0.17115262371600509 0 -0.35218645362094092 0.1549120967272431 0 -0.37315331210526842 0.15640773224208579 0 -0.35173785609722502 0.17115262371600509 0 -0.35218645362094092 0.1549120967272431 0 -0.35173785609722502 0.17115262371600509 0 -0.33625609431391512 0.15810264667357779 0 -0.35173785609722502 0.17115262371600509 0 -0.33625609431391512 0.15810264667357779 0 -0.33625609431391512 0.15810264667357779 0 -0.3276076202223816 0.1699978072369048 0 -0.3207743325306055 0.14505266963115029 0 -0.35173785609722502 0.17115262371600509 0 -0.33625609431391512 0.15810264667357779 0 -0.3276076202223816 0.1699978072369048 0 -0.35173785609722502 0.17115262371600509 0 -0.3347144453251914 0.18287352026171719 0 -0.3276076202223816 0.1699978072369048 0 -0.35173785609722502 0.17115262371600509 0 -0.3347144453251914 0.18287352026171719 0 -0.3347144453251914 0.18287352026171719 0 -0.3276076202223816 0.1699978072369048 0 -0.3176910345531585 0.19459441680743031 0 -0.3276076202223816 0.1699978072369048 0 -0.3176910345531585 0.19459441680743031 0 -0.3119688100166248 0.1698192411177577 0 -0.3276076202223816 0.1699978072369048 0 -0.3207743325306055 0.14505266963115029 0 -0.3119688100166248 0.1698192411177577 0 -0.3207743325306055 0.14505266963115029 0 -0.30341904252128749 0.1304681600977658 0 -0.33227125562741427 0.12311613588869411 0 -0.3207743325306055 0.14505266963115029 0 -0.33679221019233291 0.1434997890648344 0 -0.33227125562741427 0.12311613588869411 0 -0.35303199665353258 0.13897454056229519 0 -0.33679221019233291 0.1434997890648344 0 -0.33227125562741427 0.12311613588869411 0 -0.33625609431391512 0.15810264667357779 0 -0.3207743325306055 0.14505266963115029 0 -0.33679221019233291 0.1434997890648344 0 -0.35218645362094092 0.1549120967272431 0 -0.33625609431391512 0.15810264667357779 0 -0.33679221019233291 0.1434997890648344 0 -0.33625609431391512 0.15810264667357779 0 -0.3207743325306055 0.14505266963115029 0 -0.34707880860806911 0.2398175077570607 0 -0.35574979111731359 0.24961628367229191 0 -0.34771120658696059 0.25972103654540202 0 -0.34707880860806911 0.2398175077570607 0 -0.36137354353870998 0.23892335190462041 0 -0.35615847449206811 0.2246438408054966 0 -0.34707880860806911 0.2398175077570607 0 -0.35574979111731359 0.24961628367229191 0 -0.36137354353870998 0.23892335190462041 0 -0.35574979111731359 0.24961628367229191 0 -0.36137354353870998 0.23892335190462041 0 -0.36655771542768217 0.25578858386342729 0 -0.38353470811242368 0.24827838943581121 0 -0.37376185818306151 0.23997046785271869 0 -0.36655771542768217 0.25578858386342729 0 -0.37376185818306151 0.23997046785271869 0 -0.36137354353870998 0.23892335190462041 0 -0.36655771542768217 0.25578858386342729 0 -0.37376185818306151 0.23997046785271869 0 -0.36137354353870998 0.23892335190462041 0 -0.36997881025317653 0.2273300108356392 0 -0.36997881025317653 0.2273300108356392 0 -0.35615847449206811 0.2246438408054966 0 -0.3661723908803598 0.21130053034453031 0 -0.37668617291017742 0.2195424280511272 0 -0.36997881025317653 0.2273300108356392 0 -0.3661723908803598 0.21130053034453031 0 -0.36137354353870998 0.23892335190462041 0 -0.36997881025317653 0.2273300108356392 0 -0.35615847449206811 0.2246438408054966 0 -0.34707880860806911 0.2398175077570607 0 -0.35615847449206811 0.2246438408054966 0 -0.34050807140995909 0.22301243213855149 0 -0.35615847449206811 0.2246438408054966 0 -0.35187472979798762 0.20801690938021269 0 -0.34050807140995909 0.22301243213855149 0 -0.35615847449206811 0.2246438408054966 0 -0.35187472979798762 0.20801690938021269 0 -0.3661723908803598 0.21130053034453031 0 -0.37726323903782039 0.20995648967625169 0 -0.37668617291017742 0.2195424280511272 0 -0.3661723908803598 0.21130053034453031 0 -0.37726323903782039 0.20995648967625169 0 -0.3661723908803598 0.21130053034453031 0 -0.37105784726745877 0.20424500376303301 0 -0.3661723908803598 0.21130053034453031 0 -0.37105784726745877 0.20424500376303301 0 -0.36525299836202618 0.19756021895930551 0 -0.35187472979798762 0.20801690938021269 0 -0.3661723908803598 0.21130053034453031 0 -0.36525299836202618 0.19756021895930551 0 -0.38193752744284931 0.19660870702650601 0 -0.366837691770037 0.18388066537125569 0 -0.36525299836202618 0.19756021895930551 0 -0.366837691770037 0.18388066537125569 0 -0.36525299836202618 0.19756021895930551 0 -0.35072330393942142 0.19082261493437161 0 -0.37872867018819112 0.2003970672808085 0 -0.37105784726745877 0.20424500376303301 0 -0.36525299836202618 0.19756021895930551 0 -0.38193752744284931 0.19660870702650601 0 -0.366837691770037 0.18388066537125569 0 -0.35187472979798762 0.20801690938021269 0 -0.35072330393942142 0.19082261493437161 0 -0.3356832877309367 0.20235667959807091 0 -0.35187472979798762 0.20801690938021269 0 -0.36525299836202618 0.19756021895930551 0 -0.35072330393942142 0.19082261493437161 0 -0.3347144453251914 0.18287352026171719 0 -0.3356832877309367 0.20235667959807091 0 -0.3176910345531585 0.19459441680743031 0 -0.3347144453251914 0.18287352026171719 0 -0.35072330393942142 0.19082261493437161 0 -0.3356832877309367 0.20235667959807091 0 -0.3347144453251914 0.18287352026171719 0 -0.3176910345531585 0.19459441680743031 0 -0.3176910345531585 0.19459441680743031 0 -0.32285049396825671 0.21752970802658719 0 -0.3052522641477563 0.21241649595321699 0 -0.3356832877309367 0.20235667959807091 0 -0.3176910345531585 0.19459441680743031 0 -0.32285049396825671 0.21752970802658719 0 -0.35187472979798762 0.20801690938021269 0 -0.3356832877309367 0.20235667959807091 0 -0.34050807140995909 0.22301243213855149 0 -0.3356832877309367 0.20235667959807091 0 -0.32285049396825671 0.21752970802658719 0 -0.34050807140995909 0.22301243213855149 0 -0.32285049396825671 0.21752970802658719 0 -0.34050807140995909 0.22301243213855149 0 -0.32934284428762772 0.24161535185492769 0 -0.32285049396825671 0.21752970802658719 0 -0.31125265942003988 0.23059776659175971 0 -0.3052522641477563 0.21241649595321699 0 -0.32285049396825671 0.21752970802658719 0 -0.32934284428762772 0.24161535185492769 0 -0.31125265942003988 0.23059776659175971 0 -0.32934284428762772 0.24161535185492769 0 -0.31170249181534632 0.24781551194282769 0 -0.31125265942003988 0.23059776659175971 0 -0.34707880860806911 0.2398175077570607 0 -0.32934284428762772 0.24161535185492769 0 -0.34771120658696059 0.25972103654540202 0 -0.34707880860806911 0.2398175077570607 0 -0.34050807140995909 0.22301243213855149 0 -0.32934284428762772 0.24161535185492769 0 -0.29248558879207343 0.2363423284602168 0 -0.27618004273281549 0.23208484162364351 0 -0.28371253114889933 0.25432098775446499 0 -0.29248558879207343 0.2363423284602168 0 -0.31170249181534632 0.24781551194282769 0 -0.29763042513763899 0.26521954137424653 0 -0.29248558879207343 0.2363423284602168 0 -0.31170249181534632 0.24781551194282769 0 -0.31125265942003988 0.23059776659175971 0 -0.29248558879207343 0.2363423284602168 0 -0.31125265942003988 0.23059776659175971 0 -0.3052522641477563 0.21241649595321699 0 -0.29248558879207343 0.2363423284602168 0 -0.28734075244650792 0.20746511554618721 0 -0.27618004273281549 0.23208484162364351 0 -0.29248558879207343 0.2363423284602168 0 -0.28734075244650792 0.20746511554618721 0 -0.29248558879207343 0.2363423284602168 0 -0.28734075244650792 0.20746511554618721 0 -0.3052522641477563 0.21241649595321699 0 -0.28734075244650792 0.20746511554618721 0 -0.3052522641477563 0.21241649595321699 0 -0.29827049196574129 0.19101872195683209 0 -0.3176910345531585 0.19459441680743031 0 -0.3052522641477563 0.21241649595321699 0 -0.29827049196574129 0.19101872195683209 0 -0.29827049196574129 0.19101872195683209 0 -0.28758779852005739 0.19577432244012691 0 -0.28485957948321189 0.17652422319212091 0 -0.28734075244650792 0.20746511554618721 0 -0.29827049196574129 0.19101872195683209 0 -0.28758779852005739 0.19577432244012691 0 -0.28758779852005739 0.19577432244012691 0 -0.27617976951091411 0.19834191846320259 0 -0.28485957948321189 0.17652422319212091 0 -0.28734075244650792 0.20746511554618721 0 -0.28758779852005739 0.19577432244012691 0 -0.27617976951091411 0.19834191846320259 0 -0.27617976951091411 0.19834191846320259 0 -0.26434672188349501 0.19433585966174299 0 -0.26896102208739731 0.17956632183083959 0 -0.27617976951091411 0.19834191846320259 0 -0.26434672188349501 0.19433585966174299 0 -0.26559453494193058 0.2067661648005851 0 -0.26434672188349501 0.19433585966174299 0 -0.25302444749857173 0.2017653629749171 0 -0.25122994632153939 0.17870893372073721 0 -0.26434672188349501 0.19433585966174299 0 -0.25302444749857173 0.2017653629749171 0 -0.26559453494193058 0.2067661648005851 0 -0.25302444749857173 0.2017653629749171 0 -0.26749995953861799 0.220159613734285 0 -0.23819511699377499 0.21987557740212829 0 -0.25302444749857173 0.2017653629749171 0 -0.26559453494193058 0.2067661648005851 0 -0.26749995953861799 0.220159613734285 0 -0.27617976951091411 0.19834191846320259 0 -0.26936085319832692 0.22017765039183909 0 -0.26749995953861799 0.220159613734285 0 -0.27617976951091411 0.19834191846320259 0 -0.26749995953861799 0.220159613734285 0 -0.27617976951091411 0.19834191846320259 0 -0.26559453494193058 0.2067661648005851 0 -0.26749995953861799 0.220159613734285 0 -0.28734075244650792 0.20746511554618721 0 -0.27617976951091411 0.19834191846320259 0 -0.26936085319832692 0.22017765039183909 0 -0.28734075244650792 0.20746511554618721 0 -0.27618004273281549 0.23208484162364351 0 -0.26936085319832692 0.22017765039183909 0 -0.27618004273281549 0.23208484162364351 0 -0.26749995953861799 0.220159613734285 0 -0.26111738147663233 0.23620295381254569 0 -0.27618004273281549 0.23208484162364351 0 -0.26936085319832692 0.22017765039183909 0 -0.26749995953861799 0.220159613734285 0 -0.26936085319832692 0.22017765039183909 0 -0.26749995953861799 0.220159613734285 0 -0.26749995953861799 0.220159613734285 0 -0.24862843268610049 0.23267987567415491 0 -0.23819511699377499 0.21987557740212829 0 -0.26749995953861799 0.220159613734285 0 -0.23819511699377499 0.21987557740212829 0 -0.26749995953861799 0.220159613734285 0 -0.26111738147663233 0.23620295381254569 0 -0.26749995953861799 0.220159613734285 0 -0.26111738147663233 0.23620295381254569 0 -0.24862843268610049 0.23267987567415491 0 -0.26111738147663233 0.23620295381254569 0 -0.25473480341465138 0.25224629389080822 0 -0.24862843268610049 0.23267987567415491 0 -0.26111738147663233 0.23620295381254569 0 -0.26992659483967979 0.24809762378176131 0 -0.25473480341465138 0.25224629389080822 0 -0.26111738147663233 0.23620295381254569 0 -0.25473480341465138 0.25224629389080822 0 -0.27618004273281549 0.23208484162364351 0 -0.26111738147663233 0.23620295381254569 0 -0.26992659483967979 0.24809762378176131 0 -0.27618004273281549 0.23208484162364351 0 -0.26992659483967979 0.24809762378176131 0 -0.28371253114889933 0.25432098775446499 0 -0.28860958807078091 0.1458066134395368 0 -0.30456881555365278 0.1528732843201063 0 -0.29612137681325151 0.16678691379308161 0 -0.28860958807078091 0.1458066134395368 0 -0.30341904252128749 0.1304681600977658 0 -0.277861891666764 0.13112475610556509 0 -0.3207743325306055 0.14505266963115029 0 -0.30341904252128749 0.1304681600977658 0 -0.30456881555365278 0.1528732843201063 0 -0.28860958807078091 0.1458066134395368 0 -0.30341904252128749 0.1304681600977658 0 -0.30456881555365278 0.1528732843201063 0 -0.3207743325306055 0.14505266963115029 0 -0.30456881555365278 0.1528732843201063 0 -0.3119688100166248 0.1698192411177577 0 -0.30456881555365278 0.1528732843201063 0 -0.3119688100166248 0.1698192411177577 0 -0.29612137681325151 0.16678691379308161 0 -0.3176910345531585 0.19459441680743031 0 -0.29827049196574129 0.19101872195683209 0 -0.3119688100166248 0.1698192411177577 0 -0.29827049196574129 0.19101872195683209 0 -0.3119688100166248 0.1698192411177577 0 -0.29612137681325151 0.16678691379308161 0 -0.29827049196574129 0.19101872195683209 0 -0.28485957948321189 0.17652422319212091 0 -0.29612137681325151 0.16678691379308161 0 -0.28860958807078091 0.1458066134395368 0 -0.29612137681325151 0.16678691379308161 0 -0.28095019763281431 0.1623246896969826 0 -0.28485957948321189 0.17652422319212091 0 -0.29612137681325151 0.16678691379308161 0 -0.28095019763281431 0.1623246896969826 0 -0.28095019763281431 0.1623246896969826 0 -0.26896102208739731 0.17956632183083959 0 -0.26484637756340229 0.15421505759267851 0 -0.27617976951091411 0.19834191846320259 0 -0.28485957948321189 0.17652422319212091 0 -0.27617976951091411 0.19834191846320259 0 -0.28485957948321189 0.17652422319212091 0 -0.26896102208739731 0.17956632183083959 0 -0.28485957948321189 0.17652422319212091 0 -0.28095019763281431 0.1623246896969826 0 -0.26896102208739731 0.17956632183083959 0 -0.26434672188349501 0.19433585966174299 0 -0.26896102208739731 0.17956632183083959 0 -0.25122994632153939 0.17870893372073721 0 -0.25122994632153939 0.17870893372073721 0 -0.26484637756340229 0.15421505759267851 0 -0.2383932075745617 0.1561079646044177 0 -0.26896102208739731 0.17956632183083959 0 -0.25122994632153939 0.17870893372073721 0 -0.26484637756340229 0.15421505759267851 0 -0.28860958807078091 0.1458066134395368 0 -0.28095019763281431 0.1623246896969826 0 -0.26484637756340229 0.15421505759267851 0 -0.28860958807078091 0.1458066134395368 0 -0.26484637756340229 0.15421505759267851 0 -0.277861891666764 0.13112475610556509 0 -0.26484637756340229 0.15421505759267851 0 -0.277861891666764 0.13112475610556509 0 -0.26057171928469269 0.12928154570012099 0 -0.26484637756340229 0.15421505759267851 0 -0.26057171928469269 0.12928154570012099 0 -0.2461642204590781 0.1379457392988977 0 -0.26057171928469269 0.12928154570012099 0 -0.2487639911670752 0.1184397455211325 0 -0.2461642204590781 0.1379457392988977 0 -0.26057171928469269 0.12928154570012099 0 -0.26423750599168389 0.1124888178596094 0 -0.2487639911670752 0.1184397455211325 0 -0.26423750599168389 0.1124888178596094 0 -0.24447095883536121 0.099769624678117563 0 -0.2487639911670752 0.1184397455211325 0 -0.26423750599168389 0.1124888178596094 0 -0.26954866955084672 0.093021534393552707 0 -0.24447095883536121 0.099769624678117563 0 -0.26423750599168389 0.1124888178596094 0 -0.28703898190810501 0.1100608397331336 0 -0.26954866955084672 0.093021534393552707 0 -0.277861891666764 0.13112475610556509 0 -0.26423750599168389 0.1124888178596094 0 -0.28703898190810501 0.1100608397331336 0 -0.277861891666764 0.13112475610556509 0 -0.26057171928469269 0.12928154570012099 0 -0.26423750599168389 0.1124888178596094 0 -0.30341904252128749 0.1304681600977658 0 -0.277861891666764 0.13112475610556509 0 -0.28703898190810501 0.1100608397331336 0 -0.28703898190810501 0.1100608397331336 0 -0.29325429288252508 0.086521531473763638 0 -0.26954866955084672 0.093021534393552707 0 -0.29325429288252508 0.086521531473763638 0 -0.31276277425496968 0.10481883368122891 0 -0.28703898190810501 0.1100608397331336 0 -0.29325429288252508 0.086521531473763638 0 -0.31276277425496968 0.10481883368122891 0 -0.30341904252128749 0.1304681600977658 0 -0.28703898190810501 0.1100608397331336 0 -0.31276277425496968 0.10481883368122891 0 -0.31135038609595189 0.065765917511284411 0 -0.29448355634990853 0.068932249514179353 0 -0.2969271754968632 0.053476502314938099 0 -0.31135038609595189 0.065765917511284411 0 -0.3082932820367712 0.081641031644008294 0 -0.29448355634990853 0.068932249514179353 0 -0.3082932820367712 0.081641031644008294 0 -0.29325429288252508 0.086521531473763638 0 -0.29448355634990853 0.068932249514179353 0 -0.3082932820367712 0.081641031644008294 0 -0.29325429288252508 0.086521531473763638 0 -0.31276277425496968 0.10481883368122891 0 -0.29325429288252508 0.086521531473763638 0 -0.27374581151008048 0.068224229266298397 0 -0.29325429288252508 0.086521531473763638 0 -0.29448355634990853 0.068932249514179353 0 -0.27374581151008048 0.068224229266298397 0 -0.29448355634990853 0.068932249514179353 0 -0.27374581151008048 0.068224229266298397 0 -0.27939873852578567 0.050408973517318857 0 -0.29325429288252508 0.086521531473763638 0 -0.27374581151008048 0.068224229266298397 0 -0.26954866955084672 0.093021534393552707 0 -0.27374581151008048 0.068224229266298397 0 -0.26954866955084672 0.093021534393552707 0 -0.25286102851928272 0.078937341706141001 0 -0.26954866955084672 0.093021534393552707 0 -0.25286102851928272 0.078937341706141001 0 -0.24447095883536121 0.099769624678117563 0 -0.27374581151008048 0.068224229266298397 0 -0.25286102851928272 0.078937341706141001 0 -0.25423733013763611 0.049926927058833247 0 -0.27374581151008048 0.068224229266298397 0 -0.25423733013763611 0.049926927058833247 0 -0.25423733013763611 0.049926927058833247 0 -0.27221249802500069 0.03271978061470094 0 -0.25508342351913738 0.031033186514931262 0 -0.25423733013763611 0.049926927058833247 0 -0.27221249802500069 0.03271978061470094 0 -0.27939873852578567 0.050408973517318857 0 -0.27374581151008048 0.068224229266298397 0 -0.25423733013763611 0.049926927058833247 0 -0.27939873852578567 0.050408973517318857 0 -0.25837076835969591 0.0062747578328909252 0 -0.25331753871642138 0.02035655812322067 0 -0.24020370315875089 0.0145951914189008 0 -0.26531916069329109 -0.0055041925913227978 0 -0.25837076835969591 0.0062747578328909252 0 -0.27216223606456191 0.0039542708222756054 0 -0.25064685395634662 -0.0047082398918306921 0 -0.25837076835969591 0.0062747578328909252 0 -0.24591952587856611 0.0065679131930172973 0 -0.25837076835969591 0.0062747578328909252 0 -0.25331753871642138 0.02035655812322067 0 -0.26682500346871341 0.01725611695587825 0 -0.27221249802500069 0.03271978061470094 0 -0.25508342351913738 0.031033186514931262 0 -0.26682500346871341 0.01725611695587825 0 -0.25331753871642138 0.02035655812322067 0 -0.25508342351913738 0.031033186514931262 0 -0.26682500346871341 0.01725611695587825 0 -0.25331753871642138 0.02035655812322067 0 -0.25508342351913738 0.031033186514931262 0 -0.24390295395024719 0.024986288298914569 0 -0.27221249802500069 0.03271978061470094 0 -0.26682500346871341 0.01725611695587825 0 -0.28098262833333881 0.015529902985678761 0 -0.26682500346871341 0.01725611695587825 0 -0.28098262833333881 0.015529902985678761 0 -0.27216223606456191 0.0039542708222756054 0 -0.25837076835969591 0.0062747578328909252 0 -0.26682500346871341 0.01725611695587825 0 -0.27216223606456191 0.0039542708222756054 0 -0.28098262833333881 0.015529902985678761 0 -0.27216223606456191 0.0039542708222756054 0 -0.28576025019424761 0.000126971543058669 0 -0.28576025019424761 0.000126971543058669 0 -0.29347805291879658 0.01343176295195622 0 -0.30009485809453529 0.00064403400960046239 0 -0.28098262833333881 0.015529902985678761 0 -0.28576025019424761 0.000126971543058669 0 -0.29347805291879658 0.01343176295195622 0 -0.28098262833333881 0.015529902985678761 0 -0.29347805291879658 0.01343176295195622 0 -0.2940692034750203 0.029673554448334201 0 -0.27221249802500069 0.03271978061470094 0 -0.28098262833333881 0.015529902985678761 0 -0.2940692034750203 0.029673554448334201 0 -0.29347805291879658 0.01343176295195622 0 -0.2940692034750203 0.029673554448334201 0 -0.30533073417283257 0.019082536024783311 0 -0.2940692034750203 0.029673554448334201 0 -0.30533073417283257 0.019082536024783311 0 -0.31649779992274141 0.03057170325756527 0 -0.30533073417283257 0.019082536024783311 0 -0.30009485809453529 0.00064403400960046239 0 -0.31698132289782788 0.011002909864497239 0 -0.31487099677836922 -0.003370318319593731 0 -0.30009485809453529 0.00064403400960046239 0 -0.31698132289782788 0.011002909864497239 0 -0.29347805291879658 0.01343176295195622 0 -0.30533073417283257 0.019082536024783311 0 -0.30009485809453529 0.00064403400960046239 0 -0.29448355634990853 0.068932249514179353 0 -0.27939873852578567 0.050408973517318857 0 -0.2969271754968632 0.053476502314938099 0 -0.27221249802500069 0.03271978061470094 0 -0.27939873852578567 0.050408973517318857 0 -0.2940692034750203 0.029673554448334201 0 -0.27939873852578567 0.050408973517318857 0 -0.2940692034750203 0.029673554448334201 0 -0.2969271754968632 0.053476502314938099 0 -0.2940692034750203 0.029673554448334201 0 -0.31117730586257869 0.045472672510572923 0 -0.31649779992274141 0.03057170325756527 0 -0.2940692034750203 0.029673554448334201 0 -0.31117730586257869 0.045472672510572923 0 -0.2969271754968632 0.053476502314938099 0 -0.31135038609595189 0.065765917511284411 0 -0.31117730586257869 0.045472672510572923 0 -0.2969271754968632 0.053476502314938099 0 -0.31117730586257869 0.045472672510572923 0 -0.32366355932247798 0.05385305152117454 0 -0.32723707877233382 0.042178223089606857 0 -0.31135038609595189 0.065765917511284411 0 -0.31117730586257869 0.045472672510572923 0 -0.32366355932247798 0.05385305152117454 0 -0.31135038609595189 0.065765917511284411 0 -0.32366355932247798 0.05385305152117454 0 -0.32949113630840998 0.067209875027750568 0 -0.32723707877233382 0.042178223089606857 0 -0.31649779992274141 0.03057170325756527 0 -0.33401877061155288 0.031255411650699262 0 -0.31117730586257869 0.045472672510572923 0 -0.32723707877233382 0.042178223089606857 0 -0.31649779992274141 0.03057170325756527 0 -0.32723707877233382 0.042178223089606857 0 -0.33880458567962868 0.041078005734192791 0 -0.33663106293513972 0.053471831873954323 0 -0.32723707877233382 0.042178223089606857 0 -0.33880458567962868 0.041078005734192791 0 -0.33401877061155288 0.031255411650699262 0 -0.33880458567962868 0.041078005734192791 0 -0.33401877061155288 0.031255411650699262 0 -0.34835831869348699 0.031355744658741191 0 -0.33663106293513972 0.053471831873954323 0 -0.34727442260748159 0.056293579573269033 0 -0.34693963477214212 0.046420506598594848 0 -0.33880458567962868 0.041078005734192791 0 -0.33663106293513972 0.053471831873954323 0 -0.34693963477214212 0.046420506598594848 0 -0.33663106293513972 0.053471831873954323 0 -0.32949113630840998 0.067209875027750568 0 -0.34289979374634671 0.065213765768455972 0 -0.33663106293513972 0.053471831873954323 0 -0.34727442260748159 0.056293579573269033 0 -0.34289979374634671 0.065213765768455972 0 -0.32366355932247798 0.05385305152117454 0 -0.33663106293513972 0.053471831873954323 0 -0.32949113630840998 0.067209875027750568 0 -0.32366355932247798 0.05385305152117454 0 -0.32723707877233382 0.042178223089606857 0 -0.33663106293513972 0.053471831873954323 0 -0.31698132289782788 0.011002909864497239 0 -0.33454431227762088 0.016783381480507412 0 -0.32877656592731658 0.00059326591614831232 0 -0.31487099677836922 -0.003370318319593731 0 -0.31698132289782788 0.011002909864497239 0 -0.32877656592731658 0.00059326591614831232 0 -0.30533073417283257 0.019082536024783311 0 -0.31698132289782788 0.011002909864497239 0 -0.31649779992274141 0.03057170325756527 0 -0.31698132289782788 0.011002909864497239 0 -0.31649779992274141 0.03057170325756527 0 -0.33454431227762088 0.016783381480507412 0 -0.31649779992274141 0.03057170325756527 0 -0.33401877061155288 0.031255411650699262 0 -0.33454431227762088 0.016783381480507412 0 -0.33401877061155288 0.031255411650699262 0 -0.33454431227762088 0.016783381480507412 0 -0.34835831869348699 0.031355744658741191 0 -0.33454431227762088 0.016783381480507412 0 -0.34835831869348699 0.031355744658741191 0 -0.33454431227762088 0.016783381480507412 0 -0.3403814197383756 0.0055432326035753784 0 -0.35345374599697149 0.012691748087744131 0 -0.33454431227762088 0.016783381480507412 0 -0.3403814197383756 0.0055432326035753784 0 -0.32877656592731658 0.00059326591614831232 0 -0.34475105475159351 -0.0078954650700983463 0 -0.3403814197383756 0.0055432326035753784 0 -0.35345374599697149 0.012691748087744131 0 -0.34475105475159351 -0.0078954650700983463 0 -0.35345374599697149 0.012691748087744131 0 -0.3699391971918341 0.002565640923137285 0 -0.33454431227762088 0.016783381480507412 0 -0.35345374599697149 0.012691748087744131 0 -0.34835831869348699 0.031355744658741191 0 -0.35345374599697149 0.012691748087744131 0 -0.34835831869348699 0.031355744658741191 0 -0.36095069352335779 0.032035332289734132 0 -0.38259525682936801 0.023039200665305331 0 -0.36852534481365917 0.02219079722054618 0 -0.3699391971918341 0.002565640923137285 0 -0.35345374599697149 0.012691748087744131 0 -0.36852534481365917 0.02219079722054618 0 -0.36095069352335779 0.032035332289734132 0 -0.36852534481365917 0.02219079722054618 0 -0.36095069352335779 0.032035332289734132 0 -0.37463501926542542 0.03513036762076939 0 -0.35345374599697149 0.012691748087744131 0 -0.36852534481365917 0.02219079722054618 0 -0.3699391971918341 0.002565640923137285 0 -0.35580910938596588 0.052799095727718279 0 -0.3547603093311501 0.043524782023693559 0 -0.36217232510935288 0.04592810783697529 0 -0.35580910938596588 0.052799095727718279 0 -0.34693963477214212 0.046420506598594848 0 -0.3547603093311501 0.043524782023693559 0 -0.35580910938596588 0.052799095727718279 0 -0.36139557363500158 0.061137738146499199 0 -0.35292228717753649 0.06268274256123231 0 -0.35580910938596588 0.052799095727718279 0 -0.34727442260748159 0.056293579573269033 0 -0.35292228717753649 0.06268274256123231 0 -0.34727442260748159 0.056293579573269033 0 -0.35292228717753649 0.06268274256123231 0 -0.34289979374634671 0.065213765768455972 0 -0.35580910938596588 0.052799095727718279 0 -0.34727442260748159 0.056293579573269033 0 -0.34693963477214212 0.046420506598594848 0 -0.34693963477214212 0.046420506598594848 0 -0.34835831869348699 0.031355744658741191 0 -0.3547603093311501 0.043524782023693559 0 -0.33880458567962868 0.041078005734192791 0 -0.34693963477214212 0.046420506598594848 0 -0.34835831869348699 0.031355744658741191 0 -0.34835831869348699 0.031355744658741191 0 -0.36217232510935288 0.04592810783697529 0 -0.34835831869348699 0.031355744658741191 0 -0.36217232510935288 0.04592810783697529 0 -0.36095069352335779 0.032035332289734132 0 -0.34835831869348699 0.031355744658741191 0 -0.3547603093311501 0.043524782023693559 0 -0.36217232510935288 0.04592810783697529 0 -0.3547603093311501 0.043524782023693559 0 -0.36217232510935288 0.04592810783697529 0 -0.37868160906569193 0.05128119793801935 0 -0.36217232510935288 0.04592810783697529 0 -0.37463501926542542 0.03513036762076939 0 -0.36217232510935288 0.04592810783697529 0 -0.36095069352335779 0.032035332289734132 0 -0.37463501926542542 0.03513036762076939 0 -0.37869921597754369 0.063362286502310974 0 -0.36217232510935288 0.04592810783697529 0 -0.37622248801375918 0.061959835596205631 0 -0.37869921597754369 0.063362286502310974 0 -0.36217232510935288 0.04592810783697529 0 -0.37868160906569193 0.05128119793801935 0 -0.37869921597754369 0.063362286502310974 0 -0.36217232510935288 0.04592810783697529 0 -0.37868160906569193 0.05128119793801935 0 -0.36217232510935288 0.04592810783697529 0 -0.37622248801375918 0.061959835596205631 0 -0.36217232510935288 0.04592810783697529 0 -0.36466898989846219 0.056686054505810358 0 -0.35580910938596588 0.052799095727718279 0 -0.36217232510935288 0.04592810783697529 0 -0.36466898989846219 0.056686054505810358 0 -0.35580910938596588 0.052799095727718279 0 -0.36139557363500158 0.061137738146499199 0 -0.36466898989846219 0.056686054505810358 0 -0.36139557363500158 0.061137738146499199 0 -0.36466898989846219 0.056686054505810358 0 -0.36774545334823111 0.061605495221653657 0 -0.37622248801375918 0.061959835596205631 0 -0.36466898989846219 0.056686054505810358 0 -0.36774545334823111 0.061605495221653657 0 -0.36774545334823111 0.061605495221653657 0 -0.36994584660152707 0.07083757178714499 0 -0.36567675132234961 0.066843618126941159 0 -0.37622248801375918 0.061959835596205631 0 -0.36774545334823111 0.061605495221653657 0 -0.36994584660152707 0.07083757178714499 0 -0.37622248801375918 0.061959835596205631 0 -0.36994584660152707 0.07083757178714499 0 -0.3728596014650033 0.08113890151639723 0 -0.36994584660152707 0.07083757178714499 0 -0.36705216932768941 0.078058355389832343 0 -0.3728596014650033 0.08113890151639723 0 -0.36994584660152707 0.07083757178714499 0 -0.36705216932768941 0.078058355389832343 0 -0.36567675132234961 0.066843618126941159 0 -0.36705216932768941 0.078058355389832343 0 -0.35881321433685748 0.07004282280500318 0 -0.35549037333704048 0.081249359258351861 0 -0.36705216932768941 0.078058355389832343 0 -0.36567675132234961 0.066843618126941159 0 -0.35881321433685748 0.07004282280500318 0 -0.36139557363500158 0.061137738146499199 0 -0.36567675132234961 0.066843618126941159 0 -0.35881321433685748 0.07004282280500318 0 -0.36139557363500158 0.061137738146499199 0 -0.36774545334823111 0.061605495221653657 0 -0.36567675132234961 0.066843618126941159 0 -0.35881321433685748 0.07004282280500318 0 -0.35292228717753649 0.06268274256123231 0 -0.35029234083498989 0.07163369169554798 0 -0.36139557363500158 0.061137738146499199 0 -0.35881321433685748 0.07004282280500318 0 -0.35292228717753649 0.06268274256123231 0 -0.35881321433685748 0.07004282280500318 0 -0.35029234083498989 0.07163369169554798 0 -0.35549037333704048 0.081249359258351861 0 -0.35029234083498989 0.07163369169554798 0 -0.34289979374634671 0.065213765768455972 0 -0.3407875126145225 0.079990873878981669 0 -0.35029234083498989 0.07163369169554798 0 -0.35549037333704048 0.081249359258351861 0 -0.3407875126145225 0.079990873878981669 0 -0.35292228717753649 0.06268274256123231 0 -0.35029234083498989 0.07163369169554798 0 -0.34289979374634671 0.065213765768455972 0 -0.35549037333704048 0.081249359258351861 0 -0.36624675155828551 0.092679539986465109 0 -0.34975025134989829 0.095090871794280885 0 -0.35549037333704048 0.081249359258351861 0 -0.34975025134989829 0.095090871794280885 0 -0.3407875126145225 0.079990873878981669 0 -0.36705216932768941 0.078058355389832343 0 -0.35549037333704048 0.081249359258351861 0 -0.36624675155828551 0.092679539986465109 0 -0.36705216932768941 0.078058355389832343 0 -0.36624675155828551 0.092679539986465109 0 -0.3728596014650033 0.08113890151639723 0 -0.36624675155828551 0.092679539986465109 0 -0.3728596014650033 0.08113890151639723 0 -0.37407990962534859 0.091485441523688704 0 -0.36624675155828551 0.092679539986465109 0 -0.37487537076449529 0.1035958206050326 0 -0.36175185370462881 0.1066845005989845 0 -0.36624675155828551 0.092679539986465109 0 -0.37407990962534859 0.091485441523688704 0 -0.37487537076449529 0.1035958206050326 0 -0.37487537076449529 0.1035958206050326 0 -0.36175185370462881 0.1066845005989845 0 -0.37202121306172109 0.11669332115117791 0 -0.36175185370462881 0.1066845005989845 0 -0.37202121306172109 0.11669332115117791 0 -0.35586260728765601 0.12156183606264739 0 -0.37309794032827931 0.1327713578916784 0 -0.37202121306172109 0.11669332115117791 0 -0.35586260728765601 0.12156183606264739 0 -0.36175185370462881 0.1066845005989845 0 -0.34478088940608081 0.1100579250116718 0 -0.35586260728765601 0.12156183606264739 0 -0.34478088940608081 0.1100579250116718 0 -0.35586260728765601 0.12156183606264739 0 -0.33227125562741427 0.12311613588869411 0 -0.36624675155828551 0.092679539986465109 0 -0.36175185370462881 0.1066845005989845 0 -0.34975025134989829 0.095090871794280885 0 -0.36175185370462881 0.1066845005989845 0 -0.34478088940608081 0.1100579250116718 0 -0.34975025134989829 0.095090871794280885 0 -0.34478088940608081 0.1100579250116718 0 -0.34975025134989829 0.095090871794280885 0 -0.33281010332826788 0.098684751411114796 0 -0.34478088940608081 0.1100579250116718 0 -0.33281010332826788 0.098684751411114796 0 -0.33227125562741427 0.12311613588869411 0 -0.33227125562741427 0.12311613588869411 0 -0.31276277425496968 0.10481883368122891 0 -0.30341904252128749 0.1304681600977658 0 -0.33227125562741427 0.12311613588869411 0 -0.31276277425496968 0.10481883368122891 0 -0.33281010332826788 0.098684751411114796 0 -0.33227125562741427 0.12311613588869411 0 -0.31276277425496968 0.10481883368122891 0 -0.33281010332826788 0.098684751411114796 0 -0.31276277425496968 0.10481883368122891 0 -0.32299663579622651 0.083159839322264367 0 -0.3082932820367712 0.081641031644008294 0 -0.31276277425496968 0.10481883368122891 0 -0.32299663579622651 0.083159839322264367 0 -0.31135038609595189 0.065765917511284411 0 -0.3082932820367712 0.081641031644008294 0 -0.32299663579622651 0.083159839322264367 0 -0.31135038609595189 0.065765917511284411 0 -0.32299663579622651 0.083159839322264367 0 -0.32949113630840998 0.067209875027750568 0 -0.32299663579622651 0.083159839322264367 0 -0.32949113630840998 0.067209875027750568 0 -0.3407875126145225 0.079990873878981669 0 -0.32949113630840998 0.067209875027750568 0 -0.34289979374634671 0.065213765768455972 0 -0.3407875126145225 0.079990873878981669 0 -0.33281010332826788 0.098684751411114796 0 -0.32299663579622651 0.083159839322264367 0 -0.3407875126145225 0.079990873878981669 0 -0.34975025134989829 0.095090871794280885 0 -0.33281010332826788 0.098684751411114796 0 -0.3407875126145225 0.079990873878981669 0 -0.38025997228704678 0.47365476802162182 0 -0.4023120825116614 0.45459839522437889 0 -0.40771672693504307 0.4789636474951518 0 -0.39498073909865711 0.5 0 -0.38025997228704678 0.47365476802162182 0 -0.40771672693504307 0.4789636474951518 0 -0.39498073909865711 0.5 0 -0.38025997228704678 0.47365476802162182 0 -0.36912632119564531 0.5 0 -0.38025997228704678 0.47365476802162182 0 -0.38534571763577491 0.44823181627309089 0 -0.4023120825116614 0.45459839522437889 0 -0.38025997228704678 0.47365476802162182 0 -0.37053028595091808 0.44955649907799872 0 -0.38025997228704678 0.47365476802162182 0 -0.38534571763577491 0.44823181627309089 0 -0.37053028595091808 0.44955649907799872 0 -0.38534571763577491 0.44823181627309089 0 -0.3783215141060976 0.43001970094174968 0 -0.37053028595091808 0.44955649907799872 0 -0.38534571763577491 0.44823181627309089 0 -0.4023120825116614 0.45459839522437889 0 -0.39530473332315019 0.43332971809970572 0 -0.4023120825116614 0.45459839522437889 0 -0.40840155048290422 0.43926930849325441 0 -0.39530473332315019 0.43332971809970572 0 -0.4023120825116614 0.45459839522437889 0 -0.42148536917429591 0.46081011490206691 0 -0.41692768153427828 0.44768362945927509 0 -0.4023120825116614 0.45459839522437889 0 -0.42148536917429591 0.46081011490206691 0 -0.40771672693504307 0.4789636474951518 0 -0.4023120825116614 0.45459839522437889 0 -0.40840155048290422 0.43926930849325441 0 -0.41692768153427828 0.44768362945927509 0 -0.40840155048290422 0.43926930849325441 0 -0.41692768153427828 0.44768362945927509 0 -0.41951110646171191 0.43313227401875198 0 -0.41692768153427828 0.44768362945927509 0 -0.42920866175906858 0.44475334382028381 0 -0.41951110646171191 0.43313227401875198 0 -0.42148536917429591 0.46081011490206691 0 -0.41692768153427828 0.44768362945927509 0 -0.42920866175906858 0.44475334382028381 0 -0.42148536917429591 0.46081011490206691 0 -0.42920866175906858 0.44475334382028381 0 -0.44113294506365369 0.46075681919817679 0 -0.42148536917429591 0.46081011490206691 0 -0.4307238152913333 0.48019504287251219 0 -0.44113294506365369 0.46075681919817679 0 -0.42148536917429591 0.46081011490206691 0 -0.4307238152913333 0.48019504287251219 0 -0.40771672693504307 0.4789636474951518 0 -0.39498073909865711 0.5 0 -0.40771672693504307 0.4789636474951518 0 -0.42083515700166879 0.5 0 -0.4307238152913333 0.48019504287251219 0 -0.40771672693504307 0.4789636474951518 0 -0.42083515700166879 0.5 0 -0.4307238152913333 0.48019504287251219 0 -0.42083515700166879 0.5 0 -0.44668957490468081 0.5 0 -0.4307238152913333 0.48019504287251219 0 -0.44668957490468081 0.5 0 -0.45177355402036601 0.4820999893133136 0 -0.4307238152913333 0.48019504287251219 0 -0.45177355402036601 0.4820999893133136 0 -0.44113294506365369 0.46075681919817679 0 -0.45177355402036601 0.4820999893133136 0 -0.46777744203446942 0.4695480844958787 0 -0.44113294506365369 0.46075681919817679 0 -0.45177355402036601 0.4820999893133136 0 -0.46777744203446942 0.4695480844958787 0 -0.47254399280769283 0.5 0 -0.44668957490468081 0.5 0 -0.45177355402036601 0.4820999893133136 0 -0.47254399280769283 0.5 0 -0.46777744203446942 0.4695480844958787 0 -0.47254399280769283 0.5 0 -0.48397304084458231 0.48518226431358952 0 -0.49480896925791479 0.47706553754398501 0 -0.5 0.5 0 -0.5 0.45874317449881119 0 -0.46777744203446942 0.4695480844958787 0 -0.48397304084458231 0.48518226431358952 0 -0.48334006758289649 0.46911202950055397 0 -0.48397304084458231 0.48518226431358952 0 -0.48334006758289649 0.46911202950055397 0 -0.49480896925791479 0.47706553754398501 0 -0.49480896925791479 0.47706553754398501 0 -0.49839841071070468 0.50000000000000178 0 -0.47254399280769283 0.5 0 -0.48397304084458231 0.48518226431358952 0 -0.49839841071070468 0.50000000000000178 0 -0.49480896925791479 0.47706553754398501 0 -0.49839841071070468 0.50000000000000178 0 -0.5 0.5 0 -0.48397304084458231 0.48518226431358952 0 -0.49480896925791479 0.47706553754398501 0 -0.49839841071070468 0.50000000000000178 0 -0.49121952780512518 0.45413107508796807 0 -0.50000000000000289 0.42814651471654958 0 -0.48459866404080099 0.43741802168965549 0 -0.5 0.45874317449881119 0 -0.49121952780512518 0.45413107508796807 0 -0.50000000000000289 0.42814651471654958 0 -0.49121952780512518 0.45413107508796807 0 -0.47793471918355113 0.45467709196653588 0 -0.48459866404080099 0.43741802168965549 0 -0.49480896925791479 0.47706553754398501 0 -0.49121952780512518 0.45413107508796807 0 -0.48334006758289649 0.46911202950055397 0 -0.49480896925791479 0.47706553754398501 0 -0.49121952780512518 0.45413107508796807 0 -0.49480896925791479 0.47706553754398501 0 -0.5 0.45874317449881119 0 -0.49121952780512518 0.45413107508796807 0 -0.48334006758289649 0.46911202950055397 0 -0.49121952780512518 0.45413107508796807 0 -0.47793471918355113 0.45467709196653588 0 -0.46777744203446942 0.4695480844958787 0 -0.47793471918355113 0.45467709196653588 0 -0.46376093870601581 0.44344973089652617 0 -0.46777744203446942 0.4695480844958787 0 -0.48334006758289649 0.46911202950055397 0 -0.47793471918355113 0.45467709196653588 0 -0.47793471918355113 0.45467709196653588 0 -0.46376093870601581 0.44344973089652617 0 -0.48459866404080099 0.43741802168965549 0 -0.46777744203446942 0.4695480844958787 0 -0.46376093870601581 0.44344973089652617 0 -0.44113294506365369 0.46075681919817679 0 -0.42920866175906858 0.44475334382028381 0 -0.44113294506365369 0.46075681919817679 0 -0.44407270095090301 0.43627992082648492 0 -0.44113294506365369 0.46075681919817679 0 -0.44407270095090301 0.43627992082648492 0 -0.46376093870601581 0.44344973089652617 0 -0.44113294506365369 0.46075681919817679 0 -0.44407270095090301 0.43627992082648492 0 -0.44407270095090301 0.43627992082648492 0 -0.44703766216397139 0.4115931587034577 0 -0.44407270095090301 0.43627992082648492 0 -0.44703766216397139 0.4115931587034577 0 -0.455222888594985 0.42464363180294368 0 -0.44407270095090301 0.43627992082648492 0 -0.43914466295216559 0.42245004378379608 0 -0.44703766216397139 0.4115931587034577 0 -0.44407270095090301 0.43627992082648492 0 -0.43914466295216559 0.42245004378379608 0 -0.43212216736956849 0.42985730451694693 0 -0.4387684941866713 0.41148354747001298 0 -0.44703766216397139 0.4115931587034577 0 -0.42714094232290201 0.41424981309620051 0 -0.4387684941866713 0.41148354747001298 0 -0.44290594575221509 0.4103017925080949 0 -0.44703766216397139 0.4115931587034577 0 -0.44290594575221509 0.4103017925080949 0 -0.44703766216397139 0.4115931587034577 0 -0.43915551006466902 0.40380663480199491 0 -0.43781515254161268 0.40795086954569409 0 -0.44290594575221509 0.4103017925080949 0 -0.43915551006466902 0.40380663480199491 0 -0.43781515254161268 0.40795086954569409 0 -0.4387684941866713 0.41148354747001298 0 -0.44290594575221509 0.4103017925080949 0 -0.44290594575221509 0.4103017925080949 0 -0.44703766216397139 0.4115931587034577 0 -0.43914466295216559 0.42245004378379608 0 -0.43832298148204207 0.4144521146197771 0 -0.44703766216397139 0.4115931587034577 0 -0.44703766216397139 0.4115931587034577 0 -0.46821464907634541 0.40919238472479402 0 -0.44703766216397139 0.4115931587034577 0 -0.46862035518984257 0.41165833900145199 0 -0.46821464907634541 0.40919238472479402 0 -0.44703766216397139 0.4115931587034577 0 -0.46862035518984257 0.41165833900145199 0 -0.47375611549328578 0.41994399985115438 0 -0.44703766216397139 0.4115931587034577 0 -0.46821464907634541 0.40919238472479402 0 -0.45568815448705752 0.40217519946070879 0 -0.44703766216397139 0.4115931587034577 0 -0.455222888594985 0.42464363180294368 0 -0.47375611549328578 0.41994399985115438 0 -0.44703766216397139 0.4115931587034577 0 -0.47375611549328578 0.41994399985115438 0 -0.46862035518984257 0.41165833900145199 0 -0.46821464907634541 0.40919238472479402 0 -0.46376093870601581 0.44344973089652617 0 -0.44407270095090301 0.43627992082648492 0 -0.455222888594985 0.42464363180294368 0 -0.46376093870601581 0.44344973089652617 0 -0.455222888594985 0.42464363180294368 0 -0.47375611549328578 0.41994399985115438 0 -0.46376093870601581 0.44344973089652617 0 -0.47375611549328578 0.41994399985115438 0 -0.48459866404080099 0.43741802168965549 0 -0.46862035518984257 0.41165833900145199 0 -0.47375611549328578 0.41994399985115438 0 -0.49379771216864571 0.40604232792843531 0 -0.46821464907634541 0.40919238472479402 0 -0.49379771216864571 0.40604232792843531 0 -0.46862035518984257 0.41165833900145199 0 -0.46821464907634541 0.40919238472479402 0 -0.49379771216864571 0.40604232792843531 0 -0.49830202653595301 0.40815520115148018 0 -0.50000000000000289 0.42814651471654958 0 -0.50002533662587745 0.40527551706314241 0 -0.47375611549328578 0.41994399985115438 0 -0.50000000000000289 0.42814651471654958 0 -0.49379771216864571 0.40604232792843531 0 -0.49830202653595301 0.40815520115148018 0 -0.50000000000000289 0.42814651471654958 0 -0.49379771216864571 0.40604232792843531 0 -0.49830202653595301 0.40815520115148018 0 -0.49379771216864571 0.40604232792843531 0 -0.49830202653595301 0.40815520115148018 0 -0.50002533662587745 0.40527551706314241 0 -0.49379771216864571 0.40604232792843531 0 -0.47375611549328578 0.41994399985115438 0 -0.50000000000000289 0.42814651471654958 0 -0.47375611549328578 0.41994399985115438 0 -0.50000000000000289 0.42814651471654958 0 -0.48459866404080099 0.43741802168965549 0 -0.5 0.37669885686316651 0 -0.48789125001088079 0.39307243061501668 0 -0.4786587330827391 0.38029727829206089 0 -0.5 0.37669885686316651 0 -0.50002533662587745 0.40527551706314241 0 -0.48789125001088079 0.39307243061501668 0 -0.50002533662587745 0.40527551706314241 0 -0.49379771216864571 0.40604232792843531 0 -0.48789125001088079 0.39307243061501668 0 -0.50002533662587745 0.40527551706314241 0 -0.49379771216864571 0.40604232792843531 0 -0.49379771216864571 0.40604232792843531 0 -0.48789125001088079 0.39307243061501668 0 -0.47965565227539392 0.39940860362978431 0 -0.49379771216864571 0.40604232792843531 0 -0.47965565227539392 0.39940860362978431 0 -0.48789125001088079 0.39307243061501668 0 -0.47965565227539392 0.39940860362978431 0 -0.47521006591262832 0.39071199991351252 0 -0.46821464907634541 0.40919238472479402 0 -0.49379771216864571 0.40604232792843531 0 -0.47965565227539392 0.39940860362978431 0 -0.46821464907634541 0.40919238472479402 0 -0.47965565227539392 0.39940860362978431 0 -0.4655135923821398 0.39277487933113808 0 -0.47965565227539392 0.39940860362978431 0 -0.47521006591262832 0.39071199991351252 0 -0.4655135923821398 0.39277487933113808 0 -0.47965565227539392 0.39940860362978431 0 -0.4655135923821398 0.39277487933113808 0 -0.4786587330827391 0.38029727829206089 0 -0.4636500213723852 0.38144776162580102 0 -0.47984944027623011 0.36356437984470802 0 -0.47521006591262832 0.39071199991351252 0 -0.4786587330827391 0.38029727829206089 0 -0.46662817673538898 0.38683553749560989 0 -0.47521006591262832 0.39071199991351252 0 -0.46662817673538898 0.38683553749560989 0 -0.4655135923821398 0.39277487933113808 0 -0.4786587330827391 0.38029727829206089 0 -0.4636500213723852 0.38144776162580102 0 -0.46662817673538898 0.38683553749560989 0 -0.48789125001088079 0.39307243061501668 0 -0.47521006591262832 0.39071199991351252 0 -0.4786587330827391 0.38029727829206089 0 -0.4636500213723852 0.38144776162580102 0 -0.46662817673538898 0.38683553749560989 0 -0.4636500213723852 0.38144776162580102 0 -0.46662817673538898 0.38683553749560989 0 -0.4655135923821398 0.39277487933113808 0 -0.4636500213723852 0.38144776162580102 0 -0.4655135923821398 0.39277487933113808 0 -0.4655135923821398 0.39277487933113808 0 -0.45016263782626409 0.38557408955839378 0 -0.4636500213723852 0.38144776162580102 0 -0.4655135923821398 0.39277487933113808 0 -0.45016263782626409 0.38557408955839378 0 -0.4636500213723852 0.38144776162580102 0 -0.45016263782626409 0.38557408955839378 0 -0.45148179425033719 0.37459057291048359 0 -0.46821464907634541 0.40919238472479402 0 -0.4655135923821398 0.39277487933113808 0 -0.46821464907634541 0.40919238472479402 0 -0.45568815448705752 0.40217519946070879 0 -0.4655135923821398 0.39277487933113808 0 -0.45568815448705752 0.40217519946070879 0 -0.4655135923821398 0.39277487933113808 0 -0.45016263782626409 0.38557408955839378 0 -0.44703766216397139 0.4115931587034577 0 -0.44073946496631522 0.39117813210086949 0 -0.43915551006466902 0.40380663480199491 0 -0.44703766216397139 0.4115931587034577 0 -0.45568815448705752 0.40217519946070879 0 -0.45016263782626409 0.38557408955839378 0 -0.44703766216397139 0.4115931587034577 0 -0.45016263782626409 0.38557408955839378 0 -0.44703766216397139 0.4115931587034577 0 -0.44073946496631522 0.39117813210086949 0 -0.45016263782626409 0.38557408955839378 0 -0.44073946496631522 0.39117813210086949 0 -0.45016263782626409 0.38557408955839378 0 -0.43408170773433258 0.37803088457263168 0 -0.45016263782626409 0.38557408955839378 0 -0.43408170773433258 0.37803088457263168 0 -0.45016263782626409 0.38557408955839378 0 -0.43408170773433258 0.37803088457263168 0 -0.45148179425033719 0.37459057291048359 0 -0.45016263782626409 0.38557408955839378 0 -0.45148179425033719 0.37459057291048359 0 -0.43408170773433258 0.37803088457263168 0 -0.42706099794411723 0.38636081602004441 0 -0.41800077764240129 0.37048767958686879 0 -0.44073946496631522 0.39117813210086949 0 -0.43408170773433258 0.37803088457263168 0 -0.42706099794411723 0.38636081602004441 0 -0.42706099794411723 0.38636081602004441 0 -0.41497219776760719 0.38549265618437112 0 -0.41800077764240129 0.37048767958686879 0 -0.42706099794411723 0.38636081602004441 0 -0.41497219776760719 0.38549265618437112 0 -0.42264518380949778 0.395583910495448 0 -0.41497219776760719 0.38549265618437112 0 -0.41227412573441791 0.39558230618165757 0 -0.40013665062772158 0.38838525096703802 0 -0.41497219776760719 0.38549265618437112 0 -0.40013665062772158 0.38838525096703802 0 -0.40571158599623908 0.37449239846050092 0 -0.41497219776760719 0.38549265618437112 0 -0.40571158599623908 0.37449239846050092 0 -0.41800077764240129 0.37048767958686879 0 -0.41227412573441791 0.39558230618165757 0 -0.42038998301273672 0.40419509635763418 0 -0.40569101347780973 0.40500278288393288 0 -0.41497219776760719 0.38549265618437112 0 -0.41227412573441791 0.39558230618165757 0 -0.42264518380949778 0.395583910495448 0 -0.41227412573441791 0.39558230618165757 0 -0.42038998301273672 0.40419509635763418 0 -0.42264518380949778 0.395583910495448 0 -0.42038998301273672 0.40419509635763418 0 -0.42810013158792048 0.40445286530806318 0 -0.42264518380949778 0.395583910495448 0 -0.42810013158792048 0.40445286530806318 0 -0.42264518380949778 0.395583910495448 0 -0.43192665574454941 0.3973916331800772 0 -0.42038998301273672 0.40419509635763418 0 -0.42810013158792048 0.40445286530806318 0 -0.42770327033539551 0.40839350795290058 0 -0.42706099794411723 0.38636081602004441 0 -0.42264518380949778 0.395583910495448 0 -0.43192665574454941 0.3973916331800772 0 -0.44073946496631522 0.39117813210086949 0 -0.42706099794411723 0.38636081602004441 0 -0.43192665574454941 0.3973916331800772 0 -0.44073946496631522 0.39117813210086949 0 -0.43915551006466902 0.40380663480199491 0 -0.43192665574454941 0.3973916331800772 0 -0.42810013158792048 0.40445286530806318 0 -0.43365805023959242 0.4051932186391573 0 -0.43102159113821231 0.40834910491352078 0 -0.42810013158792048 0.40445286530806318 0 -0.43192665574454941 0.3973916331800772 0 -0.43365805023959242 0.4051932186391573 0 -0.43915551006466902 0.40380663480199491 0 -0.43192665574454941 0.3973916331800772 0 -0.43365805023959242 0.4051932186391573 0 -0.43781515254161268 0.40795086954569409 0 -0.43915551006466902 0.40380663480199491 0 -0.43365805023959242 0.4051932186391573 0 -0.43781515254161268 0.40795086954569409 0 -0.4387684941866713 0.41148354747001298 0 -0.43458776246491598 0.40896915430921071 0 -0.44703766216397139 0.4115931587034577 0 -0.42714094232290201 0.41424981309620051 0 -0.43781515254161268 0.40795086954569409 0 -0.43365805023959242 0.4051932186391573 0 -0.43458776246491598 0.40896915430921071 0 -0.4387684941866713 0.41148354747001298 0 -0.43186370361520582 0.41072066008908448 0 -0.42714094232290201 0.41424981309620051 0 -0.43832298148204207 0.4144521146197771 0 -0.44703766216397139 0.4115931587034577 0 -0.42714094232290201 0.41424981309620051 0 -0.43365805023959242 0.4051932186391573 0 -0.43458776246491598 0.40896915430921071 0 -0.43102159113821231 0.40834910491352078 0 -0.43102159113821231 0.40834910491352078 0 -0.43186370361520582 0.41072066008908448 0 -0.42770327033539551 0.40839350795290058 0 -0.43458776246491598 0.40896915430921071 0 -0.43102159113821231 0.40834910491352078 0 -0.43186370361520582 0.41072066008908448 0 -0.4387684941866713 0.41148354747001298 0 -0.43458776246491598 0.40896915430921071 0 -0.43186370361520582 0.41072066008908448 0 -0.43832298148204207 0.4144521146197771 0 -0.43383381845476099 0.41530292085678733 0 -0.42714094232290201 0.41424981309620051 0 -0.43832298148204207 0.4144521146197771 0 -0.43383381845476099 0.41530292085678733 0 -0.43307872375129669 0.4198873716358571 0 -0.43914466295216559 0.42245004378379608 0 -0.43832298148204207 0.4144521146197771 0 -0.43307872375129669 0.4198873716358571 0 -0.43383381845476099 0.41530292085678733 0 -0.43307872375129669 0.4198873716358571 0 -0.42926678658814538 0.41516626117811528 0 -0.43383381845476099 0.41530292085678733 0 -0.42926678658814538 0.41516626117811528 0 -0.42714094232290201 0.41424981309620051 0 -0.42926678658814538 0.41516626117811528 0 -0.42714094232290201 0.41424981309620051 0 -0.42664047440629671 0.41829634399252691 0 -0.43307872375129669 0.4198873716358571 0 -0.42926678658814538 0.41516626117811528 0 -0.42664047440629671 0.41829634399252691 0 -0.43307872375129669 0.4198873716358571 0 -0.42664047440629671 0.41829634399252691 0 -0.42489400611470651 0.42347136247740758 0 -0.42926678658814538 0.41516626117811528 0 -0.42714094232290201 0.41424981309620051 0 -0.42664047440629671 0.41829634399252691 0 -0.42489400611470651 0.42347136247740758 0 -0.42023300168204442 0.4151003916718019 0 -0.42714094232290201 0.41424981309620051 0 -0.42664047440629671 0.41829634399252691 0 -0.42023300168204442 0.4151003916718019 0 -0.42714094232290201 0.41424981309620051 0 -0.42023300168204442 0.4151003916718019 0 -0.42038998301273672 0.40419509635763418 0 -0.42714094232290201 0.41424981309620051 0 -0.42770327033539551 0.40839350795290058 0 -0.42810013158792048 0.40445286530806318 0 -0.43102159113821231 0.40834910491352078 0 -0.42770327033539551 0.40839350795290058 0 -0.43186370361520582 0.41072066008908448 0 -0.42714094232290201 0.41424981309620051 0 -0.42770327033539551 0.40839350795290058 0 -0.42920866175906858 0.44475334382028381 0 -0.44407270095090301 0.43627992082648492 0 -0.43212216736956849 0.42985730451694693 0 -0.43914466295216559 0.42245004378379608 0 -0.43307872375129669 0.4198873716358571 0 -0.43212216736956849 0.42985730451694693 0 -0.43307872375129669 0.4198873716358571 0 -0.43212216736956849 0.42985730451694693 0 -0.42489400611470651 0.42347136247740758 0 -0.43212216736956849 0.42985730451694693 0 -0.42489400611470651 0.42347136247740758 0 -0.41951110646171191 0.43313227401875198 0 -0.42920866175906858 0.44475334382028381 0 -0.43212216736956849 0.42985730451694693 0 -0.41951110646171191 0.43313227401875198 0 -0.42489400611470651 0.42347136247740758 0 -0.41951110646171191 0.43313227401875198 0 -0.41649760747454612 0.42351228302120919 0 -0.41951110646171191 0.43313227401875198 0 -0.41649760747454612 0.42351228302120919 0 -0.4079521485837192 0.42760252566416029 0 -0.41649760747454612 0.42351228302120919 0 -0.4079521485837192 0.42760252566416029 0 -0.40989777453054832 0.41825486127392419 0 -0.40840155048290422 0.43926930849325441 0 -0.41951110646171191 0.43313227401875198 0 -0.4079521485837192 0.42760252566416029 0 -0.42714094232290201 0.41424981309620051 0 -0.42023300168204442 0.4151003916718019 0 -0.40569101347780973 0.40500278288393288 0 -0.42714094232290201 0.41424981309620051 0 -0.40569101347780973 0.40500278288393288 0 -0.42038998301273672 0.40419509635763418 0 -0.42714094232290201 0.41424981309620051 0 -0.40569101347780973 0.40500278288393288 0 -0.41649760747454612 0.42351228302120919 0 -0.42023300168204442 0.4151003916718019 0 -0.40989777453054832 0.41825486127392419 0 -0.42489400611470651 0.42347136247740758 0 -0.41649760747454612 0.42351228302120919 0 -0.42023300168204442 0.4151003916718019 0 -0.42023300168204442 0.4151003916718019 0 -0.40989777453054832 0.41825486127392419 0 -0.40569101347780973 0.40500278288393288 0 -0.39957325315815623 0.42090550028402918 0 -0.38848289140204828 0.41502844820325069 0 -0.40569101347780973 0.40500278288393288 0 -0.40989777453054832 0.41825486127392419 0 -0.39957325315815623 0.42090550028402918 0 -0.40569101347780973 0.40500278288393288 0 -0.39957325315815623 0.42090550028402918 0 -0.39530473332315019 0.43332971809970572 0 -0.38848289140204828 0.41502844820325069 0 -0.40840155048290422 0.43926930849325441 0 -0.4079521485837192 0.42760252566416029 0 -0.39530473332315019 0.43332971809970572 0 -0.4079521485837192 0.42760252566416029 0 -0.40989777453054832 0.41825486127392419 0 -0.39957325315815623 0.42090550028402918 0 -0.4079521485837192 0.42760252566416029 0 -0.39957325315815623 0.42090550028402918 0 -0.39530473332315019 0.43332971809970572 0 -0.39530473332315019 0.43332971809970572 0 -0.3783215141060976 0.43001970094174968 0 -0.38848289140204828 0.41502844820325069 0 -0.38534571763577491 0.44823181627309089 0 -0.39530473332315019 0.43332971809970572 0 -0.3783215141060976 0.43001970094174968 0 -0.3783215141060976 0.43001970094174968 0 -0.38848289140204828 0.41502844820325069 0 -0.37022373258018793 0.40729816079264791 0 -0.38848289140204828 0.41502844820325069 0 -0.38424108463271739 0.3957557526716648 0 -0.37022373258018793 0.40729816079264791 0 -0.38424108463271739 0.3957557526716648 0 -0.38981362975255518 0.36922063772819641 0 -0.37423478729806409 0.37533429251692407 0 -0.40013665062772158 0.38838525096703802 0 -0.40571158599623908 0.37449239846050092 0 -0.38981362975255518 0.36922063772819641 0 -0.38424108463271739 0.3957557526716648 0 -0.40013665062772158 0.38838525096703802 0 -0.38981362975255518 0.36922063772819641 0 -0.38424108463271739 0.3957557526716648 0 -0.40569101347780973 0.40500278288393288 0 -0.38424108463271739 0.3957557526716648 0 -0.40013665062772158 0.38838525096703802 0 -0.40569101347780973 0.40500278288393288 0 -0.41227412573441791 0.39558230618165757 0 -0.40013665062772158 0.38838525096703802 0 -0.40569101347780973 0.40500278288393288 0 -0.38848289140204828 0.41502844820325069 0 -0.38424108463271739 0.3957557526716648 0 -0.40569101347780973 0.40500278288393288 0 -0.40563467419091032 0.35887576783603009 0 -0.38981362975255518 0.36922063772819641 0 -0.38529026294328511 0.34006458003805112 0 -0.40563467419091032 0.35887576783603009 0 -0.38529026294328511 0.34006458003805112 0 -0.41164876917299897 0.34194143055326259 0 -0.40563467419091032 0.35887576783603009 0 -0.40571158599623908 0.37449239846050092 0 -0.38981362975255518 0.36922063772819641 0 -0.38981362975255518 0.36922063772819641 0 -0.37433335728742301 0.3595326688249777 0 -0.37423478729806409 0.37533429251692407 0 -0.38981362975255518 0.36922063772819641 0 -0.38529026294328511 0.34006458003805112 0 -0.37433335728742301 0.3595326688249777 0 -0.38529026294328511 0.34006458003805112 0 -0.38934498287953151 0.32301655334101792 0 -0.37426995328335499 0.31448341336873531 0 -0.38934498287953151 0.32301655334101792 0 -0.39633398458796509 0.30012652062919248 0 -0.37426995328335499 0.31448341336873531 0 -0.38934498287953151 0.32301655334101792 0 -0.40521828450015113 0.31559265519482799 0 -0.39633398458796509 0.30012652062919248 0 -0.38934498287953151 0.32301655334101792 0 -0.40521828450015113 0.31559265519482799 0 -0.41164876917299897 0.34194143055326259 0 -0.38529026294328511 0.34006458003805112 0 -0.38934498287953151 0.32301655334101792 0 -0.41164876917299897 0.34194143055326259 0 -0.40521828450015113 0.31559265519482799 0 -0.42448155813552108 0.31058816050938581 0 -0.40521828450015113 0.31559265519482799 0 -0.41164876917299897 0.34194143055326259 0 -0.41915034441082483 0.32644979458358347 0 -0.40521828450015113 0.31559265519482799 0 -0.41915034441082483 0.32644979458358347 0 -0.42448155813552108 0.31058816050938581 0 -0.43753771254780949 0.33420802754819079 0 -0.42448155813552108 0.31058816050938581 0 -0.43753771254780949 0.33420802754819079 0 -0.44280887330668478 0.31836223982706929 0 -0.42448155813552108 0.31058816050938581 0 -0.41915034441082483 0.32644979458358347 0 -0.43753771254780949 0.33420802754819079 0 -0.42448155813552108 0.31058816050938581 0 -0.41164876917299897 0.34194143055326259 0 -0.41915034441082483 0.32644979458358347 0 -0.43753771254780949 0.33420802754819079 0 -0.41164876917299897 0.34194143055326259 0 -0.43030554964785878 0.3538808193004182 0 -0.43753771254780949 0.33420802754819079 0 -0.40563467419091032 0.35887576783603009 0 -0.41164876917299897 0.34194143055326259 0 -0.43030554964785878 0.3538808193004182 0 -0.40563467419091032 0.35887576783603009 0 -0.43030554964785878 0.3538808193004182 0 -0.41800077764240129 0.37048767958686879 0 -0.40563467419091032 0.35887576783603009 0 -0.40571158599623908 0.37449239846050092 0 -0.41800077764240129 0.37048767958686879 0 -0.43030554964785878 0.3538808193004182 0 -0.41800077764240129 0.37048767958686879 0 -0.43689273924700561 0.36696357019147963 0 -0.43408170773433258 0.37803088457263168 0 -0.41800077764240129 0.37048767958686879 0 -0.43408170773433258 0.37803088457263168 0 -0.41800077764240129 0.37048767958686879 0 -0.43689273924700561 0.36696357019147963 0 -0.43408170773433258 0.37803088457263168 0 -0.43689273924700561 0.36696357019147963 0 -0.45148179425033719 0.37459057291048359 0 -0.43030554964785878 0.3538808193004182 0 -0.43689273924700561 0.36696357019147963 0 -0.45059386696009779 0.35782789458699571 0 -0.43689273924700561 0.36696357019147963 0 -0.45148179425033719 0.37459057291048359 0 -0.45059386696009779 0.35782789458699571 0 -0.43030554964785878 0.3538808193004182 0 -0.45059386696009779 0.35782789458699571 0 -0.43753771254780949 0.33420802754819079 0 -0.45059386696009779 0.35782789458699571 0 -0.43753771254780949 0.33420802754819079 0 -0.45059386696009779 0.35782789458699571 0 -0.45938812501038329 0.35554319373561588 0 -0.45512622864838231 0.32963862584543041 0 -0.4636500213723852 0.38144776162580102 0 -0.45148179425033719 0.37459057291048359 0 -0.45059386696009779 0.35782789458699571 0 -0.4636500213723852 0.38144776162580102 0 -0.45059386696009779 0.35782789458699571 0 -0.4636500213723852 0.38144776162580102 0 -0.45059386696009779 0.35782789458699571 0 -0.45938812501038329 0.35554319373561588 0 -0.4636500213723852 0.38144776162580102 0 -0.45938812501038329 0.35554319373561588 0 -0.4636500213723852 0.38144776162580102 0 -0.45938812501038329 0.35554319373561588 0 -0.47984944027623011 0.36356437984470802 0 -0.45938812501038329 0.35554319373561588 0 -0.47984944027623011 0.36356437984470802 0 -0.47739976219187402 0.33927699188841348 0 -0.47984944027623011 0.36356437984470802 0 -0.5 0.34812219666319072 0 -0.47739976219187402 0.33927699188841348 0 -0.5 0.37669885686316651 0 -0.47984944027623011 0.36356437984470802 0 -0.5 0.34812219666319072 0 -0.5 0.37669885686316651 0 -0.4786587330827391 0.38029727829206089 0 -0.47984944027623011 0.36356437984470802 0 -0.5 0.34812219666319072 0 -0.5 0.31954553646321487 0 -0.47739976219187402 0.33927699188841348 0 -0.5 0.31954553646321487 0 -0.47739976219187402 0.33927699188841348 0 -0.47318310943503661 0.31846594977498838 0 -0.47318310943503661 0.31846594977498838 0 -0.45512622864838231 0.32963862584543041 0 -0.45086433228638179 0.30373405795524477 0 -0.47739976219187402 0.33927699188841348 0 -0.47318310943503661 0.31846594977498838 0 -0.45512622864838231 0.32963862584543041 0 -0.45938812501038329 0.35554319373561588 0 -0.45512622864838231 0.32963862584543041 0 -0.45938812501038329 0.35554319373561588 0 -0.47739976219187402 0.33927699188841348 0 -0.45512622864838231 0.32963862584543041 0 -0.45059386696009779 0.35782789458699571 0 -0.45512622864838231 0.32963862584543041 0 -0.43753771254780949 0.33420802754819079 0 -0.45512622864838231 0.32963862584543041 0 -0.45086433228638179 0.30373405795524477 0 -0.45512622864838231 0.32963862584543041 0 -0.43753771254780949 0.33420802754819079 0 -0.44280887330668478 0.31836223982706929 0 -0.45512622864838231 0.32963862584543041 0 -0.44280887330668478 0.31836223982706929 0 -0.45086433228638179 0.30373405795524477 0 -0.44280887330668478 0.31836223982706929 0 -0.45086433228638179 0.30373405795524477 0 -0.42448155813552108 0.31058816050938581 0 -0.45086433228638179 0.30373405795524477 0 -0.42448155813552108 0.31058816050938581 0 -0.45086433228638179 0.30373405795524477 0 -0.44735741364995057 0.2824183796312133 0 -0.44735741364995057 0.2824183796312133 0 -0.43601810988010958 0.27296520201839047 0 -0.4320538301724357 0.2909450517921181 0 -0.45086433228638179 0.30373405795524477 0 -0.44735741364995057 0.2824183796312133 0 -0.4320538301724357 0.2909450517921181 0 -0.45086433228638179 0.30373405795524477 0 -0.44735741364995057 0.2824183796312133 0 -0.46390766884330831 0.28350649547027418 0 -0.45086433228638179 0.30373405795524477 0 -0.46390766884330831 0.28350649547027418 0 -0.47543216614319128 0.29735146710924459 0 -0.45086433228638179 0.30373405795524477 0 -0.47543216614319128 0.29735146710924459 0 -0.47318310943503661 0.31846594977498838 0 -0.45086433228638179 0.30373405795524477 0 -0.47543216614319128 0.29735146710924459 0 -0.5 0.31954553646321487 0 -0.47318310943503661 0.31846594977498838 0 -0.47543216614319128 0.29735146710924459 0 -0.46390766884330831 0.28350649547027418 0 -0.47543216614319128 0.29735146710924459 0 -0.48302933636211481 0.27801064263908581 0 -0.47543216614319128 0.29735146710924459 0 -0.49999999999999928 0.29096887626323908 0 -0.47543216614319128 0.29735146710924459 0 -0.49999999999999928 0.29096887626323908 0 -0.48302933636211481 0.27801064263908581 0 -0.5 0.31954553646321487 0 -0.47543216614319128 0.29735146710924459 0 -0.49999999999999928 0.29096887626323908 0 -0.50000000000000155 0.24958567008309579 0 -0.48628554246181999 0.25993147162813168 0 -0.5 0.27027727317316741 0 -0.49999999999999928 0.29096887626323908 0 -0.5 0.27027727317316741 0 -0.48302933636211481 0.27801064263908581 0 -0.48628554246181999 0.25993147162813168 0 -0.5 0.27027727317316741 0 -0.48302933636211481 0.27801064263908581 0 -0.46390766884330831 0.28350649547027418 0 -0.48302933636211481 0.27801064263908581 0 -0.47228417959178498 0.26487510563959221 0 -0.48628554246181999 0.25993147162813168 0 -0.48302933636211481 0.27801064263908581 0 -0.47228417959178498 0.26487510563959221 0 -0.47326094330508539 0.2384675454074337 0 -0.48628554246181999 0.25993147162813168 0 -0.47228417959178498 0.26487510563959221 0 -0.47326094330508539 0.2384675454074337 0 -0.47228417959178498 0.26487510563959221 0 -0.45169033573505901 0.26258258505899518 0 -0.44735741364995057 0.2824183796312133 0 -0.46390766884330831 0.28350649547027418 0 -0.45169033573505901 0.26258258505899518 0 -0.46390766884330831 0.28350649547027418 0 -0.47228417959178498 0.26487510563959221 0 -0.45169033573505901 0.26258258505899518 0 -0.44735741364995057 0.2824183796312133 0 -0.45169033573505901 0.26258258505899518 0 -0.43601810988010958 0.27296520201839047 0 -0.45169033573505901 0.26258258505899518 0 -0.42790676716876708 0.25837833751966982 0 -0.43601810988010958 0.27296520201839047 0 -0.44358916528756531 0.24503098276812851 0 -0.45169033573505901 0.26258258505899518 0 -0.42790676716876708 0.25837833751966982 0 -0.42544025009716568 0.24201363837963211 0 -0.42790676716876708 0.25837833751966982 0 -0.41140463820035678 0.25194223880614808 0 -0.42790676716876708 0.25837833751966982 0 -0.4127304588538232 0.26368650056219822 0 -0.41140463820035678 0.25194223880614808 0 -0.42790676716876708 0.25837833751966982 0 -0.4127304588538232 0.26368650056219822 0 -0.42066004781094313 0.27372194245702131 0 -0.4127304588538232 0.26368650056219822 0 -0.41140463820035678 0.25194223880614808 0 -0.40295440868181859 0.25761110128911169 0 -0.41332205006069328 0.29039951317707341 0 -0.40216254198586548 0.27021086584476078 0 -0.42066004781094313 0.27372194245702131 0 -0.41332205006069328 0.29039951317707341 0 -0.40216254198586548 0.27021086584476078 0 -0.4127304588538232 0.26368650056219822 0 -0.42066004781094313 0.27372194245702131 0 -0.40216254198586548 0.27021086584476078 0 -0.42066004781094313 0.27372194245702131 0 -0.43601810988010958 0.27296520201839047 0 -0.4320538301724357 0.2909450517921181 0 -0.42790676716876708 0.25837833751966982 0 -0.42066004781094313 0.27372194245702131 0 -0.43601810988010958 0.27296520201839047 0 -0.42066004781094313 0.27372194245702131 0 -0.4320538301724357 0.2909450517921181 0 -0.41332205006069328 0.29039951317707341 0 -0.4320538301724357 0.2909450517921181 0 -0.42448155813552108 0.31058816050938581 0 -0.41332205006069328 0.29039951317707341 0 -0.45086433228638179 0.30373405795524477 0 -0.4320538301724357 0.2909450517921181 0 -0.42448155813552108 0.31058816050938581 0 -0.42448155813552108 0.31058816050938581 0 -0.41332205006069328 0.29039951317707341 0 -0.40521828450015113 0.31559265519482799 0 -0.42448155813552108 0.31058816050938581 0 -0.41332205006069328 0.29039951317707341 0 -0.41332205006069328 0.29039951317707341 0 -0.39633398458796509 0.30012652062919248 0 -0.3886829273952247 0.27848543344275162 0 -0.40521828450015113 0.31559265519482799 0 -0.41332205006069328 0.29039951317707341 0 -0.39633398458796509 0.30012652062919248 0 -0.39633398458796509 0.30012652062919248 0 -0.38134272117417217 0.29249578144265331 0 -0.37426995328335499 0.31448341336873531 0 -0.39633398458796509 0.30012652062919248 0 -0.38134272117417217 0.29249578144265331 0 -0.3886829273952247 0.27848543344275162 0 -0.38134272117417217 0.29249578144265331 0 -0.3886829273952247 0.27848543344275162 0 -0.37117564136147257 0.2758609039584286 0 -0.3886829273952247 0.27848543344275162 0 -0.37983790900959152 0.26313328763398952 0 -0.37117564136147257 0.2758609039584286 0 -0.3886829273952247 0.27848543344275162 0 -0.37983790900959152 0.26313328763398952 0 -0.39150770614187452 0.26292300742755648 0 -0.38353470811242368 0.24827838943581121 0 -0.37983790900959152 0.26313328763398952 0 -0.36655771542768217 0.25578858386342729 0 -0.38353470811242368 0.24827838943581121 0 -0.37983790900959152 0.26313328763398952 0 -0.39150770614187452 0.26292300742755648 0 -0.39713138969261308 0.23853968085830329 0 -0.39150770614187452 0.26292300742755648 0 -0.39713138969261308 0.23853968085830329 0 -0.39150770614187452 0.26292300742755648 0 -0.40295440868181859 0.25761110128911169 0 -0.4127304588538232 0.26368650056219822 0 -0.40295440868181859 0.25761110128911169 0 -0.40216254198586548 0.27021086584476078 0 -0.39150770614187452 0.26292300742755648 0 -0.40295440868181859 0.25761110128911169 0 -0.40216254198586548 0.27021086584476078 0 -0.41332205006069328 0.29039951317707341 0 -0.3886829273952247 0.27848543344275162 0 -0.40216254198586548 0.27021086584476078 0 -0.3886829273952247 0.27848543344275162 0 -0.39150770614187452 0.26292300742755648 0 -0.40216254198586548 0.27021086584476078 0 -0.35608506246568522 0.27242120867691327 0 -0.35515356794384978 0.29302943905786089 0 -0.33982718100846071 0.27770607995944763 0 -0.35608506246568522 0.27242120867691327 0 -0.34771120658696059 0.25972103654540202 0 -0.33982718100846071 0.27770607995944763 0 -0.35608506246568522 0.27242120867691327 0 -0.34771120658696059 0.25972103654540202 0 -0.36655771542768217 0.25578858386342729 0 -0.35574979111731359 0.24961628367229191 0 -0.34771120658696059 0.25972103654540202 0 -0.36655771542768217 0.25578858386342729 0 -0.37983790900959152 0.26313328763398952 0 -0.36655771542768217 0.25578858386342729 0 -0.37117564136147257 0.2758609039584286 0 -0.35608506246568522 0.27242120867691327 0 -0.36655771542768217 0.25578858386342729 0 -0.37117564136147257 0.2758609039584286 0 -0.35608506246568522 0.27242120867691327 0 -0.37117564136147257 0.2758609039584286 0 -0.35515356794384978 0.29302943905786089 0 -0.38134272117417217 0.29249578144265331 0 -0.35515356794384978 0.29302943905786089 0 -0.38134272117417217 0.29249578144265331 0 -0.37117564136147257 0.2758609039584286 0 -0.35515356794384978 0.29302943905786089 0 -0.38134272117417217 0.29249578144265331 0 -0.35515356794384978 0.29302943905786089 0 -0.37426995328335499 0.31448341336873531 0 -0.35515356794384978 0.29302943905786089 0 -0.34930332701467831 0.32145524193892411 0 -0.37426995328335499 0.31448341336873531 0 -0.35515356794384978 0.29302943905786089 0 -0.3331253102863676 0.31128618930985508 0 -0.34930332701467831 0.32145524193892411 0 -0.35515356794384978 0.29302943905786089 0 -0.32896441471352739 0.29356309667306851 0 -0.33982718100846071 0.27770607995944763 0 -0.35515356794384978 0.29302943905786089 0 -0.32896441471352739 0.29356309667306851 0 -0.35515356794384978 0.29302943905786089 0 -0.32896441471352739 0.29356309667306851 0 -0.3331253102863676 0.31128618930985508 0 -0.32896441471352739 0.29356309667306851 0 -0.31775678513593408 0.30676397438998387 0 -0.30277526148320488 0.29409675428827609 0 -0.32896441471352739 0.29356309667306851 0 -0.3331253102863676 0.31128618930985508 0 -0.31775678513593408 0.30676397438998387 0 -0.32896441471352739 0.29356309667306851 0 -0.30277526148320488 0.29409675428827609 0 -0.32896441471352739 0.29356309667306851 0 -0.31465211588861952 0.27697044950341709 0 -0.30277526148320488 0.29409675428827609 0 -0.32896441471352739 0.29356309667306851 0 -0.31465211588861952 0.27697044950341709 0 -0.33982718100846071 0.27770607995944763 0 -0.31465211588861952 0.27697044950341709 0 -0.33982718100846071 0.27770607995944763 0 -0.32681396035072841 0.26271391447672432 0 -0.31465211588861952 0.27697044950341709 0 -0.32681396035072841 0.26271391447672432 0 -0.3125474402369075 0.263008992923985 0 -0.34771120658696059 0.25972103654540202 0 -0.33982718100846071 0.27770607995944763 0 -0.32681396035072841 0.26271391447672432 0 -0.32934284428762772 0.24161535185492769 0 -0.34771120658696059 0.25972103654540202 0 -0.32681396035072841 0.26271391447672432 0 -0.32934284428762772 0.24161535185492769 0 -0.31170249181534632 0.24781551194282769 0 -0.32681396035072841 0.26271391447672432 0 -0.31170249181534632 0.24781551194282769 0 -0.32681396035072841 0.26271391447672432 0 -0.3125474402369075 0.263008992923985 0 -0.31170249181534632 0.24781551194282769 0 -0.3125474402369075 0.263008992923985 0 -0.29763042513763899 0.26521954137424653 0 -0.29763042513763899 0.26521954137424653 0 -0.30277526148320488 0.29409675428827609 0 -0.31465211588861952 0.27697044950341709 0 -0.3125474402369075 0.263008992923985 0 -0.29763042513763899 0.26521954137424653 0 -0.31465211588861952 0.27697044950341709 0 -0.29763042513763899 0.26521954137424653 0 -0.30277526148320488 0.29409675428827609 0 -0.29763042513763899 0.26521954137424653 0 -0.29011726920161629 0.27744898874953139 0 -0.30277526148320488 0.29409675428827609 0 -0.29763042513763899 0.26521954137424653 0 -0.29011726920161629 0.27744898874953139 0 -0.28371253114889933 0.25432098775446499 0 -0.29011726920161629 0.27744898874953139 0 -0.27242603630813411 0.26484764132016952 0 -0.29011726920161629 0.27744898874953139 0 -0.28371253114889933 0.25432098775446499 0 -0.27242603630813411 0.26484764132016952 0 -0.29248558879207343 0.2363423284602168 0 -0.29763042513763899 0.26521954137424653 0 -0.28371253114889933 0.25432098775446499 0 -0.29248558879207343 0.2363423284602168 0 -0.29763042513763899 0.26521954137424653 0 -0.26992659483967979 0.24809762378176131 0 -0.28371253114889933 0.25432098775446499 0 -0.27242603630813411 0.26484764132016952 0 -0.26992659483967979 0.24809762378176131 0 -0.27242603630813411 0.26484764132016952 0 -0.25473480341465138 0.25224629389080822 0 -0.29011726920161629 0.27744898874953139 0 -0.27242603630813411 0.26484764132016952 0 -0.27266823579329419 0.28177439636349277 0 -0.27242603630813411 0.26484764132016952 0 -0.25970260798439382 0.26982606374832602 0 -0.27266823579329419 0.28177439636349277 0 -0.25970260798439382 0.26982606374832602 0 -0.25849685264494032 0.28552467602440179 0 -0.24910988775076909 0.27237580791659988 0 -0.25970260798439382 0.26982606374832602 0 -0.25849685264494032 0.28552467602440179 0 -0.27266823579329419 0.28177439636349277 0 -0.25849685264494032 0.28552467602440179 0 -0.24595159647083889 0.28215778767821709 0 -0.24910988775076909 0.27237580791659988 0 -0.25970260798439382 0.26982606374832602 0 -0.25077983199457299 0.26218756697448442 0 -0.24910988775076909 0.27237580791659988 0 -0.25970260798439382 0.26982606374832602 0 -0.25077983199457299 0.26218756697448442 0 -0.25473480341465138 0.25224629389080822 0 -0.27242603630813411 0.26484764132016952 0 -0.25473480341465138 0.25224629389080822 0 -0.27242603630813411 0.26484764132016952 0 -0.25970260798439382 0.26982606374832602 0 -0.25473480341465138 0.25224629389080822 0 -0.25077983199457299 0.26218756697448442 0 -0.25473480341465138 0.25224629389080822 0 -0.25262362170841551 0.30815279168538928 0 -0.25849685264494032 0.28552467602440179 0 -0.27092179108977288 0.30216096357918992 0 -0.25262362170841551 0.30815279168538928 0 -0.25849685264494032 0.28552467602440179 0 -0.24595159647083889 0.28215778767821709 0 -0.25849685264494032 0.28552467602440179 0 -0.27266823579329419 0.28177439636349277 0 -0.27092179108977288 0.30216096357918992 0 -0.27266823579329419 0.28177439636349277 0 -0.27092179108977288 0.30216096357918992 0 -0.28542961692966179 0.29445020730851218 0 -0.27092179108977288 0.30216096357918992 0 -0.28542961692966179 0.29445020730851218 0 -0.28581130015054917 0.31481495491155181 0 -0.29497692557975991 0.30422583159176669 0 -0.28542961692966179 0.29445020730851218 0 -0.28581130015054917 0.31481495491155181 0 -0.29497692557975991 0.30422583159176669 0 -0.28542961692966179 0.29445020730851218 0 -0.30277526148320488 0.29409675428827609 0 -0.29497692557975991 0.30422583159176669 0 -0.30603542501321668 0.31239557471078788 0 -0.28581130015054917 0.31481495491155181 0 -0.29011726920161629 0.27744898874953139 0 -0.27266823579329419 0.28177439636349277 0 -0.28542961692966179 0.29445020730851218 0 -0.29011726920161629 0.27744898874953139 0 -0.28542961692966179 0.29445020730851218 0 -0.30277526148320488 0.29409675428827609 0 -0.28542961692966179 0.29445020730851218 0 -0.30277526148320488 0.29409675428827609 0 -0.29497692557975991 0.30422583159176669 0 -0.30277526148320488 0.29409675428827609 0 -0.30603542501321668 0.31239557471078788 0 -0.30277526148320488 0.29409675428827609 0 -0.30603542501321668 0.31239557471078788 0 -0.31775678513593408 0.30676397438998387 0 -0.30277526148320488 0.29409675428827609 0 -0.30603542501321668 0.31239557471078788 0 -0.30603542501321668 0.31239557471078788 0 -0.30073803078404687 0.33110004846568653 0 -0.31830298623241238 0.32020109425448251 0 -0.30603542501321668 0.31239557471078788 0 -0.30073803078404687 0.33110004846568653 0 -0.28581130015054917 0.31481495491155181 0 -0.30073803078404687 0.33110004846568653 0 -0.3095903448138298 0.35307698780200719 0 -0.32654642305140469 0.34061825372099019 0 -0.30073803078404687 0.33110004846568653 0 -0.27050111931177712 0.3282487551817917 0 -0.28837861691513877 0.34834471867819422 0 -0.30073803078404687 0.33110004846568653 0 -0.28581130015054917 0.31481495491155181 0 -0.27050111931177712 0.3282487551817917 0 -0.27092179108977288 0.30216096357918992 0 -0.28581130015054917 0.31481495491155181 0 -0.27050111931177712 0.3282487551817917 0 -0.27050111931177712 0.3282487551817917 0 -0.28837861691513877 0.34834471867819422 0 -0.27050111931177712 0.3282487551817917 0 -0.2639330601090773 0.34531075346332768 0 -0.28837861691513877 0.34834471867819422 0 -0.27050111931177712 0.3282487551817917 0 -0.2639330601090773 0.34531075346332768 0 -0.2453036779775849 0.33131726490950542 0 -0.25262362170841551 0.30815279168538928 0 -0.27050111931177712 0.3282487551817917 0 -0.2453036779775849 0.33131726490950542 0 -0.25262362170841551 0.30815279168538928 0 -0.27092179108977288 0.30216096357918992 0 -0.27050111931177712 0.3282487551817917 0 -0.25262362170841551 0.30815279168538928 0 -0.27050111931177712 0.3282487551817917 0 -0.26687346046476518 0.36306706371799152 0 -0.26932460238125489 0.38035107201310742 0 -0.24477157709640959 0.38064116015745703 0 -0.26687346046476518 0.36306706371799152 0 -0.24477157709640959 0.38064116015745703 0 -0.24860842587612039 0.35557596482915588 0 -0.2639330601090773 0.34531075346332768 0 -0.26687346046476518 0.36306706371799152 0 -0.24860842587612039 0.35557596482915588 0 -0.2639330601090773 0.34531075346332768 0 -0.24860842587612039 0.35557596482915588 0 -0.2453036779775849 0.33131726490950542 0 -0.2639330601090773 0.34531075346332768 0 -0.26687346046476518 0.36306706371799152 0 -0.28837861691513877 0.34834471867819422 0 -0.26687346046476518 0.36306706371799152 0 -0.28499530299197651 0.36862362870839832 0 -0.28837861691513877 0.34834471867819422 0 -0.26687346046476518 0.36306706371799152 0 -0.28499530299197651 0.36862362870839832 0 -0.26932460238125489 0.38035107201310742 0 -0.28499530299197651 0.36862362870839832 0 -0.30625611451850049 0.3684406821745968 0 -0.29656313115873167 0.37710980862768911 0 -0.28499530299197651 0.36862362870839832 0 -0.28837861691513877 0.34834471867819422 0 -0.30625611451850049 0.3684406821745968 0 -0.28837861691513877 0.34834471867819422 0 -0.3095903448138298 0.35307698780200719 0 -0.30625611451850049 0.3684406821745968 0 -0.30073803078404687 0.33110004846568653 0 -0.28837861691513877 0.34834471867819422 0 -0.3095903448138298 0.35307698780200719 0 -0.28837861691513877 0.34834471867819422 0 -0.30625611451850049 0.3684406821745968 0 -0.30625611451850049 0.3684406821745968 0 -0.30353695842764622 0.37701713653567492 0 -0.29656313115873167 0.37710980862768911 0 -0.3095903448138298 0.35307698780200719 0 -0.31176706640199442 0.36491179991108402 0 -0.30625611451850049 0.3684406821745968 0 -0.31176706640199442 0.36491179991108402 0 -0.30625611451850049 0.3684406821745968 0 -0.30825843708750889 0.37205287060451098 0 -0.30625611451850049 0.3684406821745968 0 -0.30825843708750889 0.37205287060451098 0 -0.30353695842764622 0.37701713653567492 0 -0.30825843708750889 0.37205287060451098 0 -0.32459992862569798 0.37004454516723118 0 -0.334789859870397 0.36103541318749799 0 -0.30825843708750889 0.37205287060451098 0 -0.32459992862569798 0.37004454516723118 0 -0.31735704673375181 0.37803941836011029 0 -0.30825843708750889 0.37205287060451098 0 -0.32010443331042537 0.3631252892567991 0 -0.334789859870397 0.36103541318749799 0 -0.30825843708750889 0.37205287060451098 0 -0.334789859870397 0.36103541318749799 0 -0.31176706640199442 0.36491179991108402 0 -0.30825843708750889 0.37205287060451098 0 -0.32010443331042537 0.3631252892567991 0 -0.3095903448138298 0.35307698780200719 0 -0.31176706640199442 0.36491179991108402 0 -0.32010443331042537 0.3631252892567991 0 -0.32459992862569798 0.37004454516723118 0 -0.34134122694253283 0.37726169224712919 0 -0.334789859870397 0.36103541318749799 0 -0.34134122694253283 0.37726169224712919 0 -0.32459992862569798 0.37004454516723118 0 -0.334789859870397 0.36103541318749799 0 -0.34134122694253283 0.37726169224712919 0 -0.334789859870397 0.36103541318749799 0 -0.32654642305140469 0.34061825372099019 0 -0.34376057184694941 0.33881635898990231 0 -0.334789859870397 0.36103541318749799 0 -0.32654642305140469 0.34061825372099019 0 -0.3095903448138298 0.35307698780200719 0 -0.32010443331042537 0.3631252892567991 0 -0.32654642305140469 0.34061825372099019 0 -0.32010443331042537 0.3631252892567991 0 -0.334789859870397 0.36103541318749799 0 -0.32654642305140469 0.34061825372099019 0 -0.32654642305140469 0.34061825372099019 0 -0.31830298623241238 0.32020109425448251 0 -0.30073803078404687 0.33110004846568653 0 -0.32654642305140469 0.34061825372099019 0 -0.31830298623241238 0.32020109425448251 0 -0.32654642305140469 0.34061825372099019 0 -0.31830298623241238 0.32020109425448251 0 -0.33420772368636248 0.32647542764283077 0 -0.31775678513593408 0.30676397438998387 0 -0.30603542501321668 0.31239557471078788 0 -0.31830298623241238 0.32020109425448251 0 -0.3331253102863676 0.31128618930985508 0 -0.31775678513593408 0.30676397438998387 0 -0.31830298623241238 0.32020109425448251 0 -0.3331253102863676 0.31128618930985508 0 -0.33420772368636248 0.32647542764283077 0 -0.34930332701467831 0.32145524193892411 0 -0.3331253102863676 0.31128618930985508 0 -0.31830298623241238 0.32020109425448251 0 -0.33420772368636248 0.32647542764283077 0 -0.33420772368636248 0.32647542764283077 0 -0.34376057184694941 0.33881635898990231 0 -0.34930332701467831 0.32145524193892411 0 -0.32654642305140469 0.34061825372099019 0 -0.33420772368636248 0.32647542764283077 0 -0.34376057184694941 0.33881635898990231 0 -0.34376057184694941 0.33881635898990231 0 -0.36207899571231628 0.33254799064209328 0 -0.36004006140684142 0.35054999661277542 0 -0.34376057184694941 0.33881635898990231 0 -0.34930332701467831 0.32145524193892411 0 -0.36207899571231628 0.33254799064209328 0 -0.34930332701467831 0.32145524193892411 0 -0.37426995328335499 0.31448341336873531 0 -0.36207899571231628 0.33254799064209328 0 -0.38529026294328511 0.34006458003805112 0 -0.37426995328335499 0.31448341336873531 0 -0.36207899571231628 0.33254799064209328 0 -0.38529026294328511 0.34006458003805112 0 -0.36207899571231628 0.33254799064209328 0 -0.36004006140684142 0.35054999661277542 0 -0.38529026294328511 0.34006458003805112 0 -0.36004006140684142 0.35054999661277542 0 -0.37433335728742301 0.3595326688249777 0 -0.38529026294328511 0.34006458003805112 0 -0.36004006140684142 0.35054999661277542 0 -0.37433335728742301 0.3595326688249777 0 -0.35770137302363081 0.3688135245718282 0 -0.37423478729806409 0.37533429251692407 0 -0.36004006140684142 0.35054999661277542 0 -0.37433335728742301 0.3595326688249777 0 -0.35770137302363081 0.3688135245718282 0 -0.334789859870397 0.36103541318749799 0 -0.35770137302363081 0.3688135245718282 0 -0.34134122694253283 0.37726169224712919 0 -0.334789859870397 0.36103541318749799 0 -0.36004006140684142 0.35054999661277542 0 -0.35770137302363081 0.3688135245718282 0 -0.334789859870397 0.36103541318749799 0 -0.34376057184694941 0.33881635898990231 0 -0.36004006140684142 0.35054999661277542 0 -0.334789859870397 0.36103541318749799 0 -0.36004006140684142 0.35054999661277542 0 -0.36279115578762522 0.38650872245939671 0 -0.34134122694253283 0.37726169224712919 0 -0.3510709132786608 0.40135996119075262 0 -0.34134122694253283 0.37726169224712919 0 -0.3510709132786608 0.40135996119075262 0 -0.36279115578762522 0.38650872245939671 0 -0.34134122694253283 0.37726169224712919 0 -0.35770137302363081 0.3688135245718282 0 -0.36279115578762522 0.38650872245939671 0 -0.34134122694253283 0.37726169224712919 0 -0.35770137302363081 0.3688135245718282 0 -0.36279115578762522 0.38650872245939671 0 -0.37423478729806409 0.37533429251692407 0 -0.38424108463271739 0.3957557526716648 0 -0.36279115578762522 0.38650872245939671 0 -0.37423478729806409 0.37533429251692407 0 -0.3510709132786608 0.40135996119075262 0 -0.36279115578762522 0.38650872245939671 0 -0.37022373258018793 0.40729816079264791 0 -0.38424108463271739 0.3957557526716648 0 -0.36279115578762522 0.38650872245939671 0 -0.37022373258018793 0.40729816079264791 0 -0.38424108463271739 0.3957557526716648 0 -0.36279115578762522 0.38650872245939671 0 -0.3510709132786608 0.40135996119075262 0 -0.37022373258018793 0.40729816079264791 0 -0.36080059961478939 0.42545823013437561 0 -0.3783215141060976 0.43001970094174968 0 -0.37022373258018793 0.40729816079264791 0 -0.36080059961478939 0.42545823013437561 0 -0.3783215141060976 0.43001970094174968 0 -0.36080059961478939 0.42545823013437561 0 -0.37053028595091808 0.44955649907799872 0 -0.36080059961478939 0.42545823013437561 0 -0.37053028595091808 0.44955649907799872 0 -0.36080059961478939 0.42545823013437561 0 -0.3427068190091988 0.42229306571664049 0 -0.3460725875384183 0.44614089015287373 0 -0.3510709132786608 0.40135996119075262 0 -0.36080059961478939 0.42545823013437561 0 -0.3427068190091988 0.42229306571664049 0 -0.3510709132786608 0.40135996119075262 0 -0.36080059961478939 0.42545823013437561 0 -0.33117871522587572 0.41052256027337181 0 -0.3427068190091988 0.42229306571664049 0 -0.3244112793882496 0.4279836868318288 0 -0.3510709132786608 0.40135996119075262 0 -0.33117871522587572 0.41052256027337181 0 -0.3427068190091988 0.42229306571664049 0 -0.3427068190091988 0.42229306571664049 0 -0.3244112793882496 0.4279836868318288 0 -0.3460725875384183 0.44614089015287373 0 -0.3244112793882496 0.4279836868318288 0 -0.31515777419750318 0.41589214309717037 0 -0.3088581768235239 0.43721919221585509 0 -0.31515777419750318 0.41589214309717037 0 -0.31986419916459402 0.39899900363405411 0 -0.30566050023401209 0.4039769105337927 0 -0.33117871522587572 0.41052256027337181 0 -0.31515777419750318 0.41589214309717037 0 -0.31986419916459402 0.39899900363405411 0 -0.33117871522587572 0.41052256027337181 0 -0.3244112793882496 0.4279836868318288 0 -0.31515777419750318 0.41589214309717037 0 -0.31986419916459402 0.39899900363405411 0 -0.31766476602081012 0.38608751628864663 0 -0.30324184136412119 0.38880947468263238 0 -0.33117871522587572 0.41052256027337181 0 -0.31986419916459402 0.39899900363405411 0 -0.33207883740535887 0.39255856931550231 0 -0.31986419916459402 0.39899900363405411 0 -0.33207883740535887 0.39255856931550231 0 -0.31766476602081012 0.38608751628864663 0 -0.3510709132786608 0.40135996119075262 0 -0.33117871522587572 0.41052256027337181 0 -0.33207883740535887 0.39255856931550231 0 -0.32459992862569798 0.37004454516723118 0 -0.34134122694253283 0.37726169224712919 0 -0.32660836114563041 0.38079834827572401 0 -0.3510709132786608 0.40135996119075262 0 -0.33207883740535887 0.39255856931550231 0 -0.34134122694253283 0.37726169224712919 0 -0.33207883740535887 0.39255856931550231 0 -0.34134122694253283 0.37726169224712919 0 -0.32660836114563041 0.38079834827572401 0 -0.32660836114563041 0.38079834827572401 0 -0.31766476602081012 0.38608751628864663 0 -0.31735704673375181 0.37803941836011029 0 -0.32459992862569798 0.37004454516723118 0 -0.32660836114563041 0.38079834827572401 0 -0.31735704673375181 0.37803941836011029 0 -0.33207883740535887 0.39255856931550231 0 -0.32660836114563041 0.38079834827572401 0 -0.31766476602081012 0.38608751628864663 0 -0.31766476602081012 0.38608751628864663 0 -0.31735704673375181 0.37803941836011029 0 -0.30833863586263688 0.38190387274516502 0 -0.30833863586263688 0.38190387274516502 0 -0.30324184136412119 0.38880947468263238 0 -0.30353695842764622 0.37701713653567492 0 -0.30825843708750889 0.37205287060451098 0 -0.31735704673375181 0.37803941836011029 0 -0.30833863586263688 0.38190387274516502 0 -0.30825843708750889 0.37205287060451098 0 -0.30833863586263688 0.38190387274516502 0 -0.30353695842764622 0.37701713653567492 0 -0.31766476602081012 0.38608751628864663 0 -0.30833863586263688 0.38190387274516502 0 -0.30324184136412119 0.38880947468263238 0 -0.30324184136412119 0.38880947468263238 0 -0.30353695842764622 0.37701713653567492 0 -0.29656313115873167 0.37710980862768911 0 -0.31986419916459402 0.39899900363405411 0 -0.30324184136412119 0.38880947468263238 0 -0.30566050023401209 0.4039769105337927 0 -0.30324184136412119 0.38880947468263238 0 -0.30566050023401209 0.4039769105337927 0 -0.28734526515017822 0.40102918109624991 0 -0.30324184136412119 0.38880947468263238 0 -0.28734526515017822 0.40102918109624991 0 -0.28517135880271582 0.38454670753903941 0 -0.28499530299197651 0.36862362870839832 0 -0.28517135880271582 0.38454670753903941 0 -0.29656313115873167 0.37710980862768911 0 -0.30324184136412119 0.38880947468263238 0 -0.28517135880271582 0.38454670753903941 0 -0.29656313115873167 0.37710980862768911 0 -0.28517135880271582 0.38454670753903941 0 -0.26932460238125489 0.38035107201310742 0 -0.26806008193282987 0.3982497939565951 0 -0.28499530299197651 0.36862362870839832 0 -0.28517135880271582 0.38454670753903941 0 -0.26932460238125489 0.38035107201310742 0 -0.28734526515017822 0.40102918109624991 0 -0.26806008193282987 0.3982497939565951 0 -0.28271580114871869 0.41500602413671389 0 -0.28734526515017822 0.40102918109624991 0 -0.28517135880271582 0.38454670753903941 0 -0.26806008193282987 0.3982497939565951 0 -0.26806008193282987 0.3982497939565951 0 -0.24477157709640959 0.38064116015745703 0 -0.23919891636988819 0.39914263391370097 0 -0.26932460238125489 0.38035107201310742 0 -0.26806008193282987 0.3982497939565951 0 -0.24477157709640959 0.38064116015745703 0 -0.26806008193282987 0.3982497939565951 0 -0.24477157709640959 0.38064116015745703 0 -0.26872059599992748 0.42289852069053868 0 -0.25482567069862788 0.4401510612632083 0 -0.24266202856117261 0.41972318327057118 0 -0.26806008193282987 0.3982497939565951 0 -0.26872059599992748 0.42289852069053868 0 -0.24266202856117261 0.41972318327057118 0 -0.26806008193282987 0.3982497939565951 0 -0.26872059599992748 0.42289852069053868 0 -0.28271580114871869 0.41500602413671389 0 -0.26872059599992748 0.42289852069053868 0 -0.27588551751201212 0.44849068147293092 0 -0.25482567069862788 0.4401510612632083 0 -0.26872059599992748 0.42289852069053868 0 -0.29019893525679352 0.43470436491080372 0 -0.27588551751201212 0.44849068147293092 0 -0.26872059599992748 0.42289852069053868 0 -0.29019893525679352 0.43470436491080372 0 -0.28271580114871869 0.41500602413671389 0 -0.29019893525679352 0.43470436491080372 0 -0.28271580114871869 0.41500602413671389 0 -0.29925412740386431 0.41814826002938282 0 -0.28734526515017822 0.40102918109624991 0 -0.28271580114871869 0.41500602413671389 0 -0.29925412740386431 0.41814826002938282 0 -0.31515777419750318 0.41589214309717037 0 -0.30566050023401209 0.4039769105337927 0 -0.29925412740386431 0.41814826002938282 0 -0.30566050023401209 0.4039769105337927 0 -0.28734526515017822 0.40102918109624991 0 -0.29925412740386431 0.41814826002938282 0 -0.29019893525679352 0.43470436491080372 0 -0.29925412740386431 0.41814826002938282 0 -0.3088581768235239 0.43721919221585509 0 -0.31515777419750318 0.41589214309717037 0 -0.29925412740386431 0.41814826002938282 0 -0.3088581768235239 0.43721919221585509 0 -0.29019893525679352 0.43470436491080372 0 -0.3088581768235239 0.43721919221585509 0 -0.30119677720516952 0.46194228715487579 0 -0.3088581768235239 0.43721919221585509 0 -0.30119677720516952 0.46194228715487579 0 -0.32208001472204018 0.45198912455455209 0 -0.30119677720516952 0.46194228715487579 0 -0.27588551751201212 0.44849068147293092 0 -0.27801351194727308 0.46975437511148788 0 -0.29019893525679352 0.43470436491080372 0 -0.30119677720516952 0.46194228715487579 0 -0.27588551751201212 0.44849068147293092 0 -0.26090357376307549 0.45968256228581672 0 -0.2644511556347664 0.47593106867777563 0 -0.27801351194727308 0.46975437511148788 0 -0.27588551751201212 0.44849068147293092 0 -0.26090357376307549 0.45968256228581672 0 -0.27801351194727308 0.46975437511148788 0 -0.26090357376307549 0.45968256228581672 0 -0.25019951209877661 0.47078181285305321 0 -0.24316188816389761 0.45659133386345302 0 -0.26090357376307549 0.45968256228581672 0 -0.25482567069862788 0.4401510612632083 0 -0.24316188816389761 0.45659133386345302 0 -0.27588551751201212 0.44849068147293092 0 -0.26090357376307549 0.45968256228581672 0 -0.25482567069862788 0.4401510612632083 0 -0.25477219953942221 0.5 0 -0.2569909896777629 0.49190702451825691 0 -0.28389856821307968 0.49999999999999989 0 -0.2569909896777629 0.49190702451825691 0 -0.25630495356026428 0.48118727277976697 0 -0.2675105433680644 0.48648104397413389 0 -0.2569909896777629 0.49190702451825691 0 -0.25630495356026428 0.48118727277976697 0 -0.24547039838179069 0.48106062266829558 0 -0.26090357376307549 0.45968256228581672 0 -0.25019951209877661 0.47078181285305321 0 -0.2644511556347664 0.47593106867777563 0 -0.25630495356026428 0.48118727277976697 0 -0.25019951209877661 0.47078181285305321 0 -0.24547039838179069 0.48106062266829558 0 -0.25630495356026428 0.48118727277976697 0 -0.25019951209877661 0.47078181285305321 0 -0.2644511556347664 0.47593106867777563 0 -0.25630495356026428 0.48118727277976697 0 -0.2644511556347664 0.47593106867777563 0 -0.2675105433680644 0.48648104397413389 0 -0.2644511556347664 0.47593106867777563 0 -0.27590704975444869 0.48337985389487009 0 -0.2675105433680644 0.48648104397413389 0 -0.2644511556347664 0.47593106867777563 0 -0.27801351194727308 0.46975437511148788 0 -0.27590704975444869 0.48337985389487009 0 -0.2569909896777629 0.49190702451825691 0 -0.2675105433680644 0.48648104397413389 0 -0.28389856821307968 0.49999999999999989 0 -0.27590704975444869 0.48337985389487009 0 -0.2675105433680644 0.48648104397413389 0 -0.28389856821307968 0.49999999999999989 0 -0.2569909896777629 0.49190702451825691 0 -0.28389856821307968 0.49999999999999989 0 -0.27590704975444869 0.48337985389487009 0 -0.28389856821307968 0.49999999999999989 0 -0.29145194833613458 0.48369113480288523 0 -0.28389856821307968 0.49999999999999989 0 -0.29145194833613458 0.48369113480288523 0 -0.30065802680135062 0.5 0 -0.30119677720516952 0.46194228715487579 0 -0.27801351194727308 0.46975437511148788 0 -0.29145194833613458 0.48369113480288523 0 -0.27801351194727308 0.46975437511148788 0 -0.27590704975444869 0.48337985389487009 0 -0.29145194833613458 0.48369113480288523 0 -0.30119677720516952 0.46194228715487579 0 -0.29145194833613458 0.48369113480288523 0 -0.30693549999701142 0.48510979564959877 0 -0.30119677720516952 0.46194228715487579 0 -0.30693549999701142 0.48510979564959877 0 -0.31974875005583081 0.47599456227727532 0 -0.29145194833613458 0.48369113480288523 0 -0.30693549999701142 0.48510979564959877 0 -0.30065802680135062 0.5 0 -0.30693549999701142 0.48510979564959877 0 -0.30065802680135062 0.5 0 -0.31741748538962139 0.49999999999999878 0 -0.31741748538962139 0.49999999999999878 0 -0.33117225052569782 0.48667217800767598 0 -0.31974875005583081 0.47599456227727532 0 -0.30693549999701142 0.48510979564959877 0 -0.31741748538962139 0.49999999999999878 0 -0.31974875005583081 0.47599456227727532 0 -0.31741748538962139 0.49999999999999878 0 -0.31974875005583081 0.47599456227727532 0 -0.31741748538962139 0.49999999999999878 0 -0.33117225052569782 0.48667217800767598 0 -0.34327190329263341 0.5 0 -0.33117225052569782 0.48667217800767598 0 -0.34327190329263341 0.5 0 -0.34425086336470578 0.47069414975342899 0 -0.33117225052569782 0.48667217800767598 0 -0.31974875005583081 0.47599456227727532 0 -0.34425086336470578 0.47069414975342899 0 -0.31974875005583081 0.47599456227727532 0 -0.32208001472204018 0.45198912455455209 0 -0.30119677720516952 0.46194228715487579 0 -0.31974875005583081 0.47599456227727532 0 -0.32208001472204018 0.45198912455455209 0 -0.3244112793882496 0.4279836868318288 0 -0.3088581768235239 0.43721919221585509 0 -0.32208001472204018 0.45198912455455209 0 -0.3244112793882496 0.4279836868318288 0 -0.32208001472204018 0.45198912455455209 0 -0.3244112793882496 0.4279836868318288 0 -0.32208001472204018 0.45198912455455209 0 -0.3460725875384183 0.44614089015287373 0 -0.32208001472204018 0.45198912455455209 0 -0.3460725875384183 0.44614089015287373 0 -0.34425086336470578 0.47069414975342899 0 -0.31974875005583081 0.47599456227727532 0 -0.32208001472204018 0.45198912455455209 0 -0.34425086336470578 0.47069414975342899 0 -0.37053028595091808 0.44955649907799872 0 -0.36260323765790797 0.48046012082880102 0 -0.34425086336470578 0.47069414975342899 0 -0.3460725875384183 0.44614089015287373 0 -0.37053028595091808 0.44955649907799872 0 -0.34425086336470578 0.47069414975342899 0 -0.36080059961478939 0.42545823013437561 0 -0.3460725875384183 0.44614089015287373 0 -0.37053028595091808 0.44955649907799872 0 -0.38025997228704678 0.47365476802162182 0 -0.37053028595091808 0.44955649907799872 0 -0.36260323765790797 0.48046012082880102 0 -0.38025997228704678 0.47365476802162182 0 -0.36260323765790797 0.48046012082880102 0 -0.36912632119564531 0.5 0 -0.34327190329263341 0.5 0 -0.36260323765790797 0.48046012082880102 0 -0.36912632119564531 0.5 0 -0.34327190329263341 0.5 0 -0.36260323765790797 0.48046012082880102 0 -0.34425086336470578 0.47069414975342899 0 -0.14685286719107479 0.48976287207451702 0 -0.13516780782362259 0.4677932526556447 0 -0.15643119058752231 0.47178295517210439 0 -0.14685286719107479 0.48976287207451702 0 -0.15643119058752231 0.47178295517210439 0 -0.16158234477336561 0.4858251980809839 0 -0.14685286719107479 0.48976287207451702 0 -0.13826672484479219 0.5 0 -0.1673930935184498 0.5 0 -0.14685286719107479 0.48976287207451702 0 -0.1214212643251982 0.48853541579445181 0 -0.12295486672236609 0.49269573815828549 0 -0.14685286719107479 0.48976287207451702 0 -0.1214212643251982 0.48853541579445181 0 -0.14685286719107479 0.48976287207451702 0 -0.13826672484479219 0.5 0 -0.12295486672236609 0.49269573815828549 0 -0.14685286719107479 0.48976287207451702 0 -0.13516780782362259 0.4677932526556447 0 -0.1214212643251982 0.48853541579445181 0 -0.13516780782362259 0.4677932526556447 0 -0.13093804095466499 0.44858963446682543 0 -0.1503648299418695 0.44554500822468518 0 -0.13516780782362259 0.4677932526556447 0 -0.13093804095466499 0.44858963446682543 0 -0.11124743831699339 0.46093608760751642 0 -0.13093804095466499 0.44858963446682543 0 -0.1503648299418695 0.44554500822468518 0 -0.12785775670021879 0.4291684674519548 0 -0.13093804095466499 0.44858963446682543 0 -0.12785775670021879 0.4291684674519548 0 -0.11726619540618009 0.44243598672192902 0 -0.13516780782362259 0.4677932526556447 0 -0.1503648299418695 0.44554500822468518 0 -0.15643119058752231 0.47178295517210439 0 -0.1503648299418695 0.44554500822468518 0 -0.17287190318352119 0.4619215489974145 0 -0.15643119058752231 0.47178295517210439 0 -0.1503648299418695 0.44554500822468518 0 -0.17287190318352119 0.4619215489974145 0 -0.1503648299418695 0.44554500822468518 0 -0.16774080852211609 0.44013795426527402 0 -0.17287190318352119 0.4619215489974145 0 -0.16774080852211609 0.44013795426527402 0 -0.17287190318352119 0.4619215489974145 0 -0.1882816632195938 0.45027183871209697 0 -0.16774080852211609 0.44013795426527402 0 -0.1882816632195938 0.45027183871209697 0 -0.18260192486096191 0.43116401206145571 0 -0.17287190318352119 0.4619215489974145 0 -0.19537897642517291 0.47829808977014371 0 -0.1882816632195938 0.45027183871209697 0 -0.17287190318352119 0.4619215489974145 0 -0.17565222779641571 0.48175496507731419 0 -0.19537897642517291 0.47829808977014371 0 -0.17287190318352119 0.4619215489974145 0 -0.19537897642517291 0.47829808977014371 0 -0.17565222779641571 0.48175496507731419 0 -0.15643119058752231 0.47178295517210439 0 -0.16158234477336561 0.4858251980809839 0 -0.17287190318352119 0.4619215489974145 0 -0.17565222779641571 0.48175496507731419 0 -0.15643119058752231 0.47178295517210439 0 -0.17565222779641571 0.48175496507731419 0 -0.1673930935184498 0.5 0 -0.16158234477336561 0.4858251980809839 0 -0.14685286719107479 0.48976287207451702 0 -0.1673930935184498 0.5 0 -0.16158234477336561 0.4858251980809839 0 -0.17565222779641571 0.48175496507731419 0 -0.1673930935184498 0.5 0 -0.19651946219210731 0.5 0 -0.17565222779641571 0.48175496507731419 0 -0.19651946219210731 0.5 0 -0.19537897642517291 0.47829808977014371 0 -0.19537897642517291 0.47829808977014371 0 -0.2180183895645548 0.47497471482922848 0 -0.21788604966682459 0.49467463054287281 0 -0.19537897642517291 0.47829808977014371 0 -0.2180183895645548 0.47497471482922848 0 -0.20658979736955119 0.46132852414025438 0 -0.19537897642517291 0.47829808977014371 0 -0.21788604966682459 0.49467463054287281 0 -0.19651946219210731 0.5 0 -0.19537897642517291 0.47829808977014371 0 -0.21788604966682459 0.49467463054287281 0 -0.19651946219210731 0.5 0 -0.21788604966682459 0.49467463054287281 0 -0.2256458308657647 0.5 0 -0.2180183895645548 0.47497471482922848 0 -0.21788604966682459 0.49467463054287281 0 -0.2300834111424461 0.48381404903651393 0 -0.21788604966682459 0.49467463054287281 0 -0.2256458308657647 0.5 0 -0.2300834111424461 0.48381404903651393 0 -0.2180183895645548 0.47497471482922848 0 -0.2300834111424461 0.48381404903651393 0 -0.23554008771207871 0.47090680714931998 0 -0.2300834111424461 0.48381404903651393 0 -0.23554008771207871 0.47090680714931998 0 -0.24547039838179069 0.48106062266829558 0 -0.25019951209877661 0.47078181285305321 0 -0.23554008771207871 0.47090680714931998 0 -0.24547039838179069 0.48106062266829558 0 -0.2569909896777629 0.49190702451825691 0 -0.2300834111424461 0.48381404903651393 0 -0.25477219953942221 0.5 0 -0.2569909896777629 0.49190702451825691 0 -0.2300834111424461 0.48381404903651393 0 -0.25477219953942221 0.5 0 -0.2256458308657647 0.5 0 -0.2300834111424461 0.48381404903651393 0 -0.2569909896777629 0.49190702451825691 0 -0.2300834111424461 0.48381404903651393 0 -0.24547039838179069 0.48106062266829558 0 -0.25482567069862788 0.4401510612632083 0 -0.24316188816389761 0.45659133386345302 0 -0.23294645622857929 0.43941792340297731 0 -0.23554008771207871 0.47090680714931998 0 -0.24316188816389761 0.45659133386345302 0 -0.22455602848224779 0.45860783622634271 0 -0.25019951209877661 0.47078181285305321 0 -0.23554008771207871 0.47090680714931998 0 -0.24316188816389761 0.45659133386345302 0 -0.2180183895645548 0.47497471482922848 0 -0.23554008771207871 0.47090680714931998 0 -0.22455602848224779 0.45860783622634271 0 -0.24316188816389761 0.45659133386345302 0 -0.22455602848224779 0.45860783622634271 0 -0.23294645622857929 0.43941792340297731 0 -0.22455602848224779 0.45860783622634271 0 -0.23294645622857929 0.43941792340297731 0 -0.20671392915618639 0.44449014116346008 0 -0.22455602848224779 0.45860783622634271 0 -0.20671392915618639 0.44449014116346008 0 -0.20658979736955119 0.46132852414025438 0 -0.2180183895645548 0.47497471482922848 0 -0.22455602848224779 0.45860783622634271 0 -0.20658979736955119 0.46132852414025438 0 -0.19537897642517291 0.47829808977014371 0 -0.20658979736955119 0.46132852414025438 0 -0.1882816632195938 0.45027183871209697 0 -0.20671392915618639 0.44449014116346008 0 -0.1882816632195938 0.45027183871209697 0 -0.18260192486096191 0.43116401206145571 0 -0.20671392915618639 0.44449014116346008 0 -0.18260192486096191 0.43116401206145571 0 -0.20671392915618639 0.44449014116346008 0 -0.20658979736955119 0.46132852414025438 0 -0.1882816632195938 0.45027183871209697 0 -0.20671392915618639 0.44449014116346008 0 -0.19340376374955501 0.41354924480050759 0 -0.18260192486096191 0.43116401206145571 0 -0.19340376374955501 0.41354924480050759 0 -0.2151626167852389 0.41074232816035622 0 -0.21797582671743251 0.42817761284057732 0 -0.19340376374955501 0.41354924480050759 0 -0.2151626167852389 0.41074232816035622 0 -0.2032064333086632 0.39855092149961052 0 -0.20671392915618639 0.44449014116346008 0 -0.19340376374955501 0.41354924480050759 0 -0.21797582671743251 0.42817761284057732 0 -0.23294645622857929 0.43941792340297731 0 -0.21797582671743251 0.42817761284057732 0 -0.24266202856117261 0.41972318327057118 0 -0.23294645622857929 0.43941792340297731 0 -0.20671392915618639 0.44449014116346008 0 -0.21797582671743251 0.42817761284057732 0 -0.2151626167852389 0.41074232816035622 0 -0.21797582671743251 0.42817761284057732 0 -0.24266202856117261 0.41972318327057118 0 -0.2151626167852389 0.41074232816035622 0 -0.24266202856117261 0.41972318327057118 0 -0.23919891636988819 0.39914263391370097 0 -0.25482567069862788 0.4401510612632083 0 -0.23294645622857929 0.43941792340297731 0 -0.24266202856117261 0.41972318327057118 0 -0.24477157709640959 0.38064116015745703 0 -0.23919891636988819 0.39914263391370097 0 -0.2211508423721141 0.39519234112062063 0 -0.26806008193282987 0.3982497939565951 0 -0.24266202856117261 0.41972318327057118 0 -0.23919891636988819 0.39914263391370097 0 -0.2151626167852389 0.41074232816035622 0 -0.23919891636988819 0.39914263391370097 0 -0.2211508423721141 0.39519234112062063 0 -0.24477157709640959 0.38064116015745703 0 -0.2211508423721141 0.39519234112062063 0 -0.21516239198457221 0.37810028544810492 0 -0.21516239198457221 0.37810028544810492 0 -0.20456553157555479 0.38382206280072267 0 -0.19488800827653729 0.37271040651368043 0 -0.2211508423721141 0.39519234112062063 0 -0.21516239198457221 0.37810028544810492 0 -0.20456553157555479 0.38382206280072267 0 -0.2151626167852389 0.41074232816035622 0 -0.2211508423721141 0.39519234112062063 0 -0.2032064333086632 0.39855092149961052 0 -0.2211508423721141 0.39519234112062063 0 -0.20456553157555479 0.38382206280072267 0 -0.2032064333086632 0.39855092149961052 0 -0.19340376374955501 0.41354924480050759 0 -0.2032064333086632 0.39855092149961052 0 -0.19097658771667991 0.39963926060580413 0 -0.2032064333086632 0.39855092149961052 0 -0.19097658771667991 0.39963926060580413 0 -0.19336343689408381 0.38946776156812218 0 -0.19097658771667991 0.39963926060580413 0 -0.19336343689408381 0.38946776156812218 0 -0.18324821433069241 0.39260787723441432 0 -0.19340376374955501 0.41354924480050759 0 -0.19097658771667991 0.39963926060580413 0 -0.181661090300405 0.40402049792636602 0 -0.20456553157555479 0.38382206280072267 0 -0.1919701699694393 0.38003774195955181 0 -0.19488800827653729 0.37271040651368043 0 -0.20456553157555479 0.38382206280072267 0 -0.2032064333086632 0.39855092149961052 0 -0.19336343689408381 0.38946776156812218 0 -0.20456553157555479 0.38382206280072267 0 -0.19336343689408381 0.38946776156812218 0 -0.1919701699694393 0.38003774195955181 0 -0.19336343689408381 0.38946776156812218 0 -0.1919701699694393 0.38003774195955181 0 -0.18367241337855131 0.38287961841070162 0 -0.1919701699694393 0.38003774195955181 0 -0.1866330245175688 0.37641579376697198 0 -0.19488800827653729 0.37271040651368043 0 -0.1919701699694393 0.38003774195955181 0 -0.1866330245175688 0.37641579376697198 0 -0.18367241337855131 0.38287961841070162 0 -0.1866330245175688 0.37641579376697198 0 -0.1803608226453873 0.3759345008219086 0 -0.18367241337855131 0.38287961841070162 0 -0.19336343689408381 0.38946776156812218 0 -0.18367241337855131 0.38287961841070162 0 -0.18324821433069241 0.39260787723441432 0 -0.18367241337855131 0.38287961841070162 0 -0.17689858984724791 0.38740507349534142 0 -0.18324821433069241 0.39260787723441432 0 -0.17689858984724791 0.38740507349534142 0 -0.17459183080694379 0.38128263409439561 0 -0.1693161543235196 0.38927262787259309 0 -0.18367241337855131 0.38287961841070162 0 -0.17689858984724791 0.38740507349534142 0 -0.17459183080694379 0.38128263409439561 0 -0.1803608226453873 0.3759345008219086 0 -0.18367241337855131 0.38287961841070162 0 -0.17459183080694379 0.38128263409439561 0 -0.1803608226453873 0.3759345008219086 0 -0.17459183080694379 0.38128263409439561 0 -0.17238943727685849 0.37435001584602412 0 -0.1652123161853021 0.3816555103580398 0 -0.16117115114186961 0.3750215676737198 0 -0.17238943727685849 0.37435001584602412 0 -0.17459183080694379 0.38128263409439561 0 -0.1652123161853021 0.3816555103580398 0 -0.17238943727685849 0.37435001584602412 0 -0.17459183080694379 0.38128263409439561 0 -0.1652123161853021 0.3816555103580398 0 -0.1693161543235196 0.38927262787259309 0 -0.1652123161853021 0.3816555103580398 0 -0.1693161543235196 0.38927262787259309 0 -0.1598893988941946 0.39236711369192517 0 -0.1652123161853021 0.3816555103580398 0 -0.1598893988941946 0.39236711369192517 0 -0.154110768421409 0.38265586468925938 0 -0.1652123161853021 0.3816555103580398 0 -0.154110768421409 0.38265586468925938 0 -0.16117115114186961 0.3750215676737198 0 -0.1609596167690312 0.40287289618247107 0 -0.1598893988941946 0.39236711369192517 0 -0.1665016555220705 0.39758996306742012 0 -0.1609596167690312 0.40287289618247107 0 -0.1598893988941946 0.39236711369192517 0 -0.15043320824240569 0.39721885894233078 0 -0.1693161543235196 0.38927262787259309 0 -0.1598893988941946 0.39236711369192517 0 -0.1665016555220705 0.39758996306742012 0 -0.1693161543235196 0.38927262787259309 0 -0.1665016555220705 0.39758996306742012 0 -0.1738243685929545 0.39603765265906821 0 -0.1665016555220705 0.39758996306742012 0 -0.17031224949984081 0.40563593332711118 0 -0.1738243685929545 0.39603765265906821 0 -0.1609596167690312 0.40287289618247107 0 -0.1665016555220705 0.39758996306742012 0 -0.17031224949984081 0.40563593332711118 0 -0.17031224949984081 0.40563593332711118 0 -0.1738243685929545 0.39603765265906821 0 -0.181661090300405 0.40402049792636602 0 -0.17689858984724791 0.38740507349534142 0 -0.1738243685929545 0.39603765265906821 0 -0.18324821433069241 0.39260787723441432 0 -0.1738243685929545 0.39603765265906821 0 -0.18324821433069241 0.39260787723441432 0 -0.181661090300405 0.40402049792636602 0 -0.17689858984724791 0.38740507349534142 0 -0.1693161543235196 0.38927262787259309 0 -0.1738243685929545 0.39603765265906821 0 -0.19097658771667991 0.39963926060580413 0 -0.18324821433069241 0.39260787723441432 0 -0.181661090300405 0.40402049792636602 0 -0.19340376374955501 0.41354924480050759 0 -0.17566008682778569 0.41738393203336249 0 -0.18260192486096191 0.43116401206145571 0 -0.19340376374955501 0.41354924480050759 0 -0.181661090300405 0.40402049792636602 0 -0.17566008682778569 0.41738393203336249 0 -0.17031224949984081 0.40563593332711118 0 -0.181661090300405 0.40402049792636602 0 -0.17566008682778569 0.41738393203336249 0 -0.17566008682778569 0.41738393203336249 0 -0.18260192486096191 0.43116401206145571 0 -0.15848992056573771 0.41783788295945151 0 -0.1503648299418695 0.44554500822468518 0 -0.16774080852211609 0.44013795426527402 0 -0.15688406105726149 0.4246512385436027 0 -0.18260192486096191 0.43116401206145571 0 -0.15848992056573771 0.41783788295945151 0 -0.18260192486096191 0.43116401206145571 0 -0.15688406105726149 0.4246512385436027 0 -0.15848992056573771 0.41783788295945151 0 -0.16774080852211609 0.44013795426527402 0 -0.18260192486096191 0.43116401206145571 0 -0.15688406105726149 0.4246512385436027 0 -0.17566008682778569 0.41738393203336249 0 -0.16466312289255541 0.41131632314559852 0 -0.15848992056573771 0.41783788295945151 0 -0.17031224949984081 0.40563593332711118 0 -0.17566008682778569 0.41738393203336249 0 -0.16466312289255541 0.41131632314559852 0 -0.1609596167690312 0.40287289618247107 0 -0.17031224949984081 0.40563593332711118 0 -0.16466312289255541 0.41131632314559852 0 -0.1609596167690312 0.40287289618247107 0 -0.16466312289255541 0.41131632314559852 0 -0.15378475694804869 0.40675154301745969 0 -0.16466312289255541 0.41131632314559852 0 -0.15848992056573771 0.41783788295945151 0 -0.15378475694804869 0.40675154301745969 0 -0.15848992056573771 0.41783788295945151 0 -0.1343779162705134 0.40451175385744709 0 -0.15688406105726149 0.4246512385436027 0 -0.15848992056573771 0.41783788295945151 0 -0.14257037694516539 0.41869908060452571 0 -0.15848992056573771 0.41783788295945151 0 -0.14257037694516539 0.41869908060452571 0 -0.1343779162705134 0.40451175385744709 0 -0.15848992056573771 0.41783788295945151 0 -0.15378475694804869 0.40675154301745969 0 -0.1343779162705134 0.40451175385744709 0 -0.1503648299418695 0.44554500822468518 0 -0.15688406105726149 0.4246512385436027 0 -0.12785775670021879 0.4291684674519548 0 -0.15688406105726149 0.4246512385436027 0 -0.14257037694516539 0.41869908060452571 0 -0.12785775670021879 0.4291684674519548 0 -0.15688406105726149 0.4246512385436027 0 -0.12785775670021879 0.4291684674519548 0 -0.1503648299418695 0.44554500822468518 0 -0.12785775670021879 0.4291684674519548 0 -0.1254947588949093 0.41501181736415749 0 -0.1343779162705134 0.40451175385744709 0 -0.1177434332773465 0.40796633369925223 0 -0.14257037694516539 0.41869908060452571 0 -0.13524223013209549 0.41732606021017188 0 -0.1343779162705134 0.40451175385744709 0 -0.14257037694516539 0.41869908060452571 0 -0.12785775670021879 0.4291684674519548 0 -0.13524223013209549 0.41732606021017188 0 -0.12785775670021879 0.4291684674519548 0 -0.13524223013209549 0.41732606021017188 0 -0.1254947588949093 0.41501181736415749 0 -0.13524223013209549 0.41732606021017188 0 -0.1254947588949093 0.41501181736415749 0 -0.1343779162705134 0.40451175385744709 0 -0.1343779162705134 0.40451175385744709 0 -0.14034790931603791 0.3875938648466849 0 -0.1223991477265188 0.39172348188394529 0 -0.12705486217569201 0.37548063006863869 0 -0.14034790931603791 0.3875938648466849 0 -0.14698405676839671 0.37094762115395369 0 -0.12705486217569201 0.37548063006863869 0 -0.14034790931603791 0.3875938648466849 0 -0.1223991477265188 0.39172348188394529 0 -0.14034790931603791 0.3875938648466849 0 -0.154110768421409 0.38265586468925938 0 -0.14698405676839671 0.37094762115395369 0 -0.14034790931603791 0.3875938648466849 0 -0.154110768421409 0.38265586468925938 0 -0.15043320824240569 0.39721885894233078 0 -0.154110768421409 0.38265586468925938 0 -0.14698405676839671 0.37094762115395369 0 -0.16117115114186961 0.3750215676737198 0 -0.15378475694804869 0.40675154301745969 0 -0.1343779162705134 0.40451175385744709 0 -0.15043320824240569 0.39721885894233078 0 -0.1598893988941946 0.39236711369192517 0 -0.154110768421409 0.38265586468925938 0 -0.15043320824240569 0.39721885894233078 0 -0.1343779162705134 0.40451175385744709 0 -0.14034790931603791 0.3875938648466849 0 -0.15043320824240569 0.39721885894233078 0 -0.1609596167690312 0.40287289618247107 0 -0.15378475694804869 0.40675154301745969 0 -0.15043320824240569 0.39721885894233078 0 -0.14839838467452721 0.35111758498135731 0 -0.1618313216698305 0.34868290801159812 0 -0.15801485985135419 0.35948325692700678 0 -0.14839838467452721 0.35111758498135731 0 -0.14698405676839671 0.37094762115395369 0 -0.1324250752357955 0.35674503622924247 0 -0.14839838467452721 0.35111758498135731 0 -0.14698405676839671 0.37094762115395369 0 -0.15801485985135419 0.35948325692700678 0 -0.12705486217569201 0.37548063006863869 0 -0.1324250752357955 0.35674503622924247 0 -0.12705486217569201 0.37548063006863869 0 -0.14698405676839671 0.37094762115395369 0 -0.12705486217569201 0.37548063006863869 0 -0.14698405676839671 0.37094762115395369 0 -0.1324250752357955 0.35674503622924247 0 -0.1324250752357955 0.35674503622924247 0 -0.1377952882958984 0.33800944238984593 0 -0.1324250752357955 0.35674503622924247 0 -0.1377952882958984 0.33800944238984593 0 -0.1114372106242295 0.3489574689740188 0 -0.14839838467452721 0.35111758498135731 0 -0.1324250752357955 0.35674503622924247 0 -0.1377952882958984 0.33800944238984593 0 -0.1377952882958984 0.33800944238984593 0 -0.13206357874993629 0.3246886607764411 0 -0.11966281011056561 0.3334594187592016 0 -0.1377952882958984 0.33800944238984593 0 -0.140786960598487 0.32757209911602952 0 -0.1377952882958984 0.33800944238984593 0 -0.13206357874993629 0.3246886607764411 0 -0.140786960598487 0.32757209911602952 0 -0.13206357874993629 0.3246886607764411 0 -0.13066553102398001 0.30862270117457008 0 -0.12149244395073321 0.3111087966570647 0 -0.13206357874993629 0.3246886607764411 0 -0.15212002276993189 0.3262636672575645 0 -0.13066553102398001 0.30862270117457008 0 -0.13206357874993629 0.3246886607764411 0 -0.140786960598487 0.32757209911602952 0 -0.15212002276993189 0.3262636672575645 0 -0.15212002276993189 0.3262636672575645 0 -0.1564256788566406 0.31452107114421352 0 -0.13066553102398001 0.30862270117457008 0 -0.15212002276993189 0.3262636672575645 0 -0.13066553102398001 0.30862270117457008 0 -0.13206357874993629 0.3246886607764411 0 -0.15212002276993189 0.3262636672575645 0 -0.1377952882958984 0.33800944238984593 0 -0.15212002276993189 0.3262636672575645 0 -0.156803160220264 0.33011437926237719 0 -0.14839838467452721 0.35111758498135731 0 -0.1377952882958984 0.33800944238984593 0 -0.156803160220264 0.33011437926237719 0 -0.14839838467452721 0.35111758498135731 0 -0.156803160220264 0.33011437926237719 0 -0.1618313216698305 0.34868290801159812 0 -0.1377952882958984 0.33800944238984593 0 -0.156803160220264 0.33011437926237719 0 -0.1377952882958984 0.33800944238984593 0 -0.140786960598487 0.32757209911602952 0 -0.15212002276993189 0.3262636672575645 0 -0.15212002276993189 0.3262636672575645 0 -0.156803160220264 0.33011437926237719 0 -0.156803160220264 0.33011437926237719 0 -0.16385529277172881 0.32718522275823808 0 -0.17288994010833919 0.34334174170705728 0 -0.156803160220264 0.33011437926237719 0 -0.17288994010833919 0.34334174170705728 0 -0.1618313216698305 0.34868290801159812 0 -0.156803160220264 0.33011437926237719 0 -0.17288994010833919 0.34334174170705728 0 -0.16385529277172881 0.32718522275823808 0 -0.1679366448659271 0.32750572603357919 0 -0.17288994010833919 0.34334174170705728 0 -0.156803160220264 0.33011437926237719 0 -0.16385529277172881 0.32718522275823808 0 -0.16385529277172881 0.32718522275823808 0 -0.18274315583505329 0.31934000621736008 0 -0.16872467844642181 0.31224910131411943 0 -0.16385529277172881 0.32718522275823808 0 -0.1679366448659271 0.32750572603357919 0 -0.18274315583505329 0.31934000621736008 0 -0.1564256788566406 0.31452107114421352 0 -0.16385529277172881 0.32718522275823808 0 -0.16872467844642181 0.31224910131411943 0 -0.15212002276993189 0.3262636672575645 0 -0.16385529277172881 0.32718522275823808 0 -0.15212002276993189 0.3262636672575645 0 -0.156803160220264 0.33011437926237719 0 -0.16385529277172881 0.32718522275823808 0 -0.15212002276993189 0.3262636672575645 0 -0.1564256788566406 0.31452107114421352 0 -0.16385529277172881 0.32718522275823808 0 -0.16385529277172881 0.32718522275823808 0 -0.1679366448659271 0.32750572603357919 0 -0.16385529277172881 0.32718522275823808 0 -0.18274315583505329 0.31934000621736008 0 -0.17288994010833919 0.34334174170705728 0 -0.1863278842737309 0.33483495599400809 0 -0.19819456742356939 0.34542389255918088 0 -0.18274315583505329 0.31934000621736008 0 -0.17288994010833919 0.34334174170705728 0 -0.1679366448659271 0.32750572603357919 0 -0.18274315583505329 0.31934000621736008 0 -0.17288994010833919 0.34334174170705728 0 -0.18274315583505329 0.31934000621736008 0 -0.17288994010833919 0.34334174170705728 0 -0.1863278842737309 0.33483495599400809 0 -0.17288994010833919 0.34334174170705728 0 -0.19402616604645559 0.36072101357758141 0 -0.17288994010833919 0.34334174170705728 0 -0.17687852090682291 0.35486009883301051 0 -0.16594728478291559 0.36025355824885769 0 -0.17288994010833919 0.34334174170705728 0 -0.17687852090682291 0.35486009883301051 0 -0.19402616604645559 0.36072101357758141 0 -0.17687852090682291 0.35486009883301051 0 -0.18684244595380531 0.36188160332458019 0 -0.19402616604645559 0.36072101357758141 0 -0.17288994010833919 0.34334174170705728 0 -0.1618313216698305 0.34868290801159812 0 -0.16594728478291559 0.36025355824885769 0 -0.17288994010833919 0.34334174170705728 0 -0.16594728478291559 0.36025355824885769 0 -0.1618313216698305 0.34868290801159812 0 -0.15801485985135419 0.35948325692700678 0 -0.16594728478291559 0.36025355824885769 0 -0.14698405676839671 0.37094762115395369 0 -0.16691325136110099 0.36641461223926702 0 -0.14698405676839671 0.37094762115395369 0 -0.15801485985135419 0.35948325692700678 0 -0.16691325136110099 0.36641461223926702 0 -0.14698405676839671 0.37094762115395369 0 -0.16117115114186961 0.3750215676737198 0 -0.16691325136110099 0.36641461223926702 0 -0.15801485985135419 0.35948325692700678 0 -0.16691325136110099 0.36641461223926702 0 -0.16594728478291559 0.36025355824885769 0 -0.17687852090682291 0.35486009883301051 0 -0.16691325136110099 0.36641461223926702 0 -0.16594728478291559 0.36025355824885769 0 -0.16117115114186961 0.3750215676737198 0 -0.16691325136110099 0.36641461223926702 0 -0.17238943727685849 0.37435001584602412 0 -0.16691325136110099 0.36641461223926702 0 -0.18684244595380531 0.36188160332458019 0 -0.16691325136110099 0.36641461223926702 0 -0.17238943727685849 0.37435001584602412 0 -0.1822737083179288 0.37051670112901769 0 -0.16691325136110099 0.36641461223926702 0 -0.18684244595380531 0.36188160332458019 0 -0.1822737083179288 0.37051670112901769 0 -0.17687852090682291 0.35486009883301051 0 -0.16691325136110099 0.36641461223926702 0 -0.18684244595380531 0.36188160332458019 0 -0.1803608226453873 0.3759345008219086 0 -0.17238943727685849 0.37435001584602412 0 -0.1822737083179288 0.37051670112901769 0 -0.1866330245175688 0.37641579376697198 0 -0.1803608226453873 0.3759345008219086 0 -0.1822737083179288 0.37051670112901769 0 -0.18684244595380531 0.36188160332458019 0 -0.1822737083179288 0.37051670112901769 0 -0.19488800827653729 0.37271040651368043 0 -0.21516239198457221 0.37810028544810492 0 -0.19488800827653729 0.37271040651368043 0 -0.19402616604645559 0.36072101357758141 0 -0.1866330245175688 0.37641579376697198 0 -0.1822737083179288 0.37051670112901769 0 -0.19488800827653729 0.37271040651368043 0 -0.18684244595380531 0.36188160332458019 0 -0.19488800827653729 0.37271040651368043 0 -0.19402616604645559 0.36072101357758141 0 -0.17288994010833919 0.34334174170705728 0 -0.19402616604645559 0.36072101357758141 0 -0.19819456742356939 0.34542389255918088 0 -0.19819456742356939 0.34542389255918088 0 -0.21577409551995039 0.3449188031719605 0 -0.22148307225998951 0.36303252635831901 0 -0.19819456742356939 0.34542389255918088 0 -0.22148307225998951 0.36303252635831901 0 -0.19402616604645559 0.36072101357758141 0 -0.19819456742356939 0.34542389255918088 0 -0.22148307225998951 0.36303252635831901 0 -0.21516239198457221 0.37810028544810492 0 -0.19402616604645559 0.36072101357758141 0 -0.21516239198457221 0.37810028544810492 0 -0.19402616604645559 0.36072101357758141 0 -0.22148307225998951 0.36303252635831901 0 -0.24477157709640959 0.38064116015745703 0 -0.22148307225998951 0.36303252635831901 0 -0.24477157709640959 0.38064116015745703 0 -0.21516239198457221 0.37810028544810492 0 -0.22148307225998951 0.36303252635831901 0 -0.21577409551995039 0.3449188031719605 0 -0.22148307225998951 0.36303252635831901 0 -0.2319416148436704 0.34865324815331938 0 -0.22148307225998951 0.36303252635831901 0 -0.2319416148436704 0.34865324815331938 0 -0.2376126404003045 0.36350758730092891 0 -0.2319416148436704 0.34865324815331938 0 -0.24860842587612039 0.35557596482915588 0 -0.2453036779775849 0.33131726490950542 0 -0.2319416148436704 0.34865324815331938 0 -0.24860842587612039 0.35557596482915588 0 -0.2376126404003045 0.36350758730092891 0 -0.24477157709640959 0.38064116015745703 0 -0.22148307225998951 0.36303252635831901 0 -0.2376126404003045 0.36350758730092891 0 -0.24477157709640959 0.38064116015745703 0 -0.24860842587612039 0.35557596482915588 0 -0.2376126404003045 0.36350758730092891 0 -0.25262362170841551 0.30815279168538928 0 -0.2453036779775849 0.33131726490950542 0 -0.2309885119318946 0.32075888966712712 0 -0.21577409551995039 0.3449188031719605 0 -0.2319416148436704 0.34865324815331938 0 -0.22286777702807239 0.33356734235004698 0 -0.2319416148436704 0.34865324815331938 0 -0.2453036779775849 0.33131726490950542 0 -0.22286777702807239 0.33356734235004698 0 -0.2453036779775849 0.33131726490950542 0 -0.22286777702807239 0.33356734235004698 0 -0.2309885119318946 0.32075888966712712 0 -0.22286777702807239 0.33356734235004698 0 -0.2309885119318946 0.32075888966712712 0 -0.21153682236701821 0.31867429413515469 0 -0.2309885119318946 0.32075888966712712 0 -0.21153682236701821 0.31867429413515469 0 -0.22161281831831819 0.30856261077403452 0 -0.21153682236701821 0.31867429413515469 0 -0.20757654431970801 0.33254658215256527 0 -0.19597812203018339 0.32647827991468209 0 -0.19819456742356939 0.34542389255918088 0 -0.21577409551995039 0.3449188031719605 0 -0.20757654431970801 0.33254658215256527 0 -0.21577409551995039 0.3449188031719605 0 -0.22286777702807239 0.33356734235004698 0 -0.20757654431970801 0.33254658215256527 0 -0.22286777702807239 0.33356734235004698 0 -0.21153682236701821 0.31867429413515469 0 -0.20757654431970801 0.33254658215256527 0 -0.1863278842737309 0.33483495599400809 0 -0.19819456742356939 0.34542389255918088 0 -0.19597812203018339 0.32647827991468209 0 -0.19819456742356939 0.34542389255918088 0 -0.20757654431970801 0.33254658215256527 0 -0.19597812203018339 0.32647827991468209 0 -0.21153682236701821 0.31867429413515469 0 -0.19715825673296961 0.31335258521459292 0 -0.19597812203018339 0.32647827991468209 0 -0.18274315583505329 0.31934000621736008 0 -0.1863278842737309 0.33483495599400809 0 -0.19597812203018339 0.32647827991468209 0 -0.18274315583505329 0.31934000621736008 0 -0.19715825673296961 0.31335258521459292 0 -0.19597812203018339 0.32647827991468209 0 -0.18274315583505329 0.31934000621736008 0 -0.19715825673296961 0.31335258521459292 0 -0.18274315583505329 0.31934000621736008 0 -0.19421311539476269 0.29139999728370281 0 -0.18274315583505329 0.31934000621736008 0 -0.19715825673296961 0.31335258521459292 0 -0.19421311539476269 0.29139999728370281 0 -0.19715825673296961 0.31335258521459292 0 -0.19421311539476269 0.29139999728370281 0 -0.20955861738850559 0.30210571162561112 0 -0.19421311539476269 0.29139999728370281 0 -0.1979580395784421 0.28227762726981931 0 -0.21003898724358919 0.28711086013764381 0 -0.19421311539476269 0.29139999728370281 0 -0.21003898724358919 0.28711086013764381 0 -0.1888627501318694 0.28154063247665001 0 -0.19421311539476269 0.29139999728370281 0 -0.1979580395784421 0.28227762726981931 0 -0.1888627501318694 0.28154063247665001 0 -0.19421311539476269 0.29139999728370281 0 -0.18058748538471789 0.28593444804212448 0 -0.19421311539476269 0.29139999728370281 0 -0.1979580395784421 0.28227762726981931 0 -0.19421311539476269 0.29139999728370281 0 -0.21003898724358919 0.28711086013764381 0 -0.20955861738850559 0.30210571162561112 0 -0.21003898724358919 0.28711086013764381 0 -0.2258648590924153 0.28282172299158348 0 -0.2156006215630058 0.276386243552313 0 -0.21003898724358919 0.28711086013764381 0 -0.2258648590924153 0.28282172299158348 0 -0.21003898724358919 0.28711086013764381 0 -0.20955861738850559 0.30210571162561112 0 -0.22327401281551579 0.29532959936266789 0 -0.21153682236701821 0.31867429413515469 0 -0.19715825673296961 0.31335258521459292 0 -0.20955861738850559 0.30210571162561112 0 -0.21153682236701821 0.31867429413515469 0 -0.20955861738850559 0.30210571162561112 0 -0.22161281831831819 0.30856261077403452 0 -0.20955861738850559 0.30210571162561112 0 -0.22161281831831819 0.30856261077403452 0 -0.22327401281551579 0.29532959936266789 0 -0.2309885119318946 0.32075888966712712 0 -0.22161281831831819 0.30856261077403452 0 -0.23264133454163269 0.30440527270631401 0 -0.22161281831831819 0.30856261077403452 0 -0.23264133454163269 0.30440527270631401 0 -0.22327401281551579 0.29532959936266789 0 -0.21003898724358919 0.28711086013764381 0 -0.22327401281551579 0.29532959936266789 0 -0.2258648590924153 0.28282172299158348 0 -0.23264133454163269 0.30440527270631401 0 -0.22327401281551579 0.29532959936266789 0 -0.23474612410505399 0.28805682818898692 0 -0.2258648590924153 0.28282172299158348 0 -0.23474612410505399 0.28805682818898692 0 -0.23375937261900731 0.27957982644714641 0 -0.22327401281551579 0.29532959936266789 0 -0.2258648590924153 0.28282172299158348 0 -0.23474612410505399 0.28805682818898692 0 -0.25262362170841551 0.30815279168538928 0 -0.23474612410505399 0.28805682818898692 0 -0.24595159647083889 0.28215778767821709 0 -0.23474612410505399 0.28805682818898692 0 -0.24595159647083889 0.28215778767821709 0 -0.23375937261900731 0.27957982644714641 0 -0.25262362170841551 0.30815279168538928 0 -0.2309885119318946 0.32075888966712712 0 -0.23264133454163269 0.30440527270631401 0 -0.25262362170841551 0.30815279168538928 0 -0.23264133454163269 0.30440527270631401 0 -0.23474612410505399 0.28805682818898692 0 -0.25262362170841551 0.30815279168538928 0 -0.23474612410505399 0.28805682818898692 0 -0.25473480341465138 0.25224629389080822 0 -0.24051925868577381 0.26225794608714992 0 -0.23381032332208779 0.25325146949384009 0 -0.25077983199457299 0.26218756697448442 0 -0.24051925868577381 0.26225794608714992 0 -0.24910988775076909 0.27237580791659988 0 -0.25077983199457299 0.26218756697448442 0 -0.25473480341465138 0.25224629389080822 0 -0.24051925868577381 0.26225794608714992 0 -0.24051925868577381 0.26225794608714992 0 -0.23809306339122119 0.27222779534566099 0 -0.2248198131857829 0.26926120216119898 0 -0.24051925868577381 0.26225794608714992 0 -0.24910988775076909 0.27237580791659988 0 -0.23809306339122119 0.27222779534566099 0 -0.24595159647083889 0.28215778767821709 0 -0.24910988775076909 0.27237580791659988 0 -0.23809306339122119 0.27222779534566099 0 -0.24595159647083889 0.28215778767821709 0 -0.23809306339122119 0.27222779534566099 0 -0.23375937261900731 0.27957982644714641 0 -0.2258648590924153 0.28282172299158348 0 -0.23375937261900731 0.27957982644714641 0 -0.2248198131857829 0.26926120216119898 0 -0.23809306339122119 0.27222779534566099 0 -0.23375937261900731 0.27957982644714641 0 -0.2248198131857829 0.26926120216119898 0 -0.2258648590924153 0.28282172299158348 0 -0.2248198131857829 0.26926120216119898 0 -0.2156006215630058 0.276386243552313 0 -0.2248198131857829 0.26926120216119898 0 -0.23381032332208779 0.25325146949384009 0 -0.21404850863043021 0.24645419970635599 0 -0.24051925868577381 0.26225794608714992 0 -0.2248198131857829 0.26926120216119898 0 -0.23381032332208779 0.25325146949384009 0 -0.2248198131857829 0.26926120216119898 0 -0.21059327790778479 0.26422238061701431 0 -0.21404850863043021 0.24645419970635599 0 -0.21059327790778479 0.26422238061701431 0 -0.20217469032083599 0.25475759868006309 0 -0.21404850863043021 0.24645419970635599 0 -0.2248198131857829 0.26926120216119898 0 -0.21059327790778479 0.26422238061701431 0 -0.2156006215630058 0.276386243552313 0 -0.21059327790778479 0.26422238061701431 0 -0.20447984504872219 0.27335696185525588 0 -0.19626377909822931 0.26408366215949569 0 -0.21059327790778479 0.26422238061701431 0 -0.2156006215630058 0.276386243552313 0 -0.20447984504872219 0.27335696185525588 0 -0.21003898724358919 0.28711086013764381 0 -0.2156006215630058 0.276386243552313 0 -0.20447984504872219 0.27335696185525588 0 -0.1979580395784421 0.28227762726981931 0 -0.21003898724358919 0.28711086013764381 0 -0.20447984504872219 0.27335696185525588 0 -0.1979580395784421 0.28227762726981931 0 -0.20447984504872219 0.27335696185525588 0 -0.19106802423444499 0.27397328388722419 0 -0.20447984504872219 0.27335696185525588 0 -0.19106802423444499 0.27397328388722419 0 -0.19626377909822931 0.26408366215949569 0 -0.19106802423444499 0.27397328388722419 0 -0.19626377909822931 0.26408366215949569 0 -0.18466035935378261 0.26331913592914108 0 -0.1888627501318694 0.28154063247665001 0 -0.1979580395784421 0.28227762726981931 0 -0.19106802423444499 0.27397328388722419 0 -0.20217469032083599 0.25475759868006309 0 -0.19626377909822931 0.26408366215949569 0 -0.1910101803103833 0.25297142190678151 0 -0.20217469032083599 0.25475759868006309 0 -0.1910101803103833 0.25297142190678151 0 -0.1994759436057971 0.24415935448892601 0 -0.21059327790778479 0.26422238061701431 0 -0.20217469032083599 0.25475759868006309 0 -0.19626377909822931 0.26408366215949569 0 -0.19626377909822931 0.26408366215949569 0 -0.1910101803103833 0.25297142190678151 0 -0.18466035935378261 0.26331913592914108 0 -0.1910101803103833 0.25297142190678151 0 -0.18466035935378261 0.26331913592914108 0 -0.1773641660372853 0.25132128805235932 0 -0.18466035935378261 0.26331913592914108 0 -0.1773641660372853 0.25132128805235932 0 -0.1717689203753735 0.26344735366860839 0 -0.1773641660372853 0.25132128805235932 0 -0.1717689203753735 0.26344735366860839 0 -0.16038761275555469 0.24685810182885101 0 -0.1717689203753735 0.26344735366860839 0 -0.1569809991060151 0.26382108478512811 0 -0.16038761275555469 0.24685810182885101 0 -0.1569809991060151 0.26382108478512811 0 -0.16716375269219169 0.2748764285082852 0 -0.15064213777793861 0.27674246578910011 0 -0.16716375269219169 0.2748764285082852 0 -0.1639835575690122 0.28685050813416768 0 -0.15064213777793861 0.27674246578910011 0 -0.1717689203753735 0.26344735366860839 0 -0.1569809991060151 0.26382108478512811 0 -0.16716375269219169 0.2748764285082852 0 -0.16716375269219169 0.2748764285082852 0 -0.18048708606697919 0.27411780590037771 0 -0.18058748538471789 0.28593444804212448 0 -0.18466035935378261 0.26331913592914108 0 -0.1717689203753735 0.26344735366860839 0 -0.18048708606697919 0.27411780590037771 0 -0.1717689203753735 0.26344735366860839 0 -0.16716375269219169 0.2748764285082852 0 -0.18048708606697919 0.27411780590037771 0 -0.19106802423444499 0.27397328388722419 0 -0.18466035935378261 0.26331913592914108 0 -0.18048708606697919 0.27411780590037771 0 -0.1888627501318694 0.28154063247665001 0 -0.19106802423444499 0.27397328388722419 0 -0.18048708606697919 0.27411780590037771 0 -0.1888627501318694 0.28154063247665001 0 -0.18048708606697919 0.27411780590037771 0 -0.18058748538471789 0.28593444804212448 0 -0.19421311539476269 0.29139999728370281 0 -0.18058748538471789 0.28593444804212448 0 -0.17303058727116871 0.29714089858065929 0 -0.18058748538471789 0.28593444804212448 0 -0.17303058727116871 0.29714089858065929 0 -0.1639835575690122 0.28685050813416768 0 -0.19421311539476269 0.29139999728370281 0 -0.17303058727116871 0.29714089858065929 0 -0.18274315583505329 0.31934000621736008 0 -0.19421311539476269 0.29139999728370281 0 -0.17303058727116871 0.29714089858065929 0 -0.18274315583505329 0.31934000621736008 0 -0.17303058727116871 0.29714089858065929 0 -0.16872467844642181 0.31224910131411943 0 -0.17303058727116871 0.29714089858065929 0 -0.15184805914757429 0.30288179987761471 0 -0.17303058727116871 0.29714089858065929 0 -0.16872467844642181 0.31224910131411943 0 -0.15184805914757429 0.30288179987761471 0 -0.1564256788566406 0.31452107114421352 0 -0.16872467844642181 0.31224910131411943 0 -0.15184805914757429 0.30288179987761471 0 -0.17303058727116871 0.29714089858065929 0 -0.1639835575690122 0.28685050813416768 0 -0.15184805914757429 0.30288179987761471 0 -0.16716375269219169 0.2748764285082852 0 -0.18058748538471789 0.28593444804212448 0 -0.1639835575690122 0.28685050813416768 0 -0.14130639434942649 0.29278817798662488 0 -0.13004336630974339 0.28023930534822472 0 -0.15064213777793861 0.27674246578910011 0 -0.1639835575690122 0.28685050813416768 0 -0.14130639434942649 0.29278817798662488 0 -0.15184805914757429 0.30288179987761471 0 -0.1639835575690122 0.28685050813416768 0 -0.14130639434942649 0.29278817798662488 0 -0.1639835575690122 0.28685050813416768 0 -0.14130639434942649 0.29278817798662488 0 -0.15064213777793861 0.27674246578910011 0 -0.15184805914757429 0.30288179987761471 0 -0.13066553102398001 0.30862270117457008 0 -0.1564256788566406 0.31452107114421352 0 -0.15184805914757429 0.30288179987761471 0 -0.13066553102398001 0.30862270117457008 0 -0.14130639434942649 0.29278817798662488 0 -0.15184805914757429 0.30288179987761471 0 -0.13066553102398001 0.30862270117457008 0 -0.14130639434942649 0.29278817798662488 0 -0.13066553102398001 0.30862270117457008 0 -0.1186292311298399 0.2987258478390788 0 -0.13066553102398001 0.30862270117457008 0 -0.12149244395073321 0.3111087966570647 0 -0.14130639434942649 0.29278817798662488 0 -0.13004336630974339 0.28023930534822472 0 -0.1186292311298399 0.2987258478390788 0 -0.14130639434942649 0.29278817798662488 0 -0.1186292311298399 0.2987258478390788 0 -0.13004336630974339 0.28023930534822472 0 -0.1373272987741484 0.26212929106956329 0 -0.1202084109625102 0.26804091944929509 0 -0.13004336630974339 0.28023930534822472 0 -0.1373272987741484 0.26212929106956329 0 -0.15064213777793861 0.27674246578910011 0 -0.1373272987741484 0.26212929106956329 0 -0.1202084109625102 0.26804091944929509 0 -0.1204303888002782 0.24007803105176681 0 -0.1569809991060151 0.26382108478512811 0 -0.16038761275555469 0.24685810182885101 0 -0.14230452199507171 0.2456895756698835 0 -0.1569809991060151 0.26382108478512811 0 -0.1373272987741484 0.26212929106956329 0 -0.14230452199507171 0.2456895756698835 0 -0.1569809991060151 0.26382108478512811 0 -0.1373272987741484 0.26212929106956329 0 -0.15064213777793861 0.27674246578910011 0 -0.095473532634911568 0.27968606369437732 0 -0.099175703253699551 0.25111432960894098 0 -0.1202084109625102 0.26804091944929509 0 -0.095473532634911568 0.27968606369437732 0 -0.099175703253699551 0.25111432960894098 0 -0.086672881413379907 0.27244972402501672 0 -0.095473532634911568 0.27968606369437732 0 -0.099175703253699551 0.25111432960894098 0 -0.1202084109625102 0.26804091944929509 0 -0.1204303888002782 0.24007803105176681 0 -0.099175703253699551 0.25111432960894098 0 -0.1202084109625102 0.26804091944929509 0 -0.1204303888002782 0.24007803105176681 0 -0.095473532634911568 0.27968606369437732 0 -0.1202084109625102 0.26804091944929509 0 -0.114962375146493 0.28205477576072768 0 -0.13004336630974339 0.28023930534822472 0 -0.1202084109625102 0.26804091944929509 0 -0.114962375146493 0.28205477576072768 0 -0.13004336630974339 0.28023930534822472 0 -0.114962375146493 0.28205477576072768 0 -0.1186292311298399 0.2987258478390788 0 -0.095473532634911568 0.27968606369437732 0 -0.114962375146493 0.28205477576072768 0 -0.1186292311298399 0.2987258478390788 0 -0.13066553102398001 0.30862270117457008 0 -0.12149244395073321 0.3111087966570647 0 -0.1186292311298399 0.2987258478390788 0 -0.13066553102398001 0.30862270117457008 0 -0.1186292311298399 0.2987258478390788 0 -0.12149244395073321 0.3111087966570647 0 -0.1186292311298399 0.2987258478390788 0 -0.1085327056949858 0.31045721824899908 0 -0.1186292311298399 0.2987258478390788 0 -0.092106624504294216 0.30567038848749922 0 -0.1085327056949858 0.31045721824899908 0 -0.092106624504294216 0.30567038848749922 0 -0.1003718046955993 0.314758527712798 0 -0.1186292311298399 0.2987258478390788 0 -0.1085327056949858 0.31045721824899908 0 -0.092106624504294216 0.30567038848749922 0 -0.095473532634911568 0.27968606369437732 0 -0.092106624504294216 0.30567038848749922 0 -0.095473532634911568 0.27968606369437732 0 -0.1186292311298399 0.2987258478390788 0 -0.092106624504294216 0.30567038848749922 0 -0.095473532634911568 0.27968606369437732 0 -0.1186292311298399 0.2987258478390788 0 -0.095473532634911568 0.27968606369437732 0 -0.088782506359428831 0.28927696970649741 0 -0.084446198904921832 0.28127474655672918 0 -0.095473532634911568 0.27968606369437732 0 -0.088782506359428831 0.28927696970649741 0 -0.092106624504294216 0.30567038848749922 0 -0.088782506359428831 0.28927696970649741 0 -0.078431041637967436 0.30051030330032302 0 -0.072689501123767375 0.29215533440947389 0 -0.088782506359428831 0.28927696970649741 0 -0.084446198904921832 0.28127474655672918 0 -0.072689501123767375 0.29215533440947389 0 -0.088782506359428831 0.28927696970649741 0 -0.072689501123767375 0.29215533440947389 0 -0.092106624504294216 0.30567038848749922 0 -0.071264651402067947 0.3111275417547042 0 -0.092106624504294216 0.30567038848749922 0 -0.078431041637967436 0.30051030330032302 0 -0.071264651402067947 0.3111275417547042 0 -0.088782506359428831 0.28927696970649741 0 -0.092106624504294216 0.30567038848749922 0 -0.078431041637967436 0.30051030330032302 0 -0.06731192480027709 0.30432128214344029 0 -0.072689501123767375 0.29215533440947389 0 -0.05659649588810569 0.2950336991124497 0 -0.078431041637967436 0.30051030330032302 0 -0.071264651402067947 0.3111275417547042 0 -0.06731192480027709 0.30432128214344029 0 -0.078431041637967436 0.30051030330032302 0 -0.06731192480027709 0.30432128214344029 0 -0.072689501123767375 0.29215533440947389 0 -0.071264651402067947 0.3111275417547042 0 -0.06731192480027709 0.30432128214344029 0 -0.057945591596377813 0.30671366897132352 0 -0.072689501123767375 0.29215533440947389 0 -0.05659649588810569 0.2950336991124497 0 -0.072689501123767375 0.29215533440947389 0 -0.064745768901123477 0.28410927215946058 0 -0.05659649588810569 0.2950336991124497 0 -0.072689501123767375 0.29215533440947389 0 -0.064745768901123477 0.28410927215946058 0 -0.075021226059565349 0.27849528715978311 0 -0.084446198904921832 0.28127474655672918 0 -0.072689501123767375 0.29215533440947389 0 -0.075021226059565349 0.27849528715978311 0 -0.064745768901123477 0.28410927215946058 0 -0.06529801699866597 0.27380038500518039 0 -0.075021226059565349 0.27849528715978311 0 -0.06529801699866597 0.27380038500518039 0 -0.073953753073610878 0.26767431771625289 0 -0.065319486531721427 0.2640996271626232 0 -0.06529801699866597 0.27380038500518039 0 -0.073953753073610878 0.26767431771625289 0 -0.075021226059565349 0.27849528715978311 0 -0.084446198904921832 0.28127474655672918 0 -0.075021226059565349 0.27849528715978311 0 -0.086672881413379907 0.27244972402501672 0 -0.073953753073610878 0.26767431771625289 0 -0.075021226059565349 0.27849528715978311 0 -0.086672881413379907 0.27244972402501672 0 -0.095473532634911568 0.27968606369437732 0 -0.086672881413379907 0.27244972402501672 0 -0.095473532634911568 0.27968606369437732 0 -0.084446198904921832 0.28127474655672918 0 -0.086672881413379907 0.27244972402501672 0 -0.073953753073610878 0.26767431771625289 0 -0.086672881413379907 0.27244972402501672 0 -0.075746632403463937 0.25268909101538062 0 -0.099175703253699551 0.25111432960894098 0 -0.086672881413379907 0.27244972402501672 0 -0.075746632403463937 0.25268909101538062 0 -0.075746632403463937 0.25268909101538062 0 -0.065319486531721427 0.2640996271626232 0 -0.055397974969981528 0.25756778688854659 0 -0.073953753073610878 0.26767431771625289 0 -0.075746632403463937 0.25268909101538062 0 -0.065319486531721427 0.2640996271626232 0 -0.075746632403463937 0.25268909101538062 0 -0.055397974969981528 0.25756778688854659 0 -0.052343221585545267 0.2420998947867227 0 -0.065319486531721427 0.2640996271626232 0 -0.055397974969981528 0.25756778688854659 0 -0.05620105521288489 0.26876655518775538 0 -0.055397974969981528 0.25756778688854659 0 -0.05620105521288489 0.26876655518775538 0 -0.043423251296163708 0.26771185595067049 0 -0.06529801699866597 0.27380038500518039 0 -0.05620105521288489 0.26876655518775538 0 -0.054123604435512583 0.28106165511041659 0 -0.064745768901123477 0.28410927215946058 0 -0.06529801699866597 0.27380038500518039 0 -0.054123604435512583 0.28106165511041659 0 -0.06529801699866597 0.27380038500518039 0 -0.065319486531721427 0.2640996271626232 0 -0.05620105521288489 0.26876655518775538 0 -0.05620105521288489 0.26876655518775538 0 -0.054123604435512583 0.28106165511041659 0 -0.043423251296163708 0.26771185595067049 0 -0.039941974924763667 0.28059841634810551 0 -0.043423251296163708 0.26771185595067049 0 -0.017181755814036529 0.26087102824940461 0 -0.039941974924763667 0.28059841634810551 0 -0.043423251296163708 0.26771185595067049 0 -0.054123604435512583 0.28106165511041659 0 -0.039941974924763667 0.28059841634810551 0 -0.043423251296163708 0.26771185595067049 0 -0.055397974969981528 0.25756778688854659 0 -0.043423251296163708 0.26771185595067049 0 -0.036117566843217278 0.24958211449891629 0 -0.043423251296163708 0.26771185595067049 0 -0.017181755814036529 0.26087102824940461 0 -0.036117566843217278 0.24958211449891629 0 -0.039941974924763667 0.28059841634810551 0 -0.017181755814036529 0.26087102824940461 0 -0.039941974924763667 0.28059841634810551 0 -0.017181755814036529 0.26087102824940461 0 -0.020552148777741319 0.28517710468022722 0 -0.017181755814036529 0.26087102824940461 0 -0.0008364752353172359 0.28036775381282258 0 0.0078779402971320585 0.26252290226805219 0 -0.017181755814036529 0.26087102824940461 0 -0.0008364752353172359 0.28036775381282258 0 -0.020552148777741319 0.28517710468022722 0 -0.017181755814036529 0.26087102824940461 0 0.0055784632966910386 0.24114364015070419 0 0.0078779402971320585 0.26252290226805219 0 -0.017181755814036529 0.26087102824940461 0 0.0055784632966910386 0.24114364015070419 0 -0.011756759778368341 0.30305365012961982 0 0.011485232308392089 0.30721066919906959 0 -0.011756759778368341 0.30305365012961982 0 -0.0063662150821682841 0.32300770501975168 0 0.011485232308392089 0.30721066919906959 0 -0.0008364752353172359 0.28036775381282258 0 -0.011756759778368341 0.30305365012961982 0 -0.020552148777741319 0.28517710468022722 0 -0.0008364752353172359 0.28036775381282258 0 -0.011756759778368341 0.30305365012961982 0 0.0089079414253633599 0.29271549688037529 0 -0.011756759778368341 0.30305365012961982 0 -0.020552148777741319 0.28517710468022722 0 -0.034998751865128942 0.29889663106017078 0 -0.011756759778368341 0.30305365012961982 0 -0.034998751865128942 0.29889663106017078 0 -0.011756759778368341 0.30305365012961982 0 -0.034998751865128942 0.29889663106017078 0 -0.029608207168927762 0.31885068595030241 0 -0.034998751865128942 0.29889663106017078 0 -0.05659649588810569 0.2950336991124497 0 -0.034998751865128942 0.29889663106017078 0 -0.044596112571832977 0.30668718190509758 0 -0.029608207168927762 0.31885068595030241 0 -0.034998751865128942 0.29889663106017078 0 -0.044596112571832977 0.30668718190509758 0 -0.05659649588810569 0.2950336991124497 0 -0.034998751865128942 0.29889663106017078 0 -0.029608207168927762 0.31885068595030241 0 -0.039941974924763667 0.28059841634810551 0 -0.034998751865128942 0.29889663106017078 0 -0.05659649588810569 0.2950336991124497 0 -0.039941974924763667 0.28059841634810551 0 -0.020552148777741319 0.28517710468022722 0 -0.034998751865128942 0.29889663106017078 0 -0.039941974924763667 0.28059841634810551 0 -0.034998751865128942 0.29889663106017078 0 -0.054123604435512583 0.28106165511041659 0 -0.039941974924763667 0.28059841634810551 0 -0.05659649588810569 0.2950336991124497 0 -0.039941974924763667 0.28059841634810551 0 -0.05659649588810569 0.2950336991124497 0 -0.064745768901123477 0.28410927215946058 0 -0.054123604435512583 0.28106165511041659 0 -0.05659649588810569 0.2950336991124497 0 -0.071264651402067947 0.3111275417547042 0 -0.057945591596377813 0.30671366897132352 0 -0.050422678299842767 0.31658469502191378 0 -0.044596112571832977 0.30668718190509758 0 -0.057945591596377813 0.30671366897132352 0 -0.050422678299842767 0.31658469502191378 0 -0.044596112571832977 0.30668718190509758 0 -0.05659649588810569 0.2950336991124497 0 -0.057945591596377813 0.30671366897132352 0 -0.06731192480027709 0.30432128214344029 0 -0.05659649588810569 0.2950336991124497 0 -0.06731192480027709 0.30432128214344029 0 -0.05659649588810569 0.2950336991124497 0 -0.057945591596377813 0.30671366897132352 0 -0.050422678299842767 0.31658469502191378 0 -0.06556555410867887 0.31884433717814809 0 -0.06370291420877007 0.32477617052725161 0 -0.071264651402067947 0.3111275417547042 0 -0.050422678299842767 0.31658469502191378 0 -0.06556555410867887 0.31884433717814809 0 -0.071264651402067947 0.3111275417547042 0 -0.050422678299842767 0.31658469502191378 0 -0.050422678299842767 0.31658469502191378 0 -0.056465320017797277 0.33062670521034948 0 -0.06370291420877007 0.32477617052725161 0 -0.050422678299842767 0.31658469502191378 0 -0.056465320017797277 0.33062670521034948 0 -0.047158971853819072 0.33068509700910259 0 -0.060136950342259167 0.34119173392412738 0 -0.056465320017797277 0.33062670521034948 0 -0.052643846689834288 0.33897724175270472 0 -0.060136950342259167 0.34119173392412738 0 -0.056465320017797277 0.33062670521034948 0 -0.070080472900573676 0.33608196568787208 0 -0.060136950342259167 0.34119173392412738 0 -0.052643846689834288 0.33897724175270472 0 -0.053993477262321593 0.34667225685811148 0 -0.056465320017797277 0.33062670521034948 0 -0.047158971853819072 0.33068509700910259 0 -0.052643846689834288 0.33897724175270472 0 -0.047158971853819072 0.33068509700910259 0 -0.052643846689834288 0.33897724175270472 0 -0.045464513972974331 0.34571041576183248 0 -0.047158971853819072 0.33068509700910259 0 -0.031998430188085847 0.35258762294421792 0 -0.047158971853819072 0.33068509700910259 0 -0.034518011063932208 0.33412438671140349 0 -0.0328211256745383 0.34641808520447498 0 -0.047158971853819072 0.33068509700910259 0 -0.0328211256745383 0.34641808520447498 0 -0.031998430188085847 0.35258762294421792 0 -0.047158971853819072 0.33068509700910259 0 -0.031998430188085847 0.35258762294421792 0 -0.045464513972974331 0.34571041576183248 0 -0.050422678299842767 0.31658469502191378 0 -0.047158971853819072 0.33068509700910259 0 -0.029608207168927762 0.31885068595030241 0 -0.044596112571832977 0.30668718190509758 0 -0.050422678299842767 0.31658469502191378 0 -0.029608207168927762 0.31885068595030241 0 -0.047158971853819072 0.33068509700910259 0 -0.034518011063932208 0.33412438671140349 0 -0.029608207168927762 0.31885068595030241 0 -0.029608207168927762 0.31885068595030241 0 -0.024217662472728281 0.33880474084043433 0 -0.0063662150821682841 0.32300770501975168 0 -0.011756759778368341 0.30305365012961982 0 -0.029608207168927762 0.31885068595030241 0 -0.0063662150821682841 0.32300770501975168 0 -0.029608207168927762 0.31885068595030241 0 -0.024217662472728281 0.33880474084043433 0 -0.034518011063932208 0.33412438671140349 0 -0.029608207168927762 0.31885068595030241 0 -0.024217662472728281 0.33880474084043433 0 -0.034518011063932208 0.33412438671140349 0 -0.024217662472728281 0.33880474084043433 0 -0.0328211256745383 0.34641808520447498 0 -0.024217662472728281 0.33880474084043433 0 -0.0328211256745383 0.34641808520447498 0 -0.024217662472728281 0.33880474084043433 0 -0.021759782363420951 0.3479030189140776 0 -0.024217662472728281 0.33880474084043433 0 -0.013186996111618001 0.33977666424597119 0 -0.021759782363420951 0.3479030189140776 0 -0.024217662472728281 0.33880474084043433 0 -0.013186996111618001 0.33977666424597119 0 -0.0063662150821682841 0.32300770501975168 0 -0.013186996111618001 0.33977666424597119 0 -0.0043313181024477402 0.33954730741787348 0 -0.0063662150821682841 0.32300770501975168 0 -0.0043313181024477402 0.33954730741787348 0 -0.0063662150821682841 0.32300770501975168 0 0.009592317240246508 0.33599721798310228 0 -0.024217662472728281 0.33880474084043433 0 -0.0063662150821682841 0.32300770501975168 0 -0.013186996111618001 0.33977666424597119 0 -0.0043313181024477402 0.33954730741787348 0 -0.0092600025373241867 0.3496205490377195 0 -0.0023189940611774598 0.36957673354790599 0 -0.013793038823087011 0.35861705529417531 0 -0.016837888522352629 0.37449014887933307 0 -0.0023189940611774598 0.36957673354790599 0 -0.00058313526616096385 0.35752425844179803 0 -0.013793038823087011 0.35861705529417531 0 -0.0043313181024477402 0.33954730741787348 0 -0.0092600025373241867 0.3496205490377195 0 0.001321233459981704 0.34675538561589092 0 -0.00058313526616096385 0.35752425844179803 0 -0.0092600025373241867 0.3496205490377195 0 0.001321233459981704 0.34675538561589092 0 -0.013186996111618001 0.33977666424597119 0 -0.0092600025373241867 0.3496205490377195 0 -0.021759782363420951 0.3479030189140776 0 -0.00058313526616096385 0.35752425844179803 0 -0.0092600025373241867 0.3496205490377195 0 -0.013793038823087011 0.35861705529417531 0 -0.0092600025373241867 0.3496205490377195 0 -0.013793038823087011 0.35861705529417531 0 -0.021759782363420951 0.3479030189140776 0 -0.013793038823087011 0.35861705529417531 0 -0.021759782363420951 0.3479030189140776 0 -0.031998430188085847 0.35258762294421792 0 -0.024217662472728281 0.33880474084043433 0 -0.021759782363420951 0.3479030189140776 0 -0.0328211256745383 0.34641808520447498 0 -0.021759782363420951 0.3479030189140776 0 -0.0328211256745383 0.34641808520447498 0 -0.031998430188085847 0.35258762294421792 0 -0.016837888522352629 0.37449014887933307 0 -0.034669504904465062 0.36507932821428879 0 -0.03064949264413213 0.37808228292604262 0 -0.016837888522352629 0.37449014887933307 0 -0.031998430188085847 0.35258762294421792 0 -0.013793038823087011 0.35861705529417531 0 -0.016837888522352629 0.37449014887933307 0 -0.031998430188085847 0.35258762294421792 0 -0.016837888522352629 0.37449014887933307 0 -0.034669504904465062 0.36507932821428879 0 -0.031998430188085847 0.35258762294421792 0 -0.034669504904465062 0.36507932821428879 0 -0.043690784098416938 0.37228671974109789 0 -0.03064949264413213 0.37808228292604262 0 -0.034669504904465062 0.36507932821428879 0 -0.04446568173207225 0.36066251051700932 0 -0.041104858670089728 0.35458663582058991 0 -0.034669504904465062 0.36507932821428879 0 -0.04446568173207225 0.36066251051700932 0 -0.043690784098416938 0.37228671974109789 0 -0.034669504904465062 0.36507932821428879 0 -0.031998430188085847 0.35258762294421792 0 -0.041104858670089728 0.35458663582058991 0 -0.04446568173207225 0.36066251051700932 0 -0.041104858670089728 0.35458663582058991 0 -0.049307830986251952 0.35387216461385013 0 -0.041104858670089728 0.35458663582058991 0 -0.045464513972974331 0.34571041576183248 0 -0.049307830986251952 0.35387216461385013 0 -0.031998430188085847 0.35258762294421792 0 -0.041104858670089728 0.35458663582058991 0 -0.045464513972974331 0.34571041576183248 0 -0.045464513972974331 0.34571041576183248 0 -0.053993477262321593 0.34667225685811148 0 -0.049307830986251952 0.35387216461385013 0 -0.052643846689834288 0.33897724175270472 0 -0.045464513972974331 0.34571041576183248 0 -0.053993477262321593 0.34667225685811148 0 -0.053993477262321593 0.34667225685811148 0 -0.049307830986251952 0.35387216461385013 0 -0.057636464388226519 0.35417917547888161 0 -0.049307830986251952 0.35387216461385013 0 -0.057636464388226519 0.35417917547888161 0 -0.053181989891827312 0.36142199324667562 0 -0.04446568173207225 0.36066251051700932 0 -0.049307830986251952 0.35387216461385013 0 -0.053181989891827312 0.36142199324667562 0 -0.057636464388226519 0.35417917547888161 0 -0.053181989891827312 0.36142199324667562 0 -0.058691066645062781 0.3597048341593635 0 -0.057636464388226519 0.35417917547888161 0 -0.058691066645062781 0.3597048341593635 0 -0.063493352418920096 0.358352710358461 0 -0.057636464388226519 0.35417917547888161 0 -0.063288758580058127 0.35254305823027909 0 -0.063493352418920096 0.358352710358461 0 -0.057636464388226519 0.35417917547888161 0 -0.060692006358027878 0.34819796682166693 0 -0.063288758580058127 0.35254305823027909 0 -0.053993477262321593 0.34667225685811148 0 -0.057636464388226519 0.35417917547888161 0 -0.060692006358027878 0.34819796682166693 0 -0.060136950342259167 0.34119173392412738 0 -0.053993477262321593 0.34667225685811148 0 -0.060692006358027878 0.34819796682166693 0 -0.043690784098416938 0.37228671974109789 0 -0.053181989891827312 0.36142199324667562 0 -0.055159240835187792 0.37437189717086727 0 -0.04446568173207225 0.36066251051700932 0 -0.043690784098416938 0.37228671974109789 0 -0.053181989891827312 0.36142199324667562 0 -0.053181989891827312 0.36142199324667562 0 -0.06045245988127719 0.36486545755343591 0 -0.055159240835187792 0.37437189717086727 0 -0.053181989891827312 0.36142199324667562 0 -0.058691066645062781 0.3597048341593635 0 -0.06045245988127719 0.36486545755343591 0 -0.058691066645062781 0.3597048341593635 0 -0.06045245988127719 0.36486545755343591 0 -0.063493352418920096 0.358352710358461 0 -0.06045245988127719 0.36486545755343591 0 -0.055159240835187792 0.37437189717086727 0 -0.065905203468714438 0.3721256442082686 0 -0.06045245988127719 0.36486545755343591 0 -0.065905203468714438 0.3721256442082686 0 -0.066403106797345665 0.36381793902248211 0 -0.065905203468714438 0.3721256442082686 0 -0.066403106797345665 0.36381793902248211 0 -0.071572882992265247 0.36471216024739828 0 -0.06045245988127719 0.36486545755343591 0 -0.066403106797345665 0.36381793902248211 0 -0.063493352418920096 0.358352710358461 0 -0.066403106797345665 0.36381793902248211 0 -0.070591635225551383 0.35903372274484707 0 -0.063493352418920096 0.358352710358461 0 -0.066403106797345665 0.36381793902248211 0 -0.071572882992265247 0.36471216024739828 0 -0.070591635225551383 0.35903372274484707 0 -0.071572882992265247 0.36471216024739828 0 -0.076222877503146949 0.36126371504673571 0 -0.070591635225551383 0.35903372274484707 0 -0.071572882992265247 0.36471216024739828 0 -0.076222877503146949 0.36126371504673571 0 -0.075815868327257049 0.36862868044606473 0 -0.065905203468714438 0.3721256442082686 0 -0.071572882992265247 0.36471216024739828 0 -0.075815868327257049 0.36862868044606473 0 -0.065905203468714438 0.3721256442082686 0 -0.075815868327257049 0.36862868044606473 0 -0.072401412527709957 0.37885222837311072 0 -0.085079132952560671 0.35990549555819212 0 -0.081725008209980826 0.38579116375188738 0 -0.075815868327257049 0.36862868044606473 0 -0.083043394430163314 0.36075105492482251 0 -0.081725008209980826 0.38579116375188738 0 -0.083043394430163314 0.36075105492482251 0 -0.085079132952560671 0.35990549555819212 0 -0.081725008209980826 0.38579116375188738 0 -0.076222877503146949 0.36126371504673571 0 -0.075815868327257049 0.36862868044606473 0 -0.083043394430163314 0.36075105492482251 0 -0.083043394430163314 0.36075105492482251 0 -0.085079132952560671 0.35990549555819212 0 -0.085079132952560671 0.35990549555819212 0 -0.077112885214876151 0.35243080209138572 0 -0.088592878728428165 0.33278794202284578 0 -0.085079132952560671 0.35990549555819212 0 -0.088592878728428165 0.33278794202284578 0 -0.083043394430163314 0.36075105492482251 0 -0.085079132952560671 0.35990549555819212 0 -0.077112885214876151 0.35243080209138572 0 -0.076222877503146949 0.36126371504673571 0 -0.083043394430163314 0.36075105492482251 0 -0.077112885214876151 0.35243080209138572 0 -0.077112885214876151 0.35243080209138572 0 -0.068089579988393156 0.35388569612678922 0 -0.06735538270991287 0.34742715673595098 0 -0.077112885214876151 0.35243080209138572 0 -0.06735538270991287 0.34742715673595098 0 -0.070080472900573676 0.33608196568787208 0 -0.076222877503146949 0.36126371504673571 0 -0.077112885214876151 0.35243080209138572 0 -0.070591635225551383 0.35903372274484707 0 -0.077112885214876151 0.35243080209138572 0 -0.070591635225551383 0.35903372274484707 0 -0.068089579988393156 0.35388569612678922 0 -0.070591635225551383 0.35903372274484707 0 -0.068089579988393156 0.35388569612678922 0 -0.063493352418920096 0.358352710358461 0 -0.068089579988393156 0.35388569612678922 0 -0.063288758580058127 0.35254305823027909 0 -0.063493352418920096 0.358352710358461 0 -0.068089579988393156 0.35388569612678922 0 -0.063288758580058127 0.35254305823027909 0 -0.06735538270991287 0.34742715673595098 0 -0.060692006358027878 0.34819796682166693 0 -0.063288758580058127 0.35254305823027909 0 -0.06735538270991287 0.34742715673595098 0 -0.060136950342259167 0.34119173392412738 0 -0.060692006358027878 0.34819796682166693 0 -0.06735538270991287 0.34742715673595098 0 -0.060136950342259167 0.34119173392412738 0 -0.06735538270991287 0.34742715673595098 0 -0.070080472900573676 0.33608196568787208 0 -0.056465320017797277 0.33062670521034948 0 -0.070080472900573676 0.33608196568787208 0 -0.06370291420877007 0.32477617052725161 0 -0.06556555410867887 0.31884433717814809 0 -0.06370291420877007 0.32477617052725161 0 -0.076871972524034743 0.32288894140872321 0 -0.070080472900573676 0.33608196568787208 0 -0.06370291420877007 0.32477617052725161 0 -0.076871972524034743 0.32288894140872321 0 -0.071264651402067947 0.3111275417547042 0 -0.06556555410867887 0.31884433717814809 0 -0.076871972524034743 0.32288894140872321 0 -0.092106624504294216 0.30567038848749922 0 -0.091950690709945077 0.32153864781419372 0 -0.088592878728428165 0.33278794202284578 0 -0.092106624504294216 0.30567038848749922 0 -0.088592878728428165 0.33278794202284578 0 -0.092106624504294216 0.30567038848749922 0 -0.071264651402067947 0.3111275417547042 0 -0.076871972524034743 0.32288894140872321 0 -0.092106624504294216 0.30567038848749922 0 -0.076871972524034743 0.32288894140872321 0 -0.088592878728428165 0.33278794202284578 0 -0.070080472900573676 0.33608196568787208 0 -0.076871972524034743 0.32288894140872321 0 -0.088592878728428165 0.33278794202284578 0 -0.077112885214876151 0.35243080209138572 0 -0.070080472900573676 0.33608196568787208 0 -0.088592878728428165 0.33278794202284578 0 -0.091950690709945077 0.32153864781419372 0 -0.088592878728428165 0.33278794202284578 0 -0.1050108381528234 0.33252786736038548 0 -0.088592878728428165 0.33278794202284578 0 -0.1050108381528234 0.33252786736038548 0 -0.1114372106242295 0.3489574689740188 0 -0.091950690709945077 0.32153864781419372 0 -0.1120071347299407 0.32311365429531741 0 -0.092106624504294216 0.30567038848749922 0 -0.091950690709945077 0.32153864781419372 0 -0.1003718046955993 0.314758527712798 0 -0.091950690709945077 0.32153864781419372 0 -0.1003718046955993 0.314758527712798 0 -0.1120071347299407 0.32311365429531741 0 -0.091950690709945077 0.32153864781419372 0 -0.1050108381528234 0.33252786736038548 0 -0.1120071347299407 0.32311365429531741 0 -0.1085327056949858 0.31045721824899908 0 -0.1003718046955993 0.314758527712798 0 -0.1120071347299407 0.32311365429531741 0 -0.13206357874993629 0.3246886607764411 0 -0.12149244395073321 0.3111087966570647 0 -0.1120071347299407 0.32311365429531741 0 -0.13206357874993629 0.3246886607764411 0 -0.1120071347299407 0.32311365429531741 0 -0.13206357874993629 0.3246886607764411 0 -0.1120071347299407 0.32311365429531741 0 -0.11966281011056561 0.3334594187592016 0 -0.12149244395073321 0.3111087966570647 0 -0.1085327056949858 0.31045721824899908 0 -0.1120071347299407 0.32311365429531741 0 -0.1377952882958984 0.33800944238984593 0 -0.11966281011056561 0.3334594187592016 0 -0.1114372106242295 0.3489574689740188 0 -0.1050108381528234 0.33252786736038548 0 -0.11966281011056561 0.3334594187592016 0 -0.1114372106242295 0.3489574689740188 0 -0.1377952882958984 0.33800944238984593 0 -0.1114372106242295 0.3489574689740188 0 -0.1050108381528234 0.33252786736038548 0 -0.1120071347299407 0.32311365429531741 0 -0.11966281011056561 0.3334594187592016 0 -0.1324250752357955 0.35674503622924247 0 -0.1114372106242295 0.3489574689740188 0 -0.1129613989005382 0.36591963702834102 0 -0.12705486217569201 0.37548063006863869 0 -0.1324250752357955 0.35674503622924247 0 -0.1129613989005382 0.36591963702834102 0 -0.12705486217569201 0.37548063006863869 0 -0.1129613989005382 0.36591963702834102 0 -0.1043899351928365 0.38063589691026312 0 -0.085079132952560671 0.35990549555819212 0 -0.1129613989005382 0.36591963702834102 0 -0.1043899351928365 0.38063589691026312 0 -0.085079132952560671 0.35990549555819212 0 -0.1114372106242295 0.3489574689740188 0 -0.1129613989005382 0.36591963702834102 0 -0.085079132952560671 0.35990549555819212 0 -0.088592878728428165 0.33278794202284578 0 -0.1114372106242295 0.3489574689740188 0 -0.085079132952560671 0.35990549555819212 0 -0.1114372106242295 0.3489574689740188 0 -0.1014973743177516 0.39678702130947352 0 -0.1070493220205882 0.41402788585394562 0 -0.086240887340958666 0.39888730425593522 0 -0.1014973743177516 0.39678702130947352 0 -0.1121746328039752 0.3981393569695641 0 -0.1070493220205882 0.41402788585394562 0 -0.1014973743177516 0.39678702130947352 0 -0.1043899351928365 0.38063589691026312 0 -0.1121746328039752 0.3981393569695641 0 -0.1014973743177516 0.39678702130947352 0 -0.1043899351928365 0.38063589691026312 0 -0.081725008209980826 0.38579116375188738 0 -0.12705486217569201 0.37548063006863869 0 -0.1223991477265188 0.39172348188394529 0 -0.12705486217569201 0.37548063006863869 0 -0.1043899351928365 0.38063589691026312 0 -0.1223991477265188 0.39172348188394529 0 -0.12705486217569201 0.37548063006863869 0 -0.1043899351928365 0.38063589691026312 0 -0.1043899351928365 0.38063589691026312 0 -0.1223991477265188 0.39172348188394529 0 -0.1121746328039752 0.3981393569695641 0 -0.1223991477265188 0.39172348188394529 0 -0.1121746328039752 0.3981393569695641 0 -0.1177434332773465 0.40796633369925223 0 -0.1343779162705134 0.40451175385744709 0 -0.1223991477265188 0.39172348188394529 0 -0.1177434332773465 0.40796633369925223 0 -0.1223991477265188 0.39172348188394529 0 -0.1177434332773465 0.40796633369925223 0 -0.1254947588949093 0.41501181736415749 0 -0.1177434332773465 0.40796633369925223 0 -0.1070493220205882 0.41402788585394562 0 -0.1121746328039752 0.3981393569695641 0 -0.1177434332773465 0.40796633369925223 0 -0.1070493220205882 0.41402788585394562 0 -0.12785775670021879 0.4291684674519548 0 -0.1070493220205882 0.41402788585394562 0 -0.12785775670021879 0.4291684674519548 0 -0.1254947588949093 0.41501181736415749 0 -0.1070493220205882 0.41402788585394562 0 -0.12785775670021879 0.4291684674519548 0 -0.1010736123087918 0.43333675942057981 0 -0.1070493220205882 0.41402788585394562 0 -0.12785775670021879 0.4291684674519548 0 -0.1010736123087918 0.43333675942057981 0 -0.11726619540618009 0.44243598672192902 0 -0.12785775670021879 0.4291684674519548 0 -0.1010736123087918 0.43333675942057981 0 -0.1010736123087918 0.43333675942057981 0 -0.094009704907144623 0.41417394903805249 0 -0.1070493220205882 0.41402788585394562 0 -0.086240887340958666 0.39888730425593522 0 -0.1070493220205882 0.41402788585394562 0 -0.094009704907144623 0.41417394903805249 0 -0.087834937572716612 0.40769460854099893 0 -0.1010736123087918 0.43333675942057981 0 -0.1070493220205882 0.41402788585394562 0 -0.094009704907144623 0.41417394903805249 0 -0.1070493220205882 0.41402788585394562 0 -0.087834937572716612 0.40769460854099893 0 -0.086240887340958666 0.39888730425593522 0 -0.094009704907144623 0.41417394903805249 0 -0.087834937572716612 0.40769460854099893 0 -0.084076244154741964 0.4191466945443923 0 -0.084076244154741964 0.4191466945443923 0 -0.078884558565532295 0.40771251213935922 0 -0.076044108921083139 0.42963386052683078 0 -0.087834937572716612 0.40769460854099893 0 -0.084076244154741964 0.4191466945443923 0 -0.078884558565532295 0.40771251213935922 0 -0.1010736123087918 0.43333675942057981 0 -0.075496506771774774 0.43731720553946968 0 -0.1010736123087918 0.43333675942057981 0 -0.094009704907144623 0.41417394903805249 0 -0.084076244154741964 0.4191466945443923 0 -0.1010736123087918 0.43333675942057981 0 -0.075496506771774774 0.43731720553946968 0 -0.076044108921083139 0.42963386052683078 0 -0.1010736123087918 0.43333675942057981 0 -0.084076244154741964 0.4191466945443923 0 -0.076044108921083139 0.42963386052683078 0 -0.075496506771774774 0.43731720553946968 0 -0.06500919121306184 0.42929670758943489 0 -0.049919401234757882 0.44129765165836021 0 -0.075496506771774774 0.43731720553946968 0 -0.076044108921083139 0.42963386052683078 0 -0.06500919121306184 0.42929670758943489 0 -0.076044108921083139 0.42963386052683078 0 -0.06500919121306184 0.42929670758943489 0 -0.067712325704793172 0.41818012477108463 0 -0.078884558565532295 0.40771251213935922 0 -0.067712325704793172 0.41818012477108463 0 -0.062961380296698469 0.40596234513057211 0 -0.078884558565532295 0.40771251213935922 0 -0.076044108921083139 0.42963386052683078 0 -0.067712325704793172 0.41818012477108463 0 -0.078884558565532295 0.40771251213935922 0 -0.076044108921083139 0.42963386052683078 0 -0.078884558565532295 0.40771251213935922 0 -0.071191048230374393 0.39727260566137251 0 -0.081725008209980826 0.38579116375188738 0 -0.078884558565532295 0.40771251213935922 0 -0.062961380296698469 0.40596234513057211 0 -0.071191048230374393 0.39727260566137251 0 -0.071191048230374393 0.39727260566137251 0 -0.081725008209980826 0.38579116375188738 0 -0.055911191532454357 0.39166266350452261 0 -0.062961380296698469 0.40596234513057211 0 -0.071191048230374393 0.39727260566137251 0 -0.055911191532454357 0.39166266350452261 0 -0.078884558565532295 0.40771251213935922 0 -0.086240887340958666 0.39888730425593522 0 -0.081725008209980826 0.38579116375188738 0 -0.078884558565532295 0.40771251213935922 0 -0.081725008209980826 0.38579116375188738 0 -0.1014973743177516 0.39678702130947352 0 -0.086240887340958666 0.39888730425593522 0 -0.081725008209980826 0.38579116375188738 0 -0.087834937572716612 0.40769460854099893 0 -0.078884558565532295 0.40771251213935922 0 -0.086240887340958666 0.39888730425593522 0 -0.1043899351928365 0.38063589691026312 0 -0.081725008209980826 0.38579116375188738 0 -0.085079132952560671 0.35990549555819212 0 -0.1043899351928365 0.38063589691026312 0 -0.081725008209980826 0.38579116375188738 0 -0.081725008209980826 0.38579116375188738 0 -0.055911191532454357 0.39166266350452261 0 -0.081725008209980826 0.38579116375188738 0 -0.072401412527709957 0.37885222837311072 0 -0.055911191532454357 0.39166266350452261 0 -0.075815868327257049 0.36862868044606473 0 -0.081725008209980826 0.38579116375188738 0 -0.072401412527709957 0.37885222837311072 0 -0.065905203468714438 0.3721256442082686 0 -0.072401412527709957 0.37885222837311072 0 -0.055911191532454357 0.39166266350452261 0 -0.043690784098416938 0.37228671974109789 0 -0.055159240835187792 0.37437189717086727 0 -0.055911191532454357 0.39166266350452261 0 -0.055159240835187792 0.37437189717086727 0 -0.065905203468714438 0.3721256442082686 0 -0.055911191532454357 0.39166266350452261 0 -0.062961380296698469 0.40596234513057211 0 -0.055911191532454357 0.39166266350452261 0 -0.042901966346074849 0.40751041891504902 0 -0.055911191532454357 0.39166266350452261 0 -0.03009737485492826 0.39753416325715951 0 -0.055911191532454357 0.39166266350452261 0 -0.03009737485492826 0.39753416325715951 0 -0.042901966346074849 0.40751041891504902 0 -0.055911191532454357 0.39166266350452261 0 -0.03064949264413213 0.37808228292604262 0 -0.03009737485492826 0.39753416325715951 0 -0.043690784098416938 0.37228671974109789 0 -0.055911191532454357 0.39166266350452261 0 -0.03064949264413213 0.37808228292604262 0 -0.016837888522352629 0.37449014887933307 0 -0.03064949264413213 0.37808228292604262 0 -0.03009737485492826 0.39753416325715951 0 -0.016837888522352629 0.37449014887933307 0 -0.03009737485492826 0.39753416325715951 0 -0.001677346856619293 0.3963926748144484 0 -0.03009737485492826 0.39753416325715951 0 -0.018911492689927891 0.40803633670809958 0 -0.042901966346074849 0.40751041891504902 0 -0.03009737485492826 0.39753416325715951 0 -0.0065946734458638672 0.40287998666768071 0 -0.018911492689927891 0.40803633670809958 0 -0.03009737485492826 0.39753416325715951 0 -0.0065946734458638672 0.40287998666768071 0 -0.03009737485492826 0.39753416325715951 0 -0.0065946734458638672 0.40287998666768071 0 -0.001677346856619293 0.3963926748144484 0 -0.0065946734458638672 0.40287998666768071 0 -0.0042835581774024051 0.40340566300979641 0 -0.018911492689927891 0.40803633670809958 0 -0.0065946734458638672 0.40287998666768071 0 -0.0042835581774024051 0.40340566300979641 0 -0.001677346856619293 0.3963926748144484 0 -0.001028763028933938 0.38293360698600659 0 0.0026166052049493549 0.3897006102843773 0 -0.0023189940611774598 0.36957673354790599 0 -0.016837888522352629 0.37449014887933307 0 -0.001028763028933938 0.38293360698600659 0 -0.016837888522352629 0.37449014887933307 0 -0.001677346856619293 0.3963926748144484 0 -0.016837888522352629 0.37449014887933307 0 -0.001677346856619293 0.3963926748144484 0 -0.001028763028933938 0.38293360698600659 0 -0.0062344582942302929 0.42383081943380307 0 -0.017893543092320378 0.42275618232487477 0 -0.0083899483041514483 0.43918703252928198 0 -0.0062344582942302929 0.42383081943380307 0 -0.0083899483041514483 0.43918703252928198 0 0.0025860802708739272 0.43520549184769702 0 -0.0062344582942302929 0.42383081943380307 0 0.0028827669873004429 0.42525779523522989 0 0.0025860802708739272 0.43520549184769702 0 -0.0062344582942302929 0.42383081943380307 0 0.00107965628098802 0.41809943574447078 0 0.0028827669873004429 0.42525779523522989 0 -0.0062344582942302929 0.42383081943380307 0 -0.0056076302919748251 0.41568008266798279 0 0.00107965628098802 0.41809943574447078 0 -0.0062344582942302929 0.42383081943380307 0 -0.0056076302919748251 0.41568008266798279 0 -0.01144194999897293 0.41606700488514681 0 -0.0056076302919748251 0.41568008266798279 0 0.00067108555555037673 0.41132886275891117 0 0.00107965628098802 0.41809943574447078 0 -0.0042835581774024051 0.40340566300979641 0 -0.0082179184236605158 0.4103049547829935 0 0.00067108555555037673 0.41132886275891117 0 -0.0056076302919748251 0.41568008266798279 0 -0.0082179184236605158 0.4103049547829935 0 0.00067108555555037673 0.41132886275891117 0 -0.0042835581774024051 0.40340566300979641 0 -0.0082179184236605158 0.4103049547829935 0 -0.018911492689927891 0.40803633670809958 0 -0.0082179184236605158 0.4103049547829935 0 -0.01144194999897293 0.41606700488514681 0 -0.018911492689927891 0.40803633670809958 0 -0.0056076302919748251 0.41568008266798279 0 -0.0082179184236605158 0.4103049547829935 0 -0.01144194999897293 0.41606700488514681 0 -0.0062344582942302929 0.42383081943380307 0 -0.01144194999897293 0.41606700488514681 0 -0.017893543092320378 0.42275618232487477 0 -0.01144194999897293 0.41606700488514681 0 -0.018911492689927891 0.40803633670809958 0 -0.017893543092320378 0.42275618232487477 0 -0.018911492689927891 0.40803633670809958 0 -0.017893543092320378 0.42275618232487477 0 -0.03551966347598224 0.42128314545068513 0 -0.026246559063533931 0.43156433884422363 0 -0.017893543092320378 0.42275618232487477 0 -0.03551966347598224 0.42128314545068513 0 -0.026246559063533931 0.43156433884422363 0 -0.017893543092320378 0.42275618232487477 0 -0.0083899483041514483 0.43918703252928198 0 -0.03551966347598224 0.42128314545068513 0 -0.054010695226457912 0.42058385943925508 0 -0.049919401234757882 0.44129765165836021 0 -0.026246559063533931 0.43156433884422363 0 -0.03551966347598224 0.42128314545068513 0 -0.049919401234757882 0.44129765165836021 0 -0.018911492689927891 0.40803633670809958 0 -0.03551966347598224 0.42128314545068513 0 -0.042901966346074849 0.40751041891504902 0 -0.03551966347598224 0.42128314545068513 0 -0.042901966346074849 0.40751041891504902 0 -0.054010695226457912 0.42058385943925508 0 -0.062961380296698469 0.40596234513057211 0 -0.042901966346074849 0.40751041891504902 0 -0.054010695226457912 0.42058385943925508 0 -0.067712325704793172 0.41818012477108463 0 -0.062961380296698469 0.40596234513057211 0 -0.054010695226457912 0.42058385943925508 0 -0.06500919121306184 0.42929670758943489 0 -0.054010695226457912 0.42058385943925508 0 -0.049919401234757882 0.44129765165836021 0 -0.06500919121306184 0.42929670758943489 0 -0.067712325704793172 0.41818012477108463 0 -0.054010695226457912 0.42058385943925508 0 -0.049919401234757882 0.44129765165836021 0 -0.057726222918697487 0.45545045275268131 0 -0.067949834329818104 0.44965103803326001 0 -0.049919401234757882 0.44129765165836021 0 -0.057726222918697487 0.45545045275268131 0 -0.046839651293526213 0.46518710804115038 0 -0.057726222918697487 0.45545045275268131 0 -0.060355075824853152 0.46897724565081228 0 -0.069436890061982628 0.46263885603568361 0 -0.057726222918697487 0.45545045275268131 0 -0.046839651293526213 0.46518710804115038 0 -0.060355075824853152 0.46897724565081228 0 -0.049919401234757882 0.44129765165836021 0 -0.046839651293526213 0.46518710804115038 0 -0.030300634682069519 0.46121073200418322 0 -0.026246559063533931 0.43156433884422363 0 -0.049919401234757882 0.44129765165836021 0 -0.024342295697740809 0.44527809777725091 0 -0.049919401234757882 0.44129765165836021 0 -0.024342295697740809 0.44527809777725091 0 -0.030300634682069519 0.46121073200418322 0 -0.049919401234757882 0.44129765165836021 0 -0.024342295697740809 0.44527809777725091 0 -0.026246559063533931 0.43156433884422363 0 -0.024342295697740809 0.44527809777725091 0 -0.0083899483041514483 0.43918703252928198 0 -0.024342295697740809 0.44527809777725091 0 -0.01457360167866578 0.46769232669771782 0 -0.0083899483041514483 0.43918703252928198 0 -0.024342295697740809 0.44527809777725091 0 -0.030300634682069519 0.46121073200418322 0 -0.01457360167866578 0.46769232669771782 0 -0.01457360167866578 0.46769232669771782 0 0.0035834068939097278 0.45153849004657248 0 0.0074769567145055553 0.4673246001118555 0 -0.01457360167866578 0.46769232669771782 0 0.0035834068939097278 0.45153849004657248 0 -0.01457360167866578 0.46769232669771782 0 -0.0083899483041514483 0.43918703252928198 0 0.0035834068939097278 0.45153849004657248 0 -0.0083899483041514483 0.43918703252928198 0 0.0035834068939097278 0.45153849004657248 0 0.0025860802708739272 0.43520549184769702 0 -0.013235364073410969 0.48472656613736242 0 0.0024665777029492918 0.48088761108936401 0 0.0090965236815378492 0.5 0 -0.013235364073410969 0.48472656613736242 0 -0.020895547571140871 0.5 0 0.0090965236815378492 0.5 0 -0.01457360167866578 0.46769232669771782 0 -0.013235364073410969 0.48472656613736242 0 0.0024665777029492918 0.48088761108936401 0 -0.01457360167866578 0.46769232669771782 0 0.0024665777029492918 0.48088761108936401 0 0.0074769567145055553 0.4673246001118555 0 -0.01457360167866578 0.46769232669771782 0 -0.03273061025124125 0.48384616334886288 0 -0.030300634682069519 0.46121073200418322 0 -0.01457360167866578 0.46769232669771782 0 -0.03273061025124125 0.48384616334886288 0 -0.01457360167866578 0.46769232669771782 0 -0.013235364073410969 0.48472656613736242 0 -0.03273061025124125 0.48384616334886288 0 -0.013235364073410969 0.48472656613736242 0 -0.020895547571140871 0.5 0 -0.03273061025124125 0.48384616334886288 0 -0.020895547571140871 0.5 0 -0.03273061025124125 0.48384616334886288 0 -0.050887618823819217 0.50000000000000511 0 -0.03273061025124125 0.48384616334886288 0 -0.050887618823819217 0.50000000000000511 0 -0.046839651293526213 0.46518710804115038 0 -0.03273061025124125 0.48384616334886288 0 -0.058448797285689247 0.48549604975266758 0 -0.046839651293526213 0.46518710804115038 0 -0.030300634682069519 0.46121073200418322 0 -0.03273061025124125 0.48384616334886288 0 -0.046839651293526213 0.46518710804115038 0 -0.060355075824853152 0.46897724565081228 0 -0.058448797285689247 0.48549604975266758 0 -0.03273061025124125 0.48384616334886288 0 -0.058448797285689247 0.48549604975266758 0 -0.050887618823819217 0.50000000000000511 0 -0.058448797285689247 0.48549604975266758 0 -0.050887618823819217 0.50000000000000511 0 -0.067197505809793751 0.49300130537981801 0 -0.058448797285689247 0.48549604975266758 0 -0.067197505809793751 0.49300130537981801 0 -0.079439619632192177 0.48650917176659619 0 -0.058448797285689247 0.48549604975266758 0 -0.079439619632192177 0.48650917176659619 0 -0.050887618823819217 0.50000000000000511 0 -0.067197505809793751 0.49300130537981801 0 -0.080013987497476902 0.5 0 -0.067197505809793751 0.49300130537981801 0 -0.080013987497476902 0.5 0 -0.079439619632192177 0.48650917176659619 0 -0.080013987497476902 0.5 0 -0.079439619632192177 0.48650917176659619 0 -0.092256101319874675 0.49350786638678029 0 -0.079439619632192177 0.48650917176659619 0 -0.10043044197869511 0.48752229378052492 0 -0.079439619632192177 0.48650917176659619 0 -0.092256101319874675 0.49350786638678029 0 -0.10043044197869511 0.48752229378052492 0 -0.079439619632192177 0.48650917176659619 0 -0.089773087637035398 0.47681525569942729 0 -0.10043044197869511 0.48752229378052492 0 -0.079439619632192177 0.48650917176659619 0 -0.089773087637035398 0.47681525569942729 0 -0.07910176582175163 0.47032043284271358 0 -0.089773087637035398 0.47681525569942729 0 -0.088324209812503995 0.46479555322555011 0 -0.1003740534283365 0.47218433442143137 0 -0.089773087637035398 0.47681525569942729 0 -0.07910176582175163 0.47032043284271358 0 -0.088324209812503995 0.46479555322555011 0 -0.058448797285689247 0.48549604975266758 0 -0.079439619632192177 0.48650917176659619 0 -0.069323817564370199 0.47611376167187852 0 -0.079439619632192177 0.48650917176659619 0 -0.07910176582175163 0.47032043284271358 0 -0.069323817564370199 0.47611376167187852 0 -0.07910176582175163 0.47032043284271358 0 -0.069323817564370199 0.47611376167187852 0 -0.069436890061982628 0.46263885603568361 0 -0.060355075824853152 0.46897724565081228 0 -0.058448797285689247 0.48549604975266758 0 -0.069323817564370199 0.47611376167187852 0 -0.060355075824853152 0.46897724565081228 0 -0.069323817564370199 0.47611376167187852 0 -0.069436890061982628 0.46263885603568361 0 -0.057726222918697487 0.45545045275268131 0 -0.069436890061982628 0.46263885603568361 0 -0.067949834329818104 0.44965103803326001 0 -0.069436890061982628 0.46263885603568361 0 -0.067949834329818104 0.44965103803326001 0 -0.078514653840561624 0.45792062967758518 0 -0.07910176582175163 0.47032043284271358 0 -0.069436890061982628 0.46263885603568361 0 -0.078514653840561624 0.45792062967758518 0 -0.075496506771774774 0.43731720553946968 0 -0.049919401234757882 0.44129765165836021 0 -0.075496506771774774 0.43731720553946968 0 -0.049919401234757882 0.44129765165836021 0 -0.067949834329818104 0.44965103803326001 0 -0.067949834329818104 0.44965103803326001 0 -0.079585666182755269 0.44757054161161158 0 -0.078514653840561624 0.45792062967758518 0 -0.075496506771774774 0.43731720553946968 0 -0.067949834329818104 0.44965103803326001 0 -0.079585666182755269 0.44757054161161158 0 -0.1010736123087918 0.43333675942057981 0 -0.075496506771774774 0.43731720553946968 0 -0.088247200661882325 0.44501459290457462 0 -0.075496506771774774 0.43731720553946968 0 -0.079585666182755269 0.44757054161161158 0 -0.088247200661882325 0.44501459290457462 0 -0.079585666182755269 0.44757054161161158 0 -0.086689556834558229 0.45254735631669241 0 -0.078514653840561624 0.45792062967758518 0 -0.079585666182755269 0.44757054161161158 0 -0.086689556834558229 0.45254735631669241 0 -0.088247200661882325 0.44501459290457462 0 -0.086689556834558229 0.45254735631669241 0 -0.088247200661882325 0.44501459290457462 0 -0.095992678560511038 0.45480244731605751 0 -0.07910176582175163 0.47032043284271358 0 -0.078514653840561624 0.45792062967758518 0 -0.088324209812503995 0.46479555322555011 0 -0.086689556834558229 0.45254735631669241 0 -0.078514653840561624 0.45792062967758518 0 -0.088324209812503995 0.46479555322555011 0 -0.086689556834558229 0.45254735631669241 0 -0.088324209812503995 0.46479555322555011 0 -0.095992678560511038 0.45480244731605751 0 -0.095992678560511038 0.45480244731605751 0 -0.11124743831699339 0.46093608760751642 0 -0.1003740534283365 0.47218433442143137 0 -0.088324209812503995 0.46479555322555011 0 -0.095992678560511038 0.45480244731605751 0 -0.1003740534283365 0.47218433442143137 0 -0.1010736123087918 0.43333675942057981 0 -0.095992678560511038 0.45480244731605751 0 -0.11124743831699339 0.46093608760751642 0 -0.1010736123087918 0.43333675942057981 0 -0.11124743831699339 0.46093608760751642 0 -0.1010736123087918 0.43333675942057981 0 -0.088247200661882325 0.44501459290457462 0 -0.095992678560511038 0.45480244731605751 0 -0.1010736123087918 0.43333675942057981 0 -0.11726619540618009 0.44243598672192902 0 -0.11124743831699339 0.46093608760751642 0 -0.13093804095466499 0.44858963446682543 0 -0.11726619540618009 0.44243598672192902 0 -0.11124743831699339 0.46093608760751642 0 -0.11124743831699339 0.46093608760751642 0 -0.1214212643251982 0.48853541579445181 0 -0.11124743831699339 0.46093608760751642 0 -0.1214212643251982 0.48853541579445181 0 -0.1083682995123058 0.47729453290098112 0 -0.13516780782362259 0.4677932526556447 0 -0.11124743831699339 0.46093608760751642 0 -0.1214212643251982 0.48853541579445181 0 -0.1214212643251982 0.48853541579445181 0 -0.1091403561711345 0.5 0 -0.10043044197869511 0.48752229378052492 0 -0.13826672484479219 0.5 0 -0.12295486672236609 0.49269573815828549 0 -0.1091403561711345 0.5 0 -0.1214212643251982 0.48853541579445181 0 -0.10043044197869511 0.48752229378052492 0 -0.1083682995123058 0.47729453290098112 0 -0.1214212643251982 0.48853541579445181 0 -0.10043044197869511 0.48752229378052492 0 -0.1214212643251982 0.48853541579445181 0 -0.12295486672236609 0.49269573815828549 0 -0.1214212643251982 0.48853541579445181 0 -0.12295486672236609 0.49269573815828549 0 -0.1091403561711345 0.5 0 -0.092256101319874675 0.49350786638678029 0 -0.1091403561711345 0.5 0 -0.10043044197869511 0.48752229378052492 0 -0.080013987497476902 0.5 0 -0.092256101319874675 0.49350786638678029 0 -0.1091403561711345 0.5 0 -0.11124743831699339 0.46093608760751642 0 -0.1003740534283365 0.47218433442143137 0 -0.1083682995123058 0.47729453290098112 0 -0.089773087637035398 0.47681525569942729 0 -0.10043044197869511 0.48752229378052492 0 -0.1003740534283365 0.47218433442143137 0 -0.10043044197869511 0.48752229378052492 0 -0.1003740534283365 0.47218433442143137 0 -0.1083682995123058 0.47729453290098112 0 -0.16472329652855941 0.092809327262456595 0 -0.1651010179063763 0.069611836891479595 0 -0.15366383239866099 0.07954817680429413 0 -0.16472329652855941 0.092809327262456595 0 -0.1651010179063763 0.069611836891479595 0 -0.18104355163016261 0.080400240492017952 0 -0.16472329652855941 0.092809327262456595 0 -0.1651010179063763 0.069611836891479595 0 -0.16472329652855941 0.092809327262456595 0 -0.15366383239866099 0.07954817680429413 0 -0.15142611601262221 0.09231889179594388 0 -0.1651010179063763 0.069611836891479595 0 -0.15366383239866099 0.07954817680429413 0 -0.15561455866969359 0.062598775838589596 0 -0.1651010179063763 0.069611836891479595 0 -0.15366383239866099 0.07954817680429413 0 -0.1651010179063763 0.069611836891479595 0 -0.18104355163016261 0.080400240492017952 0 -0.18050807381543801 0.056226573142378757 0 -0.18104355163016261 0.080400240492017952 0 -0.18050807381543801 0.056226573142378757 0 -0.1921251286541267 0.066107445966080786 0 -0.1651010179063763 0.069611836891479595 0 -0.18050807381543801 0.056226573142378757 0 -0.18104355163016261 0.080400240492017952 0 -0.17661130097086411 0.10262328916713689 0 -0.18752250737046089 0.093309533199847083 0 -0.16472329652855941 0.092809327262456595 0 -0.18104355163016261 0.080400240492017952 0 -0.17661130097086411 0.10262328916713689 0 -0.17661130097086411 0.10262328916713689 0 -0.18752250737046089 0.093309533199847083 0 -0.19319666900177759 0.10823755275530469 0 -0.17661130097086411 0.10262328916713689 0 -0.1806219692402514 0.11897510966748751 0 -0.164345575150741 0.1160068176334335 0 -0.164345575150741 0.1160068176334335 0 -0.1818014709533593 0.13350983365588109 0 -0.1806219692402514 0.11897510966748751 0 -0.164345575150741 0.1160068176334335 0 -0.1818014709533593 0.13350983365588109 0 -0.1806219692402514 0.11897510966748751 0 -0.19319666900177759 0.10823755275530469 0 -0.18715483012451581 0.13449805512568061 0 -0.17661130097086411 0.10262328916713689 0 -0.1806219692402514 0.11897510966748751 0 -0.19319666900177759 0.10823755275530469 0 -0.164345575150741 0.1160068176334335 0 -0.15362079313189481 0.1052530852764313 0 -0.16472329652855941 0.092809327262456595 0 -0.164345575150741 0.1160068176334335 0 -0.16472329652855941 0.092809327262456595 0 -0.164345575150741 0.1160068176334335 0 -0.15362079313189481 0.1052530852764313 0 -0.16472329652855941 0.092809327262456595 0 -0.17661130097086411 0.10262328916713689 0 -0.164345575150741 0.1160068176334335 0 -0.16472329652855941 0.092809327262456595 0 -0.15362079313189481 0.1052530852764313 0 -0.15142611601262221 0.09231889179594388 0 -0.15362079313189481 0.1052530852764313 0 -0.14289601111304889 0.094499352919428681 0 -0.15142611601262221 0.09231889179594388 0 -0.14289601111304889 0.094499352919428681 0 -0.14596076400925409 0.117460295956986 0 -0.13966550120670759 0.1055034407114 0 -0.15362079313189481 0.1052530852764313 0 -0.14289601111304889 0.094499352919428681 0 -0.14596076400925409 0.117460295956986 0 -0.14289601111304889 0.094499352919428681 0 -0.14596076400925409 0.117460295956986 0 -0.14289601111304889 0.094499352919428681 0 -0.13810192943190891 0.098217602500371551 0 -0.14222664689094611 0.089484516717109081 0 -0.15362079313189481 0.1052530852764313 0 -0.14289601111304889 0.094499352919428681 0 -0.164345575150741 0.1160068176334335 0 -0.14596076400925409 0.117460295956986 0 -0.15584158349250429 0.12725024670607199 0 -0.164345575150741 0.1160068176334335 0 -0.15362079313189481 0.1052530852764313 0 -0.14596076400925409 0.117460295956986 0 -0.14596076400925409 0.117460295956986 0 -0.13724767167080049 0.1113994295339126 0 -0.13966550120670759 0.1055034407114 0 -0.14596076400925409 0.117460295956986 0 -0.1363207893526564 0.11766434982576331 0 -0.13983677403536809 0.12731703650027221 0 -0.1363207893526564 0.11766434982576331 0 -0.1280376533892047 0.1198063967832574 0 -0.13983677403536809 0.12731703650027221 0 -0.14596076400925409 0.117460295956986 0 -0.1363207893526564 0.11766434982576331 0 -0.13724767167080049 0.1113994295339126 0 -0.1363207893526564 0.11766434982576331 0 -0.13724767167080049 0.1113994295339126 0 -0.1305210836586545 0.11233859035438851 0 -0.13724767167080049 0.1113994295339126 0 -0.1305210836586545 0.11233859035438851 0 -0.1341211298085255 0.1059405226463014 0 -0.1305210836586545 0.11233859035438851 0 -0.12243784941251901 0.1066765276431219 0 -0.12253350570737059 0.11678091344594441 0 -0.1363207893526564 0.11766434982576331 0 -0.1305210836586545 0.11233859035438851 0 -0.1280376533892047 0.1198063967832574 0 -0.1305210836586545 0.11233859035438851 0 -0.1280376533892047 0.1198063967832574 0 -0.12253350570737059 0.11678091344594441 0 -0.13810192943190891 0.098217602500371551 0 -0.14222664689094611 0.089484516717109081 0 -0.12243784941251901 0.1066765276431219 0 -0.14222664689094611 0.089484516717109081 0 -0.1249435281328133 0.097236802171286441 0 -0.12243784941251901 0.1066765276431219 0 -0.14222664689094611 0.089484516717109081 0 -0.12243784941251901 0.1066765276431219 0 -0.13810192943190891 0.098217602500371551 0 -0.1341211298085255 0.1059405226463014 0 -0.12243784941251901 0.1066765276431219 0 -0.14289601111304889 0.094499352919428681 0 -0.13810192943190891 0.098217602500371551 0 -0.13966550120670759 0.1055034407114 0 -0.13810192943190891 0.098217602500371551 0 -0.13966550120670759 0.1055034407114 0 -0.1341211298085255 0.1059405226463014 0 -0.13724767167080049 0.1113994295339126 0 -0.13966550120670759 0.1055034407114 0 -0.1341211298085255 0.1059405226463014 0 -0.1305210836586545 0.11233859035438851 0 -0.1341211298085255 0.1059405226463014 0 -0.12243784941251901 0.1066765276431219 0 -0.12768745635105139 0.090595713279365261 0 -0.14222664689094611 0.089484516717109081 0 -0.1249435281328133 0.097236802171286441 0 -0.12768745635105139 0.090595713279365261 0 -0.12896766394695361 0.0780469356775918 0 -0.1210566600721498 0.084566362476993159 0 -0.12768745635105139 0.090595713279365261 0 -0.14222664689094611 0.089484516717109081 0 -0.12896766394695361 0.0780469356775918 0 -0.14289601111304889 0.094499352919428681 0 -0.14222664689094611 0.089484516717109081 0 -0.14289601111304889 0.094499352919428681 0 -0.14222664689094611 0.089484516717109081 0 -0.15142611601262221 0.09231889179594388 0 -0.14222664689094611 0.089484516717109081 0 -0.15366383239866099 0.07954817680429413 0 -0.14222664689094611 0.089484516717109081 0 -0.15366383239866099 0.07954817680429413 0 -0.15142611601262221 0.09231889179594388 0 -0.14222664689094611 0.089484516717109081 0 -0.15366383239866099 0.07954817680429413 0 -0.1387850243572154 0.063700089185738912 0 -0.15366383239866099 0.07954817680429413 0 -0.15561455866969359 0.062598775838589596 0 -0.1387850243572154 0.063700089185738912 0 -0.1387850243572154 0.063700089185738912 0 -0.12896766394695361 0.0780469356775918 0 -0.1195563759839391 0.057331774264555622 0 -0.14222664689094611 0.089484516717109081 0 -0.1387850243572154 0.063700089185738912 0 -0.14222664689094611 0.089484516717109081 0 -0.1387850243572154 0.063700089185738912 0 -0.12896766394695361 0.0780469356775918 0 -0.1387850243572154 0.063700089185738912 0 -0.1353434018234842 0.037915661654368812 0 -0.1387850243572154 0.063700089185738912 0 -0.1353434018234842 0.037915661654368812 0 -0.1195563759839391 0.057331774264555622 0 -0.15056139964846349 0.032883401642908823 0 -0.15518075233903231 0.04533189978261442 0 -0.16046671614875829 0.02853017359353437 0 -0.1353434018234842 0.037915661654368812 0 -0.15056139964846349 0.032883401642908823 0 -0.15518075233903231 0.04533189978261442 0 -0.1353434018234842 0.037915661654368812 0 -0.15056139964846349 0.032883401642908823 0 -0.14358467209133119 0.025150035423889779 0 -0.1387850243572154 0.063700089185738912 0 -0.1353434018234842 0.037915661654368812 0 -0.15518075233903231 0.04533189978261442 0 -0.15561455866969359 0.062598775838589596 0 -0.1387850243572154 0.063700089185738912 0 -0.15518075233903231 0.04533189978261442 0 -0.12878995460800041 -0.0111823678802991 0 -0.13190177928975461 0.0121312341229985 0 -0.1205409219509347 0.00050307250390628326 0 -0.12878995460800041 -0.0111823678802991 0 -0.13190177928975461 0.0121312341229985 0 -0.12878995460800041 -0.0111823678802991 0 -0.1396693605120094 0.0042269717197601442 0 -0.13190177928975461 0.0121312341229985 0 -0.13190177928975461 0.0121312341229985 0 -0.1205409219509347 0.00050307250390628326 0 -0.13190177928975461 0.0121312341229985 0 -0.1393983634195575 0.011323924085392831 0 -0.1355126771762033 0.015827091131092801 0 -0.1393983634195575 0.011323924085392831 0 -0.1355126771762033 0.015827091131092801 0 -0.14446699415320341 0.015892837312852029 0 -0.13190177928975461 0.0121312341229985 0 -0.1355126771762033 0.015827091131092801 0 -0.1396693605120094 0.0042269717197601442 0 -0.13190177928975461 0.0121312341229985 0 -0.1393983634195575 0.011323924085392831 0 -0.1353434018234842 0.037915661654368812 0 -0.13190177928975461 0.0121312341229985 0 -0.1355126771762033 0.015827091131092801 0 -0.1353434018234842 0.037915661654368812 0 -0.13190177928975461 0.0121312341229985 0 -0.1173613120515847 0.03399979482060457 0 -0.1353434018234842 0.037915661654368812 0 -0.1355126771762033 0.015827091131092801 0 -0.14358467209133119 0.025150035423889779 0 -0.1353434018234842 0.037915661654368812 0 -0.13190177928975461 0.0121312341229985 0 -0.15056139964846349 0.032883401642908823 0 -0.15123674151742439 0.022679624188859819 0 -0.16046671614875829 0.02853017359353437 0 -0.15056139964846349 0.032883401642908823 0 -0.14358467209133119 0.025150035423889779 0 -0.15123674151742439 0.022679624188859819 0 -0.15123674151742439 0.022679624188859819 0 -0.14446699415320341 0.015892837312852029 0 -0.1525111772606115 0.014251079339466439 0 -0.15123674151742439 0.022679624188859819 0 -0.1525111772606115 0.014251079339466439 0 -0.1583171740228779 0.02097755604611061 0 -0.14358467209133119 0.025150035423889779 0 -0.15123674151742439 0.022679624188859819 0 -0.14446699415320341 0.015892837312852029 0 -0.1355126771762033 0.015827091131092801 0 -0.14358467209133119 0.025150035423889779 0 -0.14446699415320341 0.015892837312852029 0 -0.14446699415320341 0.015892837312852029 0 -0.1460785564125921 0.0083375802205916654 0 -0.1525111772606115 0.014251079339466439 0 -0.1393983634195575 0.011323924085392831 0 -0.14446699415320341 0.015892837312852029 0 -0.1460785564125921 0.0083375802205916654 0 -0.1396693605120094 0.0042269717197601442 0 -0.1393983634195575 0.011323924085392831 0 -0.1460785564125921 0.0083375802205916654 0 -0.1525111772606115 0.014251079339466439 0 -0.153074708911037 0.0059138644527487339 0 -0.160242206926479 0.010174558005973829 0 -0.1460785564125921 0.0083375802205916654 0 -0.1525111772606115 0.014251079339466439 0 -0.153074708911037 0.0059138644527487339 0 -0.14735073421913381 -0.0015831955866701831 0 -0.15666255756651601 -0.0023757106973261912 0 -0.153074708911037 0.0059138644527487339 0 -0.14735073421913381 -0.0015831955866701831 0 -0.1460785564125921 0.0083375802205916654 0 -0.153074708911037 0.0059138644527487339 0 -0.15666255756651601 -0.0023757106973261912 0 -0.153074708911037 0.0059138644527487339 0 -0.15902083761062341 0.0040942510354371204 0 -0.14735073421913381 -0.0015831955866701831 0 -0.1396693605120094 0.0042269717197601442 0 -0.1460785564125921 0.0083375802205916654 0 -0.16610387703846169 0.0026642923803521022 0 -0.1691117496341773 0.010609712373141881 0 -0.1726904712205623 0.004753059299710918 0 -0.16610387703846169 0.0026642923803521022 0 -0.160242206926479 0.010174558005973829 0 -0.1691117496341773 0.010609712373141881 0 -0.17041037544895199 -0.0025324399665633841 0 -0.16610387703846169 0.0026642923803521022 0 -0.1726904712205623 0.004753059299710918 0 -0.15666255756651601 -0.0023757106973261912 0 -0.16610387703846169 0.0026642923803521022 0 -0.15902083761062341 0.0040942510354371204 0 -0.153074708911037 0.0059138644527487339 0 -0.15902083761062341 0.0040942510354371204 0 -0.160242206926479 0.010174558005973829 0 -0.16610387703846169 0.0026642923803521022 0 -0.15902083761062341 0.0040942510354371204 0 -0.160242206926479 0.010174558005973829 0 -0.1525111772606115 0.014251079339466439 0 -0.160242206926479 0.010174558005973829 0 -0.1583171740228779 0.02097755604611061 0 -0.1691117496341773 0.010609712373141881 0 -0.1656035214272347 0.018049808674561751 0 -0.17403896807212921 0.01786405007436237 0 -0.160242206926479 0.010174558005973829 0 -0.1691117496341773 0.010609712373141881 0 -0.1656035214272347 0.018049808674561751 0 -0.1656035214272347 0.018049808674561751 0 -0.16920777619157509 0.02631543341378477 0 -0.17403896807212921 0.01786405007436237 0 -0.1656035214272347 0.018049808674561751 0 -0.1583171740228779 0.02097755604611061 0 -0.16046671614875829 0.02853017359353437 0 -0.160242206926479 0.010174558005973829 0 -0.1656035214272347 0.018049808674561751 0 -0.1583171740228779 0.02097755604611061 0 -0.15123674151742439 0.022679624188859819 0 -0.1583171740228779 0.02097755604611061 0 -0.16046671614875829 0.02853017359353437 0 -0.16046671614875829 0.02853017359353437 0 -0.16920777619157509 0.02631543341378477 0 -0.16903888793498861 0.036451201820423357 0 -0.1656035214272347 0.018049808674561751 0 -0.16046671614875829 0.02853017359353437 0 -0.16920777619157509 0.02631543341378477 0 -0.16920777619157509 0.02631543341378477 0 -0.17815913795119631 0.025227165347399511 0 -0.17847953571787789 0.034211809865267097 0 -0.17815913795119631 0.025227165347399511 0 -0.17847953571787789 0.034211809865267097 0 -0.18763308492820921 0.02620258749538916 0 -0.17815913795119631 0.025227165347399511 0 -0.1828752509244938 0.0176332399474411 0 -0.18763308492820921 0.02620258749538916 0 -0.16920777619157509 0.02631543341378477 0 -0.17815913795119631 0.025227165347399511 0 -0.17403896807212921 0.01786405007436237 0 -0.17815913795119631 0.025227165347399511 0 -0.1828752509244938 0.0176332399474411 0 -0.17403896807212921 0.01786405007436237 0 -0.1691117496341773 0.010609712373141881 0 -0.17403896807212921 0.01786405007436237 0 -0.17776841684656419 0.010365589311524939 0 -0.1691117496341773 0.010609712373141881 0 -0.17776841684656419 0.010365589311524939 0 -0.1726904712205623 0.004753059299710918 0 -0.1828752509244938 0.0176332399474411 0 -0.17403896807212921 0.01786405007436237 0 -0.17776841684656419 0.010365589311524939 0 -0.1828752509244938 0.0176332399474411 0 -0.17776841684656419 0.010365589311524939 0 -0.18663106258872819 0.0092729502523008819 0 -0.1828752509244938 0.0176332399474411 0 -0.18663106258872819 0.0092729502523008819 0 -0.19221767965538389 0.016851160485077579 0 -0.17833868767887739 -0.0001939062256226343 0 -0.17776841684656419 0.010365589311524939 0 -0.18663106258872819 0.0092729502523008819 0 -0.17833868767887739 -0.0001939062256226343 0 -0.18663106258872819 0.0092729502523008819 0 -0.19059271996149829 0.0011396430374954491 0 -0.17041037544895199 -0.0025324399665633841 0 -0.17833868767887739 -0.0001939062256226343 0 -0.1726904712205623 0.004753059299710918 0 -0.17833868767887739 -0.0001939062256226343 0 -0.17776841684656419 0.010365589311524939 0 -0.1726904712205623 0.004753059299710918 0 -0.15561455866969359 0.062598775838589596 0 -0.15518075233903231 0.04533189978261442 0 -0.16534216634718291 0.054801876528820653 0 -0.16534216634718291 0.054801876528820653 0 -0.16811903565236791 0.045813586109552822 0 -0.18050807381543801 0.056226573142378757 0 -0.1651010179063763 0.069611836891479595 0 -0.16534216634718291 0.054801876528820653 0 -0.1651010179063763 0.069611836891479595 0 -0.16534216634718291 0.054801876528820653 0 -0.18050807381543801 0.056226573142378757 0 -0.1651010179063763 0.069611836891479595 0 -0.15561455866969359 0.062598775838589596 0 -0.16534216634718291 0.054801876528820653 0 -0.15518075233903231 0.04533189978261442 0 -0.16534216634718291 0.054801876528820653 0 -0.16811903565236791 0.045813586109552822 0 -0.15518075233903231 0.04533189978261442 0 -0.16046671614875829 0.02853017359353437 0 -0.16903888793498861 0.036451201820423357 0 -0.16903888793498861 0.036451201820423357 0 -0.16811903565236791 0.045813586109552822 0 -0.17746905191439649 0.044775528452687223 0 -0.15518075233903231 0.04533189978261442 0 -0.16903888793498861 0.036451201820423357 0 -0.16811903565236791 0.045813586109552822 0 -0.17746905191439649 0.044775528452687223 0 -0.18050807381543801 0.056226573142378757 0 -0.18762556146381079 0.038675742196352017 0 -0.16920777619157509 0.02631543341378477 0 -0.16903888793498861 0.036451201820423357 0 -0.17847953571787789 0.034211809865267097 0 -0.16903888793498861 0.036451201820423357 0 -0.17746905191439649 0.044775528452687223 0 -0.17847953571787789 0.034211809865267097 0 -0.17847953571787789 0.034211809865267097 0 -0.18762556146381079 0.038675742196352017 0 -0.18763308492820921 0.02620258749538916 0 -0.17746905191439649 0.044775528452687223 0 -0.17847953571787789 0.034211809865267097 0 -0.18762556146381079 0.038675742196352017 0 -0.16811903565236791 0.045813586109552822 0 -0.17746905191439649 0.044775528452687223 0 -0.18050807381543801 0.056226573142378757 0 -0.18050807381543801 0.056226573142378757 0 -0.19345716973759139 0.055222969129072583 0 -0.1921251286541267 0.066107445966080786 0 -0.19345716973759139 0.055222969129072583 0 -0.205280346756301 0.055716548014553113 0 -0.1921251286541267 0.066107445966080786 0 -0.19345716973759139 0.055222969129072583 0 -0.19591512972449959 0.04284130939327762 0 -0.205280346756301 0.055716548014553113 0 -0.18050807381543801 0.056226573142378757 0 -0.19345716973759139 0.055222969129072583 0 -0.19591512972449959 0.04284130939327762 0 -0.18050807381543801 0.056226573142378757 0 -0.19591512972449959 0.04284130939327762 0 -0.18050807381543801 0.056226573142378757 0 -0.18762556146381079 0.038675742196352017 0 -0.19591512972449959 0.04284130939327762 0 -0.18762556146381079 0.038675742196352017 0 -0.19591512972449959 0.04284130939327762 0 -0.21132218563356189 0.029456045644177212 0 -0.18762556146381079 0.038675742196352017 0 -0.2117422119805154 0.027630425480538869 0 -0.21659849122371869 0.052771561968682559 0 -0.21529816351555681 0.026001815781882511 0 -0.21957856361037709 0.024041411923769729 0 -0.18762556146381079 0.038675742196352017 0 -0.21132218563356189 0.029456045644177212 0 -0.2117422119805154 0.027630425480538869 0 -0.21659849122371869 0.052771561968682559 0 -0.21957856361037709 0.024041411923769729 0 -0.205280346756301 0.055716548014553113 0 -0.21132218563356189 0.029456045644177212 0 -0.19591512972449959 0.04284130939327762 0 -0.205280346756301 0.055716548014553113 0 -0.21132218563356189 0.029456045644177212 0 -0.21659849122371869 0.052771561968682559 0 -0.205280346756301 0.055716548014553113 0 -0.21132218563356189 0.029456045644177212 0 -0.21659849122371869 0.052771561968682559 0 -0.21132218563356189 0.029456045644177212 0 -0.21529816351555681 0.026001815781882511 0 -0.19591512972449959 0.04284130939327762 0 -0.21132218563356189 0.029456045644177212 0 -0.20681184354834589 -7.5020610885059846e-05 0 -0.19059271996149829 0.0011396430374954491 0 -0.19799362046555191 0.009841974957888874 0 -0.18663106258872819 0.0092729502523008819 0 -0.19059271996149829 0.0011396430374954491 0 -0.19799362046555191 0.009841974957888874 0 -0.18663106258872819 0.0092729502523008819 0 -0.19799362046555191 0.009841974957888874 0 -0.19221767965538389 0.016851160485077579 0 -0.19799362046555191 0.009841974957888874 0 -0.20366064275879631 0.019483880087093879 0 -0.20573897705642691 0.011234755394850559 0 -0.19799362046555191 0.009841974957888874 0 -0.19221767965538389 0.016851160485077579 0 -0.20366064275879631 0.019483880087093879 0 -0.18762556146381079 0.038675742196352017 0 -0.19757076235292331 0.027311093940152721 0 -0.2117422119805154 0.027630425480538869 0 -0.19221767965538389 0.016851160485077579 0 -0.1952705424238281 0.02246218050192833 0 -0.20366064275879631 0.019483880087093879 0 -0.1952705424238281 0.02246218050192833 0 -0.19757076235292331 0.027311093940152721 0 -0.20366064275879631 0.019483880087093879 0 -0.1828752509244938 0.0176332399474411 0 -0.19221767965538389 0.016851160485077579 0 -0.18763308492820921 0.02620258749538916 0 -0.19221767965538389 0.016851160485077579 0 -0.1952705424238281 0.02246218050192833 0 -0.18763308492820921 0.02620258749538916 0 -0.1952705424238281 0.02246218050192833 0 -0.18763308492820921 0.02620258749538916 0 -0.19757076235292331 0.027311093940152721 0 -0.18762556146381079 0.038675742196352017 0 -0.18763308492820921 0.02620258749538916 0 -0.19757076235292331 0.027311093940152721 0 -0.19757076235292331 0.027311093940152721 0 -0.2117422119805154 0.027630425480538869 0 -0.20366064275879631 0.019483880087093879 0 -0.21132218563356189 0.029456045644177212 0 -0.2117422119805154 0.027630425480538869 0 -0.21529816351555681 0.026001815781882511 0 -0.21132218563356189 0.029456045644177212 0 -0.21529816351555681 0.026001815781882511 0 -0.21132218563356189 0.029456045644177212 0 -0.2117422119805154 0.027630425480538869 0 -0.21529816351555681 0.026001815781882511 0 -0.21977900868864611 0.022108969879673979 0 -0.21957856361037709 0.024041411923769729 0 -0.21529816351555681 0.026001815781882511 0 -0.21977900868864611 0.022108969879673979 0 -0.21529816351555681 0.026001815781882511 0 -0.21957856361037709 0.024041411923769729 0 -0.2117422119805154 0.027630425480538869 0 -0.21529816351555681 0.026001815781882511 0 -0.21627254307801649 0.022178355527851509 0 -0.2117422119805154 0.027630425480538869 0 -0.21529816351555681 0.026001815781882511 0 -0.2117422119805154 0.027630425480538869 0 -0.21448980145301341 0.01568818714530465 0 -0.2117422119805154 0.027630425480538869 0 -0.21627254307801649 0.022178355527851509 0 -0.21448980145301341 0.01568818714530465 0 -0.21529816351555681 0.026001815781882511 0 -0.21627254307801649 0.022178355527851509 0 -0.21977900868864611 0.022108969879673979 0 -0.21627254307801649 0.022178355527851509 0 -0.22005352975235051 0.019462379351857829 0 -0.21977900868864611 0.022108969879673979 0 -0.21627254307801649 0.022178355527851509 0 -0.21448980145301341 0.01568818714530465 0 -0.22005352975235051 0.019462379351857829 0 -0.2117422119805154 0.027630425480538869 0 -0.21448980145301341 0.01568818714530465 0 -0.20366064275879631 0.019483880087093879 0 -0.20681184354834589 -7.5020610885059846e-05 0 -0.21448980145301341 0.01568818714530465 0 -0.20573897705642691 0.011234755394850559 0 -0.20681184354834589 -7.5020610885059846e-05 0 -0.21448980145301341 0.01568818714530465 0 -0.22194377007170901 0.02022827948449055 0 -0.20681184354834589 -7.5020610885059846e-05 0 -0.22194377007170901 0.02022827948449055 0 -0.21448980145301341 0.01568818714530465 0 -0.20366064275879631 0.019483880087093879 0 -0.20573897705642691 0.011234755394850559 0 -0.20681184354834589 -7.5020610885059846e-05 0 -0.19799362046555191 0.009841974957888874 0 -0.20573897705642691 0.011234755394850559 0 -0.20681184354834589 -7.5020610885059846e-05 0 -0.2300888093112464 -0.0099263731460148569 0 -0.23238273657359551 0.01115916720758893 0 -0.20681184354834589 -7.5020610885059846e-05 0 -0.23238273657359551 0.01115916720758893 0 -0.20681184354834589 -7.5020610885059846e-05 0 -0.23238273657359551 0.01115916720758893 0 -0.22194377007170901 0.02022827948449055 0 -0.23398276890356179 0.02343195425837143 0 -0.2234605816754385 0.02226346523107264 0 -0.24020370315875089 0.0145951914189008 0 -0.23238273657359551 0.01115916720758893 0 -0.2234605816754385 0.02226346523107264 0 -0.24020370315875089 0.0145951914189008 0 -0.2234605816754385 0.02226346523107264 0 -0.24020370315875089 0.0145951914189008 0 -0.23238273657359551 0.01115916720758893 0 -0.22194377007170901 0.02022827948449055 0 -0.23238273657359551 0.01115916720758893 0 -0.22194377007170901 0.02022827948449055 0 -0.2234605816754385 0.02226346523107264 0 -0.21448980145301341 0.01568818714530465 0 -0.22005352975235051 0.019462379351857829 0 -0.22194377007170901 0.02022827948449055 0 -0.21977900868864611 0.022108969879673979 0 -0.21957856361037709 0.024041411923769729 0 -0.22005352975235051 0.019462379351857829 0 -0.21977900868864611 0.022108969879673979 0 -0.22194377007170901 0.02022827948449055 0 -0.22005352975235051 0.019462379351857829 0 -0.21977900868864611 0.022108969879673979 0 -0.21977900868864611 0.022108969879673979 0 -0.22194377007170901 0.02022827948449055 0 -0.21977900868864611 0.022108969879673979 0 -0.2234605816754385 0.02226346523107264 0 -0.21957856361037709 0.024041411923769729 0 -0.21977900868864611 0.022108969879673979 0 -0.22194377007170901 0.02022827948449055 0 -0.2234605816754385 0.02226346523107264 0 -0.2234605816754385 0.02226346523107264 0 -0.21957856361037709 0.024041411923769729 0 -0.22194377007170901 0.02022827948449055 0 -0.2234605816754385 0.02226346523107264 0 -0.2234605816754385 0.02226346523107264 0 -0.22577614488327019 0.025370377931569339 0 -0.21957856361037709 0.024041411923769729 0 -0.22577614488327019 0.025370377931569339 0 -0.21957856361037709 0.024041411923769729 0 -0.22776232193895801 0.032066640053241342 0 -0.2234605816754385 0.02226346523107264 0 -0.22577614488327019 0.025370377931569339 0 -0.23398276890356179 0.02343195425837143 0 -0.23056252112274539 0.028124649273637541 0 -0.23472884876519151 0.031629624851368068 0 -0.23398276890356179 0.02343195425837143 0 -0.2234605816754385 0.02226346523107264 0 -0.22577614488327019 0.025370377931569339 0 -0.23398276890356179 0.02343195425837143 0 -0.22577614488327019 0.025370377931569339 0 -0.23056252112274539 0.028124649273637541 0 -0.22577614488327019 0.025370377931569339 0 -0.23056252112274539 0.028124649273637541 0 -0.22776232193895801 0.032066640053241342 0 -0.23056252112274539 0.028124649273637541 0 -0.22776232193895801 0.032066640053241342 0 -0.23472884876519151 0.031629624851368068 0 -0.25508342351913738 0.031033186514931262 0 -0.24390295395024719 0.024986288298914569 0 -0.23472884876519151 0.031629624851368068 0 -0.23398276890356179 0.02343195425837143 0 -0.24390295395024719 0.024986288298914569 0 -0.23472884876519151 0.031629624851368068 0 -0.25331753871642138 0.02035655812322067 0 -0.24390295395024719 0.024986288298914569 0 -0.24020370315875089 0.0145951914189008 0 -0.25331753871642138 0.02035655812322067 0 -0.24020370315875089 0.0145951914189008 0 -0.23398276890356179 0.02343195425837143 0 -0.24390295395024719 0.024986288298914569 0 -0.24020370315875089 0.0145951914189008 0 -0.25837076835969591 0.0062747578328909252 0 -0.24020370315875089 0.0145951914189008 0 -0.24591952587856611 0.0065679131930172973 0 -0.25837076835969591 0.0062747578328909252 0 -0.24020370315875089 0.0145951914189008 0 -0.25064685395634662 -0.0047082398918306921 0 -0.23238273657359551 0.01115916720758893 0 -0.24591952587856611 0.0065679131930172973 0 -0.25064685395634662 -0.0047082398918306921 0 -0.23238273657359551 0.01115916720758893 0 -0.23238273657359551 0.01115916720758893 0 -0.24020370315875089 0.0145951914189008 0 -0.24591952587856611 0.0065679131930172973 0 -0.23238273657359551 0.01115916720758893 0 -0.24020370315875089 0.0145951914189008 0 -0.22671045132994311 0.049468879173498383 0 -0.22672483703989149 0.05842047915885494 0 -0.2346529045166012 0.053367781633548897 0 -0.22671045132994311 0.049468879173498383 0 -0.23344904935095279 0.042617381709098602 0 -0.2346529045166012 0.053367781633548897 0 -0.22672483703989149 0.05842047915885494 0 -0.2346529045166012 0.053367781633548897 0 -0.23657237557211791 0.067925350098184345 0 -0.21659849122371869 0.052771561968682559 0 -0.22672483703989149 0.05842047915885494 0 -0.22324285807137961 0.068392407839963837 0 -0.21659849122371869 0.052771561968682559 0 -0.22671045132994311 0.049468879173498383 0 -0.22672483703989149 0.05842047915885494 0 -0.21659849122371869 0.052771561968682559 0 -0.22671045132994311 0.049468879173498383 0 -0.22420342227570239 0.040078983857108563 0 -0.21659849122371869 0.052771561968682559 0 -0.21957856361037709 0.024041411923769729 0 -0.22420342227570239 0.040078983857108563 0 -0.21957856361037709 0.024041411923769729 0 -0.22420342227570239 0.040078983857108563 0 -0.22776232193895801 0.032066640053241342 0 -0.22776232193895801 0.032066640053241342 0 -0.23344904935095279 0.042617381709098602 0 -0.23472884876519151 0.031629624851368068 0 -0.22420342227570239 0.040078983857108563 0 -0.22776232193895801 0.032066640053241342 0 -0.23344904935095279 0.042617381709098602 0 -0.22671045132994311 0.049468879173498383 0 -0.22420342227570239 0.040078983857108563 0 -0.23344904935095279 0.042617381709098602 0 -0.25423733013763611 0.049926927058833247 0 -0.25508342351913738 0.031033186514931262 0 -0.23472884876519151 0.031629624851368068 0 -0.25423733013763611 0.049926927058833247 0 -0.23472884876519151 0.031629624851368068 0 -0.25423733013763611 0.049926927058833247 0 -0.23344904935095279 0.042617381709098602 0 -0.23472884876519151 0.031629624851368068 0 -0.25423733013763611 0.049926927058833247 0 -0.2346529045166012 0.053367781633548897 0 -0.23657237557211791 0.067925350098184345 0 -0.25423733013763611 0.049926927058833247 0 -0.23344904935095279 0.042617381709098602 0 -0.2346529045166012 0.053367781633548897 0 -0.25286102851928272 0.078937341706141001 0 -0.25423733013763611 0.049926927058833247 0 -0.23657237557211791 0.067925350098184345 0 -0.25286102851928272 0.078937341706141001 0 -0.23657237557211791 0.067925350098184345 0 -0.23271675134944339 0.082449974512942961 0 -0.25286102851928272 0.078937341706141001 0 -0.23271675134944339 0.082449974512942961 0 -0.24447095883536121 0.099769624678117563 0 -0.23271675134944339 0.082449974512942961 0 -0.2136184188370607 0.081501712013595504 0 -0.22553486826145841 0.098173410741655587 0 -0.23271675134944339 0.082449974512942961 0 -0.22553486826145841 0.098173410741655587 0 -0.24447095883536121 0.099769624678117563 0 -0.23271675134944339 0.082449974512942961 0 -0.22324285807137961 0.068392407839963837 0 -0.2136184188370607 0.081501712013595504 0 -0.22672483703989149 0.05842047915885494 0 -0.23657237557211791 0.067925350098184345 0 -0.22324285807137961 0.068392407839963837 0 -0.23657237557211791 0.067925350098184345 0 -0.23271675134944339 0.082449974512942961 0 -0.22324285807137961 0.068392407839963837 0 -0.21659849122371869 0.052771561968682559 0 -0.2136184188370607 0.081501712013595504 0 -0.21659849122371869 0.052771561968682559 0 -0.22324285807137961 0.068392407839963837 0 -0.2136184188370607 0.081501712013595504 0 -0.205280346756301 0.055716548014553113 0 -0.2136184188370607 0.081501712013595504 0 -0.19923850787903929 0.081977050384928807 0 -0.21659849122371869 0.052771561968682559 0 -0.205280346756301 0.055716548014553113 0 -0.2136184188370607 0.081501712013595504 0 -0.2136184188370607 0.081501712013595504 0 -0.19923850787903929 0.081977050384928807 0 -0.20376761221948231 0.096104267528381138 0 -0.18104355163016261 0.080400240492017952 0 -0.18752250737046089 0.093309533199847083 0 -0.19923850787903929 0.081977050384928807 0 -0.205280346756301 0.055716548014553113 0 -0.19923850787903929 0.081977050384928807 0 -0.1921251286541267 0.066107445966080786 0 -0.18104355163016261 0.080400240492017952 0 -0.19923850787903929 0.081977050384928807 0 -0.1921251286541267 0.066107445966080786 0 -0.205280346756301 0.055716548014553113 0 -0.19923850787903929 0.081977050384928807 0 -0.19319666900177759 0.10823755275530469 0 -0.18715483012451581 0.13449805512568061 0 -0.1982080760523276 0.1249721305982253 0 -0.19319666900177759 0.10823755275530469 0 -0.20585248966889461 0.11945489588286649 0 -0.1982080760523276 0.1249721305982253 0 -0.19319666900177759 0.10823755275530469 0 -0.18715483012451581 0.13449805512568061 0 -0.19923850787903929 0.081977050384928807 0 -0.19319666900177759 0.10823755275530469 0 -0.19319666900177759 0.10823755275530469 0 -0.20376761221948231 0.096104267528381138 0 -0.21063834645040269 0.1102318620585085 0 -0.18752250737046089 0.093309533199847083 0 -0.19923850787903929 0.081977050384928807 0 -0.19319666900177759 0.10823755275530469 0 -0.19923850787903929 0.081977050384928807 0 -0.19319666900177759 0.10823755275530469 0 -0.20376761221948231 0.096104267528381138 0 -0.2136184188370607 0.081501712013595504 0 -0.20376761221948231 0.096104267528381138 0 -0.21063834645040269 0.1102318620585085 0 -0.2136184188370607 0.081501712013595504 0 -0.21063834645040269 0.1102318620585085 0 -0.22553486826145841 0.098173410741655587 0 -0.2136184188370607 0.081501712013595504 0 -0.21063834645040269 0.1102318620585085 0 -0.21063834645040269 0.1102318620585085 0 -0.20585248966889461 0.11945489588286649 0 -0.21754843796578591 0.1217393632998601 0 -0.19319666900177759 0.10823755275530469 0 -0.21063834645040269 0.1102318620585085 0 -0.20585248966889461 0.11945489588286649 0 -0.20585248966889461 0.11945489588286649 0 -0.21754843796578591 0.1217393632998601 0 -0.2096709188741793 0.13209357070243399 0 -0.21063834645040269 0.1102318620585085 0 -0.21754843796578591 0.1217393632998601 0 -0.23005219258513571 0.11685796288709201 0 -0.23005219258513571 0.11685796288709201 0 -0.22553486826145841 0.098173410741655587 0 -0.24447095883536121 0.099769624678117563 0 -0.21063834645040269 0.1102318620585085 0 -0.23005219258513571 0.11685796288709201 0 -0.22553486826145841 0.098173410741655587 0 -0.23005219258513571 0.11685796288709201 0 -0.24447095883536121 0.099769624678117563 0 -0.2487639911670752 0.1184397455211325 0 -0.23005219258513571 0.11685796288709201 0 -0.2487639911670752 0.1184397455211325 0 -0.2461642204590781 0.1379457392988977 0 -0.23005219258513571 0.11685796288709201 0 -0.2461642204590781 0.1379457392988977 0 -0.2290424550497025 0.13734657103999451 0 -0.21754843796578591 0.1217393632998601 0 -0.23005219258513571 0.11685796288709201 0 -0.2290424550497025 0.13734657103999451 0 -0.2290424550497025 0.13734657103999451 0 -0.2383932075745617 0.1561079646044177 0 -0.21529295922354649 0.14667093683399141 0 -0.2461642204590781 0.1379457392988977 0 -0.2290424550497025 0.13734657103999451 0 -0.2383932075745617 0.1561079646044177 0 -0.26484637756340229 0.15421505759267851 0 -0.2461642204590781 0.1379457392988977 0 -0.2383932075745617 0.1561079646044177 0 -0.25122994632153939 0.17870893372073721 0 -0.2383932075745617 0.1561079646044177 0 -0.23480424195419949 0.17345028537429641 0 -0.25122994632153939 0.17870893372073721 0 -0.23480424195419949 0.17345028537429641 0 -0.23288055136209901 0.19046837747125631 0 -0.21671326255859771 0.16851586570077451 0 -0.23288055136209901 0.19046837747125631 0 -0.21122234574923721 0.19272838116728491 0 -0.23480424195419949 0.17345028537429641 0 -0.21671326255859771 0.16851586570077451 0 -0.23288055136209901 0.19046837747125631 0 -0.2383932075745617 0.1561079646044177 0 -0.23480424195419949 0.17345028537429641 0 -0.21671326255859771 0.16851586570077451 0 -0.2383932075745617 0.1561079646044177 0 -0.21671326255859771 0.16851586570077451 0 -0.21529295922354649 0.14667093683399141 0 -0.21671326255859771 0.16851586570077451 0 -0.19925736675597849 0.1510128496783277 0 -0.21671326255859771 0.16851586570077451 0 -0.1958368305532748 0.16632150903931209 0 -0.19925736675597849 0.1510128496783277 0 -0.21671326255859771 0.16851586570077451 0 -0.20053925560312791 0.18257023925969659 0 -0.1958368305532748 0.16632150903931209 0 -0.21671326255859771 0.16851586570077451 0 -0.20053925560312791 0.18257023925969659 0 -0.21122234574923721 0.19272838116728491 0 -0.20053925560312791 0.18257023925969659 0 -0.18871001371960791 0.17682816533395909 0 -0.1958368305532748 0.16632150903931209 0 -0.20053925560312791 0.18257023925969659 0 -0.18871001371960791 0.17682816533395909 0 -0.18834579123147191 0.19072091470179581 0 -0.18871001371960791 0.17682816533395909 0 -0.1958368305532748 0.16632150903931209 0 -0.18439108042458641 0.1649802694228209 0 -0.1958368305532748 0.16632150903931209 0 -0.18541000425775089 0.1540216648402942 0 -0.18439108042458641 0.1649802694228209 0 -0.1958368305532748 0.16632150903931209 0 -0.19925736675597849 0.1510128496783277 0 -0.18541000425775089 0.1540216648402942 0 -0.19925736675597849 0.1510128496783277 0 -0.18258173123449861 0.14358252041781769 0 -0.18541000425775089 0.1540216648402942 0 -0.19925736675597849 0.1510128496783277 0 -0.1818014709533593 0.13350983365588109 0 -0.18258173123449861 0.14358252041781769 0 -0.19925736675597849 0.1510128496783277 0 -0.1818014709533593 0.13350983365588109 0 -0.19925736675597849 0.1510128496783277 0 -0.1983435881111329 0.13431312538825729 0 -0.20564120824120929 0.14102262065075261 0 -0.19925736675597849 0.1510128496783277 0 -0.1983435881111329 0.13431312538825729 0 -0.18715483012451581 0.13449805512568061 0 -0.19925736675597849 0.1510128496783277 0 -0.18715483012451581 0.13449805512568061 0 -0.1818014709533593 0.13350983365588109 0 -0.1982080760523276 0.1249721305982253 0 -0.1983435881111329 0.13431312538825729 0 -0.18715483012451581 0.13449805512568061 0 -0.1982080760523276 0.1249721305982253 0 -0.1983435881111329 0.13431312538825729 0 -0.2096709188741793 0.13209357070243399 0 -0.2096709188741793 0.13209357070243399 0 -0.21529295922354649 0.14667093683399141 0 -0.20564120824120929 0.14102262065075261 0 -0.21754843796578591 0.1217393632998601 0 -0.2290424550497025 0.13734657103999451 0 -0.2096709188741793 0.13209357070243399 0 -0.2290424550497025 0.13734657103999451 0 -0.2096709188741793 0.13209357070243399 0 -0.21529295922354649 0.14667093683399141 0 -0.1983435881111329 0.13431312538825729 0 -0.2096709188741793 0.13209357070243399 0 -0.20564120824120929 0.14102262065075261 0 -0.1982080760523276 0.1249721305982253 0 -0.20585248966889461 0.11945489588286649 0 -0.2096709188741793 0.13209357070243399 0 -0.19925736675597849 0.1510128496783277 0 -0.21529295922354649 0.14667093683399141 0 -0.20564120824120929 0.14102262065075261 0 -0.21671326255859771 0.16851586570077451 0 -0.19925736675597849 0.1510128496783277 0 -0.21529295922354649 0.14667093683399141 0 -0.23381032332208779 0.25325146949384009 0 -0.2318125389317918 0.23591891748039001 0 -0.21404850863043021 0.24645419970635599 0 -0.25473480341465138 0.25224629389080822 0 -0.2318125389317918 0.23591891748039001 0 -0.25473480341465138 0.25224629389080822 0 -0.23381032332208779 0.25325146949384009 0 -0.2318125389317918 0.23591891748039001 0 -0.25473480341465138 0.25224629389080822 0 -0.2318125389317918 0.23591891748039001 0 -0.24862843268610049 0.23267987567415491 0 -0.2318125389317918 0.23591891748039001 0 -0.24862843268610049 0.23267987567415491 0 -0.23819511699377499 0.21987557740212829 0 -0.2318125389317918 0.23591891748039001 0 -0.23819511699377499 0.21987557740212829 0 -0.2088902744489321 0.21959154106997189 0 -0.23819511699377499 0.21987557740212829 0 -0.2088902744489321 0.21959154106997189 0 -0.2318125389317918 0.23591891748039001 0 -0.2088902744489321 0.21959154106997189 0 -0.23819511699377499 0.21987557740212829 0 -0.22353339837638761 0.2072112437486191 0 -0.2088902744489321 0.21959154106997189 0 -0.25302444749857173 0.2017653629749171 0 -0.23819511699377499 0.21987557740212829 0 -0.22353339837638761 0.2072112437486191 0 -0.25302444749857173 0.2017653629749171 0 -0.22353339837638761 0.2072112437486191 0 -0.23288055136209901 0.19046837747125631 0 -0.25302444749857173 0.2017653629749171 0 -0.25122994632153939 0.17870893372073721 0 -0.23288055136209901 0.19046837747125631 0 -0.22353339837638761 0.2072112437486191 0 -0.23288055136209901 0.19046837747125631 0 -0.21122234574923721 0.19272838116728491 0 -0.22353339837638761 0.2072112437486191 0 -0.21122234574923721 0.19272838116728491 0 -0.20373258422756119 0.20484249630723281 0 -0.21122234574923721 0.19272838116728491 0 -0.19793287117658631 0.19480477775309121 0 -0.20373258422756119 0.20484249630723281 0 -0.20053925560312791 0.18257023925969659 0 -0.21122234574923721 0.19272838116728491 0 -0.19793287117658631 0.19480477775309121 0 -0.19793287117658631 0.19480477775309121 0 -0.20373258422756119 0.20484249630723281 0 -0.18582437907153329 0.20316185732944611 0 -0.20053925560312791 0.18257023925969659 0 -0.19793287117658631 0.19480477775309121 0 -0.18834579123147191 0.19072091470179581 0 -0.19793287117658631 0.19480477775309121 0 -0.18834579123147191 0.19072091470179581 0 -0.18582437907153329 0.20316185732944611 0 -0.20373258422756119 0.20484249630723281 0 -0.2088902744489321 0.21959154106997189 0 -0.18582437907153329 0.20316185732944611 0 -0.2088902744489321 0.21959154106997189 0 -0.19315279039299069 0.21943900596449151 0 -0.18582437907153329 0.20316185732944611 0 -0.2088902744489321 0.21959154106997189 0 -0.18582437907153329 0.20316185732944611 0 -0.22353339837638761 0.2072112437486191 0 -0.20373258422756119 0.20484249630723281 0 -0.2088902744489321 0.21959154106997189 0 -0.2088902744489321 0.21959154106997189 0 -0.1991604203805237 0.23165103969003181 0 -0.21404850863043021 0.24645419970635599 0 -0.2318125389317918 0.23591891748039001 0 -0.2088902744489321 0.21959154106997189 0 -0.21404850863043021 0.24645419970635599 0 -0.2088902744489321 0.21959154106997189 0 -0.19315279039299069 0.21943900596449151 0 -0.2088902744489321 0.21959154106997189 0 -0.19315279039299069 0.21943900596449151 0 -0.1991604203805237 0.23165103969003181 0 -0.19315279039299069 0.21943900596449151 0 -0.1991604203805237 0.23165103969003181 0 -0.18158046743626741 0.22825185895053199 0 -0.1991604203805237 0.23165103969003181 0 -0.1866192525057607 0.24168953474872629 0 -0.18158046743626741 0.22825185895053199 0 -0.1991604203805237 0.23165103969003181 0 -0.1994759436057971 0.24415935448892601 0 -0.1866192525057607 0.24168953474872629 0 -0.1910101803103833 0.25297142190678151 0 -0.1994759436057971 0.24415935448892601 0 -0.1866192525057607 0.24168953474872629 0 -0.20217469032083599 0.25475759868006309 0 -0.1994759436057971 0.24415935448892601 0 -0.21404850863043021 0.24645419970635599 0 -0.1991604203805237 0.23165103969003181 0 -0.1994759436057971 0.24415935448892601 0 -0.21404850863043021 0.24645419970635599 0 -0.16038761275555469 0.24685810182885101 0 -0.17376469612706341 0.23984401389644561 0 -0.1628719819004486 0.23109928590175921 0 -0.1773641660372853 0.25132128805235932 0 -0.16038761275555469 0.24685810182885101 0 -0.17376469612706341 0.23984401389644561 0 -0.16038761275555469 0.24685810182885101 0 -0.1628719819004486 0.23109928590175921 0 -0.14874242460902001 0.23090929943784999 0 -0.1773641660372853 0.25132128805235932 0 -0.1866192525057607 0.24168953474872629 0 -0.17376469612706341 0.23984401389644561 0 -0.1910101803103833 0.25297142190678151 0 -0.1773641660372853 0.25132128805235932 0 -0.1866192525057607 0.24168953474872629 0 -0.1866192525057607 0.24168953474872629 0 -0.17376469612706341 0.23984401389644561 0 -0.18158046743626741 0.22825185895053199 0 -0.17376469612706341 0.23984401389644561 0 -0.18158046743626741 0.22825185895053199 0 -0.1628719819004486 0.23109928590175921 0 -0.19315279039299069 0.21943900596449151 0 -0.18158046743626741 0.22825185895053199 0 -0.1815549685575949 0.21562758913803479 0 -0.18158046743626741 0.22825185895053199 0 -0.17120312350502639 0.22056060824689119 0 -0.1815549685575949 0.21562758913803479 0 -0.18158046743626741 0.22825185895053199 0 -0.17120312350502639 0.22056060824689119 0 -0.1628719819004486 0.23109928590175921 0 -0.1628719819004486 0.23109928590175921 0 -0.1573107879164107 0.2160954395876333 0 -0.14874242460902001 0.23090929943784999 0 -0.17120312350502639 0.22056060824689119 0 -0.1628719819004486 0.23109928590175921 0 -0.1573107879164107 0.2160954395876333 0 -0.1573107879164107 0.2160954395876333 0 -0.1658336328773215 0.20923921512189769 0 -0.15720439469892891 0.2016968959519044 0 -0.1658336328773215 0.20923921512189769 0 -0.16577607151257889 0.2006785312220182 0 -0.15720439469892891 0.2016968959519044 0 -0.1658336328773215 0.20923921512189769 0 -0.17601408238215679 0.20672461519881299 0 -0.16577607151257889 0.2006785312220182 0 -0.17120312350502639 0.22056060824689119 0 -0.1573107879164107 0.2160954395876333 0 -0.1658336328773215 0.20923921512189769 0 -0.17120312350502639 0.22056060824689119 0 -0.1658336328773215 0.20923921512189769 0 -0.17601408238215679 0.20672461519881299 0 -0.17120312350502639 0.22056060824689119 0 -0.1815549685575949 0.21562758913803479 0 -0.17601408238215679 0.20672461519881299 0 -0.19315279039299069 0.21943900596449151 0 -0.1815549685575949 0.21562758913803479 0 -0.18582437907153329 0.20316185732944611 0 -0.1815549685575949 0.21562758913803479 0 -0.18582437907153329 0.20316185732944611 0 -0.17601408238215679 0.20672461519881299 0 -0.17601408238215679 0.20672461519881299 0 -0.1816366430557633 0.19825071446537809 0 -0.17636231953789139 0.19239547063145759 0 -0.17601408238215679 0.20672461519881299 0 -0.17636231953789139 0.19239547063145759 0 -0.16405217609190831 0.1850533986154578 0 -0.18582437907153329 0.20316185732944611 0 -0.17601408238215679 0.20672461519881299 0 -0.1816366430557633 0.19825071446537809 0 -0.18834579123147191 0.19072091470179581 0 -0.18582437907153329 0.20316185732944611 0 -0.1816366430557633 0.19825071446537809 0 -0.18834579123147191 0.19072091470179581 0 -0.1816366430557633 0.19825071446537809 0 -0.17636231953789139 0.19239547063145759 0 -0.18834579123147191 0.19072091470179581 0 -0.17636231953789139 0.19239547063145759 0 -0.1813984449832611 0.18434240450438771 0 -0.16577607151257889 0.2006785312220182 0 -0.15720439469892891 0.2016968959519044 0 -0.16405217609190831 0.1850533986154578 0 -0.17601408238215679 0.20672461519881299 0 -0.16405217609190831 0.1850533986154578 0 -0.17601408238215679 0.20672461519881299 0 -0.16577607151257889 0.2006785312220182 0 -0.16405217609190831 0.1850533986154578 0 -0.15720439469892891 0.2016968959519044 0 -0.16405217609190831 0.1850533986154578 0 -0.15464733225029731 0.18253953899200251 0 -0.15720439469892891 0.2016968959519044 0 -0.15464733225029731 0.18253953899200251 0 -0.15720439469892891 0.2016968959519044 0 -0.14772638914620179 0.19302648620149379 0 -0.15464733225029731 0.18253953899200251 0 -0.15720439469892891 0.2016968959519044 0 -0.14772638914620179 0.19302648620149379 0 -0.14383238055131281 0.20521313840327421 0 -0.14772638914620179 0.19302648620149379 0 -0.13657547873996079 0.1924318144178736 0 -0.14383238055131281 0.20521313840327421 0 -0.14772638914620179 0.19302648620149379 0 -0.13657547873996079 0.1924318144178736 0 -0.14424001257142641 0.18622733321002999 0 -0.13657547873996079 0.1924318144178736 0 -0.12087434447581411 0.18415225425670961 0 -0.1206523666380462 0.2121151426542382 0 -0.13657547873996079 0.1924318144178736 0 -0.14383238055131281 0.20521313840327421 0 -0.1206523666380462 0.2121151426542382 0 -0.13975242502024221 0.2182961461587051 0 -0.14383238055131281 0.20521313840327421 0 -0.1206523666380462 0.2121151426542382 0 -0.1573107879164107 0.2160954395876333 0 -0.13975242502024221 0.2182961461587051 0 -0.14383238055131281 0.20521313840327421 0 -0.1573107879164107 0.2160954395876333 0 -0.15720439469892891 0.2016968959519044 0 -0.14383238055131281 0.20521313840327421 0 -0.1573107879164107 0.2160954395876333 0 -0.13975242502024221 0.2182961461587051 0 -0.14874242460902001 0.23090929943784999 0 -0.13975242502024221 0.2182961461587051 0 -0.13214824222258589 0.22843785539568701 0 -0.1206523666380462 0.2121151426542382 0 -0.13975242502024221 0.2182961461587051 0 -0.14874242460902001 0.23090929943784999 0 -0.13214824222258589 0.22843785539568701 0 -0.1373272987741484 0.26212929106956329 0 -0.14230452199507171 0.2456895756698835 0 -0.1204303888002782 0.24007803105176681 0 -0.13214824222258589 0.22843785539568701 0 -0.14230452199507171 0.2456895756698835 0 -0.1204303888002782 0.24007803105176681 0 -0.16038761275555469 0.24685810182885101 0 -0.14874242460902001 0.23090929943784999 0 -0.14230452199507171 0.2456895756698835 0 -0.14874242460902001 0.23090929943784999 0 -0.13214824222258589 0.22843785539568701 0 -0.14230452199507171 0.2456895756698835 0 -0.16314065852765461 0.15070237081642271 0 -0.16403447790456319 0.1351126342393246 0 -0.1734644786499534 0.14442117372001881 0 -0.16314065852765461 0.15070237081642271 0 -0.1734644786499534 0.14442117372001881 0 -0.17538936068828229 0.15684394950851149 0 -0.16314065852765461 0.15070237081642271 0 -0.16403447790456319 0.1351126342393246 0 -0.1490255169054599 0.14042123899454331 0 -0.164345575150741 0.1160068176334335 0 -0.16403447790456319 0.1351126342393246 0 -0.15584158349250429 0.12725024670607199 0 -0.164345575150741 0.1160068176334335 0 -0.16403447790456319 0.1351126342393246 0 -0.172975335555451 0.13494708019456669 0 -0.16403447790456319 0.1351126342393246 0 -0.15584158349250429 0.12725024670607199 0 -0.1490255169054599 0.14042123899454331 0 -0.164345575150741 0.1160068176334335 0 -0.16403447790456319 0.1351126342393246 0 -0.16403447790456319 0.1351126342393246 0 -0.172975335555451 0.13494708019456669 0 -0.1734644786499534 0.14442117372001881 0 -0.172975335555451 0.13494708019456669 0 -0.1818014709533593 0.13350983365588109 0 -0.18258173123449861 0.14358252041781769 0 -0.164345575150741 0.1160068176334335 0 -0.172975335555451 0.13494708019456669 0 -0.1818014709533593 0.13350983365588109 0 -0.1806219692402514 0.11897510966748751 0 -0.18715483012451581 0.13449805512568061 0 -0.1818014709533593 0.13350983365588109 0 -0.18258173123449861 0.14358252041781769 0 -0.1734644786499534 0.14442117372001881 0 -0.18541000425775089 0.1540216648402942 0 -0.172975335555451 0.13494708019456669 0 -0.18258173123449861 0.14358252041781769 0 -0.1734644786499534 0.14442117372001881 0 -0.1734644786499534 0.14442117372001881 0 -0.18541000425775089 0.1540216648402942 0 -0.17538936068828229 0.15684394950851149 0 -0.18439108042458641 0.1649802694228209 0 -0.17538936068828229 0.15684394950851149 0 -0.17661580491642809 0.17272610679833439 0 -0.17538936068828229 0.15684394950851149 0 -0.17661580491642809 0.17272610679833439 0 -0.16559950178113239 0.164103339433113 0 -0.18541000425775089 0.1540216648402942 0 -0.18439108042458641 0.1649802694228209 0 -0.17538936068828229 0.15684394950851149 0 -0.18871001371960791 0.17682816533395909 0 -0.18439108042458641 0.1649802694228209 0 -0.17661580491642809 0.17272610679833439 0 -0.18871001371960791 0.17682816533395909 0 -0.18834579123147191 0.19072091470179581 0 -0.1813984449832611 0.18434240450438771 0 -0.18871001371960791 0.17682816533395909 0 -0.1813984449832611 0.18434240450438771 0 -0.17661580491642809 0.17272610679833439 0 -0.17661580491642809 0.17272610679833439 0 -0.17331468669576899 0.18266419996674341 0 -0.16633448785738009 0.17358584536914989 0 -0.17636231953789139 0.19239547063145759 0 -0.1813984449832611 0.18434240450438771 0 -0.17331468669576899 0.18266419996674341 0 -0.1813984449832611 0.18434240450438771 0 -0.17661580491642809 0.17272610679833439 0 -0.17331468669576899 0.18266419996674341 0 -0.16633448785738009 0.17358584536914989 0 -0.16405217609190831 0.1850533986154578 0 -0.1520902698016626 0.16338218203210089 0 -0.16405217609190831 0.1850533986154578 0 -0.1520902698016626 0.16338218203210089 0 -0.16405217609190831 0.1850533986154578 0 -0.1520902698016626 0.16338218203210089 0 -0.15464733225029731 0.18253953899200251 0 -0.17636231953789139 0.19239547063145759 0 -0.17331468669576899 0.18266419996674341 0 -0.16405217609190831 0.1850533986154578 0 -0.17331468669576899 0.18266419996674341 0 -0.16633448785738009 0.17358584536914989 0 -0.16405217609190831 0.1850533986154578 0 -0.16314065852765461 0.15070237081642271 0 -0.17538936068828229 0.15684394950851149 0 -0.16559950178113239 0.164103339433113 0 -0.17661580491642809 0.17272610679833439 0 -0.16633448785738009 0.17358584536914989 0 -0.16559950178113239 0.164103339433113 0 -0.16633448785738009 0.17358584536914989 0 -0.16559950178113239 0.164103339433113 0 -0.1520902698016626 0.16338218203210089 0 -0.16314065852765461 0.15070237081642271 0 -0.16559950178113239 0.164103339433113 0 -0.1520902698016626 0.16338218203210089 0 -0.1520902698016626 0.16338218203210089 0 -0.15464733225029731 0.18253953899200251 0 -0.13801085014924591 0.17691149322875041 0 -0.15464733225029731 0.18253953899200251 0 -0.14424001257142641 0.18622733321002999 0 -0.13801085014924591 0.17691149322875041 0 -0.1520902698016626 0.16338218203210089 0 -0.15464733225029731 0.18253953899200251 0 -0.14772638914620179 0.19302648620149379 0 -0.15464733225029731 0.18253953899200251 0 -0.14424001257142641 0.18622733321002999 0 -0.13801085014924591 0.17691149322875041 0 -0.12606092331037089 0.17252856090034641 0 -0.12087434447581411 0.18415225425670961 0 -0.13657547873996079 0.1924318144178736 0 -0.13801085014924591 0.17691149322875041 0 -0.12087434447581411 0.18415225425670961 0 -0.13657547873996079 0.1924318144178736 0 -0.14424001257142641 0.18622733321002999 0 -0.13801085014924591 0.17691149322875041 0 -0.1520902698016626 0.16338218203210089 0 -0.1315295087980981 0.16193149390693659 0 -0.13790133665936821 0.1536294291520427 0 -0.1520902698016626 0.16338218203210089 0 -0.13801085014924591 0.17691149322875041 0 -0.1315295087980981 0.16193149390693659 0 -0.13801085014924591 0.17691149322875041 0 -0.12606092331037089 0.17252856090034641 0 -0.1315295087980981 0.16193149390693659 0 -0.1315295087980981 0.16193149390693659 0 -0.12792160644227971 0.1476097512614532 0 -0.13790133665936821 0.1536294291520427 0 -0.12792160644227971 0.1476097512614532 0 -0.14006396159543219 0.14159428940768001 0 -0.12750190178894019 0.13645945767989651 0 -0.12792160644227971 0.1476097512614532 0 -0.14006396159543219 0.14159428940768001 0 -0.13790133665936821 0.1536294291520427 0 -0.1520902698016626 0.16338218203210089 0 -0.1490255169054599 0.14042123899454331 0 -0.1520902698016626 0.16338218203210089 0 -0.14006396159543219 0.14159428940768001 0 -0.1490255169054599 0.14042123899454331 0 -0.16314065852765461 0.15070237081642271 0 -0.1520902698016626 0.16338218203210089 0 -0.1490255169054599 0.14042123899454331 0 -0.1520902698016626 0.16338218203210089 0 -0.14006396159543219 0.14159428940768001 0 -0.13790133665936821 0.1536294291520427 0 -0.1520902698016626 0.16338218203210089 0 -0.14006396159543219 0.14159428940768001 0 -0.14596076400925409 0.117460295956986 0 -0.15584158349250429 0.12725024670607199 0 -0.1490255169054599 0.14042123899454331 0 -0.14596076400925409 0.117460295956986 0 -0.1490255169054599 0.14042123899454331 0 -0.14596076400925409 0.117460295956986 0 -0.1490255169054599 0.14042123899454331 0 -0.13983677403536809 0.12731703650027221 0 -0.14006396159543219 0.14159428940768001 0 -0.1490255169054599 0.14042123899454331 0 -0.13983677403536809 0.12731703650027221 0 -0.1280376533892047 0.1198063967832574 0 -0.14006396159543219 0.14159428940768001 0 -0.12750190178894019 0.13645945767989651 0 -0.1280376533892047 0.1198063967832574 0 -0.14006396159543219 0.14159428940768001 0 -0.13983677403536809 0.12731703650027221 0 -0.1280376533892047 0.1198063967832574 0 -0.14006396159543219 0.14159428940768001 0 -0.1280376533892047 0.1198063967832574 0 -0.12750190178894019 0.13645945767989651 0 -0.1139843857288443 0.13682739326719531 0 -0.12792160644227971 0.1476097512614532 0 -0.12750190178894019 0.13645945767989651 0 -0.1139843857288443 0.13682739326719531 0 -0.1065819504787571 0.12557693411325391 0 -0.097694137770205192 0.1433026217205417 0 -0.089137853661353725 0.13155625930193629 0 -0.1065819504787571 0.12557693411325391 0 -0.089137853661353725 0.13155625930193629 0 -0.092464326960522203 0.11989964910510741 0 -0.1139843857288443 0.13682739326719531 0 -0.1065819504787571 0.12557693411325391 0 -0.097694137770205192 0.1433026217205417 0 -0.1139843857288443 0.13682739326719531 0 -0.097694137770205192 0.1433026217205417 0 -0.1102822151100581 0.16539912735263171 0 -0.097694137770205192 0.1433026217205417 0 -0.1102822151100581 0.16539912735263171 0 -0.091231201218073987 0.15700373346491009 0 -0.12792160644227971 0.1476097512614532 0 -0.1139843857288443 0.13682739326719531 0 -0.1102822151100581 0.16539912735263171 0 -0.1139843857288443 0.13682739326719531 0 -0.1102822151100581 0.16539912735263171 0 -0.1315295087980981 0.16193149390693659 0 -0.12792160644227971 0.1476097512614532 0 -0.1102822151100581 0.16539912735263171 0 -0.12606092331037089 0.17252856090034641 0 -0.1315295087980981 0.16193149390693659 0 -0.1102822151100581 0.16539912735263171 0 -0.12606092331037089 0.17252856090034641 0 -0.1102822151100581 0.16539912735263171 0 -0.12087434447581411 0.18415225425670961 0 -0.1102822151100581 0.16539912735263171 0 -0.12087434447581411 0.18415225425670961 0 -0.10658004449127199 0.1939708614380681 0 -0.1102822151100581 0.16539912735263171 0 -0.099256084976422923 0.18140694461607759 0 -0.10658004449127199 0.1939708614380681 0 -0.1102822151100581 0.16539912735263171 0 -0.099256084976422923 0.18140694461607759 0 -0.088683392193479371 0.17591310544361979 0 -0.1102822151100581 0.16539912735263171 0 -0.10658004449127199 0.1939708614380681 0 -0.1102822151100581 0.16539912735263171 0 -0.091231201218073987 0.15700373346491009 0 -0.088683392193479371 0.17591310544361979 0 -0.091231201218073987 0.15700373346491009 0 -0.079812473330912237 0.1648604717655836 0 -0.088683392193479371 0.17591310544361979 0 -0.088683392193479371 0.17591310544361979 0 -0.091478688110882292 0.19034468422999071 0 -0.076329340530200698 0.19286100153760111 0 -0.088683392193479371 0.17591310544361979 0 -0.074312912235380502 0.17734379039886991 0 -0.076329340530200698 0.19286100153760111 0 -0.099256084976422923 0.18140694461607759 0 -0.088683392193479371 0.17591310544361979 0 -0.091478688110882292 0.19034468422999071 0 -0.079812473330912237 0.1648604717655836 0 -0.088683392193479371 0.17591310544361979 0 -0.074312912235380502 0.17734379039886991 0 -0.074312912235380502 0.17734379039886991 0 -0.065520438393693592 0.16384386451194741 0 -0.061128032790977491 0.18992920793687251 0 -0.065520438393693592 0.16384386451194741 0 -0.061128032790977491 0.18992920793687251 0 -0.074312912235380502 0.17734379039886991 0 -0.076329340530200698 0.19286100153760111 0 -0.061128032790977491 0.18992920793687251 0 -0.079812473330912237 0.1648604717655836 0 -0.065520438393693592 0.16384386451194741 0 -0.074947220424144007 0.1434522828233227 0 -0.079812473330912237 0.1648604717655836 0 -0.074312912235380502 0.17734379039886991 0 -0.065520438393693592 0.16384386451194741 0 -0.065520438393693592 0.16384386451194741 0 -0.074947220424144007 0.1434522828233227 0 -0.052704909281452862 0.15780311587357071 0 -0.074947220424144007 0.1434522828233227 0 -0.052704909281452862 0.15780311587357071 0 -0.074947220424144007 0.1434522828233227 0 -0.051288167304561802 0.1377984196728646 0 -0.072285548394091403 0.123880650283489 0 -0.074947220424144007 0.1434522828233227 0 -0.089137853661353725 0.13155625930193629 0 -0.072285548394091403 0.123880650283489 0 -0.089137853661353725 0.13155625930193629 0 -0.072285548394091403 0.123880650283489 0 -0.092464326960522203 0.11989964910510741 0 -0.097694137770205192 0.1433026217205417 0 -0.074947220424144007 0.1434522828233227 0 -0.089137853661353725 0.13155625930193629 0 -0.097694137770205192 0.1433026217205417 0 -0.091231201218073987 0.15700373346491009 0 -0.074947220424144007 0.1434522828233227 0 -0.091231201218073987 0.15700373346491009 0 -0.079812473330912237 0.1648604717655836 0 -0.074947220424144007 0.1434522828233227 0 -0.099175703253699551 0.25111432960894098 0 -0.1028778738724858 0.2225425955235045 0 -0.099175703253699551 0.25111432960894098 0 -0.1204303888002782 0.24007803105176681 0 -0.1028778738724858 0.2225425955235045 0 -0.099175703253699551 0.25111432960894098 0 -0.1028778738724858 0.2225425955235045 0 -0.079446077735414039 0.23045349356873709 0 -0.1204303888002782 0.24007803105176681 0 -0.1028778738724858 0.2225425955235045 0 -0.1206523666380462 0.2121151426542382 0 -0.1204303888002782 0.24007803105176681 0 -0.1206523666380462 0.2121151426542382 0 -0.13214824222258589 0.22843785539568701 0 -0.1204303888002782 0.24007803105176681 0 -0.1206523666380462 0.2121151426542382 0 -0.1028778738724858 0.2225425955235045 0 -0.10658004449127199 0.1939708614380681 0 -0.085637390662223201 0.20762066985445629 0 -0.1028778738724858 0.2225425955235045 0 -0.10658004449127199 0.1939708614380681 0 -0.1028778738724858 0.2225425955235045 0 -0.1206523666380462 0.2121151426542382 0 -0.10658004449127199 0.1939708614380681 0 -0.12087434447581411 0.18415225425670961 0 -0.1206523666380462 0.2121151426542382 0 -0.10658004449127199 0.1939708614380681 0 -0.12087434447581411 0.18415225425670961 0 -0.1206523666380462 0.2121151426542382 0 -0.10658004449127199 0.1939708614380681 0 -0.091478688110882292 0.19034468422999071 0 -0.085637390662223201 0.20762066985445629 0 -0.099256084976422923 0.18140694461607759 0 -0.10658004449127199 0.1939708614380681 0 -0.091478688110882292 0.19034468422999071 0 -0.091478688110882292 0.19034468422999071 0 -0.076329340530200698 0.19286100153760111 0 -0.085637390662223201 0.20762066985445629 0 -0.076329340530200698 0.19286100153760111 0 -0.056735627188261389 0.21601455136179759 0 -0.061128032790977491 0.18992920793687251 0 -0.076329340530200698 0.19286100153760111 0 -0.085637390662223201 0.20762066985445629 0 -0.056735627188261389 0.21601455136179759 0 -0.085637390662223201 0.20762066985445629 0 -0.079446077735414039 0.23045349356873709 0 -0.056735627188261389 0.21601455136179759 0 -0.1028778738724858 0.2225425955235045 0 -0.085637390662223201 0.20762066985445629 0 -0.079446077735414039 0.23045349356873709 0 -0.079446077735414039 0.23045349356873709 0 -0.052343221585545267 0.2420998947867227 0 -0.056735627188261389 0.21601455136179759 0 -0.075746632403463937 0.25268909101538062 0 -0.079446077735414039 0.23045349356873709 0 -0.052343221585545267 0.2420998947867227 0 -0.099175703253699551 0.25111432960894098 0 -0.075746632403463937 0.25268909101538062 0 -0.079446077735414039 0.23045349356873709 0 -0.036117566843217278 0.24958211449891629 0 -0.052343221585545267 0.2420998947867227 0 -0.037661087853959281 0.22823066320683699 0 -0.055397974969981528 0.25756778688854659 0 -0.036117566843217278 0.24958211449891629 0 -0.052343221585545267 0.2420998947867227 0 -0.052343221585545267 0.2420998947867227 0 -0.056735627188261389 0.21601455136179759 0 -0.052343221585545267 0.2420998947867227 0 -0.037661087853959281 0.22823066320683699 0 -0.056735627188261389 0.21601455136179759 0 -0.041649898344797813 0.20838743155771569 0 -0.032101046035376217 0.19321061249221341 0 -0.022512195914258119 0.21714743490117719 0 -0.037661087853959281 0.22823066320683699 0 -0.041649898344797813 0.20838743155771569 0 -0.056735627188261389 0.21601455136179759 0 -0.037661087853959281 0.22823066320683699 0 -0.041649898344797813 0.20838743155771569 0 -0.022512195914258119 0.21714743490117719 0 -0.041649898344797813 0.20838743155771569 0 -0.056735627188261389 0.21601455136179759 0 -0.061128032790977491 0.18992920793687251 0 -0.056735627188261389 0.21601455136179759 0 -0.061128032790977491 0.18992920793687251 0 -0.041649898344797813 0.20838743155771569 0 -0.061128032790977491 0.18992920793687251 0 -0.032101046035376217 0.19321061249221341 0 -0.032101046035376217 0.19321061249221341 0 -0.0092709302470169661 0.20460080529308 0 -0.0082202869960707123 0.18650478197406661 0 -0.0092709302470169661 0.20460080529308 0 -0.0082202869960707123 0.18650478197406661 0 3.2750654143463799e-05 0.1917001762217411 0 -0.0092709302470169661 0.20460080529308 0 0.0074096562876724012 0.20050547127135551 0 3.2750654143463799e-05 0.1917001762217411 0 -0.0092709302470169661 0.20460080529308 0 -0.0071025446957457064 0.22384020014181941 0 0.0082442056629530684 0.21885891217428391 0 -0.0092709302470169661 0.20460080529308 0 -0.022512195914258119 0.21714743490117719 0 -0.0071025446957457064 0.22384020014181941 0 -0.032101046035376217 0.19321061249221341 0 -0.0092709302470169661 0.20460080529308 0 -0.022512195914258119 0.21714743490117719 0 -0.022512195914258119 0.21714743490117719 0 -0.0071025446957457064 0.22384020014181941 0 -0.01755226627709755 0.23745020818985191 0 -0.037661087853959281 0.22823066320683699 0 -0.022512195914258119 0.21714743490117719 0 -0.01755226627709755 0.23745020818985191 0 -0.0071025446957457064 0.22384020014181941 0 -0.01755226627709755 0.23745020818985191 0 0.0055784632966910386 0.24114364015070419 0 -0.017181755814036529 0.26087102824940461 0 -0.01755226627709755 0.23745020818985191 0 0.0055784632966910386 0.24114364015070419 0 -0.036117566843217278 0.24958211449891629 0 -0.037661087853959281 0.22823066320683699 0 -0.01755226627709755 0.23745020818985191 0 -0.017181755814036529 0.26087102824940461 0 -0.036117566843217278 0.24958211449891629 0 -0.01755226627709755 0.23745020818985191 0 -0.043793087447414808 0.1486237202609281 0 -0.052704909281452862 0.15780311587357071 0 -0.035639725419332587 0.15654183520833639 0 -0.043793087447414808 0.1486237202609281 0 -0.03152267964716951 0.143565190926326 0 -0.051288167304561802 0.1377984196728646 0 -0.043793087447414808 0.1486237202609281 0 -0.03152267964716951 0.143565190926326 0 -0.035639725419332587 0.15654183520833639 0 -0.051288167304561802 0.1377984196728646 0 -0.029488620397723379 0.12752274695370611 0 -0.043513691215853738 0.1207644172917187 0 -0.03152267964716951 0.143565190926326 0 -0.051288167304561802 0.1377984196728646 0 -0.029488620397723379 0.12752274695370611 0 -0.051288167304561802 0.1377984196728646 0 -0.056360914884138497 0.12126270626559101 0 -0.072285548394091403 0.123880650283489 0 -0.051288167304561802 0.1377984196728646 0 -0.043513691215853738 0.1207644172917187 0 -0.056360914884138497 0.12126270626559101 0 -0.074947220424144007 0.1434522828233227 0 -0.051288167304561802 0.1377984196728646 0 -0.052704909281452862 0.15780311587357071 0 -0.043793087447414808 0.1486237202609281 0 -0.051288167304561802 0.1377984196728646 0 -0.052704909281452862 0.15780311587357071 0 -0.065520438393693592 0.16384386451194741 0 -0.052704909281452862 0.15780311587357071 0 -0.048383404928052383 0.17538814994768459 0 -0.061128032790977491 0.18992920793687251 0 -0.032101046035376217 0.19321061249221341 0 -0.048383404928052383 0.17538814994768459 0 -0.065520438393693592 0.16384386451194741 0 -0.061128032790977491 0.18992920793687251 0 -0.048383404928052383 0.17538814994768459 0 -0.032101046035376217 0.19321061249221341 0 -0.048383404928052383 0.17538814994768459 0 -0.03046259813876169 0.17215394892381869 0 -0.052704909281452862 0.15780311587357071 0 -0.03046259813876169 0.17215394892381869 0 -0.052704909281452862 0.15780311587357071 0 -0.035639725419332587 0.15654183520833639 0 -0.03046259813876169 0.17215394892381869 0 -0.052704909281452862 0.15780311587357071 0 -0.048383404928052383 0.17538814994768459 0 -0.03046259813876169 0.17215394892381869 0 -0.016085058586541679 0.15842583288008749 0 -0.03046259813876169 0.17215394892381869 0 -0.0023606537899555982 0.1763087066628137 0 -0.035639725419332587 0.15654183520833639 0 -0.016085058586541679 0.15842583288008749 0 -0.03046259813876169 0.17215394892381869 0 -0.03046259813876169 0.17215394892381869 0 -0.0082202869960707123 0.18650478197406661 0 -0.032101046035376217 0.19321061249221341 0 -0.03046259813876169 0.17215394892381869 0 -0.0082202869960707123 0.18650478197406661 0 -0.03046259813876169 0.17215394892381869 0 -0.0082202869960707123 0.18650478197406661 0 -0.0023606537899555982 0.1763087066628137 0 -0.0082202869960707123 0.18650478197406661 0 -0.0023606537899555982 0.1763087066628137 0 3.2750654143463799e-05 0.1917001762217411 0 -0.016085058586541679 0.15842583288008749 0 -0.0023606537899555982 0.1763087066628137 0 0.01099549197037763 0.15858320354101621 0 -0.016085058586541679 0.15842583288008749 0 -0.0062280692021041686 0.14217539709674601 0 0.01099549197037763 0.15858320354101621 0 -0.03152267964716951 0.143565190926326 0 -0.016085058586541679 0.15842583288008749 0 -0.0062280692021041686 0.14217539709674601 0 -0.03152267964716951 0.143565190926326 0 -0.035639725419332587 0.15654183520833639 0 -0.016085058586541679 0.15842583288008749 0 -0.03152267964716951 0.143565190926326 0 -0.0062280692021041686 0.14217539709674601 0 -0.029488620397723379 0.12752274695370611 0 -0.0062280692021041686 0.14217539709674601 0 -0.029488620397723379 0.12752274695370611 0 -0.01509849647058934 0.117841883156159 0 -0.0062280692021041686 0.14217539709674601 0 -0.01509849647058934 0.117841883156159 0 0.0032291670199558549 0.1218389315012485 0 -0.01509849647058934 0.117841883156159 0 -0.00040560012885032309 0.1066366689589115 0 0.0032291670199558549 0.1218389315012485 0 -0.00040560012885032309 0.1066366689589115 0 -0.013960854668365689 0.092730605428899035 0 0.007828610270071909 0.088907362945166504 0 -0.01509849647058934 0.117841883156159 0 -0.00040560012885032309 0.1066366689589115 0 -0.013960854668365689 0.092730605428899035 0 -0.013960854668365689 0.092730605428899035 0 -0.031246985116380719 0.083895256844537511 0 -0.031654355861665581 0.1070448284910652 0 -0.01509849647058934 0.117841883156159 0 -0.013960854668365689 0.092730605428899035 0 -0.031654355861665581 0.1070448284910652 0 -0.029488620397723379 0.12752274695370611 0 -0.01509849647058934 0.117841883156159 0 -0.031654355861665581 0.1070448284910652 0 -0.003150366076095932 0.074609979785928079 0 -0.02113166170977044 0.068626522072926743 0 -0.0013943106695591559 0.053551797446137098 0 -0.003150366076095932 0.074609979785928079 0 -0.013960854668365689 0.092730605428899035 0 -0.02113166170977044 0.068626522072926743 0 -0.003150366076095932 0.074609979785928079 0 -0.013960854668365689 0.092730605428899035 0 0.007828610270071909 0.088907362945166504 0 -0.013960854668365689 0.092730605428899035 0 -0.031246985116380719 0.083895256844537511 0 -0.02113166170977044 0.068626522072926743 0 -0.031246985116380719 0.083895256844537511 0 -0.02113166170977044 0.068626522072926743 0 -0.045338913417122498 0.063540705024246802 0 -0.031246985116380719 0.083895256844537511 0 -0.045338913417122498 0.063540705024246802 0 -0.048350320182769108 0.081197823041345499 0 -0.02113166170977044 0.068626522072926743 0 -0.045338913417122498 0.063540705024246802 0 -0.031746899322029037 0.056742194576226167 0 -0.031246985116380719 0.083895256844537511 0 -0.048350320182769108 0.081197823041345499 0 -0.042690881048329223 0.095341850805029535 0 -0.048350320182769108 0.081197823041345499 0 -0.042690881048329223 0.095341850805029535 0 -0.056609093316142368 0.098093474834532152 0 -0.048350320182769108 0.081197823041345499 0 -0.056609093316142368 0.098093474834532152 0 -0.064922098063175754 0.087715809217744023 0 -0.048350320182769108 0.081197823041345499 0 -0.059009644910933252 0.074131920530550122 0 -0.064922098063175754 0.087715809217744023 0 -0.045338913417122498 0.063540705024246802 0 -0.059009644910933252 0.074131920530550122 0 -0.070275178397415081 0.063751938780000725 0 -0.045338913417122498 0.063540705024246802 0 -0.048350320182769108 0.081197823041345499 0 -0.059009644910933252 0.074131920530550122 0 -0.043513691215853738 0.1207644172917187 0 -0.031654355861665581 0.1070448284910652 0 -0.049321555869682343 0.10828223055501909 0 -0.029488620397723379 0.12752274695370611 0 -0.043513691215853738 0.1207644172917187 0 -0.031654355861665581 0.1070448284910652 0 -0.031654355861665581 0.1070448284910652 0 -0.042690881048329223 0.095341850805029535 0 -0.049321555869682343 0.10828223055501909 0 -0.031246985116380719 0.083895256844537511 0 -0.031654355861665581 0.1070448284910652 0 -0.042690881048329223 0.095341850805029535 0 -0.042690881048329223 0.095341850805029535 0 -0.049321555869682343 0.10828223055501909 0 -0.056609093316142368 0.098093474834532152 0 -0.049321555869682343 0.10828223055501909 0 -0.056609093316142368 0.098093474834532152 0 -0.061599924743719149 0.1114453719455734 0 -0.049321555869682343 0.10828223055501909 0 -0.061599924743719149 0.1114453719455734 0 -0.056360914884138497 0.12126270626559101 0 -0.043513691215853738 0.1207644172917187 0 -0.049321555869682343 0.10828223055501909 0 -0.056360914884138497 0.12126270626559101 0 -0.072285548394091403 0.123880650283489 0 -0.084076987115569407 0.1112174900413858 0 -0.072769779989178648 0.1045777634424815 0 -0.061599924743719149 0.1114453719455734 0 -0.072285548394091403 0.123880650283489 0 -0.072769779989178648 0.1045777634424815 0 -0.061599924743719149 0.1114453719455734 0 -0.056360914884138497 0.12126270626559101 0 -0.072285548394091403 0.123880650283489 0 -0.072285548394091403 0.123880650283489 0 -0.084076987115569407 0.1112174900413858 0 -0.092464326960522203 0.11989964910510741 0 -0.084076987115569407 0.1112174900413858 0 -0.092464326960522203 0.11989964910510741 0 -0.094474225669952852 0.1062470741834549 0 -0.084076987115569407 0.1112174900413858 0 -0.072769779989178648 0.1045777634424815 0 -0.082124712710625422 0.093254493123542614 0 -0.084076987115569407 0.1112174900413858 0 -0.082124712710625422 0.093254493123542614 0 -0.094474225669952852 0.1062470741834549 0 -0.082124712710625422 0.093254493123542614 0 -0.094474225669952852 0.1062470741834549 0 -0.098871506121452082 0.095836409359056948 0 -0.056609093316142368 0.098093474834532152 0 -0.072769779989178648 0.1045777634424815 0 -0.064922098063175754 0.087715809217744023 0 -0.072769779989178648 0.1045777634424815 0 -0.064922098063175754 0.087715809217744023 0 -0.082124712710625422 0.093254493123542614 0 -0.056609093316142368 0.098093474834532152 0 -0.061599924743719149 0.1114453719455734 0 -0.072769779989178648 0.1045777634424815 0 -0.064922098063175754 0.087715809217744023 0 -0.07258200608823849 0.077489098247267102 0 -0.082124712710625422 0.093254493123542614 0 -0.059009644910933252 0.074131920530550122 0 -0.064922098063175754 0.087715809217744023 0 -0.07258200608823849 0.077489098247267102 0 -0.059009644910933252 0.074131920530550122 0 -0.070275178397415081 0.063751938780000725 0 -0.07258200608823849 0.077489098247267102 0 -0.070275178397415081 0.063751938780000725 0 -0.07258200608823849 0.077489098247267102 0 -0.085821394685777042 0.076440865380577039 0 -0.070275178397415081 0.063751938780000725 0 -0.085821394685777042 0.076440865380577039 0 -0.095949542701059307 0.061777837062545672 0 -0.085821394685777042 0.076440865380577039 0 -0.09819553678922556 0.082849352368367296 0 -0.095949542701059307 0.061777837062545672 0 -0.082124712710625422 0.093254493123542614 0 -0.09819553678922556 0.082849352368367296 0 -0.098871506121452082 0.095836409359056948 0 -0.07258200608823849 0.077489098247267102 0 -0.085821394685777042 0.076440865380577039 0 -0.082124712710625422 0.093254493123542614 0 -0.085821394685777042 0.076440865380577039 0 -0.082124712710625422 0.093254493123542614 0 -0.09819553678922556 0.082849352368367296 0 -0.09819553678922556 0.082849352368367296 0 -0.1124353838105016 0.07697826354967445 0 -0.1151361361800928 0.092644537401341154 0 -0.09819553678922556 0.082849352368367296 0 -0.1151361361800928 0.092644537401341154 0 -0.098871506121452082 0.095836409359056948 0 -0.09819553678922556 0.082849352368367296 0 -0.1124353838105016 0.07697826354967445 0 -0.095949542701059307 0.061777837062545672 0 -0.1124353838105016 0.07697826354967445 0 -0.1195563759839391 0.057331774264555622 0 -0.095949542701059307 0.061777837062545672 0 -0.12896766394695361 0.0780469356775918 0 -0.1124353838105016 0.07697826354967445 0 -0.1195563759839391 0.057331774264555622 0 -0.12896766394695361 0.0780469356775918 0 -0.1124353838105016 0.07697826354967445 0 -0.1210566600721498 0.084566362476993159 0 -0.1124353838105016 0.07697826354967445 0 -0.1151361361800928 0.092644537401341154 0 -0.1210566600721498 0.084566362476993159 0 -0.12768745635105139 0.090595713279365261 0 -0.1151361361800928 0.092644537401341154 0 -0.1249435281328133 0.097236802171286441 0 -0.12768745635105139 0.090595713279365261 0 -0.1151361361800928 0.092644537401341154 0 -0.1210566600721498 0.084566362476993159 0 -0.1151361361800928 0.092644537401341154 0 -0.1249435281328133 0.097236802171286441 0 -0.1175996687400962 0.1013267021172434 0 -0.1151361361800928 0.092644537401341154 0 -0.1175996687400962 0.1013267021172434 0 -0.1078043256624639 0.1041705673423567 0 -0.1175996687400962 0.1013267021172434 0 -0.11768655634763051 0.1082556591817589 0 -0.1078043256624639 0.1041705673423567 0 -0.11768655634763051 0.1082556591817589 0 -0.1083940819844839 0.11277674919166231 0 -0.1078043256624639 0.1041705673423567 0 -0.1249435281328133 0.097236802171286441 0 -0.1175996687400962 0.1013267021172434 0 -0.12243784941251901 0.1066765276431219 0 -0.1175996687400962 0.1013267021172434 0 -0.11768655634763051 0.1082556591817589 0 -0.12243784941251901 0.1066765276431219 0 -0.1139843857288443 0.13682739326719531 0 -0.11768655634763051 0.1082556591817589 0 -0.1139843857288443 0.13682739326719531 0 -0.11768655634763051 0.1082556591817589 0 -0.12253350570737059 0.11678091344594441 0 -0.1139843857288443 0.13682739326719531 0 -0.1065819504787571 0.12557693411325391 0 -0.11768655634763051 0.1082556591817589 0 -0.1065819504787571 0.12557693411325391 0 -0.11768655634763051 0.1082556591817589 0 -0.1083940819844839 0.11277674919166231 0 -0.11768655634763051 0.1082556591817589 0 -0.12243784941251901 0.1066765276431219 0 -0.12253350570737059 0.11678091344594441 0 -0.1280376533892047 0.1198063967832574 0 -0.1139843857288443 0.13682739326719531 0 -0.12253350570737059 0.11678091344594441 0 -0.1083940819844839 0.11277674919166231 0 -0.10150349544908401 0.1131038361292796 0 -0.1078043256624639 0.1041705673423567 0 -0.1065819504787571 0.12557693411325391 0 -0.1083940819844839 0.11277674919166231 0 -0.10150349544908401 0.1131038361292796 0 -0.1065819504787571 0.12557693411325391 0 -0.092464326960522203 0.11989964910510741 0 -0.10150349544908401 0.1131038361292796 0 -0.092464326960522203 0.11989964910510741 0 -0.10150349544908401 0.1131038361292796 0 -0.094474225669952852 0.1062470741834549 0 -0.094474225669952852 0.1062470741834549 0 -0.098871506121452082 0.095836409359056948 0 -0.1078043256624639 0.1041705673423567 0 -0.10150349544908401 0.1131038361292796 0 -0.094474225669952852 0.1062470741834549 0 -0.1078043256624639 0.1041705673423567 0 -0.1151361361800928 0.092644537401341154 0 -0.098871506121452082 0.095836409359056948 0 -0.1078043256624639 0.1041705673423567 0 -0.096651435542276704 0.0198100282601632 0 -0.113763153619356 0.01411256335631136 0 -0.1173613120515847 0.03399979482060457 0 -0.096651435542276704 0.0198100282601632 0 -0.1173613120515847 0.03399979482060457 0 -0.095237140583429497 0.038231806368244213 0 -0.096651435542276704 0.0198100282601632 0 -0.1023836710997944 0.0029247472907288821 0 -0.084851511341870078 0.0048440916435468304 0 -0.096651435542276704 0.0198100282601632 0 -0.1023836710997944 0.0029247472907288821 0 -0.113763153619356 0.01411256335631136 0 -0.1023836710997944 0.0029247472907288821 0 -0.113763153619356 0.01411256335631136 0 -0.1205409219509347 0.00050307250390628326 0 -0.13190177928975461 0.0121312341229985 0 -0.113763153619356 0.01411256335631136 0 -0.1205409219509347 0.00050307250390628326 0 -0.13190177928975461 0.0121312341229985 0 -0.113763153619356 0.01411256335631136 0 -0.1173613120515847 0.03399979482060457 0 -0.1173613120515847 0.03399979482060457 0 -0.1195563759839391 0.057331774264555622 0 -0.1069394255435778 0.048397694415709111 0 -0.1353434018234842 0.037915661654368812 0 -0.1173613120515847 0.03399979482060457 0 -0.1195563759839391 0.057331774264555622 0 -0.095949542701059307 0.061777837062545672 0 -0.1069394255435778 0.048397694415709111 0 -0.095237140583429497 0.038231806368244213 0 -0.1195563759839391 0.057331774264555622 0 -0.095949542701059307 0.061777837062545672 0 -0.1069394255435778 0.048397694415709111 0 -0.1173613120515847 0.03399979482060457 0 -0.1069394255435778 0.048397694415709111 0 -0.095237140583429497 0.038231806368244213 0 -0.095237140583429497 0.038231806368244213 0 -0.078335400996570048 0.045868758697159208 0 -0.074215836535363303 0.025164694175084538 0 -0.070275178397415081 0.063751938780000725 0 -0.095949542701059307 0.061777837062545672 0 -0.078335400996570048 0.045868758697159208 0 -0.095949542701059307 0.061777837062545672 0 -0.095237140583429497 0.038231806368244213 0 -0.078335400996570048 0.045868758697159208 0 -0.070275178397415081 0.063751938780000725 0 -0.078335400996570048 0.045868758697159208 0 -0.057548191928212707 0.05047517185029915 0 -0.078335400996570048 0.045868758697159208 0 -0.065082240801697444 0.037327676470783007 0 -0.074215836535363303 0.025164694175084538 0 -0.078335400996570048 0.045868758697159208 0 -0.065082240801697444 0.037327676470783007 0 -0.057548191928212707 0.05047517185029915 0 -0.065082240801697444 0.037327676470783007 0 -0.074215836535363303 0.025164694175084538 0 -0.059542266349273447 0.02210786427583171 0 -0.074215836535363303 0.025164694175084538 0 -0.06610759644821336 0.0046327927481935594 0 -0.059542266349273447 0.02210786427583171 0 -0.096651435542276704 0.0198100282601632 0 -0.074215836535363303 0.025164694175084538 0 -0.084851511341870078 0.0048440916435468304 0 -0.096651435542276704 0.0198100282601632 0 -0.095237140583429497 0.038231806368244213 0 -0.074215836535363303 0.025164694175084538 0 -0.074215836535363303 0.025164694175084538 0 -0.084851511341870078 0.0048440916435468304 0 -0.06610759644821336 0.0046327927481935594 0 -0.079537176198849244 -0.0086505373403951199 0 -0.084851511341870078 0.0048440916435468304 0 -0.06610759644821336 0.0046327927481935594 0 -0.06610759644821336 0.0046327927481935594 0 -0.047600240081306748 0.01386228299076904 0 -0.059542266349273447 0.02210786427583171 0 -0.046414023650903087 -0.00032657086204536661 0 -0.06610759644821336 0.0046327927481935594 0 -0.047600240081306748 0.01386228299076904 0 -0.047600240081306748 0.01386228299076904 0 -0.059542266349273447 0.02210786427583171 0 -0.049239339092525501 0.031978586510314572 0 -0.065082240801697444 0.037327676470783007 0 -0.059542266349273447 0.02210786427583171 0 -0.049239339092525501 0.031978586510314572 0 -0.047600240081306748 0.01386228299076904 0 -0.037719244867757018 0.020778110086453281 0 -0.049239339092525501 0.031978586510314572 0 -0.037719244867757018 0.020778110086453281 0 -0.049239339092525501 0.031978586510314572 0 -0.035795211764361172 0.032241232076674217 0 -0.037719244867757018 0.020778110086453281 0 -0.035795211764361172 0.032241232076674217 0 -0.026302275269528969 0.018409664147665709 0 -0.037719244867757018 0.020778110086453281 0 -0.037455363119192023 0.0092432622977639441 0 -0.026302275269528969 0.018409664147665709 0 -0.046414023650903087 -0.00032657086204536661 0 -0.029225078939109691 -0.0067597456290444773 0 -0.037455363119192023 0.0092432622977639441 0 -0.046414023650903087 -0.00032657086204536661 0 -0.047600240081306748 0.01386228299076904 0 -0.037455363119192023 0.0092432622977639441 0 -0.047600240081306748 0.01386228299076904 0 -0.037719244867757018 0.020778110086453281 0 -0.037455363119192023 0.0092432622977639441 0 -0.045338913417122498 0.063540705024246802 0 -0.057548191928212707 0.05047517185029915 0 -0.041842000043438167 0.046469868500508292 0 -0.045338913417122498 0.063540705024246802 0 -0.070275178397415081 0.063751938780000725 0 -0.057548191928212707 0.05047517185029915 0 -0.057548191928212707 0.05047517185029915 0 -0.049239339092525501 0.031978586510314572 0 -0.041842000043438167 0.046469868500508292 0 -0.065082240801697444 0.037327676470783007 0 -0.057548191928212707 0.05047517185029915 0 -0.049239339092525501 0.031978586510314572 0 -0.035795211764361172 0.032241232076674217 0 -0.041842000043438167 0.046469868500508292 0 -0.023379471599947691 0.043579073924375912 0 -0.049239339092525501 0.031978586510314572 0 -0.035795211764361172 0.032241232076674217 0 -0.041842000043438167 0.046469868500508292 0 -0.045338913417122498 0.063540705024246802 0 -0.041842000043438167 0.046469868500508292 0 -0.031746899322029037 0.056742194576226167 0 -0.041842000043438167 0.046469868500508292 0 -0.031746899322029037 0.056742194576226167 0 -0.023379471599947691 0.043579073924375912 0 -0.02113166170977044 0.068626522072926743 0 -0.031746899322029037 0.056742194576226167 0 -0.023379471599947691 0.043579073924375912 0 -0.035795211764361172 0.032241232076674217 0 -0.023379471599947691 0.043579073924375912 0 -0.026302275269528969 0.018409664147665709 0 -0.0013943106695591559 0.053551797446137098 0 -0.0075811698090218101 0.02991597239084556 0 0.0054385042415755064 0.039084635001147117 0 -0.023379471599947691 0.043579073924375912 0 -0.0013943106695591559 0.053551797446137098 0 -0.0075811698090218101 0.02991597239084556 0 -0.02113166170977044 0.068626522072926743 0 -0.023379471599947691 0.043579073924375912 0 -0.0013943106695591559 0.053551797446137098 0 -0.029225078939109691 -0.0067597456290444773 0 -0.01840312437406549 0.01157811338090039 0 -0.029225078939109691 -0.0067597456290444773 0 -0.037455363119192023 0.0092432622977639441 0 -0.026302275269528969 0.018409664147665709 0 -0.029225078939109691 -0.0067597456290444773 0 -0.026302275269528969 0.018409664147665709 0 -0.029225078939109691 -0.0067597456290444773 0 -0.01840312437406549 0.01157811338090039 0 -0.026302275269528969 0.018409664147665709 0 -0.01840312437406549 0.01157811338090039 0 -0.026302275269528969 0.018409664147665709 0 -0.0075811698090218101 0.02991597239084556 0 -0.023379471599947691 0.043579073924375912 0 -0.026302275269528969 0.018409664147665709 0 -0.0075811698090218101 0.02991597239084556 0 -0.023379471599947691 0.043579073924375912 0 -0.026302275269528969 0.018409664147665709 0 -0.01840312437406549 0.01157811338090039 0 -0.0075811698090218101 0.02991597239084556 0 -0.00518244601576116 0.01079959589845552 0 -0.0075811698090218101 0.02991597239084556 0 -0.00518244601576116 0.01079959589845552 0 0.0055429177264834997 0.021299000207585239 0 -0.01840312437406549 0.01157811338090039 0 -0.0075811698090218101 0.02991597239084556 0 -0.017135514851257739 -0.007068046532979072 0 -0.0079817712674107172 -0.001518037905350671 0 -0.01840312437406549 0.01157811338090039 0 -0.0079817712674107172 -0.001518037905350671 0 -0.01840312437406549 0.01157811338090039 0 -0.00518244601576116 0.01079959589845552 0 -0.0079817712674107172 -0.001518037905350671 0 -0.00518244601576116 0.01079959589845552 0 0.0020533051244099 -0.0035640895905235922 0 -0.00518244601576116 0.01079959589845552 0 0.005032540939934162 0.0088435775297100658 0 0.0020533051244099 -0.0035640895905235922 0 0.005032540939934162 0.0088435775297100658 0 0.01247724588809431 -0.0030350477518605781 0 0.0020533051244099 -0.0035640895905235922 0 0.005032540939934162 0.0088435775297100658 0 0.0157539154442469 0.011862316098441289 0 0.01247724588809431 -0.0030350477518605781 0 0.005032540939934162 0.0088435775297100658 0 0.0055429177264834997 0.021299000207585239 0 0.0157539154442469 0.011862316098441289 0 -0.00518244601576116 0.01079959589845552 0 0.005032540939934162 0.0088435775297100658 0 0.0055429177264834997 0.021299000207585239 0 0.0055429177264834997 0.021299000207585239 0 0.0054385042415755064 0.039084635001147117 0 0.01836949176868969 0.031277478200930187 0 0.0055429177264834997 0.021299000207585239 0 0.0157539154442469 0.011862316098441289 0 0.01836949176868969 0.031277478200930187 0 -0.0075811698090218101 0.02991597239084556 0 0.0055429177264834997 0.021299000207585239 0 0.0054385042415755064 0.039084635001147117 0 0.027593535213095051 0.012828213956291039 0 0.0157539154442469 0.011862316098441289 0 0.01836949176868969 0.031277478200930187 0 0.027593535213095051 0.012828213956291039 0 0.01836949176868969 0.031277478200930187 0 0.027593535213095051 0.012828213956291039 0 0.01836949176868969 0.031277478200930187 0 0.03920141469398012 0.02290571088643123 0 0.027593535213095051 0.012828213956291039 0 0.025507761129184681 -3.9325552008231917e-05 0 0.036176359702050402 -0.0066230045818757993 0 0.0157539154442469 0.011862316098441289 0 0.025507761129184681 -3.9325552008231917e-05 0 0.01247724588809431 -0.0030350477518605781 0 0.027593535213095051 0.012828213956291039 0 0.0157539154442469 0.011862316098441289 0 0.025507761129184681 -3.9325552008231917e-05 0 -0.0013943106695591559 0.053551797446137098 0 0.023079151078738931 0.054320719020329769 0 0.01290638639714372 0.069233611036510975 0 -0.0013943106695591559 0.053551797446137098 0 0.0054385042415755064 0.039084635001147117 0 0.023079151078738931 0.054320719020329769 0 0.01836949176868969 0.031277478200930187 0 0.023079151078738931 0.054320719020329769 0 0.043281172841021898 0.040309213323727611 0 0.0054385042415755064 0.039084635001147117 0 0.01836949176868969 0.031277478200930187 0 0.023079151078738931 0.054320719020329769 0 0.023079151078738931 0.054320719020329769 0 0.043281172841021898 0.040309213323727611 0 0.050958486119290727 0.064457861398881613 0 0.01836949176868969 0.031277478200930187 0 0.043281172841021898 0.040309213323727611 0 0.03920141469398012 0.02290571088643123 0 0.043281172841021898 0.040309213323727611 0 0.054248707316973323 0.0271662068237154 0 0.067947126147624243 0.045207918144721262 0 0.043281172841021898 0.040309213323727611 0 0.067947126147624243 0.045207918144721262 0 0.050958486119290727 0.064457861398881613 0 0.027593535213095051 0.012828213956291039 0 0.037709944493799719 0.0060407715107446431 0 0.036176359702050402 -0.0066230045818757993 0 0.037709944493799719 0.0060407715107446431 0 0.03920141469398012 0.02290571088643123 0 0.053714784737038557 0.01115906610268905 0 0.027593535213095051 0.012828213956291039 0 0.036176359702050402 -0.0066230045818757993 0 0.037709944493799719 0.0060407715107446431 0 0.053714784737038557 0.01115906610268905 0 0.04645430989909901 -1.613668335595649e-05 0 0.027593535213095051 0.012828213956291039 0 0.037709944493799719 0.0060407715107446431 0 0.03920141469398012 0.02290571088643123 0 0.037709944493799719 0.0060407715107446431 0 0.04645430989909901 -1.613668335595649e-05 0 0.041350579113596221 -0.0020444724256523839 0 0.043281172841021898 0.040309213323727611 0 0.03920141469398012 0.02290571088643123 0 0.054248707316973323 0.0271662068237154 0 0.03920141469398012 0.02290571088643123 0 0.054248707316973323 0.0271662068237154 0 0.053714784737038557 0.01115906610268905 0 0.054248707316973323 0.0271662068237154 0 0.053714784737038557 0.01115906610268905 0 0.069303950026078573 0.02246851036802559 0 0.053714784737038557 0.01115906610268905 0 0.059276928473780563 -0.0047535448490748601 0 0.04645430989909901 -1.613668335595649e-05 0 0.053714784737038557 0.01115906610268905 0 0.072281768693336412 0.0060864293127131314 0 0.059276928473780563 -0.0047535448490748601 0 0.072281768693336412 0.0060864293127131314 0 0.088570947733218969 0.01596065244254764 0 0.069303950026078573 0.02246851036802559 0 0.053714784737038557 0.01115906610268905 0 0.072281768693336412 0.0060864293127131314 0 0.069303950026078573 0.02246851036802559 0 0.072281768693336412 0.0060864293127131314 0 0.086010307971740543 0.00071677050076128382 0 0.088570947733218969 0.01596065244254764 0 0.086010307971740543 0.00071677050076128382 0 0.088570947733218969 0.01596065244254764 0 0.10352184061992439 0.0057450324166591158 0 0.088570947733218969 0.01596065244254764 0 0.069303950026078573 0.02246851036802559 0 0.089413174828425868 0.035578484086650687 0 0.069303950026078573 0.02246851036802559 0 0.067947126147624243 0.045207918144721262 0 0.089413174828425868 0.035578484086650687 0 0.054248707316973323 0.0271662068237154 0 0.069303950026078573 0.02246851036802559 0 0.067947126147624243 0.045207918144721262 0 0.067947126147624243 0.045207918144721262 0 0.073968409950945113 0.072126862159895971 0 0.050958486119290727 0.064457861398881613 0 0.067947126147624243 0.045207918144721262 0 0.093926701309987204 0.057651631762879803 0 0.073968409950945113 0.072126862159895971 0 0.067947126147624243 0.045207918144721262 0 0.089413174828425868 0.035578484086650687 0 0.093926701309987204 0.057651631762879803 0 0.089413174828425868 0.035578484086650687 0 0.1067214084269543 0.045077389002559719 0 0.093926701309987204 0.057651631762879803 0 0.089413174828425868 0.035578484086650687 0 0.1067214084269543 0.045077389002559719 0 0.1112551695795133 0.024302137236056578 0 0.1067214084269543 0.045077389002559719 0 0.093926701309987204 0.057651631762879803 0 0.11493955442365469 0.063239588537095298 0 0.1067214084269543 0.045077389002559719 0 0.1240724419931902 0.044615103390116199 0 0.11493955442365469 0.063239588537095298 0 0.1067214084269543 0.045077389002559719 0 0.1240724419931902 0.044615103390116199 0 0.1112551695795133 0.024302137236056578 0 0.1240724419931902 0.044615103390116199 0 0.1112551695795133 0.024302137236056578 0 0.13265191247291211 0.02591686524772702 0 0.1112551695795133 0.024302137236056578 0 0.13265191247291211 0.02591686524772702 0 0.1254404225205851 -0.00079170880474917042 0 0.1112551695795133 0.024302137236056578 0 0.10352184061992439 0.0057450324166591158 0 0.1254404225205851 -0.00079170880474917042 0 0.10352184061992439 0.0057450324166591158 0 0.1254404225205851 -0.00079170880474917042 0 0.088570947733218969 0.01596065244254764 0 0.1112551695795133 0.024302137236056578 0 0.10352184061992439 0.0057450324166591158 0 0.088570947733218969 0.01596065244254764 0 0.089413174828425868 0.035578484086650687 0 0.1112551695795133 0.024302137236056578 0 0.099954320802853713 0.1075285363701146 0 0.1118663473915711 0.093397374535734878 0 0.099229075437583636 0.08307421671239773 0 0.099954320802853713 0.1075285363701146 0 0.1180128628216825 0.1228244084512798 0 0.099572260633052578 0.1311061981640384 0 0.1180128628216825 0.1228244084512798 0 0.1204814882171661 0.1064055477318288 0 0.1301275465426999 0.1133069565677613 0 0.099954320802853713 0.1075285363701146 0 0.1180128628216825 0.1228244084512798 0 0.1204814882171661 0.1064055477318288 0 0.099954320802853713 0.1075285363701146 0 0.1204814882171661 0.1064055477318288 0 0.1118663473915711 0.093397374535734878 0 0.1204814882171661 0.1064055477318288 0 0.1118663473915711 0.093397374535734878 0 0.13159962439363879 0.098527114915405584 0 0.1118663473915711 0.093397374535734878 0 0.12301854318508849 0.0820529108450814 0 0.13159962439363879 0.098527114915405584 0 0.1118663473915711 0.093397374535734878 0 0.12301854318508849 0.0820529108450814 0 0.099229075437583636 0.08307421671239773 0 0.12301854318508849 0.0820529108450814 0 0.11493955442365469 0.063239588537095298 0 0.099229075437583636 0.08307421671239773 0 0.12301854318508849 0.0820529108450814 0 0.11493955442365469 0.063239588537095298 0 0.13618409821577321 0.064522590400657359 0 0.093926701309987204 0.057651631762879803 0 0.11493955442365469 0.063239588537095298 0 0.099229075437583636 0.08307421671239773 0 0.099229075437583636 0.08307421671239773 0 0.073968409950945113 0.072126862159895971 0 0.069484122650984442 0.097591270233765945 0 0.093926701309987204 0.057651631762879803 0 0.099229075437583636 0.08307421671239773 0 0.073968409950945113 0.072126862159895971 0 0.073968409950945113 0.072126862159895971 0 0.069484122650984442 0.097591270233765945 0 0.053026009989523573 0.084357082638175679 0 0.099954320802853713 0.1075285363701146 0 0.069484122650984442 0.097591270233765945 0 0.078930964172306037 0.121094650432763 0 0.099954320802853713 0.1075285363701146 0 0.099229075437583636 0.08307421671239773 0 0.069484122650984442 0.097591270233765945 0 0.099954320802853713 0.1075285363701146 0 0.078930964172306037 0.121094650432763 0 0.099572260633052578 0.1311061981640384 0 0.069484122650984442 0.097591270233765945 0 0.078930964172306037 0.121094650432763 0 0.051387604173965692 0.1252159867801387 0 0.069484122650984442 0.097591270233765945 0 0.042903552366715572 0.10288238743740701 0 0.053026009989523573 0.084357082638175679 0 0.069484122650984442 0.097591270233765945 0 0.042903552366715572 0.10288238743740701 0 0.051387604173965692 0.1252159867801387 0 0.042903552366715572 0.10288238743740701 0 0.031994326853010138 0.082330436734973811 0 0.019509243102032489 0.10842640649770539 0 0.042903552366715572 0.10288238743740701 0 0.03355540798192104 0.1214889462320035 0 0.051387604173965692 0.1252159867801387 0 0.042903552366715572 0.10288238743740701 0 0.03355540798192104 0.1214889462320035 0 0.019509243102032489 0.10842640649770539 0 0.073968409950945113 0.072126862159895971 0 0.050958486119290727 0.064457861398881613 0 0.053026009989523573 0.084357082638175679 0 0.042903552366715572 0.10288238743740701 0 0.053026009989523573 0.084357082638175679 0 0.031994326853010138 0.082330436734973811 0 0.050958486119290727 0.064457861398881613 0 0.053026009989523573 0.084357082638175679 0 0.031994326853010138 0.082330436734973811 0 0.023079151078738931 0.054320719020329769 0 0.050958486119290727 0.064457861398881613 0 0.031994326853010138 0.082330436734973811 0 0.023079151078738931 0.054320719020329769 0 0.031994326853010138 0.082330436734973811 0 0.01290638639714372 0.069233611036510975 0 0.031994326853010138 0.082330436734973811 0 0.007828610270071909 0.088907362945166504 0 0.019509243102032489 0.10842640649770539 0 0.031994326853010138 0.082330436734973811 0 0.007828610270071909 0.088907362945166504 0 0.01290638639714372 0.069233611036510975 0 -0.003150366076095932 0.074609979785928079 0 -0.0013943106695591559 0.053551797446137098 0 0.01290638639714372 0.069233611036510975 0 -0.003150366076095932 0.074609979785928079 0 0.007828610270071909 0.088907362945166504 0 0.01290638639714372 0.069233611036510975 0 0.03355540798192104 0.1214889462320035 0 0.019509243102032489 0.10842640649770539 0 0.018368757799290619 0.1341143017967206 0 -0.00040560012885032309 0.1066366689589115 0 0.007828610270071909 0.088907362945166504 0 0.019509243102032489 0.10842640649770539 0 -0.00040560012885032309 0.1066366689589115 0 0.019509243102032489 0.10842640649770539 0 0.0032291670199558549 0.1218389315012485 0 0.019509243102032489 0.10842640649770539 0 0.0032291670199558549 0.1218389315012485 0 0.018368757799290619 0.1341143017967206 0 -0.0062280692021041686 0.14217539709674601 0 0.0032291670199558549 0.1218389315012485 0 0.018368757799290619 0.1341143017967206 0 0.03355540798192104 0.1214889462320035 0 0.018368757799290619 0.1341143017967206 0 0.035607882467600813 0.13680564864804581 0 0.018368757799290619 0.1341143017967206 0 0.0288557698772995 0.1561008342443885 0 0.035607882467600813 0.13680564864804581 0 0.018368757799290619 0.1341143017967206 0 0.0288557698772995 0.1561008342443885 0 0.01099549197037763 0.15858320354101621 0 -0.0062280692021041686 0.14217539709674601 0 0.01099549197037763 0.15858320354101621 0 -0.0062280692021041686 0.14217539709674601 0 0.018368757799290619 0.1341143017967206 0 0.01099549197037763 0.15858320354101621 0 -0.0023606537899555982 0.1763087066628137 0 0.01099549197037763 0.15858320354101621 0 0.01179916415041256 0.17308344120761671 0 -0.0023606537899555982 0.1763087066628137 0 0.0215409802626934 0.1838537615461843 0 0.0092712630592150253 0.18960734295556331 0 -0.0023606537899555982 0.1763087066628137 0 0.0215409802626934 0.1838537615461843 0 -0.0023606537899555982 0.1763087066628137 0 0.01179916415041256 0.17308344120761671 0 0.0215409802626934 0.1838537615461843 0 -0.0023606537899555982 0.1763087066628137 0 3.2750654143463799e-05 0.1917001762217411 0 0.0092712630592150253 0.18960734295556331 0 0.01179916415041256 0.17308344120761671 0 0.028219053142859499 0.17499100998528661 0 0.0215409802626934 0.1838537615461843 0 0.0288557698772995 0.1561008342443885 0 0.01099549197037763 0.15858320354101621 0 0.028219053142859499 0.17499100998528661 0 0.01099549197037763 0.15858320354101621 0 0.01179916415041256 0.17308344120761671 0 0.028219053142859499 0.17499100998528661 0 0.01099549197037763 0.15858320354101621 0 0.028219053142859499 0.17499100998528661 0 0.0288557698772995 0.1561008342443885 0 0.028219053142859499 0.17499100998528661 0 0.039952929049451268 0.1646299938572581 0 0.028219053142859499 0.17499100998528661 0 0.039952929049451268 0.1646299938572581 0 0.0458560308466451 0.17563567893069859 0 0.0288557698772995 0.1561008342443885 0 0.039952929049451268 0.1646299938572581 0 0.046536679724727727 0.14972326935137231 0 0.028219053142859499 0.17499100998528661 0 0.045442614315342057 0.191398816429556 0 0.028219053142859499 0.17499100998528661 0 0.0215409802626934 0.1838537615461843 0 0.045442614315342057 0.191398816429556 0 0.028219053142859499 0.17499100998528661 0 0.0458560308466451 0.17563567893069859 0 0.045442614315342057 0.191398816429556 0 0.0458560308466451 0.17563567893069859 0 0.058017540259588163 0.18580309707872661 0 0.063602992299077926 0.17654176162215221 0 0.0458560308466451 0.17563567893069859 0 0.058017540259588163 0.18580309707872661 0 0.045442614315342057 0.191398816429556 0 0.039952929049451268 0.1646299938572581 0 0.057354424139231593 0.1632994252912375 0 0.046536679724727727 0.14972326935137231 0 0.039952929049451268 0.1646299938572581 0 0.0458560308466451 0.17563567893069859 0 0.057354424139231593 0.1632994252912375 0 0.0458560308466451 0.17563567893069859 0 0.057354424139231593 0.1632994252912375 0 0.063602992299077926 0.17654176162215221 0 0.057354424139231593 0.1632994252912375 0 0.046536679724727727 0.14972326935137231 0 0.074256512600673757 0.14403126061575719 0 0.051387604173965692 0.1252159867801387 0 0.046536679724727727 0.14972326935137231 0 0.074256512600673757 0.14403126061575719 0 0.03355540798192104 0.1214889462320035 0 0.051387604173965692 0.1252159867801387 0 0.035607882467600813 0.13680564864804581 0 0.051387604173965692 0.1252159867801387 0 0.035607882467600813 0.13680564864804581 0 0.046536679724727727 0.14972326935137231 0 0.0288557698772995 0.1561008342443885 0 0.035607882467600813 0.13680564864804581 0 0.046536679724727727 0.14972326935137231 0 0.019123657608231669 0.2396381064471044 0 0.039481826009394073 0.24939341644378199 0 0.034859294207960752 0.23478100167071711 0 0.019123657608231669 0.2396381064471044 0 0.039481826009394073 0.24939341644378199 0 0.03000310955351029 0.26041730071992492 0 0.019123657608231669 0.2396381064471044 0 0.0055784632966910386 0.24114364015070419 0 0.01354142008144261 0.25110046580859913 0 0.019123657608231669 0.2396381064471044 0 0.0055784632966910386 0.24114364015070419 0 0.0082442056629530684 0.21885891217428391 0 0.019123657608231669 0.2396381064471044 0 0.0082442056629530684 0.21885891217428391 0 -0.0071025446957457064 0.22384020014181941 0 0.0055784632966910386 0.24114364015070419 0 0.0082442056629530684 0.21885891217428391 0 0.019123657608231669 0.2396381064471044 0 0.024147280099929929 0.2270839156250867 0 0.034859294207960752 0.23478100167071711 0 0.0082442056629530684 0.21885891217428391 0 0.024147280099929929 0.2270839156250867 0 0.02402145177456599 0.2162793634180615 0 0.019123657608231669 0.2396381064471044 0 0.0082442056629530684 0.21885891217428391 0 0.024147280099929929 0.2270839156250867 0 0.024147280099929929 0.2270839156250867 0 0.02402145177456599 0.2162793634180615 0 0.035504788589865402 0.22218089520554379 0 0.0082442056629530684 0.21885891217428391 0 0.02402145177456599 0.2162793634180615 0 0.017711263243437431 0.20710808115899271 0 0.02402145177456599 0.2162793634180615 0 0.02863524697023757 0.20301113247437391 0 0.034693211713689949 0.2119736653739471 0 0.02402145177456599 0.2162793634180615 0 0.017711263243437431 0.20710808115899271 0 0.02863524697023757 0.20301113247437391 0 0.0082442056629530684 0.21885891217428391 0 0.017711263243437431 0.20710808115899271 0 0.0074096562876724012 0.20050547127135551 0 -0.0092709302470169661 0.20460080529308 0 0.0082442056629530684 0.21885891217428391 0 0.0074096562876724012 0.20050547127135551 0 0.017711263243437431 0.20710808115899271 0 0.0074096562876724012 0.20050547127135551 0 0.018872275997939902 0.19625847844471481 0 0.0074096562876724012 0.20050547127135551 0 0.0092712630592150253 0.18960734295556331 0 0.018872275997939902 0.19625847844471481 0 0.0074096562876724012 0.20050547127135551 0 3.2750654143463799e-05 0.1917001762217411 0 0.0092712630592150253 0.18960734295556331 0 0.0215409802626934 0.1838537615461843 0 0.0092712630592150253 0.18960734295556331 0 0.018872275997939902 0.19625847844471481 0 0.017711263243437431 0.20710808115899271 0 0.018872275997939902 0.19625847844471481 0 0.02863524697023757 0.20301113247437391 0 0.018872275997939902 0.19625847844471481 0 0.02863524697023757 0.20301113247437391 0 0.029872619417462439 0.19414513979438089 0 0.0215409802626934 0.1838537615461843 0 0.018872275997939902 0.19625847844471481 0 0.029872619417462439 0.19414513979438089 0 0.0215409802626934 0.1838537615461843 0 0.045442614315342057 0.191398816429556 0 0.0215409802626934 0.1838537615461843 0 0.029872619417462439 0.19414513979438089 0 0.045442614315342057 0.191398816429556 0 0.029872619417462439 0.19414513979438089 0 0.037286726047256968 0.19756362714219791 0 0.045442614315342057 0.191398816429556 0 0.02863524697023757 0.20301113247437391 0 0.037286726047256968 0.19756362714219791 0 0.042426541775825687 0.2041075308216789 0 0.02863524697023757 0.20301113247437391 0 0.029872619417462439 0.19414513979438089 0 0.037286726047256968 0.19756362714219791 0 0.037286726047256968 0.19756362714219791 0 0.045442614315342057 0.191398816429556 0 0.042426541775825687 0.2041075308216789 0 0.058017540259588163 0.18580309707872661 0 0.045442614315342057 0.191398816429556 0 0.066009660236558396 0.1978912382414928 0 0.045442614315342057 0.191398816429556 0 0.056471652415623019 0.20190548927169991 0 0.066009660236558396 0.1978912382414928 0 0.045442614315342057 0.191398816429556 0 0.066009660236558396 0.1978912382414928 0 0.045442614315342057 0.191398816429556 0 0.056471652415623019 0.20190548927169991 0 0.042426541775825687 0.2041075308216789 0 0.045442614315342057 0.191398816429556 0 0.056471652415623019 0.20190548927169991 0 0.056471652415623019 0.20190548927169991 0 0.052029854762677463 0.20993788134375591 0 0.042426541775825687 0.2041075308216789 0 0.056471652415623019 0.20190548927169991 0 0.052029854762677463 0.20993788134375591 0 0.061377254785601777 0.210931245679707 0 0.052029854762677463 0.20993788134375591 0 0.061377254785601777 0.210931245679707 0 0.055701817648195873 0.2179222971700818 0 0.061377254785601777 0.210931245679707 0 0.055701817648195873 0.2179222971700818 0 0.065719453838629066 0.21813577647871499 0 0.052029854762677463 0.20993788134375591 0 0.055701817648195873 0.2179222971700818 0 0.044497508332419868 0.21519658046486009 0 0.044497508332419868 0.21519658046486009 0 0.042426541775825687 0.2041075308216789 0 0.034693211713689949 0.2119736653739471 0 0.052029854762677463 0.20993788134375591 0 0.044497508332419868 0.21519658046486009 0 0.042426541775825687 0.2041075308216789 0 0.02863524697023757 0.20301113247437391 0 0.042426541775825687 0.2041075308216789 0 0.034693211713689949 0.2119736653739471 0 0.02402145177456599 0.2162793634180615 0 0.034693211713689949 0.2119736653739471 0 0.035504788589865402 0.22218089520554379 0 0.044497508332419868 0.21519658046486009 0 0.034693211713689949 0.2119736653739471 0 0.035504788589865402 0.22218089520554379 0 0.024147280099929929 0.2270839156250867 0 0.035504788589865402 0.22218089520554379 0 0.034859294207960752 0.23478100167071711 0 0.035504788589865402 0.22218089520554379 0 0.048503722095311647 0.2272099362042205 0 0.034859294207960752 0.23478100167071711 0 0.048503722095311647 0.2272099362042205 0 0.049177988561898263 0.2405689173160179 0 0.034859294207960752 0.23478100167071711 0 0.044497508332419868 0.21519658046486009 0 0.035504788589865402 0.22218089520554379 0 0.048503722095311647 0.2272099362042205 0 0.055701817648195873 0.2179222971700818 0 0.044497508332419868 0.21519658046486009 0 0.048503722095311647 0.2272099362042205 0 0.055701817648195873 0.2179222971700818 0 0.048503722095311647 0.2272099362042205 0 0.063702886918765564 0.22713929706024841 0 0.055701817648195873 0.2179222971700818 0 0.063702886918765564 0.22713929706024841 0 0.065719453838629066 0.21813577647871499 0 0.056095074221628578 0.2339263515333343 0 0.048503722095311647 0.2272099362042205 0 0.063702886918765564 0.22713929706024841 0 0.056095074221628578 0.2339263515333343 0 0.062995699310538847 0.24078725555285041 0 0.063702886918765564 0.22713929706024841 0 0.056095074221628578 0.2339263515333343 0 0.048503722095311647 0.2272099362042205 0 0.049177988561898263 0.2405689173160179 0 0.049177988561898263 0.2405689173160179 0 0.062995699310538847 0.24078725555285041 0 0.057933223804373497 0.25770989042118592 0 0.049177988561898263 0.2405689173160179 0 0.039481826009394073 0.24939341644378199 0 0.057933223804373497 0.25770989042118592 0 0.056095074221628578 0.2339263515333343 0 0.049177988561898263 0.2405689173160179 0 0.062995699310538847 0.24078725555285041 0 0.049177988561898263 0.2405689173160179 0 0.039481826009394073 0.24939341644378199 0 0.034859294207960752 0.23478100167071711 0 0.074045003056080208 0.2348425184252726 0 0.089783622343782787 0.23060454452828699 0 0.076707821969760739 0.25140860886305538 0 0.092093873542319515 0.24696156471119629 0 0.089783622343782787 0.23060454452828699 0 0.076707821969760739 0.25140860886305538 0 0.089783622343782787 0.23060454452828699 0 0.076707821969760739 0.25140860886305538 0 0.092093873542319515 0.24696156471119629 0 0.089783622343782787 0.23060454452828699 0 0.062995699310538847 0.24078725555285041 0 0.057933223804373497 0.25770989042118592 0 0.076707821969760739 0.25140860886305538 0 0.062995699310538847 0.24078725555285041 0 0.074045003056080208 0.2348425184252726 0 0.076707821969760739 0.25140860886305538 0 0.074045003056080208 0.2348425184252726 0 0.063702886918765564 0.22713929706024841 0 0.076166562325935827 0.22156819936168781 0 0.062995699310538847 0.24078725555285041 0 0.074045003056080208 0.2348425184252726 0 0.063702886918765564 0.22713929706024841 0 0.063702886918765564 0.22713929706024841 0 0.076166562325935827 0.22156819936168781 0 0.065719453838629066 0.21813577647871499 0 0.074045003056080208 0.2348425184252726 0 0.076166562325935827 0.22156819936168781 0 0.089783622343782787 0.23060454452828699 0 0.076166562325935827 0.22156819936168781 0 0.089783622343782787 0.23060454452828699 0 0.087716800671790732 0.21597105193467231 0 0.089783622343782787 0.23060454452828699 0 0.087716800671790732 0.21597105193467231 0 0.089783622343782787 0.23060454452828699 0 0.087716800671790732 0.21597105193467231 0 0.094309805063435753 0.20966653402207031 0 0.086576706157774408 0.20438366005343081 0 0.078719942191354753 0.21178742079670021 0 0.070133993883593107 0.20666948286081349 0 0.087716800671790732 0.21597105193467231 0 0.086576706157774408 0.20438366005343081 0 0.094309805063435753 0.20966653402207031 0 0.087716800671790732 0.21597105193467231 0 0.086576706157774408 0.20438366005343081 0 0.078719942191354753 0.21178742079670021 0 0.076166562325935827 0.22156819936168781 0 0.087716800671790732 0.21597105193467231 0 0.078719942191354753 0.21178742079670021 0 0.076166562325935827 0.22156819936168781 0 0.071648747514646269 0.21311784312185009 0 0.065719453838629066 0.21813577647871499 0 0.076166562325935827 0.22156819936168781 0 0.078719942191354753 0.21178742079670021 0 0.071648747514646269 0.21311784312185009 0 0.061377254785601777 0.210931245679707 0 0.071648747514646269 0.21311784312185009 0 0.065719453838629066 0.21813577647871499 0 0.061377254785601777 0.210931245679707 0 0.071648747514646269 0.21311784312185009 0 0.070133993883593107 0.20666948286081349 0 0.056471652415623019 0.20190548927169991 0 0.061377254785601777 0.210931245679707 0 0.070133993883593107 0.20666948286081349 0 0.078719942191354753 0.21178742079670021 0 0.071648747514646269 0.21311784312185009 0 0.070133993883593107 0.20666948286081349 0 0.086576706157774408 0.20438366005343081 0 0.066009660236558396 0.1978912382414928 0 0.07847482097445975 0.1926216053398406 0 0.086576706157774408 0.20438366005343081 0 0.066009660236558396 0.1978912382414928 0 0.086576706157774408 0.20438366005343081 0 0.070133993883593107 0.20666948286081349 0 0.066009660236558396 0.1978912382414928 0 0.056471652415623019 0.20190548927169991 0 0.070133993883593107 0.20666948286081349 0 0.066009660236558396 0.1978912382414928 0 0.058017540259588163 0.18580309707872661 0 0.066009660236558396 0.1978912382414928 0 0.069176403600317252 0.1875479901697332 0 0.066009660236558396 0.1978912382414928 0 0.069176403600317252 0.1875479901697332 0 0.07847482097445975 0.1926216053398406 0 0.07847482097445975 0.1926216053398406 0 0.092257130077710039 0.1941623735730223 0 0.08037263691641422 0.1814122714304203 0 0.086576706157774408 0.20438366005343081 0 0.07847482097445975 0.1926216053398406 0 0.092257130077710039 0.1941623735730223 0 0.086576706157774408 0.20438366005343081 0 0.092257130077710039 0.1941623735730223 0 0.094309805063435753 0.20966653402207031 0 0.092257130077710039 0.1941623735730223 0 0.10583364812248661 0.18828432599162509 0 0.1046133820542586 0.20700986838909269 0 0.1194431417647329 0.1834151922498973 0 0.1258098209935537 0.20357845112759121 0 0.1286452003263395 0.18877926668688269 0 0.11106919854036119 0.2100535552599726 0 0.1194431417647329 0.1834151922498973 0 0.1258098209935537 0.20357845112759121 0 0.10583364812248661 0.18828432599162509 0 0.1046133820542586 0.20700986838909269 0 0.1194431417647329 0.1834151922498973 0 0.11106919854036119 0.2100535552599726 0 0.1194431417647329 0.1834151922498973 0 0.11106919854036119 0.2100535552599726 0 0.1046133820542586 0.20700986838909269 0 0.1194431417647329 0.1834151922498973 0 0.1046133820542586 0.20700986838909269 0 0.1194431417647329 0.1834151922498973 0 0.11106919854036119 0.2100535552599726 0 0.1150944919396437 0.21699559650319369 0 0.1258098209935537 0.20357845112759121 0 0.089783622343782787 0.23060454452828699 0 0.1046133820542586 0.20700986838909269 0 0.094309805063435753 0.20966653402207031 0 0.089783622343782787 0.23060454452828699 0 0.11106919854036119 0.2100535552599726 0 0.1046133820542586 0.20700986838909269 0 0.092257130077710039 0.1941623735730223 0 0.1046133820542586 0.20700986838909269 0 0.094309805063435753 0.20966653402207031 0 0.11106919854036119 0.2100535552599726 0 0.1026952553159898 0.2366919182700479 0 0.089783622343782787 0.23060454452828699 0 0.1046133820542586 0.20700986838909269 0 0.089783622343782787 0.23060454452828699 0 0.11106919854036119 0.2100535552599726 0 0.1026952553159898 0.2366919182700479 0 0.1150944919396437 0.21699559650319369 0 0.1195579320544691 0.23306236809633091 0 0.1026952553159898 0.2366919182700479 0 0.11106919854036119 0.2100535552599726 0 0.1150944919396437 0.21699559650319369 0 0.1026952553159898 0.2366919182700479 0 0.1150944919396437 0.21699559650319369 0 0.1195579320544691 0.23306236809633091 0 0.13096194285561111 0.22661631913400371 0 0.1195579320544691 0.23306236809633091 0 0.1180621290175731 0.2493255458978435 0 0.1026952553159898 0.2366919182700479 0 0.1195579320544691 0.23306236809633091 0 0.1180621290175731 0.2493255458978435 0 0.13213648813393289 0.24019751543020601 0 0.092093873542319515 0.24696156471119629 0 0.1026952553159898 0.2366919182700479 0 0.094321312091618287 0.2633302812801232 0 0.092093873542319515 0.24696156471119629 0 0.089783622343782787 0.23060454452828699 0 0.1026952553159898 0.2366919182700479 0 0.1026952553159898 0.2366919182700479 0 0.094321312091618287 0.2633302812801232 0 0.1180621290175731 0.2493255458978435 0 0.1026952553159898 0.2366919182700479 0 0.10650516683911419 0.25322392924382908 0 0.074256512600673757 0.14403126061575719 0 0.10186517285592619 0.14812168744354201 0 0.099572260633052578 0.1311061981640384 0 0.074256512600673757 0.14403126061575719 0 0.097125421027381892 0.16284653445137581 0 0.10186517285592619 0.14812168744354201 0 0.074256512600673757 0.14403126061575719 0 0.097125421027381892 0.16284653445137581 0 0.078930964172306037 0.121094650432763 0 0.074256512600673757 0.14403126061575719 0 0.099572260633052578 0.1311061981640384 0 0.051387604173965692 0.1252159867801387 0 0.074256512600673757 0.14403126061575719 0 0.078930964172306037 0.121094650432763 0 0.051387604173965692 0.1252159867801387 0 0.074256512600673757 0.14403126061575719 0 0.057354424139231593 0.1632994252912375 0 0.077450056556567282 0.16753471162853331 0 0.063602992299077926 0.17654176162215221 0 0.057354424139231593 0.1632994252912375 0 0.074256512600673757 0.14403126061575719 0 0.077450056556567282 0.16753471162853331 0 0.077450056556567282 0.16753471162853331 0 0.063602992299077926 0.17654176162215221 0 0.08037263691641422 0.1814122714304203 0 0.069176403600317252 0.1875479901697332 0 0.063602992299077926 0.17654176162215221 0 0.08037263691641422 0.1814122714304203 0 0.058017540259588163 0.18580309707872661 0 0.069176403600317252 0.1875479901697332 0 0.063602992299077926 0.17654176162215221 0 0.069176403600317252 0.1875479901697332 0 0.07847482097445975 0.1926216053398406 0 0.08037263691641422 0.1814122714304203 0 0.092257130077710039 0.1941623735730223 0 0.08037263691641422 0.1814122714304203 0 0.095324742242936189 0.17837663795551209 0 0.077450056556567282 0.16753471162853331 0 0.08037263691641422 0.1814122714304203 0 0.095324742242936189 0.17837663795551209 0 0.074256512600673757 0.14403126061575719 0 0.077450056556567282 0.16753471162853331 0 0.097125421027381892 0.16284653445137581 0 0.077450056556567282 0.16753471162853331 0 0.097125421027381892 0.16284653445137581 0 0.095324742242936189 0.17837663795551209 0 0.097125421027381892 0.16284653445137581 0 0.11829371139459879 0.16006527670923071 0 0.10186517285592619 0.14812168744354201 0 0.097125421027381892 0.16284653445137581 0 0.12035742160707549 0.18196054044151799 0 0.092257130077710039 0.1941623735730223 0 0.10583364812248661 0.18828432599162509 0 0.095324742242936189 0.17837663795551209 0 0.097125421027381892 0.16284653445137581 0 0.095324742242936189 0.17837663795551209 0 0.12035742160707549 0.18196054044151799 0 0.10583364812248661 0.18828432599162509 0 0.095324742242936189 0.17837663795551209 0 0.12035742160707549 0.18196054044151799 0 0.12035742160707549 0.18196054044151799 0 0.12618867547497031 0.16195696512136229 0 0.10583364812248661 0.18828432599162509 0 0.1194431417647329 0.1834151922498973 0 0.12035742160707549 0.18196054044151799 0 0.1194431417647329 0.1834151922498973 0 0.12035742160707549 0.18196054044151799 0 0.1286452003263395 0.18877926668688269 0 0.12035742160707549 0.18196054044151799 0 0.1286452003263395 0.18877926668688269 0 0.1194431417647329 0.1834151922498973 0 0.12035742160707549 0.18196054044151799 0 0.12035742160707549 0.18196054044151799 0 0.11829371139459879 0.16006527670923071 0 0.12618867547497031 0.16195696512136229 0 0.097125421027381892 0.16284653445137581 0 0.12035742160707549 0.18196054044151799 0 0.11829371139459879 0.16006527670923071 0 0.11829371139459879 0.16006527670923071 0 0.12618867547497031 0.16195696512136229 0 0.11829371139459879 0.16006527670923071 0 0.1200779586239238 0.14255916727730819 0 0.12618867547497031 0.16195696512136229 0 0.11829371139459879 0.16006527670923071 0 0.1200779586239238 0.14255916727730819 0 0.10186517285592619 0.14812168744354201 0 0.1200779586239238 0.14255916727730819 0 0.10186517285592619 0.14812168744354201 0 0.099572260633052578 0.1311061981640384 0 0.1180128628216825 0.1228244084512798 0 0.1200779586239238 0.14255916727730819 0 0.099572260633052578 0.1311061981640384 0 0.1180128628216825 0.1228244084512798 0 0.1200779586239238 0.14255916727730819 0 0.1351443835220813 0.13346794918477639 0 0.150117065763023 0.12504163352151229 0 0.1514783610504282 0.1455873302444006 0 0.16511628583172111 0.1306989991898905 0 0.1351443835220813 0.13346794918477639 0 0.150117065763023 0.12504163352151229 0 0.1514783610504282 0.1455873302444006 0 0.1514783610504282 0.1455873302444006 0 0.14613287921607229 0.15792655734949779 0 0.162469203248995 0.15861127612200079 0 0.1351443835220813 0.13346794918477639 0 0.1514783610504282 0.1455873302444006 0 0.138615436565901 0.15059047364018749 0 0.1514783610504282 0.1455873302444006 0 0.138615436565901 0.15059047364018749 0 0.14613287921607229 0.15792655734949779 0 0.138615436565901 0.15059047364018749 0 0.13432249369240909 0.15974161312597809 0 0.14613287921607229 0.15792655734949779 0 0.1351443835220813 0.13346794918477639 0 0.138615436565901 0.15059047364018749 0 0.12618867547497031 0.16195696512136229 0 0.1351443835220813 0.13346794918477639 0 0.12618867547497031 0.16195696512136229 0 0.1200779586239238 0.14255916727730819 0 0.1351443835220813 0.13346794918477639 0 0.12618867547497031 0.16195696512136229 0 0.12035742160707549 0.18196054044151799 0 0.13204773426231739 0.16336083643744531 0 0.12618867547497031 0.16195696512136229 0 0.13204773426231739 0.16336083643744531 0 0.12618867547497031 0.16195696512136229 0 0.13432249369240909 0.15974161312597809 0 0.13204773426231739 0.16336083643744531 0 0.13387065574949311 0.1726141037684096 0 0.15223759121828059 0.16819846686328249 0 0.13204773426231739 0.16336083643744531 0 0.12618867547497031 0.16195696512136229 0 0.13204773426231739 0.16336083643744531 0 0.13432249369240909 0.15974161312597809 0 0.14613287921607229 0.15792655734949779 0 0.138615436565901 0.15059047364018749 0 0.12618867547497031 0.16195696512136229 0 0.13432249369240909 0.15974161312597809 0 0.13204773426231739 0.16336083643744531 0 0.13432249369240909 0.15974161312597809 0 0.12035742160707549 0.18196054044151799 0 0.13204773426231739 0.16336083643744531 0 0.12035742160707549 0.18196054044151799 0 0.13204773426231739 0.16336083643744531 0 0.13387065574949311 0.1726141037684096 0 0.12035742160707549 0.18196054044151799 0 0.13247563706671359 0.18134924743406231 0 0.1286452003263395 0.18877926668688269 0 0.12035742160707549 0.18196054044151799 0 0.13247563706671359 0.18134924743406231 0 0.13387065574949311 0.1726141037684096 0 0.13247563706671359 0.18134924743406231 0 0.13387065574949311 0.1726141037684096 0 0.14063123795657331 0.17698859287096519 0 0.13247563706671359 0.18134924743406231 0 0.13983655310733109 0.18741143583432759 0 0.14063123795657331 0.17698859287096519 0 0.13247563706671359 0.18134924743406231 0 0.13983655310733109 0.18741143583432759 0 0.1286452003263395 0.18877926668688269 0 0.13387065574949311 0.1726141037684096 0 0.14063123795657331 0.17698859287096519 0 0.15223759121828059 0.16819846686328249 0 0.13983655310733109 0.18741143583432759 0 0.1494159949349495 0.17827943414930311 0 0.15028508133626331 0.1887440310158032 0 0.13983655310733109 0.18741143583432759 0 0.14063123795657331 0.17698859287096519 0 0.1494159949349495 0.17827943414930311 0 0.14063123795657331 0.17698859287096519 0 0.1494159949349495 0.17827943414930311 0 0.15223759121828059 0.16819846686328249 0 0.1494159949349495 0.17827943414930311 0 0.15223759121828059 0.16819846686328249 0 0.1595723179050085 0.18089884128360009 0 0.1494159949349495 0.17827943414930311 0 0.1595723179050085 0.18089884128360009 0 0.15028508133626331 0.1887440310158032 0 0.13204773426231739 0.16336083643744531 0 0.15223759121828059 0.16819846686328249 0 0.13204773426231739 0.16336083643744531 0 0.14613287921607229 0.15792655734949779 0 0.15223759121828059 0.16819846686328249 0 0.14613287921607229 0.15792655734949779 0 0.15223759121828059 0.16819846686328249 0 0.162469203248995 0.15861127612200079 0 0.15223759121828059 0.16819846686328249 0 0.1724274481742441 0.1730360972891184 0 0.15223759121828059 0.16819846686328249 0 0.162469203248995 0.15861127612200079 0 0.1724274481742441 0.1730360972891184 0 0.162469203248995 0.15861127612200079 0 0.1724274481742441 0.1730360972891184 0 0.17548636482175009 0.15092304263947701 0 0.1595723179050085 0.18089884128360009 0 0.1724274481742441 0.1730360972891184 0 0.17011032707970289 0.18978667643129829 0 0.15223759121828059 0.16819846686328249 0 0.1595723179050085 0.18089884128360009 0 0.1724274481742441 0.1730360972891184 0 0.1724274481742441 0.1730360972891184 0 0.17011032707970289 0.18978667643129829 0 0.1724274481742441 0.1730360972891184 0 0.17935710323209789 0.1840912155631893 0 0.17011032707970289 0.18978667643129829 0 0.17935710323209789 0.1840912155631893 0 0.18765606734227941 0.19398684063713609 0 0.18884172508511651 0.17696907242486981 0 0.1724274481742441 0.1730360972891184 0 0.18884172508511651 0.17696907242486981 0 0.1724274481742441 0.1730360972891184 0 0.17935710323209789 0.1840912155631893 0 0.18884172508511651 0.17696907242486981 0 0.17548636482175009 0.15092304263947701 0 0.19592938327485659 0.16680921231625501 0 0.18884172508511651 0.17696907242486981 0 0.1724274481742441 0.1730360972891184 0 0.17548636482175009 0.15092304263947701 0 0.17548636482175009 0.15092304263947701 0 0.18884172508511651 0.17696907242486981 0 0.1724274481742441 0.1730360972891184 0 0.17548636482175009 0.15092304263947701 0 0.18884172508511651 0.17696907242486981 0 0.17548636482175009 0.15092304263947701 0 0.17790052941268381 0.1334709314235519 0 0.17548636482175009 0.15092304263947701 0 0.18549184395951751 0.14353002917773969 0 0.17790052941268381 0.1334709314235519 0 0.17548636482175009 0.15092304263947701 0 0.18549184395951751 0.14353002917773969 0 0.1951139696280042 0.15220552899224579 0 0.17548636482175009 0.15092304263947701 0 0.17790052941268381 0.1334709314235519 0 0.16511628583172111 0.1306989991898905 0 0.18549184395951751 0.14353002917773969 0 0.17790052941268381 0.1334709314235519 0 0.193466511975632 0.1375206136556841 0 0.17790052941268381 0.1334709314235519 0 0.193466511975632 0.1375206136556841 0 0.18615121745646709 0.1216095260637724 0 0.17448898451329661 0.12503561427651191 0 0.17790052941268381 0.1334709314235519 0 0.18615121745646709 0.1216095260637724 0 0.17448898451329661 0.12503561427651191 0 0.17790052941268381 0.1334709314235519 0 0.16511628583172111 0.1306989991898905 0 0.17548636482175009 0.15092304263947701 0 0.16511628583172111 0.1306989991898905 0 0.17548636482175009 0.15092304263947701 0 0.16511628583172111 0.1306989991898905 0 0.16363755373822361 0.14645516204894221 0 0.1514783610504282 0.1455873302444006 0 0.16511628583172111 0.1306989991898905 0 0.16363755373822361 0.14645516204894221 0 0.1514783610504282 0.1455873302444006 0 0.162469203248995 0.15861127612200079 0 0.16363755373822361 0.14645516204894221 0 0.162469203248995 0.15861127612200079 0 0.17548636482175009 0.15092304263947701 0 0.16363755373822361 0.14645516204894221 0 0.14678535545621571 0.25000352028891581 0 0.13213648813393289 0.24019751543020601 0 0.1465769531876065 0.23105968960195231 0 0.14678535545621571 0.25000352028891581 0 0.1465769531876065 0.23105968960195231 0 0.16293364677552011 0.2416672413687978 0 0.14678535545621571 0.25000352028891581 0 0.13213648813393289 0.24019751543020601 0 0.12940397480078081 0.25861033711858072 0 0.1180621290175731 0.2493255458978435 0 0.13213648813393289 0.24019751543020601 0 0.12940397480078081 0.25861033711858072 0 0.13213648813393289 0.24019751543020601 0 0.13096194285561111 0.22661631913400371 0 0.1465769531876065 0.23105968960195231 0 0.13096194285561111 0.22661631913400371 0 0.1465769531876065 0.23105968960195231 0 0.14144384896240331 0.21176642603833601 0 0.1195579320544691 0.23306236809633091 0 0.13213648813393289 0.24019751543020601 0 0.13096194285561111 0.22661631913400371 0 0.1465769531876065 0.23105968960195231 0 0.14144384896240331 0.21176642603833601 0 0.16536342638034141 0.22410224847113799 0 0.14144384896240331 0.21176642603833601 0 0.16779320598516281 0.2065372555734783 0 0.14144384896240331 0.21176642603833601 0 0.148777401101231 0.19865201774119171 0 0.16779320598516281 0.2065372555734783 0 0.1150944919396437 0.21699559650319369 0 0.14144384896240331 0.21176642603833601 0 0.1150944919396437 0.21699559650319369 0 0.14144384896240331 0.21176642603833601 0 0.1258098209935537 0.20357845112759121 0 0.1150944919396437 0.21699559650319369 0 0.13096194285561111 0.22661631913400371 0 0.14144384896240331 0.21176642603833601 0 0.14144384896240331 0.21176642603833601 0 0.1258098209935537 0.20357845112759121 0 0.13668583177458921 0.19851572061577669 0 0.1258098209935537 0.20357845112759121 0 0.13668583177458921 0.19851572061577669 0 0.1286452003263395 0.18877926668688269 0 0.13983655310733109 0.18741143583432759 0 0.13668583177458921 0.19851572061577669 0 0.1286452003263395 0.18877926668688269 0 0.13983655310733109 0.18741143583432759 0 0.13668583177458921 0.19851572061577669 0 0.148777401101231 0.19865201774119171 0 0.13983655310733109 0.18741143583432759 0 0.148777401101231 0.19865201774119171 0 0.15028508133626331 0.1887440310158032 0 0.14144384896240331 0.21176642603833601 0 0.13668583177458921 0.19851572061577669 0 0.148777401101231 0.19865201774119171 0 0.148777401101231 0.19865201774119171 0 0.15028508133626331 0.1887440310158032 0 0.15922068292462679 0.19319882380809819 0 0.148777401101231 0.19865201774119171 0 0.15922068292462679 0.19319882380809819 0 0.16779320598516281 0.2065372555734783 0 0.17011032707970289 0.18978667643129829 0 0.16779320598516281 0.2065372555734783 0 0.17011032707970289 0.18978667643129829 0 0.17163489646020069 0.2043922405927395 0 0.16779320598516281 0.2065372555734783 0 0.15922068292462679 0.19319882380809819 0 0.17011032707970289 0.18978667643129829 0 0.16779320598516281 0.2065372555734783 0 0.1595723179050085 0.18089884128360009 0 0.15028508133626331 0.1887440310158032 0 0.15922068292462679 0.19319882380809819 0 0.1595723179050085 0.18089884128360009 0 0.15922068292462679 0.19319882380809819 0 0.17011032707970289 0.18978667643129829 0 0.17935710323209789 0.1840912155631893 0 0.17011032707970289 0.18978667643129829 0 0.17575505248150311 0.19636646985744341 0 0.18549658467218591 0.19970546418719051 0 0.1751120065854147 0.20508480055137079 0 0.19811713692506699 0.2005193097119391 0 0.1751120065854147 0.20508480055137079 0 0.19811713692506699 0.2005193097119391 0 0.17935710323209789 0.1840912155631893 0 0.17575505248150311 0.19636646985744341 0 0.18765606734227941 0.19398684063713609 0 0.18549658467218591 0.19970546418719051 0 0.18110112783598251 0.19923090584831629 0 0.1751120065854147 0.20508480055137079 0 0.18110112783598251 0.19923090584831629 0 0.17575505248150311 0.19636646985744341 0 0.18765606734227941 0.19398684063713609 0 0.18549658467218591 0.19970546418719051 0 0.18110112783598251 0.19923090584831629 0 0.18765606734227941 0.19398684063713609 0 0.17011032707970289 0.18978667643129829 0 0.17575505248150311 0.19636646985744341 0 0.17163489646020069 0.2043922405927395 0 0.18110112783598251 0.19923090584831629 0 0.17590077084077521 0.20126860421246751 0 0.1751120065854147 0.20508480055137079 0 0.17590077084077521 0.20126860421246751 0 0.17575505248150311 0.19636646985744341 0 0.17163489646020069 0.2043922405927395 0 0.18110112783598251 0.19923090584831629 0 0.17590077084077521 0.20126860421246751 0 0.17575505248150311 0.19636646985744341 0 0.1751120065854147 0.20508480055137079 0 0.17341817440601071 0.20936384789371451 0 0.16779320598516281 0.2065372555734783 0 0.1751120065854147 0.20508480055137079 0 0.19755359168971859 0.2095546455352168 0 0.1751120065854147 0.20508480055137079 0 0.17163489646020069 0.2043922405927395 0 0.17590077084077521 0.20126860421246751 0 0.1751120065854147 0.20508480055137079 0 0.17163489646020069 0.2043922405927395 0 0.1751120065854147 0.20508480055137079 0 0.1816818953592364 0.21172279158738311 0 0.19755359168971859 0.2095546455352168 0 0.1751120065854147 0.20508480055137079 0 0.17341817440601071 0.20936384789371451 0 0.17657302887271681 0.21009338185997811 0 0.1751120065854147 0.20508480055137079 0 0.17657302887271681 0.21009338185997811 0 0.1816818953592364 0.21172279158738311 0 0.1816818953592364 0.21172279158738311 0 0.17353051851896789 0.21628145576699781 0 0.18692493296775339 0.21945175789150451 0 0.17657302887271681 0.21009338185997811 0 0.1816818953592364 0.21172279158738311 0 0.17353051851896789 0.21628145576699781 0 0.17341817440601071 0.20936384789371451 0 0.17657302887271681 0.21009338185997811 0 0.17353051851896789 0.21628145576699781 0 0.16779320598516281 0.2065372555734783 0 0.16536342638034141 0.22410224847113799 0 0.14144384896240331 0.21176642603833601 0 0.16779320598516281 0.2065372555734783 0 0.16536342638034141 0.22410224847113799 0 0.17353051851896789 0.21628145576699781 0 0.16779320598516281 0.2065372555734783 0 0.16536342638034141 0.22410224847113799 0 0.17341817440601071 0.20936384789371451 0 0.17353051851896789 0.21628145576699781 0 0.16779320598516281 0.2065372555734783 0 0.1751120065854147 0.20508480055137079 0 0.16779320598516281 0.2065372555734783 0 0.1751120065854147 0.20508480055137079 0 0.17163489646020069 0.2043922405927395 0 0.16779320598516281 0.2065372555734783 0 0.16536342638034141 0.22410224847113799 0 0.16293364677552011 0.2416672413687978 0 0.16536342638034141 0.22410224847113799 0 0.17631141158299091 0.22992307854556421 0 0.16293364677552011 0.2416672413687978 0 0.1465769531876065 0.23105968960195231 0 0.16536342638034141 0.22410224847113799 0 0.16293364677552011 0.2416672413687978 0 0.17353051851896789 0.21628145576699781 0 0.16536342638034141 0.22410224847113799 0 0.17631141158299091 0.22992307854556421 0 0.17353051851896789 0.21628145576699781 0 0.18692493296775339 0.21945175789150451 0 0.17631141158299091 0.22992307854556421 0 0.18692493296775339 0.21945175789150451 0 0.17631141158299091 0.22992307854556421 0 0.18545016805414921 0.23852792509601939 0 0.18545016805414921 0.23852792509601939 0 0.17533309121641649 0.2488913840730464 0 0.18796637176410441 0.25683880961312677 0 0.17631141158299091 0.22992307854556421 0 0.18545016805414921 0.23852792509601939 0 0.17533309121641649 0.2488913840730464 0 0.17533309121641649 0.2488913840730464 0 0.16293364677552011 0.2416672413687978 0 0.16205601794413629 0.25942465933236192 0 0.17631141158299091 0.22992307854556421 0 0.17533309121641649 0.2488913840730464 0 0.16293364677552011 0.2416672413687978 0 0.21336108396648451 0.24445039507943431 0 0.20902228358545749 0.2306210331780752 0 0.23111963420316159 0.24179030846464589 0 0.21336108396648451 0.24445039507943431 0 0.19960161368148691 0.23896774580109331 0 0.20533844679894681 0.25525433102145451 0 0.21336108396648451 0.24445039507943431 0 0.19960161368148691 0.23896774580109331 0 0.20902228358545749 0.2306210331780752 0 0.18545016805414921 0.23852792509601939 0 0.20533844679894681 0.25525433102145451 0 0.18545016805414921 0.23852792509601939 0 0.19960161368148691 0.23896774580109331 0 0.20533844679894681 0.25525433102145451 0 0.18692493296775339 0.21945175789150451 0 0.19960161368148691 0.23896774580109331 0 0.20902228358545749 0.2306210331780752 0 0.18692493296775339 0.21945175789150451 0 0.20902228358545749 0.2306210331780752 0 0.18692493296775339 0.21945175789150451 0 0.18545016805414921 0.23852792509601939 0 0.19960161368148691 0.23896774580109331 0 0.18692493296775339 0.21945175789150451 0 0.20902228358545749 0.2306210331780752 0 0.207587809827914 0.217746958225152 0 0.20902228358545749 0.2306210331780752 0 0.207587809827914 0.217746958225152 0 0.21999517679402281 0.21402449051906239 0 0.2096874292059718 0.20550924017641861 0 0.19755359168971859 0.2095546455352168 0 0.21999517679402281 0.21402449051906239 0 0.2096874292059718 0.20550924017641861 0 0.22112226726471951 0.19595381887250779 0 0.21999517679402281 0.21402449051906239 0 0.19755359168971859 0.2095546455352168 0 0.21999517679402281 0.21402449051906239 0 0.207587809827914 0.217746958225152 0 0.19755359168971859 0.2095546455352168 0 0.21999517679402281 0.21402449051906239 0 0.1816818953592364 0.21172279158738311 0 0.18692493296775339 0.21945175789150451 0 0.19755359168971859 0.2095546455352168 0 0.18692493296775339 0.21945175789150451 0 0.207587809827914 0.217746958225152 0 0.19755359168971859 0.2095546455352168 0 0.1751120065854147 0.20508480055137079 0 0.19755359168971859 0.2095546455352168 0 0.19811713692506699 0.2005193097119391 0 0.2096874292059718 0.20550924017641861 0 0.19755359168971859 0.2095546455352168 0 0.19811713692506699 0.2005193097119391 0 0.2005650566127036 0.20003350699121711 0 0.18884172508511651 0.17696907242486981 0 0.2005650566127036 0.20003350699121711 0 0.18765606734227941 0.19398684063713609 0 0.18884172508511651 0.17696907242486981 0 0.2005650566127036 0.20003350699121711 0 0.19680072584836139 0.17887610447246929 0 0.20892582818133201 0.1874657594458064 0 0.2005650566127036 0.20003350699121711 0 0.19811713692506699 0.2005193097119391 0 0.18765606734227941 0.19398684063713609 0 0.2096874292059718 0.20550924017641861 0 0.2005650566127036 0.20003350699121711 0 0.19811713692506699 0.2005193097119391 0 0.2005650566127036 0.20003350699121711 0 0.19811713692506699 0.2005193097119391 0 0.18549658467218591 0.19970546418719051 0 0.19811713692506699 0.2005193097119391 0 0.18765606734227941 0.19398684063713609 0 0.2005650566127036 0.20003350699121711 0 0.22112226726471951 0.19595381887250779 0 0.20892582818133201 0.1874657594458064 0 0.2005650566127036 0.20003350699121711 0 0.22112226726471951 0.19595381887250779 0 0.2096874292059718 0.20550924017641861 0 0.2005650566127036 0.20003350699121711 0 0.22112226726471951 0.19595381887250779 0 0.22112226726471951 0.19595381887250779 0 0.20892582818133201 0.1874657594458064 0 0.22228758145641619 0.18127286332535 0 0.22112226726471951 0.19595381887250779 0 0.24412739760437219 0.1913883280330782 0 0.22228758145641619 0.18127286332535 0 0.22112226726471951 0.19595381887250779 0 0.24412739760437219 0.1913883280330782 0 0.22112226726471951 0.19595381887250779 0 0.24412739760437219 0.1913883280330782 0 0.2361863072024443 0.20466607444307031 0 0.24412739760437219 0.1913883280330782 0 0.25161236158272221 0.20482624799365981 0 0.24412739760437219 0.1913883280330782 0 0.2361863072024443 0.20466607444307031 0 0.25161236158272221 0.20482624799365981 0 0.2361863072024443 0.20466607444307031 0 0.24243676189832691 0.218494335502908 0 0.25161236158272221 0.20482624799365981 0 0.22112226726471951 0.19595381887250779 0 0.2361863072024443 0.20466607444307031 0 0.21999517679402281 0.21402449051906239 0 0.24243676189832691 0.218494335502908 0 0.21999517679402281 0.21402449051906239 0 0.2361863072024443 0.20466607444307031 0 0.24243676189832691 0.218494335502908 0 0.21999517679402281 0.21402449051906239 0 0.20902228358545749 0.2306210331780752 0 0.2291854832408971 0.22645379937099991 0 0.23111963420316159 0.24179030846464589 0 0.24243676189832691 0.218494335502908 0 0.21999517679402281 0.21402449051906239 0 0.2291854832408971 0.22645379937099991 0 0.20902228358545749 0.2306210331780752 0 0.21999517679402281 0.21402449051906239 0 0.2291854832408971 0.22645379937099991 0 0.2291854832408971 0.22645379937099991 0 0.24026286320987469 0.23064548357301079 0 0.23111963420316159 0.24179030846464589 0 0.24243676189832691 0.218494335502908 0 0.2291854832408971 0.22645379937099991 0 0.24026286320987469 0.23064548357301079 0 0.24243676189832691 0.218494335502908 0 0.24026286320987469 0.23064548357301079 0 0.25231141239711607 0.22933398427331639 0 0.24026286320987469 0.23064548357301079 0 0.2438781364796955 0.2409197168445503 0 0.25231141239711607 0.22933398427331639 0 0.24026286320987469 0.23064548357301079 0 0.2438781364796955 0.2409197168445503 0 0.23111963420316159 0.24179030846464589 0 0.23111963420316159 0.24179030846464589 0 0.25321698482086541 0.25295958375121741 0 0.2438781364796955 0.2409197168445503 0 0.23111963420316159 0.24179030846464589 0 0.25321698482086541 0.25295958375121741 0 0.2438781364796955 0.2409197168445503 0 0.25362149426965519 0.2430843719837566 0 0.25231141239711607 0.22933398427331639 0 0.2438781364796955 0.2409197168445503 0 0.25321698482086541 0.25295958375121741 0 0.20902228358545749 0.2306210331780752 0 0.23111963420316159 0.24179030846464589 0 0.21336108396648451 0.24445039507943431 0 0.23111963420316159 0.24179030846464589 0 0.2221586180144858 0.25425745552794898 0 0.20703760499552179 0.14591760163585729 0 0.21213400148041001 0.16483159624614349 0 0.22123623439794371 0.15029132077132129 0 0.20703760499552179 0.14591760163585729 0 0.209790652794732 0.12974281714044139 0 0.22123623439794371 0.15029132077132129 0 0.20703760499552179 0.14591760163585729 0 0.1951139696280042 0.15220552899224579 0 0.21213400148041001 0.16483159624614349 0 0.209790652794732 0.12974281714044139 0 0.22123623439794371 0.15029132077132129 0 0.20703760499552179 0.14591760163585729 0 0.209790652794732 0.12974281714044139 0 0.193466511975632 0.1375206136556841 0 0.209790652794732 0.12974281714044139 0 0.193466511975632 0.1375206136556841 0 0.18615121745646709 0.1216095260637724 0 0.18549184395951751 0.14353002917773969 0 0.193466511975632 0.1375206136556841 0 0.1951139696280042 0.15220552899224579 0 0.20703760499552179 0.14591760163585729 0 0.193466511975632 0.1375206136556841 0 0.1951139696280042 0.15220552899224579 0 0.17548636482175009 0.15092304263947701 0 0.1951139696280042 0.15220552899224579 0 0.19592938327485659 0.16680921231625501 0 0.1951139696280042 0.15220552899224579 0 0.19592938327485659 0.16680921231625501 0 0.21213400148041001 0.16483159624614349 0 0.2005650566127036 0.20003350699121711 0 0.18884172508511651 0.17696907242486981 0 0.19680072584836139 0.17887610447246929 0 0.19592938327485659 0.16680921231625501 0 0.18884172508511651 0.17696907242486981 0 0.19680072584836139 0.17887610447246929 0 0.18884172508511651 0.17696907242486981 0 0.19680072584836139 0.17887610447246929 0 0.19592938327485659 0.16680921231625501 0 0.19680072584836139 0.17887610447246929 0 0.2072036754424067 0.17673786592961269 0 0.2072036754424067 0.17673786592961269 0 0.21213400148041001 0.16483159624614349 0 0.22228758145641619 0.18127286332535 0 0.19680072584836139 0.17887610447246929 0 0.20892582818133201 0.1874657594458064 0 0.2072036754424067 0.17673786592961269 0 0.20892582818133201 0.1874657594458064 0 0.2072036754424067 0.17673786592961269 0 0.22228758145641619 0.18127286332535 0 0.19592938327485659 0.16680921231625501 0 0.2072036754424067 0.17673786592961269 0 0.21213400148041001 0.16483159624614349 0 0.23268181600115551 0.17083982440220119 0 0.22123623439794371 0.15029132077132129 0 0.23268181600115551 0.17083982440220119 0 0.24070365930781831 0.15172192477003951 0 0.22123623439794371 0.15029132077132129 0 0.21213400148041001 0.16483159624614349 0 0.23268181600115551 0.17083982440220119 0 0.22123623439794371 0.15029132077132129 0 0.24412739760437219 0.1913883280330782 0 0.23268181600115551 0.17083982440220119 0 0.22228758145641619 0.18127286332535 0 0.21213400148041001 0.16483159624614349 0 0.23268181600115551 0.17083982440220119 0 0.22228758145641619 0.18127286332535 0 0.24412739760437219 0.1913883280330782 0 0.23268181600115551 0.17083982440220119 0 0.24412739760437219 0.1913883280330782 0 0.23268181600115551 0.17083982440220119 0 0.25484627205134491 0.16929351942834461 0 0.23268181600115551 0.17083982440220119 0 0.24070365930781831 0.15172192477003951 0 0.25484627205134491 0.16929351942834461 0 0.24070365930781831 0.15172192477003951 0 0.24202085268022039 0.13220129841410139 0 0.263644019723902 0.14880016548382979 0 0.24070365930781831 0.15172192477003951 0 0.22123623439794371 0.15029132077132129 0 0.22561763624904199 0.1343890016465272 0 0.22561763624904199 0.1343890016465272 0 0.24202085268022039 0.13220129841410139 0 0.22689951548396911 0.1179440260808822 0 0.209790652794732 0.12974281714044139 0 0.22123623439794371 0.15029132077132129 0 0.22561763624904199 0.1343890016465272 0 0.209790652794732 0.12974281714044139 0 0.22561763624904199 0.1343890016465272 0 0.22689951548396911 0.1179440260808822 0 0.24070365930781831 0.15172192477003951 0 0.22561763624904199 0.1343890016465272 0 0.24202085268022039 0.13220129841410139 0 0.24202085268022039 0.13220129841410139 0 0.2494188815691106 0.10565853226993679 0 0.22689951548396911 0.1179440260808822 0 0.2494188815691106 0.10565853226993679 0 0.22572015896191569 0.097194718353148149 0 0.24020923153692941 0.091037553763782059 0 0.2494188815691106 0.10565853226993679 0 0.22572015896191569 0.097194718353148149 0 0.22572015896191569 0.097194718353148149 0 0.22689951548396911 0.1179440260808822 0 0.21299793928225261 0.110426213906358 0 0.2494188815691106 0.10565853226993679 0 0.22572015896191569 0.097194718353148149 0 0.22689951548396911 0.1179440260808822 0 0.209790652794732 0.12974281714044139 0 0.21299793928225261 0.110426213906358 0 0.19760002882631711 0.1097196926537594 0 0.209790652794732 0.12974281714044139 0 0.22689951548396911 0.1179440260808822 0 0.21299793928225261 0.110426213906358 0 0.22572015896191569 0.097194718353148149 0 0.2049793403443293 0.097529815303558892 0 0.2137143412176194 0.088003860058524286 0 0.22572015896191569 0.097194718353148149 0 0.21299793928225261 0.110426213906358 0 0.2049793403443293 0.097529815303558892 0 0.21299793928225261 0.110426213906358 0 0.2049793403443293 0.097529815303558892 0 0.19760002882631711 0.1097196926537594 0 0.1920216372855201 0.094030386537335545 0 0.19760002882631711 0.1097196926537594 0 0.1799131487830484 0.10421381656500139 0 0.2049793403443293 0.097529815303558892 0 0.1920216372855201 0.094030386537335545 0 0.19760002882631711 0.1097196926537594 0 0.209790652794732 0.12974281714044139 0 0.19760002882631711 0.1097196926537594 0 0.18615121745646709 0.1216095260637724 0 0.19760002882631711 0.1097196926537594 0 0.18615121745646709 0.1216095260637724 0 0.1799131487830484 0.10421381656500139 0 0.19772304379856639 0.077640360358153152 0 0.18170516148782309 0.086184102049419883 0 0.1844478295696973 0.069221786151859074 0 0.19772304379856639 0.077640360358153152 0 0.19628512856057659 0.063243089997187335 0 0.21018422094031269 0.065127080399445994 0 0.19772304379856639 0.077640360358153152 0 0.19628512856057659 0.063243089997187335 0 0.1844478295696973 0.069221786151859074 0 0.1920216372855201 0.094030386537335545 0 0.19772304379856639 0.077640360358153152 0 0.18170516148782309 0.086184102049419883 0 0.2049793403443293 0.097529815303558892 0 0.1920216372855201 0.094030386537335545 0 0.19772304379856639 0.077640360358153152 0 0.19772304379856639 0.077640360358153152 0 0.2137143412176194 0.088003860058524286 0 0.22643482176566621 0.079650546219236992 0 0.19772304379856639 0.077640360358153152 0 0.22643482176566621 0.079650546219236992 0 0.2049793403443293 0.097529815303558892 0 0.19772304379856639 0.077640360358153152 0 0.2137143412176194 0.088003860058524286 0 0.19772304379856639 0.077640360358153152 0 0.21018422094031269 0.065127080399445994 0 0.22643482176566621 0.079650546219236992 0 0.21018422094031269 0.065127080399445994 0 0.22643482176566621 0.079650546219236992 0 0.22780678475590069 0.060737558847188372 0 0.22643482176566621 0.079650546219236992 0 0.24512795191804179 0.068401885223786235 0 0.22780678475590069 0.060737558847188372 0 0.22572015896191569 0.097194718353148149 0 0.22643482176566621 0.079650546219236992 0 0.24020923153692941 0.091037553763782059 0 0.22572015896191569 0.097194718353148149 0 0.2137143412176194 0.088003860058524286 0 0.22643482176566621 0.079650546219236992 0 0.2494188815691106 0.10565853226993679 0 0.24020923153692941 0.091037553763782059 0 0.25514659973276588 0.081660732080320833 0 0.22643482176566621 0.079650546219236992 0 0.25514659973276588 0.081660732080320833 0 0.22643482176566621 0.079650546219236992 0 0.24020923153692941 0.091037553763782059 0 0.25514659973276588 0.081660732080320833 0 0.22643482176566621 0.079650546219236992 0 0.24512795191804179 0.068401885223786235 0 0.25514659973276588 0.081660732080320833 0 0.24512795191804179 0.068401885223786235 0 0.2458637931036326 0.049939226196381671 0 0.22780678475590069 0.060737558847188372 0 0.2458637931036326 0.049939226196381671 0 0.2377037321546959 0.02372035302902924 0 0.25810089807958358 0.030069833472895619 0 0.2458637931036326 0.049939226196381671 0 0.2377037321546959 0.02372035302902924 0 0.21513790588609061 0.037206151169948458 0 0.2458637931036326 0.049939226196381671 0 0.22780678475590069 0.060737558847188372 0 0.21513790588609061 0.037206151169948458 0 0.23762971025308061 0.0058859760052125216 0 0.25206858764640772 0.0098673466823619056 0 0.24717904482605901 -0.0064480234920759024 0 0.23762971025308061 0.0058859760052125216 0 0.2377037321546959 0.02372035302902924 0 0.25206858764640772 0.0098673466823619056 0 0.2377037321546959 0.02372035302902924 0 0.25810089807958358 0.030069833472895619 0 0.25206858764640772 0.0098673466823619056 0 0.2377037321546959 0.02372035302902924 0 0.22009159083186849 0.0092852219404509564 0 0.21513790588609061 0.037206151169948458 0 0.23762971025308061 0.0058859760052125216 0 0.2377037321546959 0.02372035302902924 0 0.22009159083186849 0.0092852219404509564 0 0.23762971025308061 0.0058859760052125216 0 0.22009159083186849 0.0092852219404509564 0 0.23390186677123639 -0.0059744306611674404 0 0.21096271055982529 0.0040393848013609551 0 0.20560073791507691 0.018870177389476991 0 0.20078399270961561 0.001942991030654654 0 0.22009159083186849 0.0092852219404509564 0 0.21096271055982529 0.0040393848013609551 0 0.21409924034945749 -0.0060743143852574127 0 0.22009159083186849 0.0092852219404509564 0 0.21096271055982529 0.0040393848013609551 0 0.20560073791507691 0.018870177389476991 0 0.22009159083186849 0.0092852219404509564 0 0.20560073791507691 0.018870177389476991 0 0.21513790588609061 0.037206151169948458 0 0.22009159083186849 0.0092852219404509564 0 0.21513790588609061 0.037206151169948458 0 0.20560073791507691 0.018870177389476991 0 0.1888082911637334 0.02884086718719325 0 0.21513790588609061 0.037206151169948458 0 0.20560073791507691 0.018870177389476991 0 0.1888082911637334 0.02884086718719325 0 0.20078399270961561 0.001942991030654654 0 0.1888082911637334 0.02884086718719325 0 0.1933824195178438 0.0098909924898191032 0 0.1843157041504021 0.011591590718820091 0 0.1888082911637334 0.02884086718719325 0 0.1933824195178438 0.0098909924898191032 0 0.20078399270961561 0.001942991030654654 0 0.1888082911637334 0.02884086718719325 0 0.20078399270961561 0.001942991030654654 0 0.1933824195178438 0.0098909924898191032 0 0.1843157041504021 0.011591590718820091 0 0.19037457064739469 -0.003131342530463065 0 0.21018422094031269 0.065127080399445994 0 0.21513790588609061 0.037206151169948458 0 0.21018422094031269 0.065127080399445994 0 0.21513790588609061 0.037206151169948458 0 0.201575018084478 0.050832788746387442 0 0.21018422094031269 0.065127080399445994 0 0.22780678475590069 0.060737558847188372 0 0.21513790588609061 0.037206151169948458 0 0.21513790588609061 0.037206151169948458 0 0.19437807633731949 0.042220162352922988 0 0.201575018084478 0.050832788746387442 0 0.1888082911637334 0.02884086718719325 0 0.21513790588609061 0.037206151169948458 0 0.19437807633731949 0.042220162352922988 0 0.19437807633731949 0.042220162352922988 0 0.18749553040982861 0.05339343433009093 0 0.201575018084478 0.050832788746387442 0 0.19628512856057659 0.063243089997187335 0 0.18749553040982861 0.05339343433009093 0 0.1844478295696973 0.069221786151859074 0 0.19628512856057659 0.063243089997187335 0 0.21018422094031269 0.065127080399445994 0 0.201575018084478 0.050832788746387442 0 0.19628512856057659 0.063243089997187335 0 0.18749553040982861 0.05339343433009093 0 0.201575018084478 0.050832788746387442 0 0.18749553040982861 0.05339343433009093 0 0.17459982881912359 0.05397197210595811 0 0.1844478295696973 0.069221786151859074 0 0.18749553040982861 0.05339343433009093 0 0.17459982881912359 0.05397197210595811 0 0.17887363614246671 0.040827570330994871 0 0.19437807633731949 0.042220162352922988 0 0.18749553040982861 0.05339343433009093 0 0.17887363614246671 0.040827570330994871 0 0.1888082911637334 0.02884086718719325 0 0.19437807633731949 0.042220162352922988 0 0.17887363614246671 0.040827570330994871 0 0.16201150766341349 0.048000901375017398 0 0.1709672157105242 0.019511885438431149 0 0.16201150766341349 0.048000901375017398 0 0.1709672157105242 0.019511885438431149 0 0.1520705693700479 0.033168888586512041 0 0.17887363614246671 0.040827570330994871 0 0.16201150766341349 0.048000901375017398 0 0.1709672157105242 0.019511885438431149 0 0.17459982881912359 0.05397197210595811 0 0.16201150766341349 0.048000901375017398 0 0.1699363464437223 0.066198417920603853 0 0.16201150766341349 0.048000901375017398 0 0.15305579961630281 0.076489917311603747 0 0.17459982881912359 0.05397197210595811 0 0.17887363614246671 0.040827570330994871 0 0.16201150766341349 0.048000901375017398 0 0.16201150766341349 0.048000901375017398 0 0.15442635184444939 0.053417557892846787 0 0.15305579961630281 0.076489917311603747 0 0.1709672157105242 0.019511885438431149 0 0.17992292375763491 -0.0089771304981551281 0 0.1843157041504021 0.011591590718820091 0 0.1709672157105242 0.019511885438431149 0 0.17992292375763491 -0.0089771304981551281 0 0.1888082911637334 0.02884086718719325 0 0.1843157041504021 0.011591590718820091 0 0.1709672157105242 0.019511885438431149 0 0.1888082911637334 0.02884086718719325 0 0.17887363614246671 0.040827570330994871 0 0.1709672157105242 0.019511885438431149 0 0.1709672157105242 0.019511885438431149 0 0.14971478689564641 0.0129202192801773 0 0.1520705693700479 0.033168888586512041 0 0.1709672157105242 0.019511885438431149 0 0.1630782888581857 0.00056261540017649994 0 0.17992292375763491 -0.0089771304981551281 0 0.1709672157105242 0.019511885438431149 0 0.1630782888581857 0.00056261540017649994 0 0.14971478689564641 0.0129202192801773 0 0.14971478689564641 0.0129202192801773 0 0.14735900442124569 -0.0073284500261575703 0 0.14971478689564641 0.0129202192801773 0 0.14735900442124569 -0.0073284500261575703 0 0.1254404225205851 -0.00079170880474917042 0 0.1630782888581857 0.00056261540017649994 0 0.14971478689564641 0.0129202192801773 0 0.14735900442124569 -0.0073284500261575703 0 0.14971478689564641 0.0129202192801773 0 0.1520705693700479 0.033168888586512041 0 0.14971478689564641 0.0129202192801773 0 0.13265191247291211 0.02591686524772702 0 0.1520705693700479 0.033168888586512041 0 0.14971478689564641 0.0129202192801773 0 0.13265191247291211 0.02591686524772702 0 0.1254404225205851 -0.00079170880474917042 0 0.15442635184444939 0.053417557892846787 0 0.14095287962402051 0.04472372288163913 0 0.13618409821577321 0.064522590400657359 0 0.15442635184444939 0.053417557892846787 0 0.1520705693700479 0.033168888586512041 0 0.16201150766341349 0.048000901375017398 0 0.15442635184444939 0.053417557892846787 0 0.1520705693700479 0.033168888586512041 0 0.13265191247291211 0.02591686524772702 0 0.14095287962402051 0.04472372288163913 0 0.1520705693700479 0.033168888586512041 0 0.15442635184444939 0.053417557892846787 0 0.14095287962402051 0.04472372288163913 0 0.1520705693700479 0.033168888586512041 0 0.1240724419931902 0.044615103390116199 0 0.13265191247291211 0.02591686524772702 0 0.14095287962402051 0.04472372288163913 0 0.1240724419931902 0.044615103390116199 0 0.14095287962402051 0.04472372288163913 0 0.13618409821577321 0.064522590400657359 0 0.1240724419931902 0.044615103390116199 0 0.11493955442365469 0.063239588537095298 0 0.13618409821577321 0.064522590400657359 0 0.12301854318508849 0.0820529108450814 0 0.13618409821577321 0.064522590400657359 0 0.1378514878339468 0.085380459205652834 0 0.13618409821577321 0.064522590400657359 0 0.15305579961630281 0.076489917311603747 0 0.1378514878339468 0.085380459205652834 0 0.15442635184444939 0.053417557892846787 0 0.13618409821577321 0.064522590400657359 0 0.15305579961630281 0.076489917311603747 0 0.15305579961630281 0.076489917311603747 0 0.14410009156919201 0.1049789332481901 0 0.15305579961630281 0.076489917311603747 0 0.14410009156919201 0.1049789332481901 0 0.15873223794043051 0.096115953720109684 0 0.15305579961630281 0.076489917311603747 0 0.1378514878339468 0.085380459205652834 0 0.14410009156919201 0.1049789332481901 0 0.12301854318508849 0.0820529108450814 0 0.1378514878339468 0.085380459205652834 0 0.13159962439363879 0.098527114915405584 0 0.1378514878339468 0.085380459205652834 0 0.13159962439363879 0.098527114915405584 0 0.14410009156919201 0.1049789332481901 0 0.1204814882171661 0.1064055477318288 0 0.13159962439363879 0.098527114915405584 0 0.1301275465426999 0.1133069565677613 0 0.13159962439363879 0.098527114915405584 0 0.1301275465426999 0.1133069565677613 0 0.14410009156919201 0.1049789332481901 0 0.1180128628216825 0.1228244084512798 0 0.1351443835220813 0.13346794918477639 0 0.1301275465426999 0.1133069565677613 0 0.1351443835220813 0.13346794918477639 0 0.1301275465426999 0.1133069565677613 0 0.14410009156919201 0.1049789332481901 0 0.1351443835220813 0.13346794918477639 0 0.14410009156919201 0.1049789332481901 0 0.150117065763023 0.12504163352151229 0 0.15474620684169221 0.1104749557403039 0 0.14410009156919201 0.1049789332481901 0 0.1351443835220813 0.13346794918477639 0 0.150117065763023 0.12504163352151229 0 0.14410009156919201 0.1049789332481901 0 0.15474620684169221 0.1104749557403039 0 0.14410009156919201 0.1049789332481901 0 0.15873223794043051 0.096115953720109684 0 0.15474620684169221 0.1104749557403039 0 0.15873223794043051 0.096115953720109684 0 0.16601684573732151 0.10507766122759619 0 0.16601684573732151 0.10507766122759619 0 0.16886760565625311 0.095881262565206932 0 0.1799131487830484 0.10421381656500139 0 0.15873223794043051 0.096115953720109684 0 0.16601684573732151 0.10507766122759619 0 0.16886760565625311 0.095881262565206932 0 0.150117065763023 0.12504163352151229 0 0.16511628583172111 0.1306989991898905 0 0.15474620684169221 0.1104749557403039 0 0.16511628583172111 0.1306989991898905 0 0.15474620684169221 0.1104749557403039 0 0.16511628583172111 0.1306989991898905 0 0.15474620684169221 0.1104749557403039 0 0.17099142581134161 0.1149157606739659 0 0.17448898451329661 0.12503561427651191 0 0.16511628583172111 0.1306989991898905 0 0.17099142581134161 0.1149157606739659 0 0.15474620684169221 0.1104749557403039 0 0.16601684573732151 0.10507766122759619 0 0.17099142581134161 0.1149157606739659 0 0.17099142581134161 0.1149157606739659 0 0.18615121745646709 0.1216095260637724 0 0.1799131487830484 0.10421381656500139 0 0.17448898451329661 0.12503561427651191 0 0.17099142581134161 0.1149157606739659 0 0.18615121745646709 0.1216095260637724 0 0.16886760565625311 0.095881262565206932 0 0.1799131487830484 0.10421381656500139 0 0.18170516148782309 0.086184102049419883 0 0.1920216372855201 0.094030386537335545 0 0.1799131487830484 0.10421381656500139 0 0.18170516148782309 0.086184102049419883 0 0.16601684573732151 0.10507766122759619 0 0.17099142581134161 0.1149157606739659 0 0.1799131487830484 0.10421381656500139 0 0.18170516148782309 0.086184102049419883 0 0.1844478295696973 0.069221786151859074 0 0.16719007639490041 0.081899713791060785 0 0.16886760565625311 0.095881262565206932 0 0.18170516148782309 0.086184102049419883 0 0.16719007639490041 0.081899713791060785 0 0.1844478295696973 0.069221786151859074 0 0.1699363464437223 0.066198417920603853 0 0.16719007639490041 0.081899713791060785 0 0.17459982881912359 0.05397197210595811 0 0.1844478295696973 0.069221786151859074 0 0.1699363464437223 0.066198417920603853 0 0.16201150766341349 0.048000901375017398 0 0.15305579961630281 0.076489917311603747 0 0.1699363464437223 0.066198417920603853 0 0.15305579961630281 0.076489917311603747 0 0.1699363464437223 0.066198417920603853 0 0.16719007639490041 0.081899713791060785 0 0.15305579961630281 0.076489917311603747 0 0.15873223794043051 0.096115953720109684 0 0.16719007639490041 0.081899713791060785 0 0.15873223794043051 0.096115953720109684 0 0.16886760565625311 0.095881262565206932 0 0.16719007639490041 0.081899713791060785 0 0.1079774119277412 0.47875082300748412 0 0.12584050864608501 0.46449047455570119 0 0.12906480869225259 0.5 0 0.1079774119277412 0.47875082300748412 0 0.098875950140278085 0.45246981350026799 0 0.087033054720516284 0.47679382698145112 0 0.1079774119277412 0.47875082300748412 0 0.099072737439573899 0.5 0 0.087033054720516284 0.47679382698145112 0 0.1079774119277412 0.47875082300748412 0 0.099072737439573899 0.5 0 0.12906480869225259 0.5 0 0.1079774119277412 0.47875082300748412 0 0.098875950140278085 0.45246981350026799 0 0.12584050864608501 0.46449047455570119 0 0.1141194304865602 0.4429180182038388 0 0.098875950140278085 0.45246981350026799 0 0.12584050864608501 0.46449047455570119 0 0.1141194304865602 0.4429180182038388 0 0.13061429767166841 0.43408894929572728 0 0.12584050864608501 0.46449047455570119 0 0.1141194304865602 0.4429180182038388 0 0.098875950140278085 0.45246981350026799 0 0.10231266833537669 0.4276515823723025 0 0.098875950140278085 0.45246981350026799 0 0.10231266833537669 0.4276515823723025 0 0.098875950140278085 0.45246981350026799 0 0.0863019479431439 0.43825739536711972 0 0.10231266833537669 0.4276515823723025 0 0.081333368714109566 0.45455842861980578 0 0.072799881967171243 0.46684245647497202 0 0.087033054720516284 0.47679382698145112 0 0.098875950140278085 0.45246981350026799 0 0.081333368714109566 0.45455842861980578 0 0.087033054720516284 0.47679382698145112 0 0.098875950140278085 0.45246981350026799 0 0.081333368714109566 0.45455842861980578 0 0.0863019479431439 0.43825739536711972 0 0.081333368714109566 0.45455842861980578 0 0.0863019479431439 0.43825739536711972 0 0.072204407888571923 0.44261955092059052 0 0.081333368714109566 0.45455842861980578 0 0.072204407888571923 0.44261955092059052 0 0.059246232118963557 0.45748583944403759 0 0.072799881967171243 0.46684245647497202 0 0.060995061331654422 0.48015761659009809 0 0.059246232118963557 0.45748583944403759 0 0.081333368714109566 0.45455842861980578 0 0.072799881967171243 0.46684245647497202 0 0.059246232118963557 0.45748583944403759 0 0.072799881967171243 0.46684245647497202 0 0.087033054720516284 0.47679382698145112 0 0.060995061331654422 0.48015761659009809 0 0.099072737439573899 0.5 0 0.087033054720516284 0.47679382698145112 0 0.069080666186895179 0.5 0 0.087033054720516284 0.47679382698145112 0 0.069080666186895179 0.5 0 0.060995061331654422 0.48015761659009809 0 0.069080666186895179 0.5 0 0.060995061331654422 0.48015761659009809 0 0.039088594934216507 0.5 0 0.060995061331654422 0.48015761659009809 0 0.04000085491650715 0.47371349822519321 0 0.059246232118963557 0.45748583944403759 0 0.060995061331654422 0.48015761659009809 0 0.04000085491650715 0.47371349822519321 0 0.039088594934216507 0.5 0 0.04000085491650715 0.47371349822519321 0 0.039088594934216507 0.5 0 0.022171637900982661 0.48895478178320079 0 0.039088594934216507 0.5 0 0.022171637900982661 0.48895478178320079 0 0.0090965236815378492 0.5 0 0.022171637900982661 0.48895478178320079 0 0.0074769567145055553 0.4673246001118555 0 0.021956026683732699 0.46216971758931352 0 0.022171637900982661 0.48895478178320079 0 0.021956026683732699 0.46216971758931352 0 0.04000085491650715 0.47371349822519321 0 0.022171637900982661 0.48895478178320079 0 0.021956026683732699 0.46216971758931352 0 0.022171637900982661 0.48895478178320079 0 0.0024665777029492918 0.48088761108936401 0 0.0074769567145055553 0.4673246001118555 0 0.022171637900982661 0.48895478178320079 0 0.0024665777029492918 0.48088761108936401 0 0.0090965236815378492 0.5 0 0.0035834068939097278 0.45153849004657248 0 0.021740415466483989 0.43538465339542598 0 0.0025860802708739272 0.43520549184769702 0 0.0035834068939097278 0.45153849004657248 0 0.021740415466483989 0.43538465339542598 0 0.0035834068939097278 0.45153849004657248 0 0.0074769567145055553 0.4673246001118555 0 0.021956026683732699 0.46216971758931352 0 0.021956026683732699 0.46216971758931352 0 0.03058670162122672 0.44754814085647582 0 0.039577673454095602 0.45419145930893351 0 0.021956026683732699 0.46216971758931352 0 0.03058670162122672 0.44754814085647582 0 0.021740415466483989 0.43538465339542598 0 0.03058670162122672 0.44754814085647582 0 0.039072690880593307 0.43844673313222882 0 0.021740415466483989 0.43538465339542598 0 0.0035834068939097278 0.45153849004657248 0 0.021956026683732699 0.46216971758931352 0 0.021740415466483989 0.43538465339542598 0 0.021956026683732699 0.46216971758931352 0 0.021740415466483989 0.43538465339542598 0 0.039072690880593307 0.43844673313222882 0 0.039577673454095602 0.45419145930893351 0 0.054660685633346237 0.43721752183967472 0 0.03058670162122672 0.44754814085647582 0 0.039072690880593307 0.43844673313222882 0 0.039577673454095602 0.45419145930893351 0 0.04000085491650715 0.47371349822519321 0 0.021956026683732699 0.46216971758931352 0 0.039577673454095602 0.45419145930893351 0 0.04000085491650715 0.47371349822519321 0 0.039577673454095602 0.45419145930893351 0 0.059246232118963557 0.45748583944403759 0 0.039577673454095602 0.45419145930893351 0 0.054660685633346237 0.43721752183967472 0 0.039577673454095602 0.45419145930893351 0 0.059246232118963557 0.45748583944403759 0 0.054660685633346237 0.43721752183967472 0 0.072204407888571923 0.44261955092059052 0 0.059246232118963557 0.45748583944403759 0 0.054660685633346237 0.43721752183967472 0 0.054660685633346237 0.43721752183967472 0 0.069886041949937805 0.42008339485007118 0 0.050591851904395413 0.42330622898380837 0 0.054660685633346237 0.43721752183967472 0 0.069886041949937805 0.42008339485007118 0 0.039072690880593307 0.43844673313222882 0 0.050591851904395413 0.42330622898380837 0 0.054660685633346237 0.43721752183967472 0 0.050591851904395413 0.42330622898380837 0 0.069886041949937805 0.42008339485007118 0 0.045067756806274797 0.41463090092555788 0 0.069886041949937805 0.42008339485007118 0 0.050591851904395413 0.42330622898380837 0 0.045067756806274797 0.41463090092555788 0 0.069886041949937805 0.42008339485007118 0 0.045067756806274797 0.41463090092555788 0 0.057413564192519369 0.40364714470565632 0 0.062650296923534757 0.41245413931371699 0 0.045067756806274797 0.41463090092555788 0 0.062650296923534757 0.41245413931371699 0 0.069886041949937805 0.42008339485007118 0 0.045067756806274797 0.41463090092555788 0 0.046764428108203721 0.40378930620971382 0 0.057413564192519369 0.40364714470565632 0 0.045067756806274797 0.41463090092555788 0 0.057413564192519369 0.40364714470565632 0 0.050591851904395413 0.42330622898380837 0 0.045067756806274797 0.41463090092555788 0 0.031785799524443027 0.42644752630636612 0 0.045067756806274797 0.41463090092555788 0 0.02153025850012354 0.40927716276243292 0 0.036587779116305383 0.4037296231255465 0 0.045067756806274797 0.41463090092555788 0 0.031785799524443027 0.42644752630636612 0 0.02153025850012354 0.40927716276243292 0 0.045067756806274797 0.41463090092555788 0 0.02153025850012354 0.40927716276243292 0 0.045067756806274797 0.41463090092555788 0 0.036587779116305383 0.4037296231255465 0 0.046764428108203721 0.40378930620971382 0 0.045067756806274797 0.41463090092555788 0 0.031785799524443027 0.42644752630636612 0 0.039072690880593307 0.43844673313222882 0 0.050591851904395413 0.42330622898380837 0 0.031785799524443027 0.42644752630636612 0 0.050591851904395413 0.42330622898380837 0 0.031785799524443027 0.42644752630636612 0 0.039072690880593307 0.43844673313222882 0 0.031785799524443027 0.42644752630636612 0 0.021740415466483989 0.43538465339542598 0 0.031785799524443027 0.42644752630636612 0 0.021740415466483989 0.43538465339542598 0 0.031785799524443027 0.42644752630636612 0 0.021740415466483989 0.43538465339542598 0 0.02168205983920303 0.42813521970313911 0 0.021740415466483989 0.43538465339542598 0 0.02168205983920303 0.42813521970313911 0 0.011550671877308219 0.42982753137150581 0 0.021740415466483989 0.43538465339542598 0 0.02168205983920303 0.42813521970313911 0 0.02168205983920303 0.42813521970313911 0 0.011550671877308219 0.42982753137150581 0 0.02168205983920303 0.42813521970313911 0 0.015346169289732909 0.41900347494064988 0 0.011550671877308219 0.42982753137150581 0 0.031785799524443027 0.42644752630636612 0 0.02168205983920303 0.42813521970313911 0 0.031785799524443027 0.42644752630636612 0 0.02168205983920303 0.42813521970313911 0 0.02153025850012354 0.40927716276243292 0 0.02168205983920303 0.42813521970313911 0 0.02153025850012354 0.40927716276243292 0 0.02168205983920303 0.42813521970313911 0 0.02153025850012354 0.40927716276243292 0 0.015346169289732909 0.41900347494064988 0 -0.0042835581774024051 0.40340566300979641 0 0.02153025850012354 0.40927716276243292 0 0.0079937613416202289 0.41155823594915258 0 0.015346169289732909 0.41900347494064988 0 0.0079937613416202289 0.41155823594915258 0 0.0067048515400966301 0.41477601627397248 0 0.015346169289732909 0.41900347494064988 0 0.008477455437236504 0.42178213368906969 0 0.0067048515400966301 0.41477601627397248 0 -0.0042835581774024051 0.40340566300979641 0 0.02153025850012354 0.40927716276243292 0 0.02153025850012354 0.40927716276243292 0 0.015346169289732909 0.41900347494064988 0 0.0079937613416202289 0.41155823594915258 0 -0.0042835581774024051 0.40340566300979641 0 0.0079937613416202289 0.41155823594915258 0 0.00067108555555037673 0.41132886275891117 0 0.0079937613416202289 0.41155823594915258 0 0.00067108555555037673 0.41132886275891117 0 0.0067048515400966301 0.41477601627397248 0 0.008477455437236504 0.42178213368906969 0 0.0067048515400966301 0.41477601627397248 0 0.00107965628098802 0.41809943574447078 0 0.008477455437236504 0.42178213368906969 0 0.00107965628098802 0.41809943574447078 0 0.0028827669873004429 0.42525779523522989 0 0.00067108555555037673 0.41132886275891117 0 0.0067048515400966301 0.41477601627397248 0 0.00107965628098802 0.41809943574447078 0 0.008477455437236504 0.42178213368906969 0 0.0028827669873004429 0.42525779523522989 0 0.011550671877308219 0.42982753137150581 0 0.021740415466483989 0.43538465339542598 0 0.0025860802708739272 0.43520549184769702 0 0.011550671877308219 0.42982753137150581 0 0.0028827669873004429 0.42525779523522989 0 0.0025860802708739272 0.43520549184769702 0 0.011550671877308219 0.42982753137150581 0 0.015346169289732909 0.41900347494064988 0 0.008477455437236504 0.42178213368906969 0 0.011550671877308219 0.42982753137150581 0 0.0096422859436159428 0.39052585563080822 0 0.01215467141407302 0.38469894463548998 0 0.0063755225159394524 0.38513552239142618 0 0.0096422859436159428 0.39052585563080822 0 0.01215467141407302 0.38469894463548998 0 0.016331761974630949 0.39014918764876072 0 0.01215467141407302 0.38469894463548998 0 0.0089006796965382749 0.37727175076866798 0 0.0063755225159394524 0.38513552239142618 0 0.01215467141407302 0.38469894463548998 0 0.0089006796965382749 0.37727175076866798 0 0.01952993958085289 0.38209138690994759 0 0.0089006796965382749 0.37727175076866798 0 0.01952993958085289 0.38209138690994759 0 0.01829200311651356 0.37092857549101338 0 -0.001028763028933938 0.38293360698600659 0 0.0089006796965382749 0.37727175076866798 0 0.0063755225159394524 0.38513552239142618 0 -0.0023189940611774598 0.36957673354790599 0 -0.001028763028933938 0.38293360698600659 0 0.0089006796965382749 0.37727175076866798 0 -0.001028763028933938 0.38293360698600659 0 0.0063755225159394524 0.38513552239142618 0 0.0026166052049493549 0.3897006102843773 0 0.0096422859436159428 0.39052585563080822 0 0.0063755225159394524 0.38513552239142618 0 0.0026166052049493549 0.3897006102843773 0 -0.0065946734458638672 0.40287998666768071 0 -0.0042835581774024051 0.40340566300979641 0 0.02143806325145892 0.3978238827088838 0 -0.001677346856619293 0.3963926748144484 0 0.0096422859436159428 0.39052585563080822 0 0.02143806325145892 0.3978238827088838 0 -0.0065946734458638672 0.40287998666768071 0 0.02143806325145892 0.3978238827088838 0 -0.0042835581774024051 0.40340566300979641 0 0.02153025850012354 0.40927716276243292 0 0.02143806325145892 0.3978238827088838 0 -0.0065946734458638672 0.40287998666768071 0 -0.001677346856619293 0.3963926748144484 0 0.02143806325145892 0.3978238827088838 0 -0.001677346856619293 0.3963926748144484 0 0.0096422859436159428 0.39052585563080822 0 0.0026166052049493549 0.3897006102843773 0 0.0096422859436159428 0.39052585563080822 0 0.02143806325145892 0.3978238827088838 0 0.016331761974630949 0.39014918764876072 0 0.021413635877359321 0.3947893059753721 0 0.02143806325145892 0.3978238827088838 0 0.021413635877359321 0.3947893059753721 0 0.02160512275278775 0.38859298835769202 0 0.016331761974630949 0.39014918764876072 0 0.021413635877359321 0.3947893059753721 0 0.02143806325145892 0.3978238827088838 0 0.016331761974630949 0.39014918764876072 0 0.02153025850012354 0.40927716276243292 0 0.02143806325145892 0.3978238827088838 0 0.02153025850012354 0.40927716276243292 0 0.02143806325145892 0.3978238827088838 0 0.036587779116305383 0.4037296231255465 0 0.021413635877359321 0.3947893059753721 0 0.02143806325145892 0.3978238827088838 0 0.029145153578307839 0.38734207289668737 0 0.029145153578307839 0.38734207289668737 0 0.02160512275278775 0.38859298835769202 0 0.01952993958085289 0.38209138690994759 0 0.021413635877359321 0.3947893059753721 0 0.029145153578307839 0.38734207289668737 0 0.02160512275278775 0.38859298835769202 0 0.02160512275278775 0.38859298835769202 0 0.016331761974630949 0.39014918764876072 0 0.01952993958085289 0.38209138690994759 0 0.01215467141407302 0.38469894463548998 0 0.016331761974630949 0.39014918764876072 0 0.01952993958085289 0.38209138690994759 0 0.01952993958085289 0.38209138690994759 0 0.028881678436349829 0.37489955028526312 0 0.01829200311651356 0.37092857549101338 0 0.029145153578307839 0.38734207289668737 0 0.01952993958085289 0.38209138690994759 0 0.028881678436349829 0.37489955028526312 0 0.029145153578307839 0.38734207289668737 0 0.041982729850644718 0.37547323785808601 0 0.048388016578381918 0.39308904125289879 0 0.029145153578307839 0.38734207289668737 0 0.041982729850644718 0.37547323785808601 0 0.028881678436349829 0.37489955028526312 0 0.02143806325145892 0.3978238827088838 0 0.036587779116305383 0.4037296231255465 0 0.048388016578381918 0.39308904125289879 0 0.02143806325145892 0.3978238827088838 0 0.048388016578381918 0.39308904125289879 0 0.02143806325145892 0.3978238827088838 0 0.029145153578307839 0.38734207289668737 0 0.048388016578381918 0.39308904125289879 0 0.036587779116305383 0.4037296231255465 0 0.046764428108203721 0.40378930620971382 0 0.048388016578381918 0.39308904125289879 0 0.048388016578381918 0.39308904125289879 0 0.057413564192519369 0.40364714470565632 0 0.069759371578762233 0.39266338848575277 0 0.048388016578381918 0.39308904125289879 0 0.075337969905305183 0.38835419979691488 0 0.046764428108203721 0.40378930620971382 0 0.048388016578381918 0.39308904125289879 0 0.057413564192519369 0.40364714470565632 0 0.041982729850644718 0.37547323785808601 0 0.048388016578381918 0.39308904125289879 0 0.058632142896516012 0.37373967321206403 0 0.048388016578381918 0.39308904125289879 0 0.075337969905305183 0.38835419979691488 0 0.058632142896516012 0.37373967321206403 0 0.075337969905305183 0.38835419979691488 0 0.08719943605058697 0.37108371416942532 0 0.07104367493597602 0.36707339341724637 0 0.075337969905305183 0.38835419979691488 0 0.07104367493597602 0.36707339341724637 0 0.058632142896516012 0.37373967321206403 0 0.075337969905305183 0.38835419979691488 0 0.10228792323222879 0.3836193583409323 0 0.075337969905305183 0.38835419979691488 0 0.10228792323222879 0.3836193583409323 0 0.08719943605058697 0.37108371416942532 0 0.075337969905305183 0.38835419979691488 0 0.086086982591084035 0.40185137659550241 0 0.10228792323222879 0.3836193583409323 0 0.086086982591084035 0.40185137659550241 0 0.069759371578762233 0.39266338848575277 0 0.069159251447167627 0.40613988879013979 0 0.075337969905305183 0.38835419979691488 0 0.086086982591084035 0.40185137659550241 0 0.069759371578762233 0.39266338848575277 0 0.048388016578381918 0.39308904125289879 0 0.075337969905305183 0.38835419979691488 0 0.069759371578762233 0.39266338848575277 0 0.057413564192519369 0.40364714470565632 0 0.069759371578762233 0.39266338848575277 0 0.057413564192519369 0.40364714470565632 0 0.069759371578762233 0.39266338848575277 0 0.069159251447167627 0.40613988879013979 0 0.086086982591084035 0.40185137659550241 0 0.069159251447167627 0.40613988879013979 0 0.069886041949937805 0.42008339485007118 0 0.069159251447167627 0.40613988879013979 0 0.062650296923534757 0.41245413931371699 0 0.069886041949937805 0.42008339485007118 0 0.057413564192519369 0.40364714470565632 0 0.069159251447167627 0.40613988879013979 0 0.062650296923534757 0.41245413931371699 0 0.086086982591084035 0.40185137659550241 0 0.069886041949937805 0.42008339485007118 0 0.072204407888571923 0.44261955092059052 0 0.054660685633346237 0.43721752183967472 0 0.074528513144841421 0.43138792496925349 0 0.069886041949937805 0.42008339485007118 0 0.074528513144841421 0.43138792496925349 0 0.086028183073986852 0.42394758337135979 0 0.069886041949937805 0.42008339485007118 0 0.086028183073986852 0.42394758337135979 0 0.054660685633346237 0.43721752183967472 0 0.069886041949937805 0.42008339485007118 0 0.074528513144841421 0.43138792496925349 0 0.0863019479431439 0.43825739536711972 0 0.072204407888571923 0.44261955092059052 0 0.074528513144841421 0.43138792496925349 0 0.0863019479431439 0.43825739536711972 0 0.086028183073986852 0.42394758337135979 0 0.10231266833537669 0.4276515823723025 0 0.086028183073986852 0.42394758337135979 0 0.091553653299317486 0.41646411270925532 0 0.10231266833537669 0.4276515823723025 0 0.0863019479431439 0.43825739536711972 0 0.074528513144841421 0.43138792496925349 0 0.086028183073986852 0.42394758337135979 0 0.086086982591084035 0.40185137659550241 0 0.069886041949937805 0.42008339485007118 0 0.091553653299317486 0.41646411270925532 0 0.069886041949937805 0.42008339485007118 0 0.086028183073986852 0.42394758337135979 0 0.091553653299317486 0.41646411270925532 0 0.069886041949937805 0.42008339485007118 0 0.091553653299317486 0.41646411270925532 0 0.086086982591084035 0.40185137659550241 0 0.091553653299317486 0.41646411270925532 0 0.1054376905673126 0.40508426098328121 0 0.10231266833537669 0.4276515823723025 0 0.1116346241256185 0.41605097720064871 0 0.1054376905673126 0.40508426098328121 0 0.10231266833537669 0.4276515823723025 0 0.1054376905673126 0.40508426098328121 0 0.091553653299317486 0.41646411270925532 0 0.10231266833537669 0.4276515823723025 0 0.1054376905673126 0.40508426098328121 0 0.086028183073986852 0.42394758337135979 0 0.10231266833537669 0.4276515823723025 0 0.1141194304865602 0.4429180182038388 0 0.10231266833537669 0.4276515823723025 0 0.13061429767166841 0.43408894929572728 0 0.10231266833537669 0.4276515823723025 0 0.117945315448603 0.42342334168009488 0 0.13061429767166841 0.43408894929572728 0 0.10231266833537669 0.4276515823723025 0 0.13061429767166841 0.43408894929572728 0 0.10231266833537669 0.4276515823723025 0 0.117945315448603 0.42342334168009488 0 0.1116346241256185 0.41605097720064871 0 0.11135935716627771 0.40894528966696342 0 0.1211180891105223 0.41515041130060137 0 0.13977194871863971 0.40676611614422192 0 0.11135935716627771 0.40894528966696342 0 0.1116346241256185 0.41605097720064871 0 0.1054376905673126 0.40508426098328121 0 0.11135935716627771 0.40894528966696342 0 0.1116346241256185 0.41605097720064871 0 0.1211180891105223 0.41515041130060137 0 0.117945315448603 0.42342334168009488 0 0.1116346241256185 0.41605097720064871 0 0.1211180891105223 0.41515041130060137 0 0.117945315448603 0.42342334168009488 0 0.1211180891105223 0.41515041130060137 0 0.1274556996476934 0.42294273133145982 0 0.11135935716627771 0.40894528966696342 0 0.1140891461347734 0.39828705777305567 0 0.12515194040755201 0.3969023940573041 0 0.11135935716627771 0.40894528966696342 0 0.1140891461347734 0.39828705777305567 0 0.1054376905673126 0.40508426098328121 0 0.1140891461347734 0.39828705777305567 0 0.1208488613358451 0.38851287326317901 0 0.12515194040755201 0.3969023940573041 0 0.1208488613358451 0.38851287326317901 0 0.10856271279924989 0.38251693959426009 0 0.13512611149992829 0.37785001198017221 0 0.10856271279924989 0.38251693959426009 0 0.1220919878395061 0.36820756236072522 0 0.13512611149992829 0.37785001198017221 0 0.1140891461347734 0.39828705777305567 0 0.1208488613358451 0.38851287326317901 0 0.10856271279924989 0.38251693959426009 0 0.10856271279924989 0.38251693959426009 0 0.13512611149992829 0.37785001198017221 0 0.10228792323222879 0.3836193583409323 0 0.10856271279924989 0.38251693959426009 0 0.1054376905673126 0.40508426098328121 0 0.10228792323222879 0.3836193583409323 0 0.10856271279924989 0.38251693959426009 0 0.10228792323222879 0.3836193583409323 0 0.10601396063744439 0.37942619551824242 0 0.09927829805675123 0.37165879345852021 0 0.10601396063744439 0.37942619551824242 0 0.09927829805675123 0.37165879345852021 0 0.1097336511436084 0.37406101832950772 0 0.10856271279924989 0.38251693959426009 0 0.10601396063744439 0.37942619551824242 0 0.1097336511436084 0.37406101832950772 0 0.10856271279924989 0.38251693959426009 0 0.1097336511436084 0.37406101832950772 0 0.10228792323222879 0.3836193583409323 0 0.10856271279924989 0.38251693959426009 0 0.10601396063744439 0.37942619551824242 0 0.10228792323222879 0.3836193583409323 0 0.10601396063744439 0.37942619551824242 0 0.10228792323222879 0.3836193583409323 0 0.09927829805675123 0.37165879345852021 0 0.08719943605058697 0.37108371416942532 0 0.10856271279924989 0.38251693959426009 0 0.1054376905673126 0.40508426098328121 0 0.1140891461347734 0.39828705777305567 0 0.10856271279924989 0.38251693959426009 0 0.1054376905673126 0.40508426098328121 0 0.086086982591084035 0.40185137659550241 0 0.10228792323222879 0.3836193583409323 0 0.1054376905673126 0.40508426098328121 0 0.086086982591084035 0.40185137659550241 0 0.10228792323222879 0.3836193583409323 0 0.097256939844886564 0.35680749344805568 0 0.11888714156494561 0.35901966067451269 0 0.1106074512857947 0.34854621215204562 0 0.097256939844886564 0.35680749344805568 0 0.1106074512857947 0.34854621215204562 0 0.10457505881643669 0.33533074273152119 0 0.097256939844886564 0.35680749344805568 0 0.09927829805675123 0.37165879345852021 0 0.1097336511436084 0.37406101832950772 0 0.097256939844886564 0.35680749344805568 0 0.09927829805675123 0.37165879345852021 0 0.08719943605058697 0.37108371416942532 0 0.097256939844886564 0.35680749344805568 0 0.1097336511436084 0.37406101832950772 0 0.1220919878395061 0.36820756236072522 0 0.097256939844886564 0.35680749344805568 0 0.1220919878395061 0.36820756236072522 0 0.097256939844886564 0.35680749344805568 0 0.1220919878395061 0.36820756236072522 0 0.11888714156494561 0.35901966067451269 0 0.10856271279924989 0.38251693959426009 0 0.1097336511436084 0.37406101832950772 0 0.1220919878395061 0.36820756236072522 0 0.11888714156494561 0.35901966067451269 0 0.12839859809004431 0.35759773554313662 0 0.12712497546321971 0.36196522457157237 0 0.1220919878395061 0.36820756236072522 0 0.11888714156494561 0.35901966067451269 0 0.1261479780481648 0.3675261606084666 0 0.11888714156494561 0.35901966067451269 0 0.12712497546321971 0.36196522457157237 0 0.1261479780481648 0.3675261606084666 0 0.1220163885910157 0.35166407692335699 0 0.11888714156494561 0.35901966067451269 0 0.12839859809004431 0.35759773554313662 0 0.1220163885910157 0.35166407692335699 0 0.11888714156494561 0.35901966067451269 0 0.1106074512857947 0.34854621215204562 0 0.1220163885910157 0.35166407692335699 0 0.1106074512857947 0.34854621215204562 0 0.1196613836811371 0.34154163154512007 0 0.1220163885910157 0.35166407692335699 0 0.1196613836811371 0.34154163154512007 0 0.13028467324876061 0.34966310652341082 0 0.1196613836811371 0.34154163154512007 0 0.12045409016025679 0.32582685500530212 0 0.10457505881643669 0.33533074273152119 0 0.1196613836811371 0.34154163154512007 0 0.12045409016025679 0.32582685500530212 0 0.13198056833235969 0.33855890938557143 0 0.1106074512857947 0.34854621215204562 0 0.1196613836811371 0.34154163154512007 0 0.10457505881643669 0.33533074273152119 0 0.12045409016025679 0.32582685500530212 0 0.1016105371135268 0.31434136228759602 0 0.1147685264024015 0.30177889596366669 0 0.1016105371135268 0.31434136228759602 0 0.10457505881643669 0.33533074273152119 0 0.12045409016025679 0.32582685500530212 0 0.1016105371135268 0.31434136228759602 0 0.10457505881643669 0.33533074273152119 0 0.1016105371135268 0.31434136228759602 0 0.10457505881643669 0.33533074273152119 0 0.088982712014671797 0.32294235121103881 0 0.097256939844886564 0.35680749344805568 0 0.10457505881643669 0.33533074273152119 0 0.08951860480929158 0.33657096412366833 0 0.10457505881643669 0.33533074273152119 0 0.08951860480929158 0.33657096412366833 0 0.088982712014671797 0.32294235121103881 0 0.08951860480929158 0.33657096412366833 0 0.080972112328263166 0.34079885960642908 0 0.077621964421766027 0.32870500036128553 0 0.08951860480929158 0.33657096412366833 0 0.088982712014671797 0.32294235121103881 0 0.077621964421766027 0.32870500036128553 0 0.1016105371135268 0.31434136228759602 0 0.088982712014671797 0.32294235121103881 0 0.079678977295603082 0.30359475381155199 0 0.088982712014671797 0.32294235121103881 0 0.076777171008762593 0.31838960766071239 0 0.079678977295603082 0.30359475381155199 0 0.088982712014671797 0.32294235121103881 0 0.076777171008762593 0.31838960766071239 0 0.077621964421766027 0.32870500036128553 0 0.076777171008762593 0.31838960766071239 0 0.059968986847600617 0.31765058682489489 0 0.079678977295603082 0.30359475381155199 0 0.077621964421766027 0.32870500036128553 0 0.069512199522006449 0.3358776327409696 0 0.059968986847600617 0.31765058682489489 0 0.069512199522006449 0.3358776327409696 0 0.059968986847600617 0.31765058682489489 0 0.076777171008762593 0.31838960766071239 0 0.077621964421766027 0.32870500036128553 0 0.059968986847600617 0.31765058682489489 0 0.069512199522006449 0.3358776327409696 0 0.072421891850267026 0.34540742453538642 0 0.047586843855647487 0.33400735562271688 0 0.080972112328263166 0.34079885960642908 0 0.069512199522006449 0.3358776327409696 0 0.072421891850267026 0.34540742453538642 0 0.080972112328263166 0.34079885960642908 0 0.077621964421766027 0.32870500036128553 0 0.069512199522006449 0.3358776327409696 0 0.064889129701072829 0.35727594970708582 0 0.072421891850267026 0.34540742453538642 0 0.056147093020439007 0.34932307937530638 0 0.064889129701072829 0.35727594970708582 0 0.077991810328374309 0.35898904655488328 0 0.072421891850267026 0.34540742453538642 0 0.097256939844886564 0.35680749344805568 0 0.08951860480929158 0.33657096412366833 0 0.080972112328263166 0.34079885960642908 0 0.097256939844886564 0.35680749344805568 0 0.080972112328263166 0.34079885960642908 0 0.072421891850267026 0.34540742453538642 0 0.097256939844886564 0.35680749344805568 0 0.077991810328374309 0.35898904655488328 0 0.072421891850267026 0.34540742453538642 0 0.097256939844886564 0.35680749344805568 0 0.072421891850267026 0.34540742453538642 0 0.097256939844886564 0.35680749344805568 0 0.077991810328374309 0.35898904655488328 0 0.08719943605058697 0.37108371416942532 0 0.077991810328374309 0.35898904655488328 0 0.08719943605058697 0.37108371416942532 0 0.07104367493597602 0.36707339341724637 0 0.064889129701072829 0.35727594970708582 0 0.07104367493597602 0.36707339341724637 0 0.058632142896516012 0.37373967321206403 0 0.064889129701072829 0.35727594970708582 0 0.077991810328374309 0.35898904655488328 0 0.07104367493597602 0.36707339341724637 0 0.064889129701072829 0.35727594970708582 0 0.058632142896516012 0.37373967321206403 0 0.050151336407715408 0.3611722172401518 0 0.041982729850644718 0.37547323785808601 0 0.058632142896516012 0.37373967321206403 0 0.050151336407715408 0.3611722172401518 0 0.056147093020439007 0.34932307937530638 0 0.044442636295795028 0.35054615076394963 0 0.047586843855647487 0.33400735562271688 0 0.064889129701072829 0.35727594970708582 0 0.050151336407715408 0.3611722172401518 0 0.056147093020439007 0.34932307937530638 0 0.050151336407715408 0.3611722172401518 0 0.056147093020439007 0.34932307937530638 0 0.044442636295795028 0.35054615076394963 0 0.050151336407715408 0.3611722172401518 0 0.044442636295795028 0.35054615076394963 0 0.037043481505925548 0.36403268102444819 0 0.044442636295795028 0.35054615076394963 0 0.037043481505925548 0.36403268102444819 0 0.03046774394275684 0.35521108857073519 0 0.044442636295795028 0.35054615076394963 0 0.033861127817871962 0.34576223889046409 0 0.03046774394275684 0.35521108857073519 0 0.041982729850644718 0.37547323785808601 0 0.050151336407715408 0.3611722172401518 0 0.037043481505925548 0.36403268102444819 0 0.037043481505925548 0.36403268102444819 0 0.026763142111629581 0.36486598222798 0 0.03046774394275684 0.35521108857073519 0 0.041982729850644718 0.37547323785808601 0 0.037043481505925548 0.36403268102444819 0 0.028881678436349829 0.37489955028526312 0 0.037043481505925548 0.36403268102444819 0 0.028881678436349829 0.37489955028526312 0 0.026763142111629581 0.36486598222798 0 0.028881678436349829 0.37489955028526312 0 0.01829200311651356 0.37092857549101338 0 0.026763142111629581 0.36486598222798 0 0.01829200311651356 0.37092857549101338 0 0.026763142111629581 0.36486598222798 0 0.019103265245240891 0.35936031932598561 0 0.026763142111629581 0.36486598222798 0 0.03046774394275684 0.35521108857073519 0 0.019103265245240891 0.35936031932598561 0 0.03046774394275684 0.35521108857073519 0 0.02143419000663738 0.34728842768304552 0 0.019103265245240891 0.35936031932598561 0 0.033861127817871962 0.34576223889046409 0 0.03046774394275684 0.35521108857073519 0 0.02143419000663738 0.34728842768304552 0 0.02143419000663738 0.34728842768304552 0 0.019103265245240891 0.35936031932598561 0 0.0099502029751378628 0.35202014281852101 0 0.02143419000663738 0.34728842768304552 0 0.0099502029751378628 0.35202014281852101 0 0.009592317240246508 0.33599721798310228 0 0.0099502029751378628 0.35202014281852101 0 0.001321233459981704 0.34675538561589092 0 0.009592317240246508 0.33599721798310228 0 0.019103265245240891 0.35936031932598561 0 0.0099502029751378628 0.35202014281852101 0 0.0088603939745839442 0.36446195979181673 0 -0.00058313526616096385 0.35752425844179803 0 0.0099502029751378628 0.35202014281852101 0 0.001321233459981704 0.34675538561589092 0 -0.00058313526616096385 0.35752425844179803 0 0.0099502029751378628 0.35202014281852101 0 0.0088603939745839442 0.36446195979181673 0 -0.0023189940611774598 0.36957673354790599 0 -0.00058313526616096385 0.35752425844179803 0 0.0088603939745839442 0.36446195979181673 0 -0.0023189940611774598 0.36957673354790599 0 0.0089006796965382749 0.37727175076866798 0 0.0088603939745839442 0.36446195979181673 0 0.0089006796965382749 0.37727175076866798 0 0.01829200311651356 0.37092857549101338 0 0.0088603939745839442 0.36446195979181673 0 0.01829200311651356 0.37092857549101338 0 0.019103265245240891 0.35936031932598561 0 0.0088603939745839442 0.36446195979181673 0 0.011518102990901049 0.3183597397394437 0 0.009592317240246508 0.33599721798310228 0 0.022751795861027959 0.32260728671004751 0 -0.0063662150821682841 0.32300770501975168 0 0.011485232308392089 0.30721066919906959 0 -0.0063662150821682841 0.32300770501975168 0 0.011518102990901049 0.3183597397394437 0 0.011485232308392089 0.30721066919906959 0 -0.0063662150821682841 0.32300770501975168 0 0.011518102990901049 0.3183597397394437 0 0.009592317240246508 0.33599721798310228 0 0.011518102990901049 0.3183597397394437 0 0.019169195503677908 0.31394763122939412 0 0.011485232308392089 0.30721066919906959 0 -0.0043313181024477402 0.33954730741787348 0 0.001321233459981704 0.34675538561589092 0 0.009592317240246508 0.33599721798310228 0 0.009592317240246508 0.33599721798310228 0 0.02704525495628626 0.33713250537787531 0 0.022751795861027959 0.32260728671004751 0 0.02143419000663738 0.34728842768304552 0 0.009592317240246508 0.33599721798310228 0 0.02704525495628626 0.33713250537787531 0 0.033861127817871962 0.34576223889046409 0 0.02143419000663738 0.34728842768304552 0 0.02704525495628626 0.33713250537787531 0 0.022751795861027959 0.32260728671004751 0 0.041103147497980733 0.31270215976475108 0 0.026936158480094528 0.30870368762871908 0 0.022751795861027959 0.32260728671004751 0 0.019169195503677908 0.31394763122939412 0 0.026936158480094528 0.30870368762871908 0 0.011518102990901049 0.3183597397394437 0 0.022751795861027959 0.32260728671004751 0 0.019169195503677908 0.31394763122939412 0 0.022751795861027959 0.32260728671004751 0 0.041103147497980733 0.31270215976475108 0 0.047586843855647487 0.33400735562271688 0 0.022751795861027959 0.32260728671004751 0 0.047586843855647487 0.33400735562271688 0 0.033861127817871962 0.34576223889046409 0 0.02704525495628626 0.33713250537787531 0 0.047586843855647487 0.33400735562271688 0 0.044442636295795028 0.35054615076394963 0 0.033861127817871962 0.34576223889046409 0 0.047586843855647487 0.33400735562271688 0 0.02704525495628626 0.33713250537787531 0 0.022751795861027959 0.32260728671004751 0 0.047586843855647487 0.33400735562271688 0 0.069512199522006449 0.3358776327409696 0 0.047586843855647487 0.33400735562271688 0 0.059968986847600617 0.31765058682489489 0 0.072421891850267026 0.34540742453538642 0 0.047586843855647487 0.33400735562271688 0 0.072421891850267026 0.34540742453538642 0 0.056147093020439007 0.34932307937530638 0 0.047586843855647487 0.33400735562271688 0 0.041103147497980733 0.31270215976475108 0 0.047586843855647487 0.33400735562271688 0 0.059968986847600617 0.31765058682489489 0 0.059968986847600617 0.31765058682489489 0 0.050425774173194778 0.29942354090882017 0 0.041103147497980733 0.31270215976475108 0 0.059968986847600617 0.31765058682489489 0 0.050425774173194778 0.29942354090882017 0 0.059968986847600617 0.31765058682489489 0 0.050425774173194778 0.29942354090882017 0 0.062920478902140517 0.29848726063355818 0 0.050425774173194778 0.29942354090882017 0 0.05045455165828483 0.28779666038610352 0 0.040882561498788918 0.2811964949927454 0 0.05045455165828483 0.28779666038610352 0 0.054012786328334263 0.2798266896439775 0 0.065614291247931542 0.28505131873335848 0 0.05045455165828483 0.28779666038610352 0 0.065614291247931542 0.28505131873335848 0 0.062920478902140517 0.29848726063355818 0 0.050425774173194778 0.29942354090882017 0 0.05045455165828483 0.28779666038610352 0 0.062920478902140517 0.29848726063355818 0 0.05045455165828483 0.28779666038610352 0 0.045067907468602647 0.27749281434654438 0 0.054012786328334263 0.2798266896439775 0 0.050425774173194778 0.29942354090882017 0 0.038009010433793969 0.29658855813049229 0 0.040882561498788918 0.2811964949927454 0 0.050425774173194778 0.29942354090882017 0 0.040882561498788918 0.2811964949927454 0 0.05045455165828483 0.28779666038610352 0 0.045067907468602647 0.27749281434654438 0 0.040882561498788918 0.2811964949927454 0 0.038009010433793969 0.29658855813049229 0 0.02618389690359061 0.29420358209590758 0 0.040882561498788918 0.2811964949927454 0 0.02618389690359061 0.29420358209590758 0 0.040882561498788918 0.2811964949927454 0 0.041103147497980733 0.31270215976475108 0 0.038009010433793969 0.29658855813049229 0 0.026936158480094528 0.30870368762871908 0 0.041103147497980733 0.31270215976475108 0 0.050425774173194778 0.29942354090882017 0 0.038009010433793969 0.29658855813049229 0 0.019169195503677908 0.31394763122939412 0 0.026936158480094528 0.30870368762871908 0 0.011485232308392089 0.30721066919906959 0 0.02618389690359061 0.29420358209590758 0 0.011485232308392089 0.30721066919906959 0 0.026936158480094528 0.30870368762871908 0 0.02618389690359061 0.29420358209590758 0 0.011485232308392089 0.30721066919906959 0 0.038009010433793969 0.29658855813049229 0 0.026936158480094528 0.30870368762871908 0 0.02618389690359061 0.29420358209590758 0 0.02618389690359061 0.29420358209590758 0 0.0089079414253633599 0.29271549688037529 0 0.019463812928519508 0.27874182916445672 0 0.02618389690359061 0.29420358209590758 0 0.019463812928519508 0.27874182916445672 0 0.040882561498788918 0.2811964949927454 0 -0.0008364752353172359 0.28036775381282258 0 0.0089079414253633599 0.29271549688037529 0 0.019463812928519508 0.27874182916445672 0 0.02618389690359061 0.29420358209590758 0 0.0089079414253633599 0.29271549688037529 0 0.011485232308392089 0.30721066919906959 0 -0.011756759778368341 0.30305365012961982 0 0.0089079414253633599 0.29271549688037529 0 0.011485232308392089 0.30721066919906959 0 0.0055784632966910386 0.24114364015070419 0 0.0078779402971320585 0.26252290226805219 0 0.01354142008144261 0.25110046580859913 0 -0.0008364752353172359 0.28036775381282258 0 0.0078779402971320585 0.26252290226805219 0 0.019463812928519508 0.27874182916445672 0 0.0078779402971320585 0.26252290226805219 0 0.019463812928519508 0.27874182916445672 0 0.03000310955351029 0.26041730071992492 0 0.019463812928519508 0.27874182916445672 0 0.03000310955351029 0.26041730071992492 0 0.040882561498788918 0.2811964949927454 0 0.0078779402971320585 0.26252290226805219 0 0.01354142008144261 0.25110046580859913 0 0.03000310955351029 0.26041730071992492 0 0.019123657608231669 0.2396381064471044 0 0.01354142008144261 0.25110046580859913 0 0.03000310955351029 0.26041730071992492 0 0.019123657608231669 0.2396381064471044 0 0.03000310955351029 0.26041730071992492 0 0.039481826009394073 0.24939341644378199 0 0.03000310955351029 0.26041730071992492 0 0.045793682320389988 0.26324528208774223 0 0.03000310955351029 0.26041730071992492 0 0.045793682320389988 0.26324528208774223 0 0.045067907468602647 0.27749281434654438 0 0.03000310955351029 0.26041730071992492 0 0.040882561498788918 0.2811964949927454 0 0.03000310955351029 0.26041730071992492 0 0.045067907468602647 0.27749281434654438 0 0.040882561498788918 0.2811964949927454 0 0.045067907468602647 0.27749281434654438 0 0.040882561498788918 0.2811964949927454 0 0.045067907468602647 0.27749281434654438 0 0.054012786328334263 0.2798266896439775 0 0.058824846342796257 0.27203814050143188 0 0.045793682320389988 0.26324528208774223 0 0.045067907468602647 0.27749281434654438 0 0.058824846342796257 0.27203814050143188 0 0.054012786328334263 0.2798266896439775 0 0.058824846342796257 0.27203814050143188 0 0.065614291247931542 0.28505131873335848 0 0.039481826009394073 0.24939341644378199 0 0.045793682320389988 0.26324528208774223 0 0.057933223804373497 0.25770989042118592 0 0.045793682320389988 0.26324528208774223 0 0.058824846342796257 0.27203814050143188 0 0.057933223804373497 0.25770989042118592 0 0.057933223804373497 0.25770989042118592 0 0.07680735875603889 0.26503624591046748 0 0.058824846342796257 0.27203814050143188 0 0.057933223804373497 0.25770989042118592 0 0.07680735875603889 0.26503624591046748 0 0.057933223804373497 0.25770989042118592 0 0.07680735875603889 0.26503624591046748 0 0.076707821969760739 0.25140860886305538 0 0.092093873542319515 0.24696156471119629 0 0.076707821969760739 0.25140860886305538 0 0.084981241326860496 0.25710652118774202 0 0.07680735875603889 0.26503624591046748 0 0.084981241326860496 0.25710652118774202 0 0.094321312091618287 0.2633302812801232 0 0.092093873542319515 0.24696156471119629 0 0.094321312091618287 0.2633302812801232 0 0.092093873542319515 0.24696156471119629 0 0.084981241326860496 0.25710652118774202 0 0.094321312091618287 0.2633302812801232 0 0.07680735875603889 0.26503624591046748 0 0.076707821969760739 0.25140860886305538 0 0.084981241326860496 0.25710652118774202 0 0.07680735875603889 0.26503624591046748 0 0.095681493707705428 0.27236260139974611 0 0.07680735875603889 0.26503624591046748 0 0.094321312091618287 0.2633302812801232 0 0.095681493707705428 0.27236260139974611 0 0.07680735875603889 0.26503624591046748 0 0.081567413528261162 0.28088895916947282 0 0.095681493707705428 0.27236260139974611 0 0.07680735875603889 0.26503624591046748 0 0.081567413528261162 0.28088895916947282 0 0.070703477468756964 0.27575366607868268 0 0.081567413528261162 0.28088895916947282 0 0.070703477468756964 0.27575366607868268 0 0.065614291247931542 0.28505131873335848 0 0.058824846342796257 0.27203814050143188 0 0.07680735875603889 0.26503624591046748 0 0.070703477468756964 0.27575366607868268 0 0.058824846342796257 0.27203814050143188 0 0.070703477468756964 0.27575366607868268 0 0.065614291247931542 0.28505131873335848 0 0.065614291247931542 0.28505131873335848 0 0.062920478902140517 0.29848726063355818 0 0.079678977295603082 0.30359475381155199 0 0.081567413528261162 0.28088895916947282 0 0.065614291247931542 0.28505131873335848 0 0.079678977295603082 0.30359475381155199 0 0.059968986847600617 0.31765058682489489 0 0.062920478902140517 0.29848726063355818 0 0.079678977295603082 0.30359475381155199 0 0.1016105371135268 0.31434136228759602 0 0.079678977295603082 0.30359475381155199 0 0.098646015410616905 0.29335198184367089 0 0.081567413528261162 0.28088895916947282 0 0.098646015410616905 0.29335198184367089 0 0.095681493707705428 0.27236260139974611 0 0.081567413528261162 0.28088895916947282 0 0.079678977295603082 0.30359475381155199 0 0.098646015410616905 0.29335198184367089 0 0.098646015410616905 0.29335198184367089 0 0.095681493707705428 0.27236260139974611 0 0.098646015410616905 0.29335198184367089 0 0.1219705475010831 0.28256719907060268 0 0.095681493707705428 0.27236260139974611 0 0.1016105371135268 0.31434136228759602 0 0.098646015410616905 0.29335198184367089 0 0.1147685264024015 0.30177889596366669 0 0.1016105371135268 0.31434136228759602 0 0.098646015410616905 0.29335198184367089 0 0.12045409016025679 0.32582685500530212 0 0.1147685264024015 0.30177889596366669 0 0.13153843758055131 0.30889056736013121 0 0.1147685264024015 0.30177889596366669 0 0.1219705475010831 0.28256719907060268 0 0.13153843758055131 0.30889056736013121 0 0.098646015410616905 0.29335198184367089 0 0.1147685264024015 0.30177889596366669 0 0.1219705475010831 0.28256719907060268 0 0.1219705475010831 0.28256719907060268 0 0.1109419709312755 0.26354797152730192 0 0.095681493707705428 0.27236260139974611 0 0.1219705475010831 0.28256719907060268 0 0.1109419709312755 0.26354797152730192 0 0.12940397480078081 0.25861033711858072 0 0.1180621290175731 0.2493255458978435 0 0.1109419709312755 0.26354797152730192 0 0.12940397480078081 0.25861033711858072 0 0.1180621290175731 0.2493255458978435 0 0.1109419709312755 0.26354797152730192 0 0.10650516683911419 0.25322392924382908 0 0.1026952553159898 0.2366919182700479 0 0.10650516683911419 0.25322392924382908 0 0.094321312091618287 0.2633302812801232 0 0.1109419709312755 0.26354797152730192 0 0.10650516683911419 0.25322392924382908 0 0.094321312091618287 0.2633302812801232 0 0.1109419709312755 0.26354797152730192 0 0.094321312091618287 0.2633302812801232 0 0.095681493707705428 0.27236260139974611 0 0.1219705475010831 0.28256719907060268 0 0.095681493707705428 0.27236260139974611 0 0.094321312091618287 0.2633302812801232 0 0.095681493707705428 0.27236260139974611 0 0.14552970021258529 0.26950034886265761 0 0.16079374737036531 0.27673510617427111 0 0.16205601794413629 0.25942465933236192 0 0.14552970021258529 0.26950034886265761 0 0.14825960129446189 0.2927717967414562 0 0.16079374737036531 0.27673510617427111 0 0.14678535545621571 0.25000352028891581 0 0.14552970021258529 0.26950034886265761 0 0.16205601794413629 0.25942465933236192 0 0.14678535545621571 0.25000352028891581 0 0.14552970021258529 0.26950034886265761 0 0.12940397480078081 0.25861033711858072 0 0.1219705475010831 0.28256719907060268 0 0.14552970021258529 0.26950034886265761 0 0.12940397480078081 0.25861033711858072 0 0.1219705475010831 0.28256719907060268 0 0.14825960129446189 0.2927717967414562 0 0.1219705475010831 0.28256719907060268 0 0.14552970021258529 0.26950034886265761 0 0.14825960129446189 0.2927717967414562 0 0.1219705475010831 0.28256719907060268 0 0.13153843758055131 0.30889056736013121 0 0.14825960129446189 0.2927717967414562 0 0.14825960129446189 0.2927717967414562 0 0.1648405134492601 0.30823894785932943 0 0.14842456130215001 0.3130955860551683 0 0.13153843758055131 0.30889056736013121 0 0.14825960129446189 0.2927717967414562 0 0.14842456130215001 0.3130955860551683 0 0.14825960129446189 0.2927717967414562 0 0.1716938975345656 0.29074001964389912 0 0.16079374737036531 0.27673510617427111 0 0.14825960129446189 0.2927717967414562 0 0.1716938975345656 0.29074001964389912 0 0.1648405134492601 0.30823894785932943 0 0.1716938975345656 0.29074001964389912 0 0.1648405134492601 0.30823894785932943 0 0.18754620553004539 0.30732121881292629 0 0.1648405134492601 0.30823894785932943 0 0.18754620553004539 0.30732121881292629 0 0.1758514859866977 0.32030779197237191 0 0.1716938975345656 0.29074001964389912 0 0.17642951986607749 0.27123870629098051 0 0.19279353228695709 0.28831931523886639 0 0.1716938975345656 0.29074001964389912 0 0.19279353228695709 0.28831931523886639 0 0.18754620553004539 0.30732121881292629 0 0.1716938975345656 0.29074001964389912 0 0.17642951986607749 0.27123870629098051 0 0.16079374737036531 0.27673510617427111 0 0.17642951986607749 0.27123870629098051 0 0.16079374737036531 0.27673510617427111 0 0.16205601794413629 0.25942465933236192 0 0.14678535545621571 0.25000352028891581 0 0.16293364677552011 0.2416672413687978 0 0.16205601794413629 0.25942465933236192 0 0.17533309121641649 0.2488913840730464 0 0.17642951986607749 0.27123870629098051 0 0.16205601794413629 0.25942465933236192 0 0.17533309121641649 0.2488913840730464 0 0.17642951986607749 0.27123870629098051 0 0.18796637176410441 0.25683880961312677 0 0.18796637176410441 0.25683880961312677 0 0.20082812270491099 0.27160972161893471 0 0.20533844679894681 0.25525433102145451 0 0.18545016805414921 0.23852792509601939 0 0.18796637176410441 0.25683880961312677 0 0.20533844679894681 0.25525433102145451 0 0.17642951986607749 0.27123870629098051 0 0.18796637176410441 0.25683880961312677 0 0.20082812270491099 0.27160972161893471 0 0.17642951986607749 0.27123870629098051 0 0.20082812270491099 0.27160972161893471 0 0.20082812270491099 0.27160972161893471 0 0.21153416234192529 0.28241307611233218 0 0.19279353228695709 0.28831931523886639 0 0.17642951986607749 0.27123870629098051 0 0.20082812270491099 0.27160972161893471 0 0.19279353228695709 0.28831931523886639 0 0.20082812270491099 0.27160972161893471 0 0.22522672554374459 0.27198073694688918 0 0.20082812270491099 0.27160972161893471 0 0.22522672554374459 0.27198073694688918 0 0.21153416234192529 0.28241307611233218 0 0.20082812270491099 0.27160972161893471 0 0.20533844679894681 0.25525433102145451 0 0.22522672554374459 0.27198073694688918 0 0.20533844679894681 0.25525433102145451 0 0.2221586180144858 0.25425745552794898 0 0.22522672554374459 0.27198073694688918 0 0.21336108396648451 0.24445039507943431 0 0.20533844679894681 0.25525433102145451 0 0.2221586180144858 0.25425745552794898 0 0.20533844679894681 0.25525433102145451 0 0.22522672554374459 0.27198073694688918 0 0.23111963420316159 0.24179030846464589 0 0.2221586180144858 0.25425745552794898 0 0.23653602913800359 0.25851787803578391 0 0.2221586180144858 0.25425745552794898 0 0.22522672554374459 0.27198073694688918 0 0.23653602913800359 0.25851787803578391 0 0.22522672554374459 0.27198073694688918 0 0.24109728686504089 0.2853281690867347 0 0.22522672554374459 0.27198073694688918 0 0.25261778294400189 0.27239725678663151 0 0.22522672554374459 0.27198073694688918 0 0.23653602913800359 0.25851787803578391 0 0.25261778294400189 0.27239725678663151 0 0.22522672554374459 0.27198073694688918 0 0.24109728686504089 0.2853281690867347 0 0.25261778294400189 0.27239725678663151 0 0.23653602913800359 0.25851787803578391 0 0.25321698482086541 0.25295958375121741 0 0.25261778294400189 0.27239725678663151 0 0.23111963420316159 0.24179030846464589 0 0.23653602913800359 0.25851787803578391 0 0.25321698482086541 0.25295958375121741 0 0.23973206728971369 0.30642338953801168 0 0.24888145734431999 0.31848746205969769 0 0.25696784818633739 0.29867560122657999 0 0.23973206728971369 0.30642338953801168 0 0.24109728686504089 0.2853281690867347 0 0.25696784818633739 0.29867560122657999 0 0.23973206728971369 0.30642338953801168 0 0.24109728686504089 0.2853281690867347 0 0.22379377626261601 0.29467379648322828 0 0.24109728686504089 0.2853281690867347 0 0.25696784818633739 0.29867560122657999 0 0.22522672554374459 0.27198073694688918 0 0.22379377626261601 0.29467379648322828 0 0.21153416234192529 0.28241307611233218 0 0.22522672554374459 0.27198073694688918 0 0.24109728686504089 0.2853281690867347 0 0.22379377626261601 0.29467379648322828 0 0.23973206728971369 0.30642338953801168 0 0.22379377626261601 0.29467379648322828 0 0.22560597057599219 0.31410536165804692 0 0.22379377626261601 0.29467379648322828 0 0.2119409890955361 0.30806568400997869 0 0.22560597057599219 0.31410536165804692 0 0.22379377626261601 0.29467379648322828 0 0.2119409890955361 0.30806568400997869 0 0.20849450951723481 0.29478669703427102 0 0.2119409890955361 0.30806568400997869 0 0.20849450951723481 0.29478669703427102 0 0.20019465301158601 0.30348100702108771 0 0.2119409890955361 0.30806568400997869 0 0.20019465301158601 0.30348100702108771 0 0.20239951940140569 0.31679900893451751 0 0.21153416234192529 0.28241307611233218 0 0.20849450951723481 0.29478669703427102 0 0.19279353228695709 0.28831931523886639 0 0.22379377626261601 0.29467379648322828 0 0.21153416234192529 0.28241307611233218 0 0.20849450951723481 0.29478669703427102 0 0.20849450951723481 0.29478669703427102 0 0.19279353228695709 0.28831931523886639 0 0.20019465301158601 0.30348100702108771 0 0.19279353228695709 0.28831931523886639 0 0.20019465301158601 0.30348100702108771 0 0.18754620553004539 0.30732121881292629 0 0.20019465301158601 0.30348100702108771 0 0.18754620553004539 0.30732121881292629 0 0.20239951940140569 0.31679900893451751 0 0.20239951940140569 0.31679900893451751 0 0.1904906712980004 0.33020867977077067 0 0.20880387366013931 0.32829497250520617 0 0.18754620553004539 0.30732121881292629 0 0.20239951940140569 0.31679900893451751 0 0.1904906712980004 0.33020867977077067 0 0.1904906712980004 0.33020867977077067 0 0.20725854224621751 0.33952296086574257 0 0.18022168751353329 0.34885736077998392 0 0.1904906712980004 0.33020867977077067 0 0.20725854224621751 0.33952296086574257 0 0.20880387366013931 0.32829497250520617 0 0.20725854224621751 0.33952296086574257 0 0.20880387366013931 0.32829497250520617 0 0.2146531777773231 0.33559658013782773 0 0.20880387366013931 0.32829497250520617 0 0.2146531777773231 0.33559658013782773 0 0.2220971536313309 0.32819873501150088 0 0.2146531777773231 0.33559658013782773 0 0.21666463730339339 0.3416673078981739 0 0.2236207053132733 0.33771054784786803 0 0.20725854224621751 0.33952296086574257 0 0.2146531777773231 0.33559658013782773 0 0.21666463730339339 0.3416673078981739 0 0.2119409890955361 0.30806568400997869 0 0.20239951940140569 0.31679900893451751 0 0.21502893457917191 0.31926472853178228 0 0.20239951940140569 0.31679900893451751 0 0.20880387366013931 0.32829497250520617 0 0.21502893457917191 0.31926472853178228 0 0.20880387366013931 0.32829497250520617 0 0.21502893457917191 0.31926472853178228 0 0.2220971536313309 0.32819873501150088 0 0.2119409890955361 0.30806568400997869 0 0.21502893457917191 0.31926472853178228 0 0.22560597057599219 0.31410536165804692 0 0.23973206728971369 0.30642338953801168 0 0.22560597057599219 0.31410536165804692 0 0.23730572314762641 0.32461495179183808 0 0.22560597057599219 0.31410536165804692 0 0.2220971536313309 0.32819873501150088 0 0.23730572314762641 0.32461495179183808 0 0.21502893457917191 0.31926472853178228 0 0.22560597057599219 0.31410536165804692 0 0.2220971536313309 0.32819873501150088 0 0.2146531777773231 0.33559658013782773 0 0.2220971536313309 0.32819873501150088 0 0.2236207053132733 0.33771054784786803 0 0.2220971536313309 0.32819873501150088 0 0.2236207053132733 0.33771054784786803 0 0.23109161366050321 0.33384203643949079 0 0.21666463730339339 0.3416673078981739 0 0.2236207053132733 0.33771054784786803 0 0.2283981882549003 0.34463553945738751 0 0.2236207053132733 0.33771054784786803 0 0.23109161366050321 0.33384203643949079 0 0.2283981882549003 0.34463553945738751 0 0.2220971536313309 0.32819873501150088 0 0.23109161366050321 0.33384203643949079 0 0.23730572314762641 0.32461495179183808 0 0.23109161366050321 0.33384203643949079 0 0.24740380358454761 0.33840016773273029 0 0.23730572314762641 0.32461495179183808 0 0.24740380358454761 0.33840016773273029 0 0.2283981882549003 0.34463553945738751 0 0.23109161366050321 0.33384203643949079 0 0.24740380358454761 0.33840016773273029 0 0.2283981882549003 0.34463553945738751 0 0.24740380358454761 0.33840016773273029 0 0.24888145734431999 0.31848746205969769 0 0.23730572314762641 0.32461495179183808 0 0.23973206728971369 0.30642338953801168 0 0.24888145734431999 0.31848746205969769 0 0.23730572314762641 0.32461495179183808 0 0.24014419478181559 0.35925083231343208 0 0.23184900629545471 0.36784361209060917 0 0.2407484091138441 0.37779894332063929 0 0.24014419478181559 0.35925083231343208 0 0.2407484091138441 0.37779894332063929 0 0.25178567317021261 0.36745573613020038 0 0.24014419478181559 0.35925083231343208 0 0.2332695690979566 0.35305817357504482 0 0.23184900629545471 0.36784361209060917 0 0.24740380358454761 0.33840016773273029 0 0.24014419478181559 0.35925083231343208 0 0.2332695690979566 0.35305817357504482 0 0.24740380358454761 0.33840016773273029 0 0.2332695690979566 0.35305817357504482 0 0.2283981882549003 0.34463553945738751 0 0.24740380358454761 0.33840016773273029 0 0.2332695690979566 0.35305817357504482 0 0.2283981882549003 0.34463553945738751 0 0.20939257292525279 0.35087091118204378 0 0.2283981882549003 0.34463553945738751 0 0.22110100437124569 0.35447603816839579 0 0.20939257292525279 0.35087091118204378 0 0.2332695690979566 0.35305817357504482 0 0.2283981882549003 0.34463553945738751 0 0.22110100437124569 0.35447603816839579 0 0.2332695690979566 0.35305817357504482 0 0.22110100437124569 0.35447603816839579 0 0.21913533461136611 0.36771617941735968 0 0.2332695690979566 0.35305817357504482 0 0.21913533461136611 0.36771617941735968 0 0.2332695690979566 0.35305817357504482 0 0.23184900629545471 0.36784361209060917 0 0.21913533461136611 0.36771617941735968 0 0.23184900629545471 0.36784361209060917 0 0.21913533461136611 0.36771617941735968 0 0.22594752387229081 0.38139393182656989 0 0.21913533461136611 0.36771617941735968 0 0.20428941464763961 0.37374463977249922 0 0.2136430991148032 0.38320660332984852 0 0.22110100437124569 0.35447603816839579 0 0.21913533461136611 0.36771617941735968 0 0.20850202651493849 0.36169773624752333 0 0.21913533461136611 0.36771617941735968 0 0.20850202651493849 0.36169773624752333 0 0.20428941464763961 0.37374463977249922 0 0.20850202651493849 0.36169773624752333 0 0.20428941464763961 0.37374463977249922 0 0.19674574421702101 0.36693243133266551 0 0.21666463730339339 0.3416673078981739 0 0.2283981882549003 0.34463553945738751 0 0.20939257292525279 0.35087091118204378 0 0.20725854224621751 0.33952296086574257 0 0.20939257292525279 0.35087091118204378 0 0.19807998440630309 0.35553004184532178 0 0.20725854224621751 0.33952296086574257 0 0.21666463730339339 0.3416673078981739 0 0.20939257292525279 0.35087091118204378 0 0.22110100437124569 0.35447603816839579 0 0.20850202651493849 0.36169773624752333 0 0.20939257292525279 0.35087091118204378 0 0.20850202651493849 0.36169773624752333 0 0.20939257292525279 0.35087091118204378 0 0.19807998440630309 0.35553004184532178 0 0.20725854224621751 0.33952296086574257 0 0.18022168751353329 0.34885736077998392 0 0.20725854224621751 0.33952296086574257 0 0.19807998440630309 0.35553004184532178 0 0.18022168751353329 0.34885736077998392 0 0.19807998440630309 0.35553004184532178 0 0.1850747948997144 0.36430296452349542 0 0.18022168751353329 0.34885736077998392 0 0.20428941464763961 0.37374463977249922 0 0.19674574421702101 0.36693243133266551 0 0.1911957441963163 0.37310312674634272 0 0.20850202651493849 0.36169773624752333 0 0.19807998440630309 0.35553004184532178 0 0.19674574421702101 0.36693243133266551 0 0.19807998440630309 0.35553004184532178 0 0.19674574421702101 0.36693243133266551 0 0.1850747948997144 0.36430296452349542 0 0.19674574421702101 0.36693243133266551 0 0.1911957441963163 0.37310312674634272 0 0.1850747948997144 0.36430296452349542 0 0.17384249342674121 0.37381314061648668 0 0.1850747948997144 0.36430296452349542 0 0.16886440330176569 0.36133663931964383 0 0.1911957441963163 0.37310312674634272 0 0.17384249342674121 0.37381314061648668 0 0.1850747948997144 0.36430296452349542 0 0.16886440330176569 0.36133663931964383 0 0.1516587130630172 0.36090382374640712 0 0.15318483278084921 0.3581917606942252 0 0.17384249342674121 0.37381314061648668 0 0.1516587130630172 0.36090382374640712 0 0.17384249342674121 0.37381314061648668 0 0.15756067954189021 0.37023987153860788 0 0.1604708276664189 0.37735044840780962 0 0.17384249342674121 0.37381314061648668 0 0.15756067954189021 0.37023987153860788 0 0.1516587130630172 0.36090382374640712 0 0.17384249342674121 0.37381314061648668 0 0.16886440330176569 0.36133663931964383 0 0.1516587130630172 0.36090382374640712 0 0.15756067954189021 0.37023987153860788 0 0.15205550390866851 0.37241208710984458 0 0.1604708276664189 0.37735044840780962 0 0.1631921359152092 0.34555062979635931 0 0.18022168751353329 0.34885736077998392 0 0.15318483278084921 0.3581917606942252 0 0.18022168751353329 0.34885736077998392 0 0.15318483278084921 0.3581917606942252 0 0.16886440330176569 0.36133663931964383 0 0.18022168751353329 0.34885736077998392 0 0.15318483278084921 0.3581917606942252 0 0.1631921359152092 0.34555062979635931 0 0.15318483278084921 0.3581917606942252 0 0.1530906244642021 0.34777295515584211 0 0.1631921359152092 0.34555062979635931 0 0.15562911595992501 0.34067516751927118 0 0.1530906244642021 0.34777295515584211 0 0.1850747948997144 0.36430296452349542 0 0.16886440330176569 0.36133663931964383 0 0.18022168751353329 0.34885736077998392 0 0.1631921359152092 0.34555062979635931 0 0.18022168751353329 0.34885736077998392 0 0.17393954505944129 0.33419908100630208 0 0.1904906712980004 0.33020867977077067 0 0.18022168751353329 0.34885736077998392 0 0.17393954505944129 0.33419908100630208 0 0.1904906712980004 0.33020867977077067 0 0.17393954505944129 0.33419908100630208 0 0.1758514859866977 0.32030779197237191 0 0.18754620553004539 0.30732121881292629 0 0.1904906712980004 0.33020867977077067 0 0.1758514859866977 0.32030779197237191 0 0.1648405134492601 0.30823894785932943 0 0.1758514859866977 0.32030779197237191 0 0.1586131445271014 0.33009174418750697 0 0.1648405134492601 0.30823894785932943 0 0.1586131445271014 0.33009174418750697 0 0.14842456130215001 0.3130955860551683 0 0.17393954505944129 0.33419908100630208 0 0.1758514859866977 0.32030779197237191 0 0.1586131445271014 0.33009174418750697 0 0.1631921359152092 0.34555062979635931 0 0.17393954505944129 0.33419908100630208 0 0.1586131445271014 0.33009174418750697 0 0.1631921359152092 0.34555062979635931 0 0.1586131445271014 0.33009174418750697 0 0.15562911595992501 0.34067516751927118 0 0.1586131445271014 0.33009174418750697 0 0.15562911595992501 0.34067516751927118 0 0.14155036496026721 0.32989811020965149 0 0.14717074694434831 0.34374524843932469 0 0.13992316015888701 0.33978063983772577 0 0.13899096039857259 0.3469202913163556 0 0.15562911595992501 0.34067516751927118 0 0.14155036496026721 0.32989811020965149 0 0.14717074694434831 0.34374524843932469 0 0.14155036496026721 0.32989811020965149 0 0.14717074694434831 0.34374524843932469 0 0.13992316015888701 0.33978063983772577 0 0.1586131445271014 0.33009174418750697 0 0.14155036496026721 0.32989811020965149 0 0.14842456130215001 0.3130955860551683 0 0.12045409016025679 0.32582685500530212 0 0.13153843758055131 0.30889056736013121 0 0.14155036496026721 0.32989811020965149 0 0.13153843758055131 0.30889056736013121 0 0.14155036496026721 0.32989811020965149 0 0.14842456130215001 0.3130955860551683 0 0.12045409016025679 0.32582685500530212 0 0.14155036496026721 0.32989811020965149 0 0.13198056833235969 0.33855890938557143 0 0.14155036496026721 0.32989811020965149 0 0.13992316015888701 0.33978063983772577 0 0.13198056833235969 0.33855890938557143 0 0.13992316015888701 0.33978063983772577 0 0.13198056833235969 0.33855890938557143 0 0.13899096039857259 0.3469202913163556 0 0.1196613836811371 0.34154163154512007 0 0.13198056833235969 0.33855890938557143 0 0.13028467324876061 0.34966310652341082 0 0.13198056833235969 0.33855890938557143 0 0.13028467324876061 0.34966310652341082 0 0.13899096039857259 0.3469202913163556 0 0.13028467324876061 0.34966310652341082 0 0.13899096039857259 0.3469202913163556 0 0.13827486906412281 0.35517533489437508 0 0.13028467324876061 0.34966310652341082 0 0.13827486906412281 0.35517533489437508 0 0.1328419093778492 0.35606441364032188 0 0.13827486906412281 0.35517533489437508 0 0.1328419093778492 0.35606441364032188 0 0.1343364677006858 0.35964664957770959 0 0.13028467324876061 0.34966310652341082 0 0.1328419093778492 0.35606441364032188 0 0.12839859809004431 0.35759773554313662 0 0.1220163885910157 0.35166407692335699 0 0.13028467324876061 0.34966310652341082 0 0.12839859809004431 0.35759773554313662 0 0.1328419093778492 0.35606441364032188 0 0.12839859809004431 0.35759773554313662 0 0.1343364677006858 0.35964664957770959 0 0.1261479780481648 0.3675261606084666 0 0.14083394479836969 0.37011717980879411 0 0.14692703583412561 0.37960763127339459 0 0.1261479780481648 0.3675261606084666 0 0.1439610661325989 0.36549763735298102 0 0.14083394479836969 0.37011717980879411 0 0.12712497546321971 0.36196522457157237 0 0.1261479780481648 0.3675261606084666 0 0.1343364677006858 0.35964664957770959 0 0.1220919878395061 0.36820756236072522 0 0.14692703583412561 0.37960763127339459 0 0.1220919878395061 0.36820756236072522 0 0.1261479780481648 0.3675261606084666 0 0.14692703583412561 0.37960763127339459 0 0.1261479780481648 0.3675261606084666 0 0.1343364677006858 0.35964664957770959 0 0.15318483278084921 0.3581917606942252 0 0.1261479780481648 0.3675261606084666 0 0.15318483278084921 0.3581917606942252 0 0.12839859809004431 0.35759773554313662 0 0.12712497546321971 0.36196522457157237 0 0.1343364677006858 0.35964664957770959 0 0.1261479780481648 0.3675261606084666 0 0.1439610661325989 0.36549763735298102 0 0.15318483278084921 0.3581917606942252 0 0.1439610661325989 0.36549763735298102 0 0.14936765111294351 0.36275969676009723 0 0.14977585964460521 0.36671985781249111 0 0.14083394479836969 0.37011717980879411 0 0.1467106820636736 0.37087087867150109 0 0.14692703583412561 0.37960763127339459 0 0.1439610661325989 0.36549763735298102 0 0.14083394479836969 0.37011717980879411 0 0.1467106820636736 0.37087087867150109 0 0.1439610661325989 0.36549763735298102 0 0.1467106820636736 0.37087087867150109 0 0.14977585964460521 0.36671985781249111 0 0.1467106820636736 0.37087087867150109 0 0.15205550390866851 0.37241208710984458 0 0.14692703583412561 0.37960763127339459 0 0.1467106820636736 0.37087087867150109 0 0.15205550390866851 0.37241208710984458 0 0.14977585964460521 0.36671985781249111 0 0.15756067954189021 0.37023987153860788 0 0.15205550390866851 0.37241208710984458 0 0.14977585964460521 0.36671985781249111 0 0.15756067954189021 0.37023987153860788 0 0.1516587130630172 0.36090382374640712 0 0.14977585964460521 0.36671985781249111 0 0.1439610661325989 0.36549763735298102 0 0.14936765111294351 0.36275969676009723 0 0.15318483278084921 0.3581917606942252 0 0.1516587130630172 0.36090382374640712 0 0.14936765111294351 0.36275969676009723 0 0.15318483278084921 0.3581917606942252 0 0.1516587130630172 0.36090382374640712 0 0.14936765111294351 0.36275969676009723 0 0.14977585964460521 0.36671985781249111 0 0.15318483278084921 0.3581917606942252 0 0.1530906244642021 0.34777295515584211 0 0.1462762907206786 0.35070196933002967 0 0.13827486906412281 0.35517533489437508 0 0.1343364677006858 0.35964664957770959 0 0.15318483278084921 0.3581917606942252 0 0.15562911595992501 0.34067516751927118 0 0.14717074694434831 0.34374524843932469 0 0.1530906244642021 0.34777295515584211 0 0.14717074694434831 0.34374524843932469 0 0.1530906244642021 0.34777295515584211 0 0.1462762907206786 0.35070196933002967 0 0.14717074694434831 0.34374524843932469 0 0.13899096039857259 0.3469202913163556 0 0.1462762907206786 0.35070196933002967 0 0.13899096039857259 0.3469202913163556 0 0.13827486906412281 0.35517533489437508 0 0.1462762907206786 0.35070196933002967 0 0.13827486906412281 0.35517533489437508 0 0.15318483278084921 0.3581917606942252 0 0.1462762907206786 0.35070196933002967 0 0.13977194871863971 0.40676611614422192 0 0.1681845402710018 0.40458694262148043 0 0.15310264953808109 0.39480970638923252 0 0.13977194871863971 0.40676611614422192 0 0.1681845402710018 0.40458694262148043 0 0.15310264953808109 0.39480970638923252 0 0.13886763903789279 0.39208014172100158 0 0.13977194871863971 0.40676611614422192 0 0.15205550390866851 0.37241208710984458 0 0.14692703583412561 0.37960763127339459 0 0.1604708276664189 0.37735044840780962 0 0.15310264953808109 0.39480970638923252 0 0.14692703583412561 0.37960763127339459 0 0.13886763903789279 0.39208014172100158 0 0.13512611149992829 0.37785001198017221 0 0.12999863807030451 0.38883635525541421 0 0.13886763903789279 0.39208014172100158 0 0.1220919878395061 0.36820756236072522 0 0.14692703583412561 0.37960763127339459 0 0.13512611149992829 0.37785001198017221 0 0.14692703583412561 0.37960763127339459 0 0.13512611149992829 0.37785001198017221 0 0.13886763903789279 0.39208014172100158 0 0.1208488613358451 0.38851287326317901 0 0.13512611149992829 0.37785001198017221 0 0.12999863807030451 0.38883635525541421 0 0.11135935716627771 0.40894528966696342 0 0.12515194040755201 0.3969023940573041 0 0.13977194871863971 0.40676611614422192 0 0.12999863807030451 0.38883635525541421 0 0.12515194040755201 0.3969023940573041 0 0.13886763903789279 0.39208014172100158 0 0.1208488613358451 0.38851287326317901 0 0.12999863807030451 0.38883635525541421 0 0.12515194040755201 0.3969023940573041 0 0.12515194040755201 0.3969023940573041 0 0.13886763903789279 0.39208014172100158 0 0.13977194871863971 0.40676611614422192 0 0.11135935716627771 0.40894528966696342 0 0.13977194871863971 0.40676611614422192 0 0.1211180891105223 0.41515041130060137 0 0.13073560614641089 0.4158917881930298 0 0.13977194871863971 0.40676611614422192 0 0.13073560614641089 0.4158917881930298 0 0.13691666911266759 0.41915281609222982 0 0.1274556996476934 0.42294273133145982 0 0.1211180891105223 0.41515041130060137 0 0.13073560614641089 0.4158917881930298 0 0.1274556996476934 0.42294273133145982 0 0.13073560614641089 0.4158917881930298 0 0.13691666911266759 0.41915281609222982 0 0.13977194871863971 0.40676611614422192 0 0.13061429767166841 0.43408894929572728 0 0.1274556996476934 0.42294273133145982 0 0.13340953669449421 0.42809396945735201 0 0.117945315448603 0.42342334168009488 0 0.13061429767166841 0.43408894929572728 0 0.1274556996476934 0.42294273133145982 0 0.13691666911266759 0.41915281609222982 0 0.1274556996476934 0.42294273133145982 0 0.13340953669449421 0.42809396945735201 0 0.13691666911266759 0.41915281609222982 0 0.13340953669449421 0.42809396945735201 0 0.14617957554417699 0.41966109914936911 0 0.13340953669449421 0.42809396945735201 0 0.16021356771565501 0.42904263007888738 0 0.1589159270079599 0.440526316219152 0 0.13061429767166841 0.43408894929572728 0 0.13340953669449421 0.42809396945735201 0 0.1589159270079599 0.440526316219152 0 0.13061429767166841 0.43408894929572728 0 0.1589159270079599 0.440526316219152 0 0.13340953669449421 0.42809396945735201 0 0.16021356771565501 0.42904263007888738 0 0.13340953669449421 0.42809396945735201 0 0.14617957554417699 0.41966109914936911 0 0.16021356771565501 0.42904263007888738 0 0.13977194871863971 0.40676611614422192 0 0.15679503468267489 0.41530652644002602 0 0.1681845402710018 0.40458694262148043 0 0.13977194871863971 0.40676611614422192 0 0.14617957554417699 0.41966109914936911 0 0.15679503468267489 0.41530652644002602 0 0.13691666911266759 0.41915281609222982 0 0.13977194871863971 0.40676611614422192 0 0.14617957554417699 0.41966109914936911 0 0.14617957554417699 0.41966109914936911 0 0.15679503468267489 0.41530652644002602 0 0.16021356771565501 0.42904263007888738 0 0.15679503468267489 0.41530652644002602 0 0.16962554116390119 0.41647584420617112 0 0.16021356771565501 0.42904263007888738 0 0.15679503468267489 0.41530652644002602 0 0.16962554116390119 0.41647584420617112 0 0.1681845402710018 0.40458694262148043 0 0.16962554116390119 0.41647584420617112 0 0.16021356771565501 0.42904263007888738 0 0.17750435317644239 0.42165804451380101 0 0.16021356771565501 0.42904263007888738 0 0.17337392594810269 0.43634489129825571 0 0.1589159270079599 0.440526316219152 0 0.16021356771565501 0.42904263007888738 0 0.18701759873681581 0.42999129070042302 0 0.16021356771565501 0.42904263007888738 0 0.18701759873681581 0.42999129070042302 0 0.17750435317644239 0.42165804451380101 0 0.16021356771565501 0.42904263007888738 0 0.17337392594810269 0.43634489129825571 0 0.18701759873681581 0.42999129070042302 0 0.18701759873681581 0.42999129070042302 0 0.17750435317644239 0.42165804451380101 0 0.1891783425233608 0.41959730407505369 0 0.18148671574247921 0.41318315350846962 0 0.1681845402710018 0.40458694262148043 0 0.19659713182336361 0.40240776909873588 0 0.16962554116390119 0.41647584420617112 0 0.18148671574247921 0.41318315350846962 0 0.1681845402710018 0.40458694262148043 0 0.16962554116390119 0.41647584420617112 0 0.17750435317644239 0.42165804451380101 0 0.18148671574247921 0.41318315350846962 0 0.17750435317644239 0.42165804451380101 0 0.18148671574247921 0.41318315350846962 0 0.1891783425233608 0.41959730407505369 0 0.1681845402710018 0.40458694262148043 0 0.19659713182336361 0.40240776909873588 0 0.17176208382874519 0.39100770018606401 0 0.19659713182336361 0.40240776909873588 0 0.17176208382874519 0.39100770018606401 0 0.1681845402710018 0.40458694262148043 0 0.19659713182336361 0.40240776909873588 0 0.15310264953808109 0.39480970638923252 0 0.17176208382874519 0.39100770018606401 0 0.1681845402710018 0.40458694262148043 0 0.15310264953808109 0.39480970638923252 0 0.14692703583412561 0.37960763127339459 0 0.17176208382874519 0.39100770018606401 0 0.14692703583412561 0.37960763127339459 0 0.17176208382874519 0.39100770018606401 0 0.1604708276664189 0.37735044840780962 0 0.17384249342674121 0.37381314061648668 0 0.17176208382874519 0.39100770018606401 0 0.1604708276664189 0.37735044840780962 0 0.14692703583412561 0.37960763127339459 0 0.17176208382874519 0.39100770018606401 0 0.17384249342674121 0.37381314061648668 0 0.17176208382874519 0.39100770018606401 0 0.19602627379046519 0.38672245748656631 0 0.17384249342674121 0.37381314061648668 0 0.19602627379046519 0.38672245748656631 0 0.1911957441963163 0.37310312674634272 0 0.17384249342674121 0.37381314061648668 0 0.19602627379046519 0.38672245748656631 0 0.20428941464763961 0.37374463977249922 0 0.1911957441963163 0.37310312674634272 0 0.19602627379046519 0.38672245748656631 0 0.17176208382874519 0.39100770018606401 0 0.19602627379046519 0.38672245748656631 0 0.19659713182336361 0.40240776909873588 0 0.19602627379046519 0.38672245748656631 0 0.19659713182336361 0.40240776909873588 0 0.21821005415418929 0.39963177435664587 0 0.19659713182336361 0.40240776909873588 0 0.2209983499141964 0.40053625772012402 0 0.19659713182336361 0.40240776909873588 0 0.21821005415418929 0.39963177435664587 0 0.2209983499141964 0.40053625772012402 0 0.19659713182336361 0.40240776909873588 0 0.21190115526079989 0.40552932022395599 0 0.2209983499141964 0.40053625772012402 0 0.19602627379046519 0.38672245748656631 0 0.21821005415418929 0.39963177435664587 0 0.19602627379046519 0.38672245748656631 0 0.21821005415418929 0.39963177435664587 0 0.21252416508473621 0.3903973825224441 0 0.19659713182336361 0.40240776909873588 0 0.21190115526079989 0.40552932022395599 0 0.21220677337125229 0.40957308600839132 0 0.19659713182336361 0.40240776909873588 0 0.21220677337125229 0.40957308600839132 0 0.21821005415418929 0.39963177435664587 0 0.21252416508473621 0.3903973825224441 0 0.222217233279487 0.39202869491671588 0 0.21647449530938501 0.40595294649950481 0 0.21190115526079989 0.40552932022395599 0 0.2209983499141964 0.40053625772012402 0 0.20428941464763961 0.37374463977249922 0 0.19602627379046519 0.38672245748656631 0 0.2136430991148032 0.38320660332984852 0 0.19602627379046519 0.38672245748656631 0 0.2136430991148032 0.38320660332984852 0 0.21252416508473621 0.3903973825224441 0 0.2136430991148032 0.38320660332984852 0 0.21252416508473621 0.3903973825224441 0 0.222217233279487 0.39202869491671588 0 0.21913533461136611 0.36771617941735968 0 0.2136430991148032 0.38320660332984852 0 0.22594752387229081 0.38139393182656989 0 0.23184900629545471 0.36784361209060917 0 0.22594752387229081 0.38139393182656989 0 0.2407484091138441 0.37779894332063929 0 0.22594752387229081 0.38139393182656989 0 0.23106221683696951 0.39008451482511169 0 0.2407484091138441 0.37779894332063929 0 0.22594752387229081 0.38139393182656989 0 0.23106221683696951 0.39008451482511169 0 0.222217233279487 0.39202869491671588 0 0.2136430991148032 0.38320660332984852 0 0.22594752387229081 0.38139393182656989 0 0.222217233279487 0.39202869491671588 0 0.23106221683696951 0.39008451482511169 0 0.2209983499141964 0.40053625772012402 0 0.24539956800502899 0.39866474634150911 0 0.2209983499141964 0.40053625772012402 0 0.24539956800502899 0.39866474634150911 0 0.23349238426622279 0.40728097753325088 0 0.2209983499141964 0.40053625772012402 0 0.24539956800502899 0.39866474634150911 0 0.21821005415418929 0.39963177435664587 0 0.222217233279487 0.39202869491671588 0 0.2209983499141964 0.40053625772012402 0 0.23106221683696951 0.39008451482511169 0 0.222217233279487 0.39202869491671588 0 0.2209983499141964 0.40053625772012402 0 0.2209983499141964 0.40053625772012402 0 0.2275464218766593 0.40899546023143563 0 0.2207917026912915 0.4081731220455479 0 0.21647449530938501 0.40595294649950481 0 0.2209983499141964 0.40053625772012402 0 0.2207917026912915 0.4081731220455479 0 0.2209983499141964 0.40053625772012402 0 0.2275464218766593 0.40899546023143563 0 0.23349238426622279 0.40728097753325088 0 0.24539956800502899 0.39866474634150911 0 0.24218410761561709 0.41145606563617793 0 0.23349238426622279 0.40728097753325088 0 0.23106221683696951 0.39008451482511169 0 0.24539956800502899 0.39866474634150911 0 0.2407484091138441 0.37779894332063929 0 0.24539956800502899 0.39866474634150911 0 0.2407484091138441 0.37779894332063929 0 0.25890012849803817 0.37816803338732891 0 0.23625155552188981 0.4317338015939341 0 0.23490325063492659 0.4199914836268196 0 0.25759972789860047 0.43040988124524859 0 0.23625155552188981 0.4317338015939341 0 0.24705013821693919 0.44389538438841353 0 0.25868148128580282 0.43252765186590958 0 0.23490325063492659 0.4199914836268196 0 0.25759972789860047 0.43040988124524859 0 0.24720975974100981 0.4190374144550702 0 0.23490325063492659 0.4199914836268196 0 0.25759972789860047 0.43040988124524859 0 0.23625155552188981 0.4317338015939341 0 0.25868148128580282 0.43252765186590958 0 0.24539956800502899 0.39866474634150911 0 0.24218410761561709 0.41145606563617793 0 0.25325179627415878 0.41128627675523732 0 0.24720975974100981 0.4190374144550702 0 0.24218410761561709 0.41145606563617793 0 0.25325179627415878 0.41128627675523732 0 0.24218410761561709 0.41145606563617793 0 0.23490325063492659 0.4199914836268196 0 0.23349238426622279 0.40728097753325088 0 0.24720975974100981 0.4190374144550702 0 0.24218410761561709 0.41145606563617793 0 0.23490325063492659 0.4199914836268196 0 0.23490325063492659 0.4199914836268196 0 0.21220677337125229 0.40957308600839132 0 0.23490325063492659 0.4199914836268196 0 0.22429580232151131 0.42305958063777582 0 0.21220677337125229 0.40957308600839132 0 0.23490325063492659 0.4199914836268196 0 0.2207917026912915 0.4081731220455479 0 0.21220677337125229 0.40957308600839132 0 0.23490325063492659 0.4199914836268196 0 0.2275464218766593 0.40899546023143563 0 0.23349238426622279 0.40728097753325088 0 0.23490325063492659 0.4199914836268196 0 0.2275464218766593 0.40899546023143563 0 0.2207917026912915 0.4081731220455479 0 0.23625155552188981 0.4317338015939341 0 0.21382162975797661 0.43093995132195839 0 0.23625155552188981 0.4317338015939341 0 0.22429580232151131 0.42305958063777582 0 0.21382162975797661 0.43093995132195839 0 0.23625155552188981 0.4317338015939341 0 0.21382162975797661 0.43093995132195839 0 0.23109322361529611 0.44491385643714521 0 0.23625155552188981 0.4317338015939341 0 0.23490325063492659 0.4199914836268196 0 0.22429580232151131 0.42305958063777582 0 0.21382162975797661 0.43093995132195839 0 0.21220677337125229 0.40957308600839132 0 0.22429580232151131 0.42305958063777582 0 0.21382162975797661 0.43093995132195839 0 0.21220677337125229 0.40957308600839132 0 0.21382162975797661 0.43093995132195839 0 0.21220677337125229 0.40957308600839132 0 0.19976429524255379 0.41850188024091239 0 0.21647449530938501 0.40595294649950481 0 0.2207917026912915 0.4081731220455479 0 0.21220677337125229 0.40957308600839132 0 0.21647449530938501 0.40595294649950481 0 0.21190115526079989 0.40552932022395599 0 0.21220677337125229 0.40957308600839132 0 0.21190115526079989 0.40552932022395599 0 0.21220677337125229 0.40957308600839132 0 0.19659713182336361 0.40240776909873588 0 0.21220677337125229 0.40957308600839132 0 0.19976429524255379 0.41850188024091239 0 0.18148671574247921 0.41318315350846962 0 0.19659713182336361 0.40240776909873588 0 0.1891783425233608 0.41959730407505369 0 0.19659713182336361 0.40240776909873588 0 0.19976429524255379 0.41850188024091239 0 0.1891783425233608 0.41959730407505369 0 0.18701759873681581 0.42999129070042302 0 0.21382162975797661 0.43093995132195839 0 0.18701759873681581 0.42999129070042302 0 0.21382162975797661 0.43093995132195839 0 0.19976429524255379 0.41850188024091239 0 0.18701759873681581 0.42999129070042302 0 0.21382162975797661 0.43093995132195839 0 0.20033736904712171 0.43884465013663698 0 0.18701759873681581 0.42999129070042302 0 0.19976429524255379 0.41850188024091239 0 0.1891783425233608 0.41959730407505369 0 0.2155191856805424 0.45340105006600617 0 0.18721755634425169 0.44696368314257678 0 0.18701759873681581 0.42999129070042302 0 0.20033736904712171 0.43884465013663698 0 0.18721755634425169 0.44696368314257678 0 0.20033736904712171 0.43884465013663698 0 0.2155191856805424 0.45340105006600617 0 0.18721755634425169 0.44696368314257678 0 0.2155191856805424 0.45340105006600617 0 0.19237251552367671 0.47181659344632798 0 0.18721755634425169 0.44696368314257678 0 0.2155191856805424 0.45340105006600617 0 0.21728010406541501 0.47670052503300131 0 0.2155191856805424 0.45340105006600617 0 0.21728010406541501 0.47670052503300131 0 0.19237251552367671 0.47181659344632798 0 0.21382162975797661 0.43093995132195839 0 0.20033736904712171 0.43884465013663698 0 0.2155191856805424 0.45340105006600617 0 0.21382162975797661 0.43093995132195839 0 0.2155191856805424 0.45340105006600617 0 0.2155191856805424 0.45340105006600617 0 0.23109322361529611 0.44491385643714521 0 0.24321563042587269 0.45970076430441198 0 0.21382162975797661 0.43093995132195839 0 0.2155191856805424 0.45340105006600617 0 0.23109322361529611 0.44491385643714521 0 0.2155191856805424 0.45340105006600617 0 0.24321563042587269 0.45970076430441198 0 0.2155191856805424 0.45340105006600617 0 0.24321563042587269 0.45970076430441198 0 0.21728010406541501 0.47670052503300131 0 0.23109322361529611 0.44491385643714521 0 0.24321563042587269 0.45970076430441198 0 0.24705013821693919 0.44389538438841353 0 0.23625155552188981 0.4317338015939341 0 0.23109322361529611 0.44491385643714521 0 0.24705013821693919 0.44389538438841353 0 0.24486527681822409 0.5 0 0.23608036022378501 0.48356324127180977 0 0.25599976735912411 0.48141491702163958 0 0.24321563042587269 0.45970076430441198 0 0.23608036022378501 0.48356324127180977 0 0.25599976735912411 0.48141491702163958 0 0.24321563042587269 0.45970076430441198 0 0.23608036022378501 0.48356324127180977 0 0.21728010406541501 0.47670052503300131 0 0.23608036022378501 0.48356324127180977 0 0.21904102245028861 0.49999999999999628 0 0.21728010406541501 0.47670052503300131 0 0.24486527681822409 0.5 0 0.23608036022378501 0.48356324127180977 0 0.21904102245028861 0.49999999999999628 0 0.21904102245028861 0.49999999999999628 0 0.21728010406541501 0.47670052503300131 0 0.18904895119760989 0.5 0 0.21904102245028861 0.49999999999999628 0 0.21728010406541501 0.47670052503300131 0 0.21728010406541501 0.47670052503300131 0 0.19237251552367671 0.47181659344632798 0 0.18904895119760989 0.5 0 0.18904895119760989 0.5 0 0.1590568799449312 0.5 0 0.1670393765028122 0.47024407252201439 0 0.1590568799449312 0.5 0 0.1670393765028122 0.47024407252201439 0 0.14674866860539351 0.48074944930682573 0 0.19237251552367671 0.47181659344632798 0 0.18904895119760989 0.5 0 0.1670393765028122 0.47024407252201439 0 0.19237251552367671 0.47181659344632798 0 0.1670393765028122 0.47024407252201439 0 0.18721755634425169 0.44696368314257678 0 0.17337392594810269 0.43634489129825571 0 0.18721755634425169 0.44696368314257678 0 0.1589159270079599 0.440526316219152 0 0.17337392594810269 0.43634489129825571 0 0.18701759873681581 0.42999129070042302 0 0.18721755634425169 0.44696368314257678 0 0.18721755634425169 0.44696368314257678 0 0.1589159270079599 0.440526316219152 0 0.1670393765028122 0.47024407252201439 0 0.18721755634425169 0.44696368314257678 0 0.1589159270079599 0.440526316219152 0 0.1670393765028122 0.47024407252201439 0 0.1589159270079599 0.440526316219152 0 0.1471602289498774 0.45866188399780811 0 0.13061429767166841 0.43408894929572728 0 0.1589159270079599 0.440526316219152 0 0.1471602289498774 0.45866188399780811 0 0.13061429767166841 0.43408894929572728 0 0.1471602289498774 0.45866188399780811 0 0.12584050864608501 0.46449047455570119 0 0.1471602289498774 0.45866188399780811 0 0.12584050864608501 0.46449047455570119 0 0.14674866860539351 0.48074944930682573 0 0.12584050864608501 0.46449047455570119 0 0.12906480869225259 0.5 0 0.14674866860539351 0.48074944930682573 0 0.1590568799449312 0.5 0 0.12906480869225259 0.5 0 0.14674866860539351 0.48074944930682573 0 0.1670393765028122 0.47024407252201439 0 0.1471602289498774 0.45866188399780811 0 0.14674866860539351 0.48074944930682573 0 0.34931267556294399 0.47409993966502018 0 0.34475981603279532 0.48687329704695531 0 0.36977026415462172 0.48715934430269919 0 0.34816229428996642 0.49999999999999839 0 0.36977026415462172 0.48715934430269919 0 0.34475981603279532 0.48687329704695531 0 0.34816229428996642 0.49999999999999839 0 0.36977026415462172 0.48715934430269919 0 0.34816229428996642 0.49999999999999839 0 0.37211489106819018 0.5 0 0.36977026415462172 0.48715934430269919 0 0.34931267556294399 0.47409993966502018 0 0.36977026415462172 0.48715934430269919 0 0.36902212901511289 0.47441134840162857 0 0.34931267556294399 0.47409993966502018 0 0.36902212901511289 0.47441134840162857 0 0.36742573622924768 0.46141677017013782 0 0.36742573622924768 0.46141677017013782 0 0.36673153601374447 0.44915207194587081 0 0.34695444035349732 0.44889364319400937 0 0.36742573622924768 0.46141677017013782 0 0.37870360828725308 0.45351975235031339 0 0.36742573622924768 0.46141677017013782 0 0.36673153601374447 0.44915207194587081 0 0.37870360828725308 0.45351975235031339 0 0.36673153601374447 0.44915207194587081 0 0.36479279665188519 0.43790976118416602 0 0.34695444035349732 0.44889364319400937 0 0.37300972060437748 0.44050868499330048 0 0.36673153601374447 0.44915207194587081 0 0.36479279665188519 0.43790976118416602 0 0.37300972060437748 0.44050868499330048 0 0.36673153601374447 0.44915207194587081 0 0.37870360828725308 0.45351975235031339 0 0.36479279665188519 0.43790976118416602 0 0.34695444035349732 0.44889364319400937 0 0.35591988441165412 0.42919355004796789 0 0.34931267556294399 0.47409993966502018 0 0.36742573622924768 0.46141677017013782 0 0.34931267556294399 0.47409993966502018 0 0.34695444035349732 0.44889364319400937 0 0.33628990067602088 0.46984409252713932 0 0.36742573622924768 0.46141677017013782 0 0.34695444035349732 0.44889364319400937 0 0.34931267556294399 0.47409993966502018 0 0.36742573622924768 0.46141677017013782 0 0.34695444035349732 0.44889364319400937 0 0.34695444035349732 0.44889364319400937 0 0.32568915968962209 0.46166507410053598 0 0.33628990067602088 0.46984409252713932 0 0.34695444035349732 0.44889364319400937 0 0.32568915968962209 0.46166507410053598 0 0.32648314447774751 0.4363705162178802 0 0.34695444035349732 0.44889364319400937 0 0.32648314447774751 0.4363705162178802 0 0.32568915968962209 0.46166507410053598 0 0.30299268242594818 0.45124667648210692 0 0.32648314447774751 0.4363705162178802 0 0.32568915968962209 0.46166507410053598 0 0.32630496466186071 0.47859990701964272 0 0.3121903869921423 0.46493915302316202 0 0.32568915968962209 0.46166507410053598 0 0.3121903869921423 0.46493915302316202 0 0.30299268242594818 0.45124667648210692 0 0.32568915968962209 0.46166507410053598 0 0.30299268242594818 0.45124667648210692 0 0.32630496466186071 0.47859990701964272 0 0.3131426878518937 0.48742989752311361 0 0.29860851991653131 0.47230019278123248 0 0.32630496466186071 0.47859990701964272 0 0.33119961489664168 0.48678310915990419 0 0.3131426878518937 0.48742989752311361 0 0.32630496466186071 0.47859990701964272 0 0.33628990067602088 0.46984409252713932 0 0.33119961489664168 0.48678310915990419 0 0.34931267556294399 0.47409993966502018 0 0.34475981603279532 0.48687329704695531 0 0.33119961489664168 0.48678310915990419 0 0.34931267556294399 0.47409993966502018 0 0.33119961489664168 0.48678310915990419 0 0.32568915968962209 0.46166507410053598 0 0.32630496466186071 0.47859990701964272 0 0.33628990067602088 0.46984409252713932 0 0.34931267556294399 0.47409993966502018 0 0.33628990067602088 0.46984409252713932 0 0.33119961489664168 0.48678310915990419 0 0.34816229428996642 0.49999999999999839 0 0.33119961489664168 0.48678310915990419 0 0.32233803992203081 0.5 0 0.34475981603279532 0.48687329704695531 0 0.34816229428996642 0.49999999999999839 0 0.33119961489664168 0.48678310915990419 0 0.33119961489664168 0.48678310915990419 0 0.3131426878518937 0.48742989752311361 0 0.31308655423033949 0.5 0 0.33119961489664168 0.48678310915990419 0 0.32233803992203081 0.5 0 0.31308655423033949 0.5 0 0.33119961489664168 0.48678310915990419 0 0.31308655423033949 0.5 0 0.3131426878518937 0.48742989752311361 0 0.29860851991653131 0.47230019278123248 0 0.29651378555409508 0.5 0 0.3131426878518937 0.48742989752311361 0 0.31308655423033949 0.5 0 0.29651378555409508 0.5 0 0.32630496466186071 0.47859990701964272 0 0.29860851991653131 0.47230019278123248 0 0.32630496466186071 0.47859990701964272 0 0.29860851991653131 0.47230019278123248 0 0.3121903869921423 0.46493915302316202 0 0.29860851991653131 0.47230019278123248 0 0.27800142608966361 0.48355454030760542 0 0.27091207517120203 0.46600047854282223 0 0.29860851991653131 0.47230019278123248 0 0.27091207517120203 0.46600047854282223 0 0.29651378555409508 0.5 0 0.27068953118615963 0.5 0 0.27800142608966361 0.48355454030760542 0 0.29860851991653131 0.47230019278123248 0 0.29651378555409508 0.5 0 0.27800142608966361 0.48355454030760542 0 0.27068953118615963 0.5 0 0.27800142608966361 0.48355454030760542 0 0.25599976735912411 0.48141491702163958 0 0.27800142608966361 0.48355454030760542 0 0.25599976735912411 0.48141491702163958 0 0.27091207517120203 0.46600047854282223 0 0.24321563042587269 0.45970076430441198 0 0.25599976735912411 0.48141491702163958 0 0.27091207517120203 0.46600047854282223 0 0.24486527681822409 0.5 0 0.27068953118615963 0.5 0 0.25599976735912411 0.48141491702163958 0 0.24705013821693919 0.44389538438841353 0 0.26396492510689568 0.44956801496638837 0 0.25868148128580282 0.43252765186590958 0 0.24321563042587269 0.45970076430441198 0 0.24705013821693919 0.44389538438841353 0 0.26396492510689568 0.44956801496638837 0 0.24321563042587269 0.45970076430441198 0 0.27091207517120203 0.46600047854282223 0 0.24321563042587269 0.45970076430441198 0 0.26396492510689568 0.44956801496638837 0 0.27091207517120203 0.46600047854282223 0 0.26396492510689568 0.44956801496638837 0 0.27091207517120203 0.46600047854282223 0 0.28708772790154952 0.45891788005203549 0 0.26396492510689568 0.44956801496638837 0 0.28029620516227438 0.44082827886367781 0 0.25868148128580282 0.43252765186590958 0 0.26396492510689568 0.44956801496638837 0 0.28029620516227438 0.44082827886367781 0 0.28708772790154952 0.45891788005203549 0 0.28029620516227438 0.44082827886367781 0 0.28708772790154952 0.45891788005203549 0 0.30299268242594818 0.45124667648210692 0 0.28029620516227438 0.44082827886367781 0 0.30299268242594818 0.45124667648210692 0 0.28029620516227438 0.44082827886367781 0 0.30299268242594818 0.45124667648210692 0 0.30601184860199748 0.42384738924175103 0 0.29860851991653131 0.47230019278123248 0 0.28708772790154952 0.45891788005203549 0 0.30299268242594818 0.45124667648210692 0 0.29860851991653131 0.47230019278123248 0 0.27091207517120203 0.46600047854282223 0 0.28708772790154952 0.45891788005203549 0 0.29860851991653131 0.47230019278123248 0 0.3121903869921423 0.46493915302316202 0 0.30299268242594818 0.45124667648210692 0 0.30601184860199748 0.42384738924175103 0 0.29361193629862858 0.40951954072786839 0 0.32509371035685553 0.41041345880955599 0 0.30299268242594818 0.45124667648210692 0 0.30601184860199748 0.42384738924175103 0 0.32648314447774751 0.4363705162178802 0 0.30601184860199748 0.42384738924175103 0 0.29361193629862858 0.40951954072786839 0 0.27956737674359627 0.41945583259110431 0 0.28029620516227438 0.44082827886367781 0 0.30601184860199748 0.42384738924175103 0 0.27956737674359627 0.41945583259110431 0 0.28029620516227438 0.44082827886367781 0 0.27046691965176028 0.42723975376773221 0 0.27956737674359627 0.41945583259110431 0 0.28029620516227438 0.44082827886367781 0 0.25759972789860047 0.43040988124524859 0 0.28029620516227438 0.44082827886367781 0 0.27046691965176028 0.42723975376773221 0 0.25759972789860047 0.43040988124524859 0 0.27956737674359627 0.41945583259110431 0 0.26440436880257001 0.41826502237089791 0 0.2698007860958615 0.39679323496289431 0 0.29361193629862858 0.40951954072786839 0 0.27956737674359627 0.41945583259110431 0 0.2698007860958615 0.39679323496289431 0 0.27046691965176028 0.42723975376773221 0 0.27956737674359627 0.41945583259110431 0 0.26440436880257001 0.41826502237089791 0 0.26440436880257001 0.41826502237089791 0 0.25325179627415878 0.41128627675523732 0 0.2698007860958615 0.39679323496289431 0 0.24720975974100981 0.4190374144550702 0 0.25325179627415878 0.41128627675523732 0 0.25478235796826942 0.42000450607386403 0 0.26440436880257001 0.41826502237089791 0 0.25325179627415878 0.41128627675523732 0 0.25478235796826942 0.42000450607386403 0 0.23625155552188981 0.4317338015939341 0 0.25868148128580282 0.43252765186590958 0 0.25759972789860047 0.43040988124524859 0 0.28029620516227438 0.44082827886367781 0 0.25868148128580282 0.43252765186590958 0 0.25759972789860047 0.43040988124524859 0 0.24720975974100981 0.4190374144550702 0 0.25478235796826942 0.42000450607386403 0 0.25759972789860047 0.43040988124524859 0 0.26440436880257001 0.41826502237089791 0 0.25478235796826942 0.42000450607386403 0 0.25759972789860047 0.43040988124524859 0 0.27046691965176028 0.42723975376773221 0 0.26440436880257001 0.41826502237089791 0 0.25759972789860047 0.43040988124524859 0 0.24539956800502899 0.39866474634150911 0 0.2698007860958615 0.39679323496289431 0 0.24539956800502899 0.39866474634150911 0 0.25890012849803817 0.37816803338732891 0 0.2698007860958615 0.39679323496289431 0 0.24539956800502899 0.39866474634150911 0 0.25325179627415878 0.41128627675523732 0 0.2698007860958615 0.39679323496289431 0 0.25890012849803817 0.37816803338732891 0 0.2698007860958615 0.39679323496289431 0 0.28214069675072778 0.37421741236238643 0 0.29361193629862858 0.40951954072786839 0 0.30140778899625759 0.39224905292685802 0 0.32509371035685553 0.41041345880955599 0 0.29361193629862858 0.40951954072786839 0 0.2698007860958615 0.39679323496289431 0 0.30140778899625759 0.39224905292685802 0 0.30140778899625759 0.39224905292685802 0 0.30310314332269028 0.37299463909758268 0 0.28214069675072778 0.37421741236238643 0 0.2698007860958615 0.39679323496289431 0 0.30140778899625759 0.39224905292685802 0 0.28214069675072778 0.37421741236238643 0 0.30140778899625759 0.39224905292685802 0 0.32191468370394072 0.3863774052966813 0 0.30310314332269028 0.37299463909758268 0 0.32191468370394072 0.3863774052966813 0 0.35261247461957912 0.39465005004869452 0 0.33608057034296368 0.37042947025243989 0 0.32191468370394072 0.3863774052966813 0 0.32509371035685553 0.41041345880955599 0 0.35261247461957912 0.39465005004869452 0 0.30140778899625759 0.39224905292685802 0 0.32191468370394072 0.3863774052966813 0 0.32509371035685553 0.41041345880955599 0 0.30601184860199748 0.42384738924175103 0 0.32648314447774751 0.4363705162178802 0 0.30601184860199748 0.42384738924175103 0 0.32509371035685553 0.41041345880955599 0 0.32648314447774751 0.4363705162178802 0 0.32509371035685553 0.41041345880955599 0 0.32648314447774751 0.4363705162178802 0 0.34334436162985532 0.42667011054495368 0 0.34695444035349732 0.44889364319400937 0 0.32648314447774751 0.4363705162178802 0 0.34334436162985532 0.42667011054495368 0 0.32509371035685553 0.41041345880955599 0 0.34334436162985532 0.42667011054495368 0 0.35312565934316092 0.41447490080246929 0 0.32509371035685553 0.41041345880955599 0 0.35312565934316092 0.41447490080246929 0 0.35261247461957912 0.39465005004869452 0 0.35312565934316092 0.41447490080246929 0 0.36914437889619461 0.41887062984494888 0 0.35261247461957912 0.39465005004869452 0 0.34695444035349732 0.44889364319400937 0 0.34334436162985532 0.42667011054495368 0 0.35591988441165412 0.42919355004796789 0 0.34334436162985532 0.42667011054495368 0 0.35312565934316092 0.41447490080246929 0 0.35591988441165412 0.42919355004796789 0 0.37300972060437748 0.44050868499330048 0 0.36479279665188519 0.43790976118416602 0 0.36914437889619461 0.41887062984494888 0 0.36479279665188519 0.43790976118416602 0 0.35591988441165412 0.42919355004796789 0 0.36914437889619461 0.41887062984494888 0 0.36914437889619461 0.41887062984494888 0 0.35261247461957912 0.39465005004869452 0 0.35312565934316092 0.41447490080246929 0 0.35591988441165412 0.42919355004796789 0 0.36914437889619461 0.41887062984494888 0 0.37490269056938769 0.40434126925534009 0 0.37250635489082268 0.38567392525442867 0 0.35261247461957912 0.39465005004869452 0 0.36914437889619461 0.41887062984494888 0 0.37490269056938769 0.40434126925534009 0 0.35261247461957912 0.39465005004869452 0 0.37250635489082268 0.38567392525442867 0 0.35261247461957912 0.39465005004869452 0 0.36093647105117599 0.36855718999799281 0 0.35261247461957912 0.39465005004869452 0 0.36093647105117599 0.36855718999799281 0 0.33608057034296368 0.37042947025243989 0 0.35261247461957912 0.39465005004869452 0 0.33608057034296368 0.37042947025243989 0 0.35939867093710348 0.346593733040028 0 0.34511806004660039 0.34114377596284812 0 0.33997503822242209 0.35447913294921668 0 0.36093647105117599 0.36855718999799281 0 0.35939867093710348 0.346593733040028 0 0.33997503822242209 0.35447913294921668 0 0.36093647105117599 0.36855718999799281 0 0.33997503822242209 0.35447913294921668 0 0.33608057034296368 0.37042947025243989 0 0.37250635489082268 0.38567392525442867 0 0.36093647105117599 0.36855718999799281 0 0.38551078182135501 0.36894563734371061 0 0.36093647105117599 0.36855718999799281 0 0.35939867093710348 0.346593733040028 0 0.38059575220855552 0.34783290808706607 0 0.35939867093710348 0.346593733040028 0 0.35360905292158212 0.32846727328257658 0 0.37546307952493813 0.32989923702002499 0 0.35939867093710348 0.346593733040028 0 0.37546307952493813 0.32989923702002499 0 0.38059575220855552 0.34783290808706607 0 0.36940045771707369 0.3153407596791995 0 0.35360905292158212 0.32846727328257658 0 0.37546307952493813 0.32989923702002499 0 0.35360905292158212 0.32846727328257658 0 0.33487763205515891 0.32399738740787498 0 0.35420975782647418 0.31123214153555462 0 0.36940045771707369 0.3153407596791995 0 0.35360905292158212 0.32846727328257658 0 0.35420975782647418 0.31123214153555462 0 0.33487763205515891 0.32399738740787498 0 0.35420975782647418 0.31123214153555462 0 0.35939867093710348 0.346593733040028 0 0.35360905292158212 0.32846727328257658 0 0.34511806004660039 0.34114377596284812 0 0.35360905292158212 0.32846727328257658 0 0.34511806004660039 0.34114377596284812 0 0.33921167841520128 0.33362746363520068 0 0.34511806004660039 0.34114377596284812 0 0.33921167841520128 0.33362746363520068 0 0.33398120453426028 0.34157484077119232 0 0.35360905292158212 0.32846727328257658 0 0.33921167841520128 0.33362746363520068 0 0.33487763205515891 0.32399738740787498 0 0.33921167841520128 0.33362746363520068 0 0.32847244251840457 0.33295404075151191 0 0.33487763205515891 0.32399738740787498 0 0.32847244251840457 0.33295404075151191 0 0.33398120453426028 0.34157484077119232 0 0.32599236503320211 0.33864969905370618 0 0.33398120453426028 0.34157484077119232 0 0.32599236503320211 0.33864969905370618 0 0.32605495915305938 0.34686404441634039 0 0.33921167841520128 0.33362746363520068 0 0.32847244251840457 0.33295404075151191 0 0.33398120453426028 0.34157484077119232 0 0.33487763205515891 0.32399738740787498 0 0.32224316146620818 0.3138468339977904 0 0.33961957423130751 0.30814597186035458 0 0.33487763205515891 0.32399738740787498 0 0.33961957423130751 0.30814597186035458 0 0.35420975782647418 0.31123214153555462 0 0.32847244251840457 0.33295404075151191 0 0.33487763205515891 0.32399738740787498 0 0.32188058107132511 0.32477461534642332 0 0.32224316146620818 0.3138468339977904 0 0.32188058107132511 0.32477461534642332 0 0.3048667487011073 0.3195476961352211 0 0.32224316146620818 0.3138468339977904 0 0.3048667487011073 0.3195476961352211 0 0.32188058107132511 0.32477461534642332 0 0.31546085392708412 0.3332058702757803 0 0.3048667487011073 0.3195476961352211 0 0.33487763205515891 0.32399738740787498 0 0.32224316146620818 0.3138468339977904 0 0.32188058107132511 0.32477461534642332 0 0.31546085392708412 0.3332058702757803 0 0.32176149129782627 0.34531374187134051 0 0.30043467086829012 0.33589611610314229 0 0.31546085392708412 0.3332058702757803 0 0.32605495915305938 0.34686404441634039 0 0.31546085392708412 0.3332058702757803 0 0.32605495915305938 0.34686404441634039 0 0.32176149129782627 0.34531374187134051 0 0.32599236503320211 0.33864969905370618 0 0.31546085392708412 0.3332058702757803 0 0.32605495915305938 0.34686404441634039 0 0.32847244251840457 0.33295404075151191 0 0.32188058107132511 0.32477461534642332 0 0.31546085392708412 0.3332058702757803 0 0.32847244251840457 0.33295404075151191 0 0.32599236503320211 0.33864969905370618 0 0.31546085392708412 0.3332058702757803 0 0.32605495915305938 0.34686404441634039 0 0.32176149129782627 0.34531374187134051 0 0.32004352634628108 0.36110000698685218 0 0.33398120453426028 0.34157484077119232 0 0.32605495915305938 0.34686404441634039 0 0.33997503822242209 0.35447913294921668 0 0.32605495915305938 0.34686404441634039 0 0.33997503822242209 0.35447913294921668 0 0.32004352634628108 0.36110000698685218 0 0.34511806004660039 0.34114377596284812 0 0.33398120453426028 0.34157484077119232 0 0.33997503822242209 0.35447913294921668 0 0.33997503822242209 0.35447913294921668 0 0.33608057034296368 0.37042947025243989 0 0.32004352634628108 0.36110000698685218 0 0.32191468370394072 0.3863774052966813 0 0.33608057034296368 0.37042947025243989 0 0.32004352634628108 0.36110000698685218 0 0.32191468370394072 0.3863774052966813 0 0.32004352634628108 0.36110000698685218 0 0.30310314332269028 0.37299463909758268 0 0.32004352634628108 0.36110000698685218 0 0.30310314332269028 0.37299463909758268 0 0.2945557257924894 0.34995943868537099 0 0.32176149129782627 0.34531374187134051 0 0.32004352634628108 0.36110000698685218 0 0.2945557257924894 0.34995943868537099 0 0.32176149129782627 0.34531374187134051 0 0.2945557257924894 0.34995943868537099 0 0.30310314332269028 0.37299463909758268 0 0.2945557257924894 0.34995943868537099 0 0.28214069675072778 0.37421741236238643 0 0.2945557257924894 0.34995943868537099 0 0.28214069675072778 0.37421741236238643 0 0.26734996028715258 0.35460513549940148 0 0.25890012849803817 0.37816803338732891 0 0.28214069675072778 0.37421741236238643 0 0.26734996028715258 0.35460513549940148 0 0.2945557257924894 0.34995943868537099 0 0.26734996028715258 0.35460513549940148 0 0.28025077182897712 0.34151809631674779 0 0.2945557257924894 0.34995943868537099 0 0.26734996028715258 0.35460513549940148 0 0.24740380358454761 0.33840016773273029 0 0.24014419478181559 0.35925083231343208 0 0.26734996028715258 0.35460513549940148 0 0.24014419478181559 0.35925083231343208 0 0.26734996028715258 0.35460513549940148 0 0.25890012849803817 0.37816803338732891 0 0.26734996028715258 0.35460513549940148 0 0.25178567317021261 0.36745573613020038 0 0.2407484091138441 0.37779894332063929 0 0.25890012849803817 0.37816803338732891 0 0.25178567317021261 0.36745573613020038 0 0.24014419478181559 0.35925083231343208 0 0.26734996028715258 0.35460513549940148 0 0.25178567317021261 0.36745573613020038 0 0.24888145734431999 0.31848746205969769 0 0.26012110654609172 0.32521160054957882 0 0.27283840950763372 0.3120230333664254 0 0.24740380358454761 0.33840016773273029 0 0.24888145734431999 0.31848746205969769 0 0.26012110654609172 0.32521160054957882 0 0.24740380358454761 0.33840016773273029 0 0.26734996028715258 0.35460513549940148 0 0.26655811862340162 0.33211601053356282 0 0.24740380358454761 0.33840016773273029 0 0.26655811862340162 0.33211601053356282 0 0.24740380358454761 0.33840016773273029 0 0.26012110654609172 0.32521160054957882 0 0.26655811862340162 0.33211601053356282 0 0.24740380358454761 0.33840016773273029 0 0.26012110654609172 0.32521160054957882 0 0.26734996028715258 0.35460513549940148 0 0.26655811862340162 0.33211601053356282 0 0.28025077182897712 0.34151809631674779 0 0.26655811862340162 0.33211601053356282 0 0.28025077182897712 0.34151809631674779 0 0.28571243366225518 0.32583185333439452 0 0.26655811862340162 0.33211601053356282 0 0.28571243366225518 0.32583185333439452 0 0.26655811862340162 0.33211601053356282 0 0.27216941427286562 0.32190847581664361 0 0.28571243366225518 0.32583185333439452 0 0.27216941427286562 0.32190847581664361 0 0.27561700302494341 0.31435988129925391 0 0.28571243366225518 0.32583185333439452 0 0.26012110654609172 0.32521160054957882 0 0.26655811862340162 0.33211601053356282 0 0.27216941427286562 0.32190847581664361 0 0.26012110654609172 0.32521160054957882 0 0.27216941427286562 0.32190847581664361 0 0.27283840950763372 0.3120230333664254 0 0.26012110654609172 0.32521160054957882 0 0.27283840950763372 0.3120230333664254 0 0.27561700302494341 0.31435988129925391 0 0.27283840950763372 0.3120230333664254 0 0.27216941427286562 0.32190847581664361 0 0.27561700302494341 0.31435988129925391 0 0.27283840950763372 0.3120230333664254 0 0.28571243366225518 0.32583185333439452 0 0.3048667487011073 0.3195476961352211 0 0.28735387038550209 0.29696967405266389 0 0.28571243366225518 0.32583185333439452 0 0.3048667487011073 0.3195476961352211 0 0.28025077182897712 0.34151809631674779 0 0.28571243366225518 0.32583185333439452 0 0.30043467086829012 0.33589611610314229 0 0.2945557257924894 0.34995943868537099 0 0.28025077182897712 0.34151809631674779 0 0.30043467086829012 0.33589611610314229 0 0.31546085392708412 0.3332058702757803 0 0.30043467086829012 0.33589611610314229 0 0.3048667487011073 0.3195476961352211 0 0.32176149129782627 0.34531374187134051 0 0.2945557257924894 0.34995943868537099 0 0.30043467086829012 0.33589611610314229 0 0.28571243366225518 0.32583185333439452 0 0.30043467086829012 0.33589611610314229 0 0.3048667487011073 0.3195476961352211 0 0.31546085392708412 0.3332058702757803 0 0.3048667487011073 0.3195476961352211 0 0.3048667487011073 0.3195476961352211 0 0.31194150268723581 0.29791045809994632 0 0.28735387038550209 0.29696967405266389 0 0.31194150268723581 0.29791045809994632 0 0.30133709239404222 0.28246827674741631 0 0.28735387038550209 0.29696967405266389 0 0.31194150268723581 0.29791045809994632 0 0.30133709239404222 0.28246827674741631 0 0.31659304382209968 0.2804603040635148 0 0.30133709239404222 0.28246827674741631 0 0.28735387038550209 0.29696967405266389 0 0.28626856871358131 0.27726073845961008 0 0.28735387038550209 0.29696967405266389 0 0.27028542760318358 0.27496462890194079 0 0.28626856871358131 0.27726073845961008 0 0.30133709239404222 0.28246827674741631 0 0.28735387038550209 0.29696967405266389 0 0.27561700302494341 0.31435988129925391 0 0.28571243366225518 0.32583185333439452 0 0.28735387038550209 0.29696967405266389 0 0.3048667487011073 0.3195476961352211 0 0.28735387038550209 0.29696967405266389 0 0.28735387038550209 0.29696967405266389 0 0.27283840950763372 0.3120230333664254 0 0.26947334473292361 0.29336914952385851 0 0.27283840950763372 0.3120230333664254 0 0.26947334473292361 0.29336914952385851 0 0.25696784818633739 0.29867560122657999 0 0.27561700302494341 0.31435988129925391 0 0.28735387038550209 0.29696967405266389 0 0.27283840950763372 0.3120230333664254 0 0.28735387038550209 0.29696967405266389 0 0.27283840950763372 0.3120230333664254 0 0.28735387038550209 0.29696967405266389 0 0.26947334473292361 0.29336914952385851 0 0.27028542760318358 0.27496462890194079 0 0.28735387038550209 0.29696967405266389 0 0.27028542760318358 0.27496462890194079 0 0.26947334473292361 0.29336914952385851 0 0.25992116798195852 0.28421281007168009 0 0.27028542760318358 0.27496462890194079 0 0.24109728686504089 0.2853281690867347 0 0.25992116798195852 0.28421281007168009 0 0.25696784818633739 0.29867560122657999 0 0.26947334473292361 0.29336914952385851 0 0.25992116798195852 0.28421281007168009 0 0.25696784818633739 0.29867560122657999 0 0.24888145734431999 0.31848746205969769 0 0.27283840950763372 0.3120230333664254 0 0.25696784818633739 0.29867560122657999 0 0.27283840950763372 0.3120230333664254 0 0.25696784818633739 0.29867560122657999 0 0.25321698482086541 0.25295958375121741 0 0.27028542760318358 0.27496462890194079 0 0.26684468358470043 0.25984780857278322 0 0.25321698482086541 0.25295958375121741 0 0.27028542760318358 0.27496462890194079 0 0.25321698482086541 0.25295958375121741 0 0.26684468358470043 0.25984780857278322 0 0.25321698482086541 0.25295958375121741 0 0.26684468358470043 0.25984780857278322 0 0.26675927747739331 0.24741283168244069 0 0.25992116798195852 0.28421281007168009 0 0.25261778294400189 0.27239725678663151 0 0.27028542760318358 0.27496462890194079 0 0.24109728686504089 0.2853281690867347 0 0.25992116798195852 0.28421281007168009 0 0.25261778294400189 0.27239725678663151 0 0.25321698482086541 0.25295958375121741 0 0.25261778294400189 0.27239725678663151 0 0.27028542760318358 0.27496462890194079 0 0.27028542760318358 0.27496462890194079 0 0.28047238234853511 0.26673603339434993 0 0.28626856871358131 0.27726073845961008 0 0.27028542760318358 0.27496462890194079 0 0.28047238234853511 0.26673603339434993 0 0.26684468358470043 0.25984780857278322 0 0.28047238234853511 0.26673603339434993 0 0.26684468358470043 0.25984780857278322 0 0.28047238234853511 0.26673603339434993 0 0.26684468358470043 0.25984780857278322 0 0.28217840869235811 0.25442822584669311 0 0.26684468358470043 0.25984780857278322 0 0.28217840869235811 0.25442822584669311 0 0.26675927747739331 0.24741283168244069 0 0.28047238234853511 0.26673603339434993 0 0.28217840869235811 0.25442822584669311 0 0.29186248737819881 0.26714986575845973 0 0.28217840869235811 0.25442822584669311 0 0.29186248737819881 0.26714986575845973 0 0.29757912437605699 0.2554521359306926 0 0.28217840869235811 0.25442822584669311 0 0.29757912437605699 0.2554521359306926 0 0.29083441102829299 0.24434218095300511 0 0.28047238234853511 0.26673603339434993 0 0.28626856871358131 0.27726073845961008 0 0.29186248737819881 0.26714986575845973 0 0.30133709239404222 0.28246827674741631 0 0.28626856871358131 0.27726073845961008 0 0.29186248737819881 0.26714986575845973 0 0.30133709239404222 0.28246827674741631 0 0.29186248737819881 0.26714986575845973 0 0.30333934774461951 0.2665537841719966 0 0.30133709239404222 0.28246827674741631 0 0.30333934774461951 0.2665537841719966 0 0.31532031440258268 0.26796687944216918 0 0.30133709239404222 0.28246827674741631 0 0.31532031440258268 0.26796687944216918 0 0.30133709239404222 0.28246827674741631 0 0.31532031440258268 0.26796687944216918 0 0.31659304382209968 0.2804603040635148 0 0.29757912437605699 0.2554521359306926 0 0.30871439535155509 0.25543664114475428 0 0.30286340174419868 0.24626474298914081 0 0.29186248737819881 0.26714986575845973 0 0.30333934774461951 0.2665537841719966 0 0.29757912437605699 0.2554521359306926 0 0.30333934774461951 0.2665537841719966 0 0.29757912437605699 0.2554521359306926 0 0.30871439535155509 0.25543664114475428 0 0.30333934774461951 0.2665537841719966 0 0.30871439535155509 0.25543664114475428 0 0.31532031440258268 0.26796687944216918 0 0.32930353641112109 0.25346548213692011 0 0.32602161740920699 0.27194296396583478 0 0.31532031440258268 0.26796687944216918 0 0.30871439535155509 0.25543664114475428 0 0.31794923488099891 0.2525020912825206 0 0.31376076247406098 0.24378268527317501 0 0.32930353641112109 0.25346548213692011 0 0.32602161740920699 0.27194296396583478 0 0.30871439535155509 0.25543664114475428 0 0.31794923488099891 0.2525020912825206 0 0.31532031440258268 0.26796687944216918 0 0.31794923488099891 0.2525020912825206 0 0.32930353641112109 0.25346548213692011 0 0.31532031440258268 0.26796687944216918 0 0.32930353641112109 0.25346548213692011 0 0.31532031440258268 0.26796687944216918 0 0.32930353641112109 0.25346548213692011 0 0.34256096072931808 0.25896699889921287 0 0.34614201286697138 0.25050728860627069 0 0.32930353641112109 0.25346548213692011 0 0.33770824129702343 0.26500943190488357 0 0.32602161740920699 0.27194296396583478 0 0.32930353641112109 0.25346548213692011 0 0.34256096072931808 0.25896699889921287 0 0.33770824129702343 0.26500943190488357 0 0.34256096072931808 0.25896699889921287 0 0.33770824129702343 0.26500943190488357 0 0.34981330717403342 0.26629747527739639 0 0.33539374706373409 0.27739080052567272 0 0.34068587103111048 0.29328368568549829 0 0.34981330717403342 0.26629747527739639 0 0.33770824129702343 0.26500943190488357 0 0.33539374706373409 0.27739080052567272 0 0.34981330717403342 0.26629747527739639 0 0.33770824129702343 0.26500943190488357 0 0.33539374706373409 0.27739080052567272 0 0.32602161740920699 0.27194296396583478 0 0.32602161740920699 0.27194296396583478 0 0.32273969840729649 0.29042044579475013 0 0.32602161740920699 0.27194296396583478 0 0.31659304382209968 0.2804603040635148 0 0.32273969840729649 0.29042044579475013 0 0.33539374706373409 0.27739080052567272 0 0.32602161740920699 0.27194296396583478 0 0.32273969840729649 0.29042044579475013 0 0.32602161740920699 0.27194296396583478 0 0.31532031440258268 0.26796687944216918 0 0.31659304382209968 0.2804603040635148 0 0.31194150268723581 0.29791045809994632 0 0.32273969840729649 0.29042044579475013 0 0.32790194194348599 0.30185338592646649 0 0.31194150268723581 0.29791045809994632 0 0.31659304382209968 0.2804603040635148 0 0.32273969840729649 0.29042044579475013 0 0.32224316146620818 0.3138468339977904 0 0.3048667487011073 0.3195476961352211 0 0.31194150268723581 0.29791045809994632 0 0.32224316146620818 0.3138468339977904 0 0.31194150268723581 0.29791045809994632 0 0.32790194194348599 0.30185338592646649 0 0.32224316146620818 0.3138468339977904 0 0.33961957423130751 0.30814597186035458 0 0.32224316146620818 0.3138468339977904 0 0.32790194194348599 0.30185338592646649 0 0.33961957423130751 0.30814597186035458 0 0.32790194194348599 0.30185338592646649 0 0.33961957423130751 0.30814597186035458 0 0.34068587103111048 0.29328368568549829 0 0.32273969840729649 0.29042044579475013 0 0.32790194194348599 0.30185338592646649 0 0.34068587103111048 0.29328368568549829 0 0.33539374706373409 0.27739080052567272 0 0.32273969840729649 0.29042044579475013 0 0.34068587103111048 0.29328368568549829 0 0.34068587103111048 0.29328368568549829 0 0.35393780993287027 0.29736780132271678 0 0.35951568570594472 0.28411513396344368 0 0.33961957423130751 0.30814597186035458 0 0.35393780993287027 0.29736780132271678 0 0.35420975782647418 0.31123214153555462 0 0.33961957423130751 0.30814597186035458 0 0.34068587103111048 0.29328368568549829 0 0.35393780993287027 0.29736780132271678 0 0.36940045771707369 0.3153407596791995 0 0.35420975782647418 0.31123214153555462 0 0.3735418835977895 0.29846689566323431 0 0.35393780993287027 0.29736780132271678 0 0.35420975782647418 0.31123214153555462 0 0.3735418835977895 0.29846689566323431 0 0.35420975782647418 0.31123214153555462 0 0.3735418835977895 0.29846689566323431 0 0.3735418835977895 0.29846689566323431 0 0.35951568570594472 0.28411513396344368 0 0.37759020419745859 0.28150351172271648 0 0.35393780993287027 0.29736780132271678 0 0.3735418835977895 0.29846689566323431 0 0.35951568570594472 0.28411513396344368 0 0.35951568570594472 0.28411513396344368 0 0.37061091649616229 0.26851045149112912 0 0.37759020419745859 0.28150351172271648 0 0.37061091649616229 0.26851045149112912 0 0.34981330717403342 0.26629747527739639 0 0.35951568570594472 0.28411513396344368 0 0.37061091649616229 0.26851045149112912 0 0.34981330717403342 0.26629747527739639 0 0.37061091649616229 0.26851045149112912 0 0.3631217799134272 0.25542279642149918 0 0.3733668161430263 0.24684862113690181 0 0.37061091649616229 0.26851045149112912 0 0.3631217799134272 0.25542279642149918 0 0.34981330717403342 0.26629747527739639 0 0.34256096072931808 0.25896699889921287 0 0.34614201286697138 0.25050728860627069 0 0.34981330717403342 0.26629747527739639 0 0.3631217799134272 0.25542279642149918 0 0.34981330717403342 0.26629747527739639 0 0.35869607984048679 0.24003463778056941 0 0.34614201286697138 0.25050728860627069 0 0.34981330717403342 0.26629747527739639 0 0.35869607984048679 0.24003463778056941 0 0.34981330717403342 0.26629747527739639 0 0.35869607984048679 0.24003463778056941 0 0.33770824129702343 0.26500943190488357 0 0.34981330717403342 0.26629747527739639 0 0.34068587103111048 0.29328368568549829 0 0.35951568570594472 0.28411513396344368 0 0.34981330717403342 0.26629747527739639 0 0.34068587103111048 0.29328368568549829 0 0.34981330717403342 0.26629747527739639 0 0.39140852581829128 0.27072342770486141 0 0.39287400936910488 0.28570164979091389 0 0.41220613514042032 0.27293640391859347 0 0.39287400936910488 0.28570164979091389 0 0.41220613514042032 0.27293640391859347 0 0.39287400936910488 0.28570164979091389 0 0.41220613514042032 0.27293640391859347 0 0.40691264271084099 0.27980608372236132 0 0.39140852581829128 0.27072342770486141 0 0.41220613514042032 0.27293640391859347 0 0.39140852581829128 0.27072342770486141 0 0.40203099816612281 0.26345147229087679 0 0.41220613514042032 0.27293640391859347 0 0.40351641397187349 0.25231503434502822 0 0.38698106173791119 0.25698267351373583 0 0.388263139716159 0.24099291944990239 0 0.40203099816612281 0.26345147229087679 0 0.40351641397187349 0.25231503434502822 0 0.38698106173791119 0.25698267351373583 0 0.39140852581829128 0.27072342770486141 0 0.40203099816612281 0.26345147229087679 0 0.38698106173791119 0.25698267351373583 0 0.37061091649616229 0.26851045149112912 0 0.38698106173791119 0.25698267351373583 0 0.3733668161430263 0.24684862113690181 0 0.37061091649616229 0.26851045149112912 0 0.39140852581829128 0.27072342770486141 0 0.38698106173791119 0.25698267351373583 0 0.37061091649616229 0.26851045149112912 0 0.39140852581829128 0.27072342770486141 0 0.37759020419745859 0.28150351172271648 0 0.37061091649616229 0.26851045149112912 0 0.39140852581829128 0.27072342770486141 0 0.39140852581829128 0.27072342770486141 0 0.37759020419745859 0.28150351172271648 0 0.39287400936910488 0.28570164979091389 0 0.3735418835977895 0.29846689566323431 0 0.37759020419745859 0.28150351172271648 0 0.39287400936910488 0.28570164979091389 0 0.3735418835977895 0.29846689566323431 0 0.39369580953588151 0.29811743334305429 0 0.39287400936910488 0.28570164979091389 0 0.3735418835977895 0.29846689566323431 0 0.39287400936910488 0.28570164979091389 0 0.3735418835977895 0.29846689566323431 0 0.39369580953588151 0.29811743334305429 0 0.39030565507553738 0.31307987959129219 0 0.36940045771707369 0.3153407596791995 0 0.3735418835977895 0.29846689566323431 0 0.39030565507553738 0.31307987959129219 0 0.39369580953588151 0.29811743334305429 0 0.40805502216294559 0.30070011927914819 0 0.39030565507553738 0.31307987959129219 0 0.39369580953588151 0.29811743334305429 0 0.39287400936910488 0.28570164979091389 0 0.40322008330900672 0.29034820997254712 0 0.39369580953588151 0.29811743334305429 0 0.40322008330900672 0.29034820997254712 0 0.40805502216294559 0.30070011927914819 0 0.39287400936910488 0.28570164979091389 0 0.40322008330900672 0.29034820997254712 0 0.40691264271084099 0.27980608372236132 0 0.41456293276626038 0.28741576372725769 0 0.40805502216294559 0.30070011927914819 0 0.42626705218176708 0.29644218553942608 0 0.40322008330900672 0.29034820997254712 0 0.41456293276626038 0.28741576372725769 0 0.40691264271084099 0.27980608372236132 0 0.40322008330900672 0.29034820997254712 0 0.41456293276626038 0.28741576372725769 0 0.40805502216294559 0.30070011927914819 0 0.41456293276626038 0.28741576372725769 0 0.42784495686995949 0.28465299735711652 0 0.41552815146644079 0.27328988411899813 0 0.40805502216294559 0.30070011927914819 0 0.42626705218176708 0.29644218553942608 0 0.42852891282251132 0.313252859876197 0 0.42626705218176708 0.29644218553942608 0 0.43949866169398971 0.30337475707758532 0 0.42852891282251132 0.313252859876197 0 0.43949866169398971 0.30337475707758532 0 0.44363491376206948 0.3189938886587953 0 0.42852891282251132 0.313252859876197 0 0.41456293276626038 0.28741576372725769 0 0.42784495686995949 0.28465299735711652 0 0.42626705218176708 0.29644218553942608 0 0.42784495686995949 0.28465299735711652 0 0.42626705218176708 0.29644218553942608 0 0.43809596950008389 0.29024558311934162 0 0.42626705218176708 0.29644218553942608 0 0.43809596950008389 0.29024558311934162 0 0.43949866169398971 0.30337475707758532 0 0.42784495686995949 0.28465299735711652 0 0.44163739756982928 0.27606804672847879 0 0.43809596950008389 0.29024558311934162 0 0.43235741797735128 0.25963025832969078 0 0.44163739756982928 0.27606804672847879 0 0.41552815146644079 0.27328988411899813 0 0.44163739756982928 0.27606804672847879 0 0.41552815146644079 0.27328988411899813 0 0.43235741797735128 0.25963025832969078 0 0.42784495686995949 0.28465299735711652 0 0.41552815146644079 0.27328988411899813 0 0.44163739756982928 0.27606804672847879 0 0.41552815146644079 0.27328988411899813 0 0.43235741797735128 0.25963025832969078 0 0.44163739756982928 0.27606804672847879 0 0.41220613514042032 0.27293640391859347 0 0.43235741797735128 0.25963025832969078 0 0.41552815146644079 0.27328988411899813 0 0.41220613514042032 0.27293640391859347 0 0.43235741797735128 0.25963025832969078 0 0.41552815146644079 0.27328988411899813 0 0.41220613514042032 0.27293640391859347 0 0.41456293276626038 0.28741576372725769 0 0.41552815146644079 0.27328988411899813 0 0.40691264271084099 0.27980608372236132 0 0.41552815146644079 0.27328988411899813 0 0.41220613514042032 0.27293640391859347 0 0.40691264271084099 0.27980608372236132 0 0.41552815146644079 0.27328988411899813 0 0.40691264271084099 0.27980608372236132 0 0.40351641397187349 0.25231503434502822 0 0.41531614816013079 0.25857660700725921 0 0.42149351039601568 0.240386830881789 0 0.41220613514042032 0.27293640391859347 0 0.41531614816013079 0.25857660700725921 0 0.43235741797735128 0.25963025832969078 0 0.40203099816612281 0.26345147229087679 0 0.41220613514042032 0.27293640391859347 0 0.41531614816013079 0.25857660700725921 0 0.40203099816612281 0.26345147229087679 0 0.40351641397187349 0.25231503434502822 0 0.41531614816013079 0.25857660700725921 0 0.41531614816013079 0.25857660700725921 0 0.43235741797735128 0.25963025832969078 0 0.42149351039601568 0.240386830881789 0 0.43235741797735128 0.25963025832969078 0 0.44205408084550751 0.25322742984009622 0 0.43235741797735128 0.25963025832969078 0 0.44205408084550751 0.25322742984009622 0 0.43580054548076502 0.24640930265761921 0 0.44205408084550751 0.25322742984009622 0 0.44139463992916611 0.26089701060875192 0 0.44739097032692271 0.26226549710480818 0 0.43235741797735128 0.25963025832969078 0 0.44205408084550751 0.25322742984009622 0 0.44139463992916611 0.26089701060875192 0 0.43235741797735128 0.25963025832969078 0 0.44139463992916611 0.26089701060875192 0 0.44311289724187802 0.267205858215257 0 0.44139463992916611 0.26089701060875192 0 0.44739097032692271 0.26226549710480818 0 0.44311289724187802 0.267205858215257 0 0.44739097032692271 0.26226549710480818 0 0.44991821412273991 0.26768724880112249 0 0.45490099758153191 0.26446212858682411 0 0.44739097032692271 0.26226549710480818 0 0.45337175819210851 0.25774189561117078 0 0.45490099758153191 0.26446212858682411 0 0.44205408084550751 0.25322742984009622 0 0.44739097032692271 0.26226549710480818 0 0.45337175819210851 0.25774189561117078 0 0.44205408084550751 0.25322742984009622 0 0.45629013458137141 0.25130954486438128 0 0.45337175819210851 0.25774189561117078 0 0.44163739756982928 0.27606804672847879 0 0.44594917708690218 0.27445963546657592 0 0.46519253883958123 0.2785744390033616 0 0.43235741797735128 0.25963025832969078 0 0.44163739756982928 0.27606804672847879 0 0.44311289724187802 0.267205858215257 0 0.44163739756982928 0.27606804672847879 0 0.44311289724187802 0.267205858215257 0 0.44594917708690218 0.27445963546657592 0 0.44991821412273991 0.26768724880112249 0 0.44594917708690218 0.27445963546657592 0 0.45823702837646479 0.2700431246321473 0 0.44739097032692271 0.26226549710480818 0 0.44311289724187802 0.267205858215257 0 0.44991821412273991 0.26768724880112249 0 0.44311289724187802 0.267205858215257 0 0.44991821412273991 0.26768724880112249 0 0.44594917708690218 0.27445963546657592 0 0.44594917708690218 0.27445963546657592 0 0.47297458854345159 0.27590864769700191 0 0.44594917708690218 0.27445963546657592 0 0.45823702837646479 0.2700431246321473 0 0.47297458854345159 0.27590864769700191 0 0.44163739756982928 0.27606804672847879 0 0.46519253883958123 0.2785744390033616 0 0.46170544020990811 0.28908981169177911 0 0.44594917708690218 0.27445963546657592 0 0.46519253883958123 0.2785744390033616 0 0.47297458854345159 0.27590864769700191 0 0.44163739756982928 0.27606804672847879 0 0.46519253883958123 0.2785744390033616 0 0.44991821412273991 0.26768724880112249 0 0.45823702837646479 0.2700431246321473 0 0.45490099758153191 0.26446212858682411 0 0.45823702837646479 0.2700431246321473 0 0.46003610968232461 0.26613968854455983 0 0.45490099758153191 0.26446212858682411 0 0.45823702837646479 0.2700431246321473 0 0.46003610968232461 0.26613968854455983 0 0.46633312358729689 0.2682313929863957 0 0.45823702837646479 0.2700431246321473 0 0.46633312358729689 0.2682313929863957 0 0.47297458854345159 0.27590864769700191 0 0.46015984119162812 0.25535009382955809 0 0.45629013458137141 0.25130954486438128 0 0.46501638559879183 0.25090558385571898 0 0.46015984119162812 0.25535009382955809 0 0.45629013458137141 0.25130954486438128 0 0.45337175819210851 0.25774189561117078 0 0.45337175819210851 0.25774189561117078 0 0.45490099758153191 0.26446212858682411 0 0.46022954774886782 0.26086648417481229 0 0.46003610968232461 0.26613968854455983 0 0.45490099758153191 0.26446212858682411 0 0.46022954774886782 0.26086648417481229 0 0.46015984119162812 0.25535009382955809 0 0.45337175819210851 0.25774189561117078 0 0.46022954774886782 0.26086648417481229 0 0.46633312358729689 0.2682313929863957 0 0.46022954774886782 0.26086648417481229 0 0.46748142608335652 0.25798657010861742 0 0.46015984119162812 0.25535009382955809 0 0.46022954774886782 0.26086648417481229 0 0.46748142608335652 0.25798657010861742 0 0.46003610968232461 0.26613968854455983 0 0.46633312358729689 0.2682313929863957 0 0.46022954774886782 0.26086648417481229 0 0.46015984119162812 0.25535009382955809 0 0.46748142608335652 0.25798657010861742 0 0.46501638559879183 0.25090558385571898 0 0.46748142608335652 0.25798657010861742 0 0.46501638559879183 0.25090558385571898 0 0.47935613519704268 0.25170707736490938 0 0.46748142608335652 0.25798657010861742 0 0.47935613519704268 0.25170707736490938 0 0.47458854629968977 0.26188859317376473 0 0.47935613519704268 0.25170707736490938 0 0.48319634067776313 0.26128575765330692 0 0.47458854629968977 0.26188859317376473 0 0.48319634067776313 0.26128575765330692 0 0.47458854629968977 0.26188859317376473 0 0.47711871049375221 0.26787709055870268 0 0.46633312358729689 0.2682313929863957 0 0.46748142608335652 0.25798657010861742 0 0.47458854629968977 0.26188859317376473 0 0.46633312358729689 0.2682313929863957 0 0.47458854629968977 0.26188859317376473 0 0.47711871049375221 0.26787709055870268 0 0.46633312358729689 0.2682313929863957 0 0.47297458854345159 0.27590864769700191 0 0.47711871049375221 0.26787709055870268 0 0.46519253883958123 0.2785744390033616 0 0.47297458854345159 0.27590864769700191 0 0.4723959141895907 0.28655682754512879 0 0.47297458854345159 0.27590864769700191 0 0.47711871049375221 0.26787709055870268 0 0.48687183479193291 0.26946111926199512 0 0.48319634067776313 0.26128575765330692 0 0.47711871049375221 0.26787709055870268 0 0.48687183479193291 0.26946111926199512 0 0.50000000000000111 0.27735765992742789 0 0.48687183479193291 0.26946111926199512 0 0.5 0.25656011007850232 0 0.47297458854345159 0.27590864769700191 0 0.50000000000000111 0.27735765992742789 0 0.48687183479193291 0.26946111926199512 0 0.47297458854345159 0.27590864769700191 0 0.50000000000000111 0.27735765992742789 0 0.47297458854345159 0.27590864769700191 0 0.50000000000000111 0.27735765992742789 0 0.48489439246601701 0.28753072570103949 0 0.48319634067776313 0.26128575765330692 0 0.48687183479193291 0.26946111926199512 0 0.5 0.25656011007850232 0 0.47935613519704268 0.25170707736490938 0 0.48319634067776313 0.26128575765330692 0 0.5 0.25656011007850232 0 0.5 0.30094400386356529 0 0.47657895139250528 0.29912228078815112 0 0.48095693614227991 0.31781210300003948 0 0.50000000000000111 0.27735765992742789 0 0.5 0.30094400386356529 0 0.48489439246601701 0.28753072570103949 0 0.5 0.30094400386356529 0 0.48489439246601701 0.28753072570103949 0 0.47657895139250528 0.29912228078815112 0 0.48489439246601701 0.28753072570103949 0 0.4723959141895907 0.28655682754512879 0 0.47657895139250528 0.29912228078815112 0 0.47297458854345159 0.27590864769700191 0 0.48489439246601701 0.28753072570103949 0 0.4723959141895907 0.28655682754512879 0 0.4723959141895907 0.28655682754512879 0 0.47657895139250528 0.29912228078815112 0 0.46170544020990811 0.28908981169177911 0 0.47657895139250528 0.29912228078815112 0 0.45926640158602738 0.30820500981021859 0 0.48095693614227991 0.31781210300003948 0 0.45926640158602738 0.30820500981021859 0 0.46170544020990811 0.28908981169177911 0 0.45190289375572612 0.29425149771894121 0 0.47657895139250528 0.29912228078815112 0 0.45926640158602738 0.30820500981021859 0 0.46170544020990811 0.28908981169177911 0 0.46519253883958123 0.2785744390033616 0 0.4723959141895907 0.28655682754512879 0 0.46170544020990811 0.28908981169177911 0 0.44163739756982928 0.27606804672847879 0 0.46170544020990811 0.28908981169177911 0 0.45190289375572612 0.29425149771894121 0 0.44163739756982928 0.27606804672847879 0 0.45190289375572612 0.29425149771894121 0 0.44163739756982928 0.27606804672847879 0 0.45190289375572612 0.29425149771894121 0 0.43809596950008389 0.29024558311934162 0 0.45190289375572612 0.29425149771894121 0 0.43809596950008389 0.29024558311934162 0 0.43949866169398971 0.30337475707758532 0 0.45926640158602738 0.30820500981021859 0 0.43949866169398971 0.30337475707758532 0 0.44363491376206948 0.3189938886587953 0 0.45926640158602738 0.30820500981021859 0 0.45190289375572612 0.29425149771894121 0 0.43949866169398971 0.30337475707758532 0 0.46183563218729901 0.3348618651691968 0 0.44863871722339432 0.35288315561359113 0 0.43748588947154171 0.33396242126952391 0 0.44363491376206948 0.3189938886587953 0 0.46183563218729901 0.3348618651691968 0 0.43748588947154171 0.33396242126952391 0 0.45926640158602738 0.30820500981021859 0 0.46183563218729901 0.3348618651691968 0 0.48095693614227991 0.31781210300003948 0 0.45926640158602738 0.30820500981021859 0 0.44363491376206948 0.3189938886587953 0 0.46183563218729901 0.3348618651691968 0 0.46183563218729901 0.3348618651691968 0 0.48412124573748538 0.33488771643334703 0 0.47781366035784822 0.34911757446195502 0 0.46183563218729901 0.3348618651691968 0 0.48095693614227991 0.31781210300003948 0 0.48412124573748538 0.33488771643334703 0 0.48412124573748538 0.33488771643334703 0 0.5 0.32453034779970291 0 0.5 0.34811669173584042 0 0.5 0.30094400386356529 0 0.48095693614227991 0.31781210300003948 0 0.5 0.32453034779970291 0 0.48095693614227991 0.31781210300003948 0 0.48412124573748538 0.33488771643334703 0 0.5 0.32453034779970291 0 0.49999999999999961 0.37170303567197771 0 0.47934939912753149 0.37139980226696201 0 0.49999999999999961 0.37170303567197771 0 0.48911943060237528 0.35974186968923688 0 0.47934939912753149 0.37139980226696201 0 0.49999999999999961 0.37170303567197771 0 0.48911943060237528 0.35974186968923688 0 0.5 0.34811669173584042 0 0.48911943060237528 0.35974186968923688 0 0.5 0.34811669173584042 0 0.47781366035784822 0.34911757446195502 0 0.48412124573748538 0.33488771643334703 0 0.5 0.34811669173584042 0 0.47781366035784822 0.34911757446195502 0 0.47781366035784822 0.34911757446195502 0 0.47934939912753149 0.37139980226696201 0 0.46411226480292411 0.35629649175047939 0 0.47934939912753149 0.37139980226696201 0 0.45869879825506338 0.37109656886194631 0 0.48911943060237528 0.35974186968923688 0 0.47781366035784822 0.34911757446195502 0 0.47934939912753149 0.37139980226696201 0 0.47934939912753149 0.37139980226696201 0 0.45869879825506338 0.37109656886194631 0 0.46411226480292411 0.35629649175047939 0 0.45869879825506338 0.37109656886194631 0 0.46411226480292411 0.35629649175047939 0 0.44863871722339432 0.35288315561359113 0 0.46183563218729901 0.3348618651691968 0 0.47781366035784822 0.34911757446195502 0 0.46411226480292411 0.35629649175047939 0 0.46183563218729901 0.3348618651691968 0 0.46411226480292411 0.35629649175047939 0 0.44863871722339432 0.35288315561359113 0 0.44863871722339432 0.35288315561359113 0 0.43804819738259537 0.37079333545693061 0 0.4278316939927107 0.3529210607175392 0 0.44863871722339432 0.35288315561359113 0 0.4278316939927107 0.3529210607175392 0 0.43748588947154171 0.33396242126952391 0 0.45869879825506338 0.37109656886194631 0 0.44863871722339432 0.35288315561359113 0 0.43804819738259537 0.37079333545693061 0 0.45869879825506338 0.37109656886194631 0 0.43804819738259537 0.37079333545693061 0 0.44966719500723717 0.37814751694667698 0 0.45869879825506338 0.37109656886194631 0 0.43804819738259537 0.37079333545693061 0 0.4278316939927107 0.3529210607175392 0 0.43943145032266689 0.37979833400237473 0 0.42300948895718088 0.36871380824780259 0 0.4278316939927107 0.3529210607175392 0 0.43943145032266689 0.37979833400237473 0 0.43804819738259537 0.37079333545693061 0 0.4278316939927107 0.3529210607175392 0 0.43943145032266689 0.37979833400237473 0 0.42300948895718088 0.36871380824780259 0 0.40531836477579009 0.35589563886034947 0 0.41265692431941142 0.37541198482424842 0 0.4278316939927107 0.3529210607175392 0 0.4162319376627544 0.32604378743270362 0 0.40531836477579009 0.35589563886034947 0 0.42300948895718088 0.36871380824780259 0 0.4278316939927107 0.3529210607175392 0 0.40531836477579009 0.35589563886034947 0 0.4278316939927107 0.3529210607175392 0 0.4162319376627544 0.32604378743270362 0 0.4278316939927107 0.3529210607175392 0 0.43748588947154171 0.33396242126952391 0 0.4162319376627544 0.32604378743270362 0 0.43748588947154171 0.33396242126952391 0 0.42852891282251132 0.313252859876197 0 0.4162319376627544 0.32604378743270362 0 0.44363491376206948 0.3189938886587953 0 0.43748588947154171 0.33396242126952391 0 0.42852891282251132 0.313252859876197 0 0.40805502216294559 0.30070011927914819 0 0.42852891282251132 0.313252859876197 0 0.4162319376627544 0.32604378743270362 0 0.4162319376627544 0.32604378743270362 0 0.39454281558746368 0.33437144943511149 0 0.40531836477579009 0.35589563886034947 0 0.4162319376627544 0.32604378743270362 0 0.39454281558746368 0.33437144943511149 0 0.39030565507553738 0.31307987959129219 0 0.40805502216294559 0.30070011927914819 0 0.4162319376627544 0.32604378743270362 0 0.39030565507553738 0.31307987959129219 0 0.36940045771707369 0.3153407596791995 0 0.39030565507553738 0.31307987959129219 0 0.37546307952493813 0.32989923702002499 0 0.39454281558746368 0.33437144943511149 0 0.39030565507553738 0.31307987959129219 0 0.37546307952493813 0.32989923702002499 0 0.39454281558746368 0.33437144943511149 0 0.37546307952493813 0.32989923702002499 0 0.38059575220855552 0.34783290808706607 0 0.38059575220855552 0.34783290808706607 0 0.38551078182135501 0.36894563734371061 0 0.40531836477579009 0.35589563886034947 0 0.36093647105117599 0.36855718999799281 0 0.38059575220855552 0.34783290808706607 0 0.38551078182135501 0.36894563734371061 0 0.40531836477579009 0.35589563886034947 0 0.39865389766461251 0.37619691783820408 0 0.41265692431941142 0.37541198482424842 0 0.38551078182135501 0.36894563734371061 0 0.40531836477579009 0.35589563886034947 0 0.39865389766461251 0.37619691783820408 0 0.39454281558746368 0.33437144943511149 0 0.38059575220855552 0.34783290808706607 0 0.40531836477579009 0.35589563886034947 0 0.40001769026618123 0.40353543741539211 0 0.38856935639261592 0.39187547962640551 0 0.38839463482966269 0.40990283338614752 0 0.40001769026618123 0.40353543741539211 0 0.40365332970103818 0.39006353980045588 0 0.38856935639261592 0.39187547962640551 0 0.40001769026618123 0.40353543741539211 0 0.40365332970103818 0.39006353980045588 0 0.41307168142920042 0.40408747867356831 0 0.38551078182135501 0.36894563734371061 0 0.39865389766461251 0.37619691783820408 0 0.38856935639261592 0.39187547962640551 0 0.40365332970103818 0.39006353980045588 0 0.39865389766461251 0.37619691783820408 0 0.38856935639261592 0.39187547962640551 0 0.40365332970103818 0.39006353980045588 0 0.39865389766461251 0.37619691783820408 0 0.41265692431941142 0.37541198482424842 0 0.37250635489082268 0.38567392525442867 0 0.38551078182135501 0.36894563734371061 0 0.38856935639261592 0.39187547962640551 0 0.37490269056938769 0.40434126925534009 0 0.38856935639261592 0.39187547962640551 0 0.38839463482966269 0.40990283338614752 0 0.37490269056938769 0.40434126925534009 0 0.37250635489082268 0.38567392525442867 0 0.38856935639261592 0.39187547962640551 0 0.36914437889619461 0.41887062984494888 0 0.37490269056938769 0.40434126925534009 0 0.38153187321637372 0.42039380690686168 0 0.37490269056938769 0.40434126925534009 0 0.38153187321637372 0.42039380690686168 0 0.38839463482966269 0.40990283338614752 0 0.38153187321637372 0.42039380690686168 0 0.38839463482966269 0.40990283338614752 0 0.39277886968658349 0.41937298704388809 0 0.37300972060437748 0.44050868499330048 0 0.36914437889619461 0.41887062984494888 0 0.38567628317281022 0.44309120964120341 0 0.36914437889619461 0.41887062984494888 0 0.38567628317281022 0.44309120964120341 0 0.38153187321637372 0.42039380690686168 0 0.38567628317281022 0.44309120964120341 0 0.36914437889619461 0.41887062984494888 0 0.38153187321637372 0.42039380690686168 0 0.38567628317281022 0.44309120964120341 0 0.38153187321637372 0.42039380690686168 0 0.39397639173110921 0.42979186250475782 0 0.38567628317281022 0.44309120964120341 0 0.38153187321637372 0.42039380690686168 0 0.39397639173110921 0.42979186250475782 0 0.39277886968658349 0.41937298704388809 0 0.39397639173110921 0.42979186250475782 0 0.39277886968658349 0.41937298704388809 0 0.40465771553200408 0.42112298534930809 0 0.39397639173110921 0.42979186250475782 0 0.40465771553200408 0.42112298534930809 0 0.40784658985427402 0.43217230004971102 0 0.39397639173110921 0.42979186250475782 0 0.40784658985427402 0.43217230004971102 0 0.40454504324378637 0.44446890736622963 0 0.40001769026618123 0.40353543741539211 0 0.38839463482966269 0.40990283338614752 0 0.39862624317102568 0.41316104594515929 0 0.38839463482966269 0.40990283338614752 0 0.39277886968658349 0.41937298704388809 0 0.39862624317102568 0.41316104594515929 0 0.39277886968658349 0.41937298704388809 0 0.40465771553200408 0.42112298534930809 0 0.39862624317102568 0.41316104594515929 0 0.40465771553200408 0.42112298534930809 0 0.39862624317102568 0.41316104594515929 0 0.40676197948302178 0.41144964825119579 0 0.40001769026618123 0.40353543741539211 0 0.39862624317102568 0.41316104594515929 0 0.40676197948302178 0.41144964825119579 0 0.40001769026618123 0.40353543741539211 0 0.40676197948302178 0.41144964825119579 0 0.41307168142920042 0.40408747867356831 0 0.40676197948302178 0.41144964825119579 0 0.41575098987211367 0.41558989862644902 0 0.41307168142920042 0.40408747867356831 0 0.40465771553200408 0.42112298534930809 0 0.40676197948302178 0.41144964825119579 0 0.41575098987211367 0.41558989862644902 0 0.40465771553200408 0.42112298534930809 0 0.41575098987211367 0.41558989862644902 0 0.41658074592072958 0.42527423522239172 0 0.41575098987211367 0.41558989862644902 0 0.42179439334165131 0.41069835789940301 0 0.42518105112735199 0.41919479852939889 0 0.41575098987211367 0.41558989862644902 0 0.41658074592072958 0.42527423522239172 0 0.42518105112735199 0.41919479852939889 0 0.41575098987211367 0.41558989862644902 0 0.42179439334165131 0.41069835789940301 0 0.41307168142920042 0.40408747867356831 0 0.40784658985427402 0.43217230004971102 0 0.41951919308944963 0.43573443499357922 0 0.40454504324378637 0.44446890736622963 0 0.40465771553200408 0.42112298534930809 0 0.40784658985427402 0.43217230004971102 0 0.41658074592072958 0.42527423522239172 0 0.41658074592072958 0.42527423522239172 0 0.41951919308944963 0.43573443499357922 0 0.42652893604918429 0.42783099378590428 0 0.40784658985427402 0.43217230004971102 0 0.41658074592072958 0.42527423522239172 0 0.41951919308944963 0.43573443499357922 0 0.41951919308944963 0.43573443499357922 0 0.42652893604918429 0.42783099378590428 0 0.43342150583882261 0.43389723568348382 0 0.42652893604918429 0.42783099378590428 0 0.43596212919798671 0.42201941171744289 0 0.42518105112735199 0.41919479852939889 0 0.41658074592072958 0.42527423522239172 0 0.42652893604918429 0.42783099378590428 0 0.42518105112735199 0.41919479852939889 0 0.42652893604918429 0.42783099378590428 0 0.43596212919798671 0.42201941171744289 0 0.43342150583882261 0.43389723568348382 0 0.43596212919798671 0.42201941171744289 0 0.43342150583882261 0.43389723568348382 0 0.4428035772288465 0.43070838819415908 0 0.42179439334165131 0.41069835789940301 0 0.42518105112735199 0.41919479852939889 0 0.43108934297038598 0.41114524133815872 0 0.42179439334165131 0.41069835789940301 0 0.43108934297038598 0.41114524133815872 0 0.42387890130920469 0.40347437232944028 0 0.43596212919798671 0.42201941171744289 0 0.42518105112735199 0.41919479852939889 0 0.43108934297038598 0.41114524133815872 0 0.43596212919798671 0.42201941171744289 0 0.43108934297038598 0.41114524133815872 0 0.44059024416573689 0.41114153422253508 0 0.43108934297038598 0.41114524133815872 0 0.43691895249960749 0.4028908185825445 0 0.44059024416573689 0.41114153422253508 0 0.43691895249960749 0.4028908185825445 0 0.43036510716577359 0.40250888547778052 0 0.42998282880037181 0.39501612759606941 0 0.43108934297038598 0.41114524133815872 0 0.43691895249960749 0.4028908185825445 0 0.43036510716577359 0.40250888547778052 0 0.43691895249960749 0.4028908185825445 0 0.42998282880037181 0.39501612759606941 0 0.43816162353060623 0.39330136792187548 0 0.42998282880037181 0.39501612759606941 0 0.43353528459466623 0.38770811459927562 0 0.43816162353060623 0.39330136792187548 0 0.42998282880037181 0.39501612759606941 0 0.42387890130920469 0.40347437232944028 0 0.41800278918276051 0.3918905279874878 0 0.43036510716577359 0.40250888547778052 0 0.42998282880037181 0.39501612759606941 0 0.42387890130920469 0.40347437232944028 0 0.43108934297038598 0.41114524133815872 0 0.43036510716577359 0.40250888547778052 0 0.42387890130920469 0.40347437232944028 0 0.42179439334165131 0.41069835789940301 0 0.42387890130920469 0.40347437232944028 0 0.41307168142920042 0.40408747867356831 0 0.42387890130920469 0.40347437232944028 0 0.41800278918276051 0.3918905279874878 0 0.41307168142920042 0.40408747867356831 0 0.40365332970103818 0.39006353980045588 0 0.41800278918276051 0.3918905279874878 0 0.41307168142920042 0.40408747867356831 0 0.40365332970103818 0.39006353980045588 0 0.41800278918276051 0.3918905279874878 0 0.41265692431941142 0.37541198482424842 0 0.41800278918276051 0.3918905279874878 0 0.41265692431941142 0.37541198482424842 0 0.42656523572501981 0.38271662887678298 0 0.42300948895718088 0.36871380824780259 0 0.41265692431941142 0.37541198482424842 0 0.42656523572501981 0.38271662887678298 0 0.42300948895718088 0.36871380824780259 0 0.42656523572501981 0.38271662887678298 0 0.43943145032266689 0.37979833400237473 0 0.42998282880037181 0.39501612759606941 0 0.41800278918276051 0.3918905279874878 0 0.42656523572501981 0.38271662887678298 0 0.42998282880037181 0.39501612759606941 0 0.42656523572501981 0.38271662887678298 0 0.43353528459466623 0.38770811459927562 0 0.42656523572501981 0.38271662887678298 0 0.43353528459466623 0.38770811459927562 0 0.43943145032266689 0.37979833400237473 0 0.43353528459466623 0.38770811459927562 0 0.43943145032266689 0.37979833400237473 0 0.43816162353060623 0.39330136792187548 0 0.43943145032266689 0.37979833400237473 0 0.45484433623503362 0.39686174755854381 0 0.45624643394269088 0.38661262301412658 0 0.43943145032266689 0.37979833400237473 0 0.44966719500723717 0.37814751694667698 0 0.45624643394269088 0.38661262301412658 0 0.43804819738259537 0.37079333545693061 0 0.43943145032266689 0.37979833400237473 0 0.44966719500723717 0.37814751694667698 0 0.43943145032266689 0.37979833400237473 0 0.44771677716080982 0.39899589189485057 0 0.49999999999999961 0.37170303567197771 0 0.48554470224717278 0.40537751044203191 0 0.5 0.44395727570011811 0 0.43943145032266689 0.37979833400237473 0 0.43816162353060623 0.39330136792187548 0 0.44771677716080982 0.39899589189485057 0 0.43943145032266689 0.37979833400237473 0 0.44771677716080982 0.39899589189485057 0 0.45484433623503362 0.39686174755854381 0 0.43691895249960749 0.4028908185825445 0 0.44771677716080982 0.39899589189485057 0 0.44059024416573689 0.41114153422253508 0 0.43691895249960749 0.4028908185825445 0 0.43816162353060623 0.39330136792187548 0 0.44771677716080982 0.39899589189485057 0 0.44771677716080982 0.39899589189485057 0 0.45484433623503362 0.39686174755854381 0 0.4510312066526232 0.40667560728721031 0 0.44771677716080982 0.39899589189485057 0 0.4510312066526232 0.40667560728721031 0 0.46615693999655827 0.40028249376855762 0 0.45624643394269088 0.38661262301412658 0 0.47257464556858181 0.38691896784086333 0 0.45484433623503362 0.39686174755854381 0 0.46615693999655827 0.40028249376855762 0 0.46135565026062803 0.41093967972044948 0 0.45484433623503362 0.39686174755854381 0 0.46135565026062803 0.41093967972044948 0 0.4510312066526232 0.40667560728721031 0 0.45484433623503362 0.39686174755854381 0 0.46615693999655827 0.40028249376855762 0 0.45624643394269088 0.38661262301412658 0 0.45869879825506338 0.37109656886194631 0 0.45624643394269088 0.38661262301412658 0 0.47257464556858181 0.38691896784086333 0 0.45869879825506338 0.37109656886194631 0 0.44966719500723717 0.37814751694667698 0 0.45624643394269088 0.38661262301412658 0 0.47934939912753149 0.37139980226696201 0 0.45869879825506338 0.37109656886194631 0 0.47257464556858181 0.38691896784086333 0 0.49999999999999961 0.37170303567197771 0 0.48436718673582152 0.38384982905545872 0 0.48554470224717278 0.40537751044203191 0 0.47934939912753149 0.37139980226696201 0 0.48436718673582152 0.38384982905545872 0 0.47257464556858181 0.38691896784086333 0 0.46615693999655827 0.40028249376855762 0 0.47257464556858181 0.38691896784086333 0 0.48554470224717278 0.40537751044203191 0 0.48436718673582152 0.38384982905545872 0 0.47257464556858181 0.38691896784086333 0 0.48554470224717278 0.40537751044203191 0 0.49999999999999961 0.37170303567197771 0 0.47934939912753149 0.37139980226696201 0 0.48436718673582152 0.38384982905545872 0 0.48554470224717278 0.40537751044203191 0 0.47895071038905263 0.42855667160153832 0 0.5 0.44395727570011811 0 0.48554470224717278 0.40537751044203191 0 0.47142346147241532 0.4158059541943615 0 0.47895071038905263 0.42855667160153832 0 0.46615693999655827 0.40028249376855762 0 0.48554470224717278 0.40537751044203191 0 0.47142346147241532 0.4158059541943615 0 0.47895071038905263 0.42855667160153832 0 0.46263096298257939 0.43355288057204588 0 0.4770925236757213 0.44283183318766067 0 0.47142346147241532 0.4158059541943615 0 0.47895071038905263 0.42855667160153832 0 0.46263096298257939 0.43355288057204588 0 0.46263096298257939 0.43355288057204588 0 0.45153822220259582 0.42016544303234438 0 0.45556780176769002 0.44124516698652821 0 0.45153822220259582 0.42016544303234438 0 0.45556780176769002 0.44124516698652821 0 0.46263096298257939 0.43355288057204588 0 0.4510312066526232 0.40667560728721031 0 0.45153822220259582 0.42016544303234438 0 0.46263096298257939 0.43355288057204588 0 0.4510312066526232 0.40667560728721031 0 0.47142346147241532 0.4158059541943615 0 0.46263096298257939 0.43355288057204588 0 0.46135565026062803 0.41093967972044948 0 0.46263096298257939 0.43355288057204588 0 0.46135565026062803 0.41093967972044948 0 0.4510312066526232 0.40667560728721031 0 0.46615693999655827 0.40028249376855762 0 0.47142346147241532 0.4158059541943615 0 0.46135565026062803 0.41093967972044948 0 0.44771677716080982 0.39899589189485057 0 0.45153822220259582 0.42016544303234438 0 0.44771677716080982 0.39899589189485057 0 0.4510312066526232 0.40667560728721031 0 0.45153822220259582 0.42016544303234438 0 0.44771677716080982 0.39899589189485057 0 0.45153822220259582 0.42016544303234438 0 0.44059024416573689 0.41114153422253508 0 0.43596212919798671 0.42201941171744289 0 0.45153822220259582 0.42016544303234438 0 0.44059024416573689 0.41114153422253508 0 0.45153822220259582 0.42016544303234438 0 0.44960952010386668 0.4397144245256861 0 0.45556780176769002 0.44124516698652821 0 0.45153822220259582 0.42016544303234438 0 0.4428035772288465 0.43070838819415908 0 0.44960952010386668 0.4397144245256861 0 0.4428035772288465 0.43070838819415908 0 0.44960952010386668 0.4397144245256861 0 0.44807249684708589 0.44062780910381522 0 0.4428035772288465 0.43070838819415908 0 0.44807249684708589 0.44062780910381522 0 0.43596212919798671 0.42201941171744289 0 0.45153822220259582 0.42016544303234438 0 0.4428035772288465 0.43070838819415908 0 0.43342150583882261 0.43389723568348382 0 0.4428035772288465 0.43070838819415908 0 0.44807249684708589 0.44062780910381522 0 0.44960952010386668 0.4397144245256861 0 0.44807249684708589 0.44062780910381522 0 0.45556780176769002 0.44124516698652821 0 0.44960952010386668 0.4397144245256861 0 0.44807249684708589 0.44062780910381522 0 0.44807249684708589 0.44062780910381522 0 0.43863461834792628 0.4648905186258972 0 0.45959738133278338 0.46232489094071222 0 0.43863461834792628 0.4648905186258972 0 0.45959738133278338 0.46232489094071222 0 0.4509337002326726 0.47480356967782139 0 0.45959738133278338 0.46232489094071222 0 0.47423071931253591 0.46043015385688169 0 0.46960336469862352 0.48116244547035741 0 0.45959738133278338 0.46232489094071222 0 0.45556780176769002 0.44124516698652821 0 0.47423071931253591 0.46043015385688169 0 0.46263096298257939 0.43355288057204588 0 0.47423071931253591 0.46043015385688169 0 0.46263096298257939 0.43355288057204588 0 0.45556780176769002 0.44124516698652821 0 0.47423071931253591 0.46043015385688169 0 0.44807249684708589 0.44062780910381522 0 0.45959738133278338 0.46232489094071222 0 0.45556780176769002 0.44124516698652821 0 0.44807249684708589 0.44062780910381522 0 0.45959738133278338 0.46232489094071222 0 0.45959738133278338 0.46232489094071222 0 0.45556780176769002 0.44124516698652821 0 0.47423071931253591 0.46043015385688169 0 0.5 0.44395727570011811 0 0.5 0.5 0 0.4770925236757213 0.44283183318766067 0 0.47423071931253591 0.46043015385688169 0 0.5 0.44395727570011811 0 0.46263096298257939 0.43355288057204588 0 0.4770925236757213 0.44283183318766067 0 0.47423071931253591 0.46043015385688169 0 0.47895071038905263 0.42855667160153832 0 0.4770925236757213 0.44283183318766067 0 0.5 0.44395727570011811 0 0.47423071931253591 0.46043015385688169 0 0.5 0.5 0 0.46960336469862352 0.48116244547035741 0 0.46960336469862352 0.48116244547035741 0 0.47960934806446498 0.50000000000000178 0 0.5 0.5 0 0.46960336469862352 0.48116244547035741 0 0.47960934806446498 0.50000000000000178 0 0.46960336469862352 0.48116244547035741 0 0.47960934806446498 0.50000000000000178 0 0.46679931860236062 0.50000000000000155 0 0.46679931860236062 0.50000000000000155 0 0.44898800702947911 0.5 0 0.45188777937574781 0.48771399671149018 0 0.46679931860236062 0.50000000000000155 0 0.46319834996757231 0.48116244547035691 0 0.45188777937574781 0.48771399671149018 0 0.46960336469862352 0.48116244547035741 0 0.46679931860236062 0.50000000000000155 0 0.46319834996757231 0.48116244547035691 0 0.46679931860236062 0.50000000000000155 0 0.46319834996757231 0.48116244547035691 0 0.45959738133278338 0.46232489094071222 0 0.46960336469862352 0.48116244547035741 0 0.45959738133278338 0.46232489094071222 0 0.46319834996757231 0.48116244547035691 0 0.4509337002326726 0.47480356967782139 0 0.45959738133278338 0.46232489094071222 0 0.46319834996757231 0.48116244547035691 0 0.45959738133278338 0.46232489094071222 0 0.46960336469862352 0.48116244547035741 0 0.46319834996757231 0.48116244547035691 0 0.46319834996757231 0.48116244547035691 0 0.4509337002326726 0.47480356967782139 0 0.45188777937574781 0.48771399671149018 0 0.43863461834792628 0.4648905186258972 0 0.4509337002326726 0.47480356967782139 0 0.44008235124303863 0.48077671902236008 0 0.4509337002326726 0.47480356967782139 0 0.44008235124303863 0.48077671902236008 0 0.45188777937574781 0.48771399671149018 0 0.44898800702947911 0.5 0 0.44069093873121717 0.49096660728925579 0 0.43117669545659748 0.50000000000000178 0 0.44898800702947911 0.5 0 0.45188777937574781 0.48771399671149018 0 0.44069093873121717 0.49096660728925579 0 0.44008235124303863 0.48077671902236008 0 0.45188777937574781 0.48771399671149018 0 0.44069093873121717 0.49096660728925579 0 0.43117669545659748 0.50000000000000178 0 0.42451972468510318 0.50000000000000133 0 0.41906935908974619 0.48347845870218081 0 0.43117669545659748 0.50000000000000178 0 0.43166858740565672 0.48701609523957801 0 0.41906935908974619 0.48347845870218081 0 0.43117669545659748 0.50000000000000178 0 0.41906935908974619 0.48347845870218081 0 0.44069093873121717 0.49096660728925579 0 0.43117669545659748 0.50000000000000178 0 0.43166858740565672 0.48701609523957801 0 0.44008235124303863 0.48077671902236008 0 0.44069093873121717 0.49096660728925579 0 0.43166858740565672 0.48701609523957801 0 0.42451972468510318 0.50000000000000133 0 0.41350262679205008 0.48385905857081168 0 0.42451972468510318 0.50000000000000133 0 0.41350262679205008 0.48385905857081168 0 0.41906935908974619 0.48347845870218081 0 0.42451972468510318 0.50000000000000133 0 0.41350262679205008 0.48385905857081168 0 0.39606748784641399 0.4999999999999995 0 0.41906935908974619 0.48347845870218081 0 0.40696202272289572 0.46695691740435902 0 0.41350262679205008 0.48385905857081168 0 0.40248552889899641 0.46771811714162248 0 0.41350262679205008 0.48385905857081168 0 0.40696202272289572 0.46695691740435902 0 0.40248552889899641 0.46771811714162248 0 0.41350262679205008 0.48385905857081168 0 0.41906935908974619 0.48347845870218081 0 0.40696202272289572 0.46695691740435902 0 0.41906935908974619 0.48347845870218081 0 0.41633304724977599 0.47281410227165999 0 0.40696202272289572 0.46695691740435902 0 0.41906935908974619 0.48347845870218081 0 0.42093513003083882 0.47496190796976501 0 0.41633304724977599 0.47281410227165999 0 0.41633304724977599 0.47281410227165999 0 0.42210854751339821 0.46842682964411769 0 0.40696202272289572 0.46695691740435902 0 0.42093513003083882 0.47496190796976501 0 0.41633304724977599 0.47281410227165999 0 0.42210854751339821 0.46842682964411769 0 0.43863461834792628 0.4648905186258972 0 0.44008235124303863 0.48077671902236008 0 0.42856886024404373 0.47673305665721522 0 0.43863461834792628 0.4648905186258972 0 0.42856886024404373 0.47673305665721522 0 0.42210854751339821 0.46842682964411769 0 0.42093513003083882 0.47496190796976501 0 0.42856886024404373 0.47673305665721522 0 0.42210854751339821 0.46842682964411769 0 0.43166858740565672 0.48701609523957801 0 0.41906935908974619 0.48347845870218081 0 0.42856886024404373 0.47673305665721522 0 0.41906935908974619 0.48347845870218081 0 0.42093513003083882 0.47496190796976501 0 0.42856886024404373 0.47673305665721522 0 0.44008235124303863 0.48077671902236008 0 0.43166858740565672 0.48701609523957801 0 0.42856886024404373 0.47673305665721522 0 0.44807249684708589 0.44062780910381522 0 0.43863461834792628 0.4648905186258972 0 0.42527901287304132 0.45417296312271899 0 0.43863461834792628 0.4648905186258972 0 0.42527901287304132 0.45417296312271899 0 0.42210854751339821 0.46842682964411769 0 0.44807249684708589 0.44062780910381522 0 0.42527901287304132 0.45417296312271899 0 0.43342150583882261 0.43389723568348382 0 0.44807249684708589 0.44062780910381522 0 0.42527901287304132 0.45417296312271899 0 0.41951919308944963 0.43573443499357922 0 0.43342150583882261 0.43389723568348382 0 0.42527901287304132 0.45417296312271899 0 0.41951919308944963 0.43573443499357922 0 0.42527901287304132 0.45417296312271899 0 0.40454504324378637 0.44446890736622963 0 0.42527901287304132 0.45417296312271899 0 0.40248552889899641 0.46771811714162248 0 0.42527901287304132 0.45417296312271899 0 0.40248552889899641 0.46771811714162248 0 0.40454504324378637 0.44446890736622963 0 0.42527901287304132 0.45417296312271899 0 0.40696202272289572 0.46695691740435902 0 0.40248552889899641 0.46771811714162248 0 0.42527901287304132 0.45417296312271899 0 0.42210854751339821 0.46842682964411769 0 0.40696202272289572 0.46695691740435902 0 0.40248552889899641 0.46771811714162248 0 0.38567628317281022 0.44309120964120341 0 0.38852725859604281 0.45870494912330212 0 0.40248552889899641 0.46771811714162248 0 0.38567628317281022 0.44309120964120341 0 0.40248552889899641 0.46771811714162248 0 0.38852725859604281 0.45870494912330212 0 0.39137823401927729 0.47431868860540038 0 0.40248552889899641 0.46771811714162248 0 0.40454504324378637 0.44446890736622963 0 0.38567628317281022 0.44309120964120341 0 0.39397639173110921 0.42979186250475782 0 0.40454504324378637 0.44446890736622963 0 0.38567628317281022 0.44309120964120341 0 0.38567628317281022 0.44309120964120341 0 0.38852725859604281 0.45870494912330212 0 0.38567628317281022 0.44309120964120341 0 0.38852725859604281 0.45870494912330212 0 0.37870360828725308 0.45351975235031339 0 0.37300972060437748 0.44050868499330048 0 0.38567628317281022 0.44309120964120341 0 0.37870360828725308 0.45351975235031339 0 0.36742573622924768 0.46141677017013782 0 0.38976343631756782 0.47527829107792868 0 0.36742573622924768 0.46141677017013782 0 0.38852725859604281 0.45870494912330212 0 0.38976343631756782 0.47527829107792868 0 0.36742573622924768 0.46141677017013782 0 0.38852725859604281 0.45870494912330212 0 0.37870360828725308 0.45351975235031339 0 0.38852725859604281 0.45870494912330212 0 0.39137823401927729 0.47431868860540038 0 0.36902212901511289 0.47441134840162857 0 0.36742573622924768 0.46141677017013782 0 0.38976343631756782 0.47527829107792868 0 0.36977026415462172 0.48715934430269919 0 0.38976343631756782 0.47527829107792868 0 0.38852725859604281 0.45870494912330212 0 0.38976343631756782 0.47527829107792868 0 0.39137823401927729 0.47431868860540038 0 0.36977026415462172 0.48715934430269919 0 0.36902212901511289 0.47441134840162857 0 0.38976343631756782 0.47527829107792868 0 0.38976343631756782 0.47527829107792868 0 0.3836334452400032 0.49096814527954979 0 0.39137823401927729 0.47431868860540038 0 0.38976343631756782 0.47527829107792868 0 0.39137823401927729 0.47431868860540038 0 0.37211489106819018 0.5 0 0.3836334452400032 0.49096814527954979 0 0.39606748784641399 0.4999999999999995 0 0.3836334452400032 0.49096814527954979 0 0.39606748784641399 0.4999999999999995 0 0.39137823401927729 0.47431868860540038 0 0.36977026415462172 0.48715934430269919 0 0.38976343631756782 0.47527829107792868 0 0.3836334452400032 0.49096814527954979 0 0.37211489106819018 0.5 0 0.36977026415462172 0.48715934430269919 0 0.3836334452400032 0.49096814527954979 0 0.39606748784641399 0.4999999999999995 0 0.39137823401927729 0.47431868860540038 0 0.39606748784641399 0.4999999999999995 0 0.40214076750687661 0.47978380048258068 0 0.39137823401927729 0.47431868860540038 0 0.41350262679205008 0.48385905857081168 0 0.39606748784641399 0.4999999999999995 0 0.40214076750687661 0.47978380048258068 0 0.41350262679205008 0.48385905857081168 0 0.40248552889899641 0.46771811714162248 0 0.40214076750687661 0.47978380048258068 0 0.40248552889899641 0.46771811714162248 0 0.40214076750687661 0.47978380048258068 0 0.39137823401927729 0.47431868860540038 0 0.40248552889899641 0.46771811714162248 0 0.39137823401927729 0.47431868860540038 0 0.3241659063356912 0.083466868101177788 0 0.34930919876710892 0.099617994049868014 0 0.34605917505663841 0.071955892223719495 0 0.3241659063356912 0.083466868101177788 0 0.34930919876710892 0.099617994049868014 0 0.31795409653440709 0.064914465982742378 0 0.3241659063356912 0.083466868101177788 0 0.34605917505663841 0.071955892223719495 0 0.31795409653440709 0.064914465982742378 0 0.3241659063356912 0.083466868101177788 0 0.29902261390427359 0.067315742152487673 0 0.32733079481318988 0.1064254281678224 0 0.31200742817544969 0.114223058451902 0 0.30408485532110852 0.097932509052196567 0 0.3241659063356912 0.083466868101177788 0 0.32733079481318988 0.1064254281678224 0 0.30408485532110852 0.097932509052196567 0 0.32733079481318988 0.1064254281678224 0 0.31200742817544969 0.114223058451902 0 0.32051504939069531 0.1310499740203028 0 0.32733079481318988 0.1064254281678224 0 0.34696690785537482 0.1240347006473617 0 0.32733079481318988 0.1064254281678224 0 0.34696690785537482 0.1240347006473617 0 0.32051504939069531 0.1310499740203028 0 0.32733079481318988 0.1064254281678224 0 0.34930919876710892 0.099617994049868014 0 0.34696690785537482 0.1240347006473617 0 0.3241659063356912 0.083466868101177788 0 0.32733079481318988 0.1064254281678224 0 0.34930919876710892 0.099617994049868014 0 0.34930919876710892 0.099617994049868014 0 0.34696690785537482 0.1240347006473617 0 0.3610536117500403 0.1210455236360588 0 0.34930919876710892 0.099617994049868014 0 0.3610536117500403 0.1210455236360588 0 0.37445249119852658 0.1157691199985582 0 0.3610536117500403 0.1210455236360588 0 0.37445249119852658 0.1157691199985582 0 0.37278825185489339 0.12939229711031039 0 0.34930919876710892 0.099617994049868014 0 0.37445249119852658 0.1157691199985582 0 0.37445249119852658 0.1157691199985582 0 0.36551334015360581 0.094550044095627367 0 0.37830231007793103 0.1057169847280022 0 0.34930919876710892 0.099617994049868014 0 0.37445249119852658 0.1157691199985582 0 0.36551334015360581 0.094550044095627367 0 0.36551334015360581 0.094550044095627367 0 0.37059746633178869 0.078350970794459962 0 0.34605917505663841 0.071955892223719495 0 0.37059746633178869 0.078350970794459962 0 0.37830231007793103 0.1057169847280022 0 0.36551334015360581 0.094550044095627367 0 0.37059746633178869 0.078350970794459962 0 0.37830231007793103 0.1057169847280022 0 0.34930919876710892 0.099617994049868014 0 0.36551334015360581 0.094550044095627367 0 0.34605917505663841 0.071955892223719495 0 0.37059746633178869 0.078350970794459962 0 0.34605917505663841 0.071955892223719495 0 0.36753173232208891 0.05295853319131269 0 0.36753173232208891 0.05295853319131269 0 0.35700775265307932 0.032850306912765942 0 0.37625031185001512 0.030988576380894979 0 0.36753173232208891 0.05295853319131269 0 0.35700775265307932 0.032850306912765942 0 0.34684650841363712 0.047713886427705687 0 0.35700775265307932 0.032850306912765942 0 0.34684650841363712 0.047713886427705687 0 0.33738624330381872 0.033439700761567548 0 0.34605917505663841 0.071955892223719495 0 0.36753173232208891 0.05295853319131269 0 0.34684650841363712 0.047713886427705687 0 0.36961526472597789 0.01040140373563264 0 0.35235658949011461 0.002088700480312592 0 0.36201279132916869 -0.0024114915845460652 0 0.35700775265307932 0.032850306912765942 0 0.36961526472597789 0.01040140373563264 0 0.37625031185001512 0.030988576380894979 0 0.35700775265307932 0.032850306912765942 0 0.36961526472597789 0.01040140373563264 0 0.34204240205766112 0.01400803151251317 0 0.35700775265307932 0.032850306912765942 0 0.34204240205766112 0.01400803151251317 0 0.33738624330381872 0.033439700761567548 0 0.35235658949011461 0.002088700480312592 0 0.34204240205766112 0.01400803151251317 0 0.34011561505920168 -0.0038166958142838458 0 0.36961526472597789 0.01040140373563264 0 0.35235658949011461 0.002088700480312592 0 0.34204240205766112 0.01400803151251317 0 0.34204240205766112 0.01400803151251317 0 0.34011561505920168 -0.0038166958142838458 0 0.32645569758011078 -0.00088642923517560576 0 0.34204240205766112 0.01400803151251317 0 0.31568501914767222 0.023485315460843391 0 0.33738624330381872 0.033439700761567548 0 0.31568501914767222 0.023485315460843391 0 0.32645569758011078 -0.00088642923517560576 0 0.3058626674399878 -0.0050360613042316066 0 0.34204240205766112 0.01400803151251317 0 0.31568501914767222 0.023485315460843391 0 0.32645569758011078 -0.00088642923517560576 0 0.31568501914767222 0.023485315460843391 0 0.32645569758011078 -0.00088642923517560576 0 0.34605917505663841 0.071955892223719495 0 0.34684650841363712 0.047713886427705687 0 0.32624763873256007 0.047364999049162727 0 0.31795409653440709 0.064914465982742378 0 0.34605917505663841 0.071955892223719495 0 0.32624763873256007 0.047364999049162727 0 0.34684650841363712 0.047713886427705687 0 0.33738624330381872 0.033439700761567548 0 0.32624763873256007 0.047364999049162727 0 0.31568501914767222 0.023485315460843391 0 0.32624763873256007 0.047364999049162727 0 0.30032108157311599 0.042291277123063471 0 0.31568501914767222 0.023485315460843391 0 0.33738624330381872 0.033439700761567548 0 0.32624763873256007 0.047364999049162727 0 0.31795409653440709 0.064914465982742378 0 0.32624763873256007 0.047364999049162727 0 0.30032108157311599 0.042291277123063471 0 0.31795409653440709 0.064914465982742378 0 0.30032108157311599 0.042291277123063471 0 0.29902261390427359 0.067315742152487673 0 0.30032108157311599 0.042291277123063471 0 0.27869429098975801 0.028573336940076039 0 0.27387932147285599 0.051164616203797503 0 0.30032108157311599 0.042291277123063471 0 0.27387932147285599 0.051164616203797503 0 0.29902261390427359 0.067315742152487673 0 0.27387932147285599 0.051164616203797503 0 0.29902261390427359 0.067315742152487673 0 0.30032108157311599 0.042291277123063471 0 0.29202415959075267 0.01068347422564693 0 0.27869429098975801 0.028573336940076039 0 0.31568501914767222 0.023485315460843391 0 0.30032108157311599 0.042291277123063471 0 0.29202415959075267 0.01068347422564693 0 0.31568501914767222 0.023485315460843391 0 0.29202415959075267 0.01068347422564693 0 0.3058626674399878 -0.0050360613042316066 0 0.29202415959075267 0.01068347422564693 0 0.28041387702633502 -0.0049452076031206646 0 0.3058626674399878 -0.0050360613042316066 0 0.29202415959075267 0.01068347422564693 0 0.27137547902667059 0.0108533559905765 0 0.28041387702633502 -0.0049452076031206646 0 0.27137547902667059 0.0108533559905765 0 0.26312431422554627 -0.003192974568002418 0 0.28041387702633502 -0.0049452076031206646 0 0.27137547902667059 0.0108533559905765 0 0.27869429098975801 0.028573336940076039 0 0.25810089807958358 0.030069833472895619 0 0.29202415959075267 0.01068347422564693 0 0.27137547902667059 0.0108533559905765 0 0.27869429098975801 0.028573336940076039 0 0.27137547902667059 0.0108533559905765 0 0.25810089807958358 0.030069833472895619 0 0.25206858764640772 0.0098673466823619056 0 0.25206858764640772 0.0098673466823619056 0 0.26312431422554627 -0.003192974568002418 0 0.24717904482605901 -0.0064480234920759024 0 0.27137547902667059 0.0108533559905765 0 0.25206858764640772 0.0098673466823619056 0 0.26312431422554627 -0.003192974568002418 0 0.27869429098975801 0.028573336940076039 0 0.25810089807958358 0.030069833472895619 0 0.27387932147285599 0.051164616203797503 0 0.2458637931036326 0.049939226196381671 0 0.25810089807958358 0.030069833472895619 0 0.27387932147285599 0.051164616203797503 0 0.2458637931036326 0.049939226196381671 0 0.27387932147285599 0.051164616203797503 0 0.26954488644866292 0.069241520311871543 0 0.24512795191804179 0.068401885223786235 0 0.2458637931036326 0.049939226196381671 0 0.26954488644866292 0.069241520311871543 0 0.24512795191804179 0.068401885223786235 0 0.25514659973276588 0.081660732080320833 0 0.26954488644866292 0.069241520311871543 0 0.25514659973276588 0.081660732080320833 0 0.28385837769986549 0.083670917941404674 0 0.25514659973276588 0.081660732080320833 0 0.26954488644866292 0.069241520311871543 0 0.28385837769986549 0.083670917941404674 0 0.25514659973276588 0.081660732080320833 0 0.28385837769986549 0.083670917941404674 0 0.2692969240314943 0.096799366549310331 0 0.27387932147285599 0.051164616203797503 0 0.26954488644866292 0.069241520311871543 0 0.29902261390427359 0.067315742152487673 0 0.26954488644866292 0.069241520311871543 0 0.28385837769986549 0.083670917941404674 0 0.29902261390427359 0.067315742152487673 0 0.28385837769986549 0.083670917941404674 0 0.29902261390427359 0.067315742152487673 0 0.30408485532110852 0.097932509052196567 0 0.3241659063356912 0.083466868101177788 0 0.29902261390427359 0.067315742152487673 0 0.30408485532110852 0.097932509052196567 0 0.3241659063356912 0.083466868101177788 0 0.29902261390427359 0.067315742152487673 0 0.31200742817544969 0.114223058451902 0 0.30408485532110852 0.097932509052196567 0 0.29681632678350039 0.1225861601035141 0 0.31200742817544969 0.114223058451902 0 0.29681632678350039 0.1225861601035141 0 0.32051504939069531 0.1310499740203028 0 0.28385837769986549 0.083670917941404674 0 0.30408485532110852 0.097932509052196567 0 0.28631688385041582 0.1016580252254667 0 0.30408485532110852 0.097932509052196567 0 0.28631688385041582 0.1016580252254667 0 0.29681632678350039 0.1225861601035141 0 0.28631688385041582 0.1016580252254667 0 0.29681632678350039 0.1225861601035141 0 0.27311760417630548 0.1141223461867255 0 0.29681632678350039 0.1225861601035141 0 0.27311760417630548 0.1141223461867255 0 0.28096839286116149 0.13441982476115941 0 0.29681632678350039 0.1225861601035141 0 0.27311760417630548 0.1141223461867255 0 0.28385837769986549 0.083670917941404674 0 0.28631688385041582 0.1016580252254667 0 0.2692969240314943 0.096799366549310331 0 0.28631688385041582 0.1016580252254667 0 0.27311760417630548 0.1141223461867255 0 0.2692969240314943 0.096799366549310331 0 0.2494188815691106 0.10565853226993679 0 0.27311760417630548 0.1141223461867255 0 0.2692969240314943 0.096799366549310331 0 0.2494188815691106 0.10565853226993679 0 0.25514659973276588 0.081660732080320833 0 0.2692969240314943 0.096799366549310331 0 0.24202085268022039 0.13220129841410139 0 0.2494188815691106 0.10565853226993679 0 0.26110480745218478 0.12834333610291671 0 0.2494188815691106 0.10565853226993679 0 0.27311760417630548 0.1141223461867255 0 0.2494188815691106 0.10565853226993679 0 0.27311760417630548 0.1141223461867255 0 0.26110480745218478 0.12834333610291671 0 0.24202085268022039 0.13220129841410139 0 0.26110480745218478 0.12834333610291671 0 0.263644019723902 0.14880016548382979 0 0.27311760417630548 0.1141223461867255 0 0.26110480745218478 0.12834333610291671 0 0.28096839286116149 0.13441982476115941 0 0.26110480745218478 0.12834333610291671 0 0.28096839286116149 0.13441982476115941 0 0.263644019723902 0.14880016548382979 0 0.263644019723902 0.14880016548382979 0 0.27613514336504191 0.16679010429803259 0 0.29174517236659081 0.15230196343786501 0 0.28096839286116149 0.13441982476115941 0 0.263644019723902 0.14880016548382979 0 0.29174517236659081 0.15230196343786501 0 0.263644019723902 0.14880016548382979 0 0.25484627205134491 0.16929351942834461 0 0.27613514336504191 0.16679010429803259 0 0.24070365930781831 0.15172192477003951 0 0.263644019723902 0.14880016548382979 0 0.25484627205134491 0.16929351942834461 0 0.24412739760437219 0.1913883280330782 0 0.25484627205134491 0.16929351942834461 0 0.2702910785336553 0.18619600597947969 0 0.25484627205134491 0.16929351942834461 0 0.2702910785336553 0.18619600597947969 0 0.27613514336504191 0.16679010429803259 0 0.2702910785336553 0.18619600597947969 0 0.27613514336504191 0.16679010429803259 0 0.29645475946293859 0.1810036839258829 0 0.27613514336504191 0.16679010429803259 0 0.29645475946293859 0.1810036839258829 0 0.29174517236659081 0.15230196343786501 0 0.2702910785336553 0.18619600597947969 0 0.29645475946293859 0.1810036839258829 0 0.29645475946293859 0.1810036839258829 0 0.31284453440093302 0.15793589495589819 0 0.31293795040994588 0.17761561328049999 0 0.29645475946293859 0.1810036839258829 0 0.31634912801971471 0.19534208448953189 0 0.31293795040994588 0.17761561328049999 0 0.29645475946293859 0.1810036839258829 0 0.29174517236659081 0.15230196343786501 0 0.31284453440093302 0.15793589495589819 0 0.30248194564563691 0.13912994232182491 0 0.32051504939069531 0.1310499740203028 0 0.31284453440093302 0.15793589495589819 0 0.30248194564563691 0.13912994232182491 0 0.29174517236659081 0.15230196343786501 0 0.31284453440093302 0.15793589495589819 0 0.29681632678350039 0.1225861601035141 0 0.30248194564563691 0.13912994232182491 0 0.32051504939069531 0.1310499740203028 0 0.29681632678350039 0.1225861601035141 0 0.32051504939069531 0.1310499740203028 0 0.29681632678350039 0.1225861601035141 0 0.28096839286116149 0.13441982476115941 0 0.30248194564563691 0.13912994232182491 0 0.28096839286116149 0.13441982476115941 0 0.30248194564563691 0.13912994232182491 0 0.29174517236659081 0.15230196343786501 0 0.28217840869235811 0.25442822584669311 0 0.27769211889568463 0.24077193767755981 0 0.26675927747739331 0.24741283168244069 0 0.27769211889568463 0.24077193767755981 0 0.27888618986098362 0.23315682627914991 0 0.28659488089983531 0.23458440347965559 0 0.27769211889568463 0.24077193767755981 0 0.27150116498788412 0.2315899798782437 0 0.27888618986098362 0.23315682627914991 0 0.27769211889568463 0.24077193767755981 0 0.26885464342071952 0.2388908648696228 0 0.27150116498788412 0.2315899798782437 0 0.27769211889568463 0.24077193767755981 0 0.26885464342071952 0.2388908648696228 0 0.26675927747739331 0.24741283168244069 0 0.26675927747739331 0.24741283168244069 0 0.25362149426965519 0.2430843719837566 0 0.26116365714399009 0.23878451950495611 0 0.25321698482086541 0.25295958375121741 0 0.26675927747739331 0.24741283168244069 0 0.25362149426965519 0.2430843719837566 0 0.2438781364796955 0.2409197168445503 0 0.25321698482086541 0.25295958375121741 0 0.25362149426965519 0.2430843719837566 0 0.25362149426965519 0.2430843719837566 0 0.26116365714399009 0.23878451950495611 0 0.25231141239711607 0.22933398427331639 0 0.26885464342071952 0.2388908648696228 0 0.26675927747739331 0.24741283168244069 0 0.26116365714399009 0.23878451950495611 0 0.26885464342071952 0.2388908648696228 0 0.26116365714399009 0.23878451950495611 0 0.26350435562485047 0.23134027363844589 0 0.26116365714399009 0.23878451950495611 0 0.26350435562485047 0.23134027363844589 0 0.25231141239711607 0.22933398427331639 0 0.24243676189832691 0.218494335502908 0 0.26487834700263108 0.22296418048675359 0 0.26350435562485047 0.23134027363844589 0 0.25231141239711607 0.22933398427331639 0 0.26487834700263108 0.22296418048675359 0 0.24243676189832691 0.218494335502908 0 0.25231141239711607 0.22933398427331639 0 0.26487834700263108 0.22296418048675359 0 0.24243676189832691 0.218494335502908 0 0.26487834700263108 0.22296418048675359 0 0.25909732556107712 0.2182641679542385 0 0.26487834700263108 0.22296418048675359 0 0.26707635775248162 0.21558554173668029 0 0.25909732556107712 0.2182641679542385 0 0.26487834700263108 0.22296418048675359 0 0.27241161241861778 0.2240355734672636 0 0.26707635775248162 0.21558554173668029 0 0.27241161241861778 0.2240355734672636 0 0.27491231611322992 0.21707005333093379 0 0.26707635775248162 0.21558554173668029 0 0.26487834700263108 0.22296418048675359 0 0.27241161241861778 0.2240355734672636 0 0.27150116498788412 0.2315899798782437 0 0.26885464342071952 0.2388908648696228 0 0.26350435562485047 0.23134027363844589 0 0.27150116498788412 0.2315899798782437 0 0.26350435562485047 0.23134027363844589 0 0.26487834700263108 0.22296418048675359 0 0.27150116498788412 0.2315899798782437 0 0.27241161241861778 0.2240355734672636 0 0.27150116498788412 0.2315899798782437 0 0.2797565946605306 0.22568098408114051 0 0.27150116498788412 0.2315899798782437 0 0.27888618986098362 0.23315682627914991 0 0.2797565946605306 0.22568098408114051 0 0.27241161241861778 0.2240355734672636 0 0.2797565946605306 0.22568098408114051 0 0.27491231611322992 0.21707005333093379 0 0.2797565946605306 0.22568098408114051 0 0.27491231611322992 0.21707005333093379 0 0.28588326921962232 0.21580756997284359 0 0.27491231611322992 0.21707005333093379 0 0.27545321751337087 0.206877837063067 0 0.28588326921962232 0.21580756997284359 0 0.27545321751337087 0.206877837063067 0 0.26707635775248162 0.21558554173668029 0 0.26453726210684042 0.20631154075255931 0 0.27491231611322992 0.21707005333093379 0 0.27545321751337087 0.206877837063067 0 0.26707635775248162 0.21558554173668029 0 0.26707635775248162 0.21558554173668029 0 0.25909732556107712 0.2182641679542385 0 0.26453726210684042 0.20631154075255931 0 0.24243676189832691 0.218494335502908 0 0.25909732556107712 0.2182641679542385 0 0.25161236158272221 0.20482624799365981 0 0.25909732556107712 0.2182641679542385 0 0.25161236158272221 0.20482624799365981 0 0.25909732556107712 0.2182641679542385 0 0.25161236158272221 0.20482624799365981 0 0.26453726210684042 0.20631154075255931 0 0.24412739760437219 0.1913883280330782 0 0.2702910785336553 0.18619600597947969 0 0.25161236158272221 0.20482624799365981 0 0.24412739760437219 0.1913883280330782 0 0.2702910785336553 0.18619600597947969 0 0.2702910785336553 0.18619600597947969 0 0.25161236158272221 0.20482624799365981 0 0.26453726210684042 0.20631154075255931 0 0.2702910785336553 0.18619600597947969 0 0.27545321751337087 0.206877837063067 0 0.29007328300270002 0.20097178717315309 0 0.2702910785336553 0.18619600597947969 0 0.27545321751337087 0.206877837063067 0 0.26453726210684042 0.20631154075255931 0 0.2702910785336553 0.18619600597947969 0 0.29645475946293859 0.1810036839258829 0 0.29007328300270002 0.20097178717315309 0 0.29645475946293859 0.1810036839258829 0 0.29007328300270002 0.20097178717315309 0 0.3025673733971353 0.2018510257545201 0 0.29645475946293859 0.1810036839258829 0 0.3025673733971353 0.2018510257545201 0 0.31634912801971471 0.19534208448953189 0 0.3025673733971353 0.2018510257545201 0 0.30582331150011283 0.2179557336324951 0 0.29676761377003569 0.2119322355653214 0 0.30582331150011283 0.2179557336324951 0 0.31634912801971471 0.19534208448953189 0 0.3025673733971353 0.2018510257545201 0 0.30582331150011283 0.2179557336324951 0 0.31634912801971471 0.19534208448953189 0 0.30582331150011283 0.2179557336324951 0 0.29676761377003569 0.2119322355653214 0 0.29580644611552082 0.22205025930048711 0 0.29676761377003569 0.2119322355653214 0 0.28588326921962232 0.21580756997284359 0 0.29580644611552082 0.22205025930048711 0 0.29007328300270002 0.20097178717315309 0 0.29676761377003569 0.2119322355653214 0 0.28588326921962232 0.21580756997284359 0 0.29007328300270002 0.20097178717315309 0 0.3025673733971353 0.2018510257545201 0 0.29676761377003569 0.2119322355653214 0 0.27545321751337087 0.206877837063067 0 0.29007328300270002 0.20097178717315309 0 0.28588326921962232 0.21580756997284359 0 0.2797565946605306 0.22568098408114051 0 0.28588326921962232 0.21580756997284359 0 0.28872930689410747 0.22654477296878819 0 0.27888618986098362 0.23315682627914991 0 0.2797565946605306 0.22568098408114051 0 0.28659488089983531 0.23458440347965559 0 0.2797565946605306 0.22568098408114051 0 0.28872930689410747 0.22654477296878819 0 0.28659488089983531 0.23458440347965559 0 0.28872930689410747 0.22654477296878819 0 0.29580644611552082 0.22205025930048711 0 0.29809853156162452 0.23455163979428889 0 0.28872930689410747 0.22654477296878819 0 0.29809853156162452 0.23455163979428889 0 0.28659488089983531 0.23458440347965559 0 0.28588326921962232 0.21580756997284359 0 0.28872930689410747 0.22654477296878819 0 0.29580644611552082 0.22205025930048711 0 0.30582331150011283 0.2179557336324951 0 0.29580644611552082 0.22205025930048711 0 0.30582331150011283 0.2179557336324951 0 0.29580644611552082 0.22205025930048711 0 0.29809853156162452 0.23455163979428889 0 0.30582331150011283 0.2179557336324951 0 0.29809853156162452 0.23455163979428889 0 0.30582331150011283 0.2179557336324951 0 0.30683089968459432 0.2285204812575419 0 0.29809853156162452 0.23455163979428889 0 0.30582331150011283 0.2179557336324951 0 0.30683089968459432 0.2285204812575419 0 0.31712501438379359 0.23030004946852051 0 0.30683089968459432 0.2285204812575419 0 0.30773572196965437 0.23668391975653341 0 0.31712501438379359 0.23030004946852051 0 0.30683089968459432 0.2285204812575419 0 0.29809853156162452 0.23455163979428889 0 0.30773572196965437 0.23668391975653341 0 0.29809853156162452 0.23455163979428889 0 0.30286340174419868 0.24626474298914081 0 0.29083441102829299 0.24434218095300511 0 0.29809853156162452 0.23455163979428889 0 0.30773572196965437 0.23668391975653341 0 0.30286340174419868 0.24626474298914081 0 0.30871439535155509 0.25543664114475428 0 0.30286340174419868 0.24626474298914081 0 0.31376076247406098 0.24378268527317501 0 0.30773572196965437 0.23668391975653341 0 0.30286340174419868 0.24626474298914081 0 0.31376076247406098 0.24378268527317501 0 0.29757912437605699 0.2554521359306926 0 0.30286340174419868 0.24626474298914081 0 0.29083441102829299 0.24434218095300511 0 0.29809853156162452 0.23455163979428889 0 0.29083441102829299 0.24434218095300511 0 0.28659488089983531 0.23458440347965559 0 0.27769211889568463 0.24077193767755981 0 0.29083441102829299 0.24434218095300511 0 0.28659488089983531 0.23458440347965559 0 0.28217840869235811 0.25442822584669311 0 0.27769211889568463 0.24077193767755981 0 0.29083441102829299 0.24434218095300511 0 0.32930353641112109 0.25346548213692011 0 0.34614201286697138 0.25050728860627069 0 0.34844119445903232 0.2336186412103326 0 0.32930353641112109 0.25346548213692011 0 0.33362309419158348 0.22914600613795569 0 0.32930353641112109 0.25346548213692011 0 0.33362309419158348 0.22914600613795569 0 0.34844119445903232 0.2336186412103326 0 0.32930353641112109 0.25346548213692011 0 0.32264716576567432 0.2418587684155846 0 0.33362309419158348 0.22914600613795569 0 0.32930353641112109 0.25346548213692011 0 0.34844119445903232 0.2336186412103326 0 0.31794923488099891 0.2525020912825206 0 0.32930353641112109 0.25346548213692011 0 0.32264716576567432 0.2418587684155846 0 0.31794923488099891 0.2525020912825206 0 0.31376076247406098 0.24378268527317501 0 0.32264716576567432 0.2418587684155846 0 0.30773572196965437 0.23668391975653341 0 0.31376076247406098 0.24378268527317501 0 0.31712501438379359 0.23030004946852051 0 0.31376076247406098 0.24378268527317501 0 0.32264716576567432 0.2418587684155846 0 0.31712501438379359 0.23030004946852051 0 0.31712501438379359 0.23030004946852051 0 0.3254573137674685 0.22178657808638741 0 0.33362309419158348 0.22914600613795569 0 0.30582331150011283 0.2179557336324951 0 0.31712501438379359 0.23030004946852051 0 0.3254573137674685 0.22178657808638741 0 0.32264716576567432 0.2418587684155846 0 0.31712501438379359 0.23030004946852051 0 0.33362309419158348 0.22914600613795569 0 0.3254573137674685 0.22178657808638741 0 0.33362309419158348 0.22914600613795569 0 0.32972651041679629 0.2167875615622698 0 0.33362309419158348 0.22914600613795569 0 0.34780343324474072 0.21933361506048141 0 0.34844119445903232 0.2336186412103326 0 0.33362309419158348 0.22914600613795569 0 0.34253700330656339 0.2154545955602693 0 0.34780343324474072 0.21933361506048141 0 0.33362309419158348 0.22914600613795569 0 0.3379426519720512 0.2048265301389921 0 0.32972651041679629 0.2167875615622698 0 0.3379426519720512 0.2048265301389921 0 0.32972651041679629 0.2167875615622698 0 0.32188298173608221 0.2113911318857441 0 0.33362309419158348 0.22914600613795569 0 0.3379426519720512 0.2048265301389921 0 0.33362309419158348 0.22914600613795569 0 0.34253700330656339 0.2154545955602693 0 0.3379426519720512 0.2048265301389921 0 0.3379426519720512 0.2048265301389921 0 0.32188298173608221 0.2113911318857441 0 0.32752674405135129 0.20227153214049309 0 0.3379426519720512 0.2048265301389921 0 0.32188298173608221 0.2113911318857441 0 0.30582331150011283 0.2179557336324951 0 0.32188298173608221 0.2113911318857441 0 0.3254573137674685 0.22178657808638741 0 0.32972651041679629 0.2167875615622698 0 0.32188298173608221 0.2113911318857441 0 0.30582331150011283 0.2179557336324951 0 0.3254573137674685 0.22178657808638741 0 0.32188298173608221 0.2113911318857441 0 0.30582331150011283 0.2179557336324951 0 0.32188298173608221 0.2113911318857441 0 0.31634912801971471 0.19534208448953189 0 0.32188298173608221 0.2113911318857441 0 0.32752674405135129 0.20227153214049309 0 0.31634912801971471 0.19534208448953189 0 0.32752674405135129 0.20227153214049309 0 0.31634912801971471 0.19534208448953189 0 0.33317384767136188 0.19626381177493629 0 0.31634912801971471 0.19534208448953189 0 0.33317384767136188 0.19626381177493629 0 0.33308146690701579 0.18733065707096069 0 0.3379426519720512 0.2048265301389921 0 0.33420716516581328 0.201705404177727 0 0.33317384767136188 0.19626381177493629 0 0.3379426519720512 0.2048265301389921 0 0.32752674405135129 0.20227153214049309 0 0.33420716516581328 0.201705404177727 0 0.32752674405135129 0.20227153214049309 0 0.33420716516581328 0.201705404177727 0 0.33317384767136188 0.19626381177493629 0 0.3379426519720512 0.2048265301389921 0 0.33317384767136188 0.19626381177493629 0 0.3432922078640635 0.19189294377186769 0 0.33317384767136188 0.19626381177493629 0 0.3432922078640635 0.19189294377186769 0 0.33308146690701579 0.18733065707096069 0 0.35295134958920688 0.198691527293582 0 0.35671555113041098 0.18242006575464079 0 0.36457857181374298 0.18633318792445791 0 0.3432922078640635 0.19189294377186769 0 0.35295134958920688 0.198691527293582 0 0.35671555113041098 0.18242006575464079 0 0.3379426519720512 0.2048265301389921 0 0.3432922078640635 0.19189294377186769 0 0.35295134958920688 0.198691527293582 0 0.3379426519720512 0.2048265301389921 0 0.35295134958920688 0.198691527293582 0 0.35295134958920688 0.198691527293582 0 0.36796004720636222 0.1925565244481709 0 0.36457857181374298 0.18633318792445791 0 0.36796004720636222 0.1925565244481709 0 0.36457857181374298 0.18633318792445791 0 0.37147293106055379 0.1847610570799344 0 0.3746226893549644 0.1929459670174633 0 0.36796004720636222 0.1925565244481709 0 0.37147293106055379 0.1847610570799344 0 0.3746226893549644 0.1929459670174633 0 0.36796004720636222 0.1925565244481709 0 0.36350651885720969 0.20308756629840649 0 0.35295134958920688 0.198691527293582 0 0.36796004720636222 0.1925565244481709 0 0.36350651885720969 0.20308756629840649 0 0.35295134958920688 0.198691527293582 0 0.36796004720636222 0.1925565244481709 0 0.36350651885720969 0.20308756629840649 0 0.36757885250694078 0.21377180028374271 0 0.35077883381787872 0.20851223090364801 0 0.3746226893549644 0.1929459670174633 0 0.36757885250694078 0.21377180028374271 0 0.3746226893549644 0.1929459670174633 0 0.36350651885720969 0.20308756629840649 0 0.36757885250694078 0.21377180028374271 0 0.36757885250694078 0.21377180028374271 0 0.35077883381787872 0.20851223090364801 0 0.34780343324474072 0.21933361506048141 0 0.35295134958920688 0.198691527293582 0 0.36350651885720969 0.20308756629840649 0 0.35077883381787872 0.20851223090364801 0 0.34253700330656339 0.2154545955602693 0 0.3379426519720512 0.2048265301389921 0 0.35077883381787872 0.20851223090364801 0 0.3379426519720512 0.2048265301389921 0 0.35295134958920688 0.198691527293582 0 0.35077883381787872 0.20851223090364801 0 0.34253700330656339 0.2154545955602693 0 0.35077883381787872 0.20851223090364801 0 0.34780343324474072 0.21933361506048141 0 0.36757885250694078 0.21377180028374271 0 0.34844119445903232 0.2336186412103326 0 0.36757885250694078 0.21377180028374271 0 0.34780343324474072 0.21933361506048141 0 0.34844119445903232 0.2336186412103326 0 0.36757885250694078 0.21377180028374271 0 0.34844119445903232 0.2336186412103326 0 0.35869607984048679 0.24003463778056941 0 0.36757885250694078 0.21377180028374271 0 0.35869607984048679 0.24003463778056941 0 0.37530792174962979 0.23238339741363609 0 0.36757885250694078 0.21377180028374271 0 0.35869607984048679 0.24003463778056941 0 0.3733668161430263 0.24684862113690181 0 0.35869607984048679 0.24003463778056941 0 0.37530792174962979 0.23238339741363609 0 0.3631217799134272 0.25542279642149918 0 0.3733668161430263 0.24684862113690181 0 0.35869607984048679 0.24003463778056941 0 0.34614201286697138 0.25050728860627069 0 0.34844119445903232 0.2336186412103326 0 0.35869607984048679 0.24003463778056941 0 0.34696690785537482 0.1240347006473617 0 0.3374007610589187 0.15011478620360549 0 0.32051504939069531 0.1310499740203028 0 0.3374007610589187 0.15011478620360549 0 0.32051504939069531 0.1310499740203028 0 0.31284453440093302 0.15793589495589819 0 0.3374007610589187 0.15011478620360549 0 0.31284453440093302 0.15793589495589819 0 0.3268749445393167 0.1727284353465687 0 0.31284453440093302 0.15793589495589819 0 0.3268749445393167 0.1727284353465687 0 0.31293795040994588 0.17761561328049999 0 0.31634912801971471 0.19534208448953189 0 0.3268749445393167 0.1727284353465687 0 0.31634912801971471 0.19534208448953189 0 0.3268749445393167 0.1727284353465687 0 0.33308146690701579 0.18733065707096069 0 0.31634912801971471 0.19534208448953189 0 0.3268749445393167 0.1727284353465687 0 0.31293795040994588 0.17761561328049999 0 0.3268749445393167 0.1727284353465687 0 0.33308146690701579 0.18733065707096069 0 0.34291914522831202 0.17786314763987141 0 0.3432922078640635 0.19189294377186769 0 0.33308146690701579 0.18733065707096069 0 0.34291914522831202 0.17786314763987141 0 0.3374007610589187 0.15011478620360549 0 0.3268749445393167 0.1727284353465687 0 0.34347864758962982 0.16429436394696939 0 0.3374007610589187 0.15011478620360549 0 0.3268749445393167 0.1727284353465687 0 0.3268749445393167 0.1727284353465687 0 0.34291914522831202 0.17786314763987141 0 0.34347864758962982 0.16429436394696939 0 0.34347864758962982 0.16429436394696939 0 0.35608137254944278 0.16843004426120939 0 0.35411701457215827 0.15233540628359221 0 0.34291914522831202 0.17786314763987141 0 0.34347864758962982 0.16429436394696939 0 0.35608137254944278 0.16843004426120939 0 0.3432922078640635 0.19189294377186769 0 0.34291914522831202 0.17786314763987141 0 0.35671555113041098 0.18242006575464079 0 0.34291914522831202 0.17786314763987141 0 0.35608137254944278 0.16843004426120939 0 0.35671555113041098 0.18242006575464079 0 0.35671555113041098 0.18242006575464079 0 0.36457857181374298 0.18633318792445791 0 0.36853682072471128 0.17984947225839551 0 0.35671555113041098 0.18242006575464079 0 0.36853682072471128 0.17984947225839551 0 0.36709153346756918 0.17110901383451521 0 0.35608137254944278 0.16843004426120939 0 0.35671555113041098 0.18242006575464079 0 0.36709153346756918 0.17110901383451521 0 0.36853682072471128 0.17984947225839551 0 0.37147293106055379 0.1847610570799344 0 0.38166652620298858 0.17212013375118421 0 0.36853682072471128 0.17984947225839551 0 0.36709153346756918 0.17110901383451521 0 0.38166652620298858 0.17212013375118421 0 0.36457857181374298 0.18633318792445791 0 0.36853682072471128 0.17984947225839551 0 0.37147293106055379 0.1847610570799344 0 0.35608137254944278 0.16843004426120939 0 0.36962681525081448 0.16059554056269129 0 0.35411701457215827 0.15233540628359221 0 0.35608137254944278 0.16843004426120939 0 0.36709153346756918 0.17110901383451521 0 0.36962681525081448 0.16059554056269129 0 0.36709153346756918 0.17110901383451521 0 0.36962681525081448 0.16059554056269129 0 0.37860507003026928 0.16506324107658721 0 0.36962681525081448 0.16059554056269129 0 0.36660302089755947 0.141643973126901 0 0.38623913393974429 0.1592532456064403 0 0.36962681525081448 0.16059554056269129 0 0.36660302089755947 0.141643973126901 0 0.35411701457215827 0.15233540628359221 0 0.3374007610589187 0.15011478620360549 0 0.34347864758962982 0.16429436394696939 0 0.35411701457215827 0.15233540628359221 0 0.34696690785537482 0.1240347006473617 0 0.3374007610589187 0.15011478620360549 0 0.35411701457215827 0.15233540628359221 0 0.34696690785537482 0.1240347006473617 0 0.36660302089755947 0.141643973126901 0 0.35411701457215827 0.15233540628359221 0 0.34696690785537482 0.1240347006473617 0 0.36660302089755947 0.141643973126901 0 0.34696690785537482 0.1240347006473617 0 0.3610536117500403 0.1210455236360588 0 0.36660302089755947 0.141643973126901 0 0.3610536117500403 0.1210455236360588 0 0.36660302089755947 0.141643973126901 0 0.37278825185489339 0.12939229711031039 0 0.36660302089755947 0.141643973126901 0 0.37278825185489339 0.12939229711031039 0 0.38106991161729731 0.14476430542005661 0 0.37445249119852658 0.1157691199985582 0 0.37278825185489339 0.12939229711031039 0 0.38600715382407319 0.13308299866154441 0 0.37278825185489339 0.12939229711031039 0 0.38600715382407319 0.13308299866154441 0 0.38106991161729731 0.14476430542005661 0 0.39166348475306911 0.14458949831012979 0 0.40617443876893522 0.1183196256441785 0 0.39166348475306911 0.14458949831012979 0 0.40819488092943768 0.13731043316644251 0 0.40617443876893522 0.1183196256441785 0 0.38600715382407319 0.13308299866154441 0 0.39166348475306911 0.14458949831012979 0 0.40617443876893522 0.1183196256441785 0 0.39166348475306911 0.14458949831012979 0 0.40046101270847978 0.15151521169005949 0 0.40819488092943768 0.13731043316644251 0 0.39166348475306911 0.14458949831012979 0 0.40046101270847978 0.15151521169005949 0 0.39371199757021552 0.1604490125950869 0 0.36660302089755947 0.141643973126901 0 0.38623913393974429 0.1592532456064403 0 0.38600715382407319 0.13308299866154441 0 0.38106991161729731 0.14476430542005661 0 0.39371199757021552 0.1604490125950869 0 0.38600715382407319 0.13308299866154441 0 0.39371199757021552 0.1604490125950869 0 0.38106991161729731 0.14476430542005661 0 0.38623913393974429 0.1592532456064403 0 0.39371199757021552 0.1604490125950869 0 0.36660302089755947 0.141643973126901 0 0.38106991161729731 0.14476430542005661 0 0.38623913393974429 0.1592532456064403 0 0.38600715382407319 0.13308299866154441 0 0.39166348475306911 0.14458949831012979 0 0.39371199757021552 0.1604490125950869 0 0.36962681525081448 0.16059554056269129 0 0.37860507003026928 0.16506324107658721 0 0.38623913393974429 0.1592532456064403 0 0.36709153346756918 0.17110901383451521 0 0.37860507003026928 0.16506324107658721 0 0.38166652620298858 0.17212013375118421 0 0.37860507003026928 0.16506324107658721 0 0.38879748289316252 0.1655312777905748 0 0.38166652620298858 0.17212013375118421 0 0.38879748289316252 0.1655312777905748 0 0.38166652620298858 0.17212013375118421 0 0.39197964071546437 0.17162449858299081 0 0.38879748289316252 0.1655312777905748 0 0.38623913393974429 0.1592532456064403 0 0.39371199757021552 0.1604490125950869 0 0.37860507003026928 0.16506324107658721 0 0.38879748289316252 0.1655312777905748 0 0.38623913393974429 0.1592532456064403 0 0.3746226893549644 0.1929459670174633 0 0.37147293106055379 0.1847610570799344 0 0.38166652620298858 0.17212013375118421 0 0.3746226893549644 0.1929459670174633 0 0.38166652620298858 0.17212013375118421 0 0.38335460271040561 0.18423353483665941 0 0.3746226893549644 0.1929459670174633 0 0.38166652620298858 0.17212013375118421 0 0.38166652620298858 0.17212013375118421 0 0.38901839298800328 0.1793890391348425 0 0.39197964071546437 0.17162449858299081 0 0.38166652620298858 0.17212013375118421 0 0.38901839298800328 0.1793890391348425 0 0.38335460271040561 0.18423353483665941 0 0.38901839298800328 0.1793890391348425 0 0.38335460271040561 0.18423353483665941 0 0.38811080229566619 0.1924789994431477 0 0.38901839298800328 0.1793890391348425 0 0.40216968933834341 0.1738275529474638 0 0.38811080229566619 0.1924789994431477 0 0.40864275208438988 0.17118619860255141 0 0.38811080229566619 0.1924789994431477 0 0.40864275208438988 0.17118619860255141 0 0.38811080229566619 0.1924789994431477 0 0.40161443790157469 0.18858055799520251 0 0.40216968933834341 0.1738275529474638 0 0.40864275208438988 0.17118619860255141 0 0.38811080229566619 0.1924789994431477 0 0.38901839298800328 0.1793890391348425 0 0.40216968933834341 0.1738275529474638 0 0.39197964071546437 0.17162449858299081 0 0.40216968933834341 0.1738275529474638 0 0.40864275208438988 0.17118619860255141 0 0.39371199757021552 0.1604490125950869 0 0.39859383594667303 0.1674162676734027 0 0.40283806176172537 0.16178509706734501 0 0.38879748289316252 0.1655312777905748 0 0.39371199757021552 0.1604490125950869 0 0.39859383594667303 0.1674162676734027 0 0.38879748289316252 0.1655312777905748 0 0.39197964071546437 0.17162449858299081 0 0.39859383594667303 0.1674162676734027 0 0.40216968933834341 0.1738275529474638 0 0.39197964071546437 0.17162449858299081 0 0.39859383594667303 0.1674162676734027 0 0.39859383594667303 0.1674162676734027 0 0.40411210784994978 0.16933544450961871 0 0.40283806176172537 0.16178509706734501 0 0.40216968933834341 0.1738275529474638 0 0.39859383594667303 0.1674162676734027 0 0.40411210784994978 0.16933544450961871 0 0.40216968933834341 0.1738275529474638 0 0.40411210784994978 0.16933544450961871 0 0.40864275208438988 0.17118619860255141 0 0.40411210784994978 0.16933544450961871 0 0.40283806176172537 0.16178509706734501 0 0.40762564558221692 0.1659285279424712 0 0.40046101270847978 0.15151521169005949 0 0.40283806176172537 0.16178509706734501 0 0.41252377091281728 0.15606611799343109 0 0.40046101270847978 0.15151521169005949 0 0.39371199757021552 0.1604490125950869 0 0.40283806176172537 0.16178509706734501 0 0.40864275208438988 0.17118619860255141 0 0.41291683053442269 0.16675373592121551 0 0.43362729525440791 0.160991174354078 0 0.40762564558221692 0.1659285279424712 0 0.41291683053442269 0.16675373592121551 0 0.41252377091281728 0.15606611799343109 0 0.40864275208438988 0.17118619860255141 0 0.43362729525440791 0.160991174354078 0 0.40283806176172537 0.16178509706734501 0 0.40762564558221692 0.1659285279424712 0 0.41252377091281728 0.15606611799343109 0 0.41291683053442269 0.16675373592121551 0 0.43362729525440791 0.160991174354078 0 0.41252377091281728 0.15606611799343109 0 0.40762564558221692 0.1659285279424712 0 0.40864275208438988 0.17118619860255141 0 0.41291683053442269 0.16675373592121551 0 0.40411210784994978 0.16933544450961871 0 0.40762564558221692 0.1659285279424712 0 0.40864275208438988 0.17118619860255141 0 0.40864275208438988 0.17118619860255141 0 0.41291683053442269 0.16675373592121551 0 0.40864275208438988 0.17118619860255141 0 0.41979481074537311 0.17989118448056499 0 0.40993850199289172 0.18875705794912959 0 0.40864275208438988 0.17118619860255141 0 0.40161443790157469 0.18858055799520251 0 0.40993850199289172 0.18875705794912959 0 0.40864275208438988 0.17118619860255141 0 0.41979481074537311 0.17989118448056499 0 0.4268725088848882 0.17365245277074581 0 0.41979481074537311 0.17989118448056499 0 0.40993850199289172 0.18875705794912959 0 0.41866707913043633 0.18824290990379969 0 0.42833681746065461 0.18350452489036889 0 0.43829124845001399 0.19223996323669229 0 0.43924304489278532 0.17656920842250109 0 0.41979481074537311 0.17989118448056499 0 0.42833681746065461 0.18350452489036889 0 0.41866707913043633 0.18824290990379969 0 0.41979481074537311 0.17989118448056499 0 0.42833681746065461 0.18350452489036889 0 0.4268725088848882 0.17365245277074581 0 0.42833681746065461 0.18350452489036889 0 0.4268725088848882 0.17365245277074581 0 0.43924304489278532 0.17656920842250109 0 0.40864275208438988 0.17118619860255141 0 0.4268725088848882 0.17365245277074581 0 0.43362729525440791 0.160991174354078 0 0.4268725088848882 0.17365245277074581 0 0.43362729525440791 0.160991174354078 0 0.43924304489278532 0.17656920842250109 0 0.43362729525440791 0.160991174354078 0 0.41252377091281728 0.15606611799343109 0 0.42006076243919499 0.14847840216007521 0 0.43362729525440791 0.160991174354078 0 0.42006076243919499 0.14847840216007521 0 0.43963292072273252 0.14042686037451441 0 0.42006076243919499 0.14847840216007521 0 0.42642520614071922 0.1199464594710897 0 0.43963292072273252 0.14042686037451441 0 0.44236402243188999 0.1239996416514161 0 0.42642520614071922 0.1199464594710897 0 0.42006076243919499 0.14847840216007521 0 0.43963292072273252 0.14042686037451441 0 0.42642520614071922 0.1199464594710897 0 0.40819488092943768 0.13731043316644251 0 0.42642520614071922 0.1199464594710897 0 0.40617443876893522 0.1183196256441785 0 0.40819488092943768 0.13731043316644251 0 0.42006076243919499 0.14847840216007521 0 0.42642520614071922 0.1199464594710897 0 0.40819488092943768 0.13731043316644251 0 0.41009850004387971 0.1475687983274169 0 0.42006076243919499 0.14847840216007521 0 0.40046101270847978 0.15151521169005949 0 0.40819488092943768 0.13731043316644251 0 0.41009850004387971 0.1475687983274169 0 0.40046101270847978 0.15151521169005949 0 0.41009850004387971 0.1475687983274169 0 0.41252377091281728 0.15606611799343109 0 0.41009850004387971 0.1475687983274169 0 0.41252377091281728 0.15606611799343109 0 0.42006076243919499 0.14847840216007521 0 0.40351641397187349 0.25231503434502822 0 0.40250747748805349 0.23502143930553379 0 0.388263139716159 0.24099291944990239 0 0.38698106173791119 0.25698267351373583 0 0.3733668161430263 0.24684862113690181 0 0.388263139716159 0.24099291944990239 0 0.3733668161430263 0.24684862113690181 0 0.388263139716159 0.24099291944990239 0 0.37530792174962979 0.23238339741363609 0 0.388263139716159 0.24099291944990239 0 0.38863472054153603 0.22026900841706409 0 0.37530792174962979 0.23238339741363609 0 0.36757885250694078 0.21377180028374271 0 0.38863472054153603 0.22026900841706409 0 0.37530792174962979 0.23238339741363609 0 0.40250747748805349 0.23502143930553379 0 0.388263139716159 0.24099291944990239 0 0.38863472054153603 0.22026900841706409 0 0.40250747748805349 0.23502143930553379 0 0.38863472054153603 0.22026900841706409 0 0.41062960281468341 0.22114340343388519 0 0.38863472054153603 0.22026900841706409 0 0.38602251764437351 0.20710494603248389 0 0.39976569523335098 0.20189997598598139 0 0.39976569523335098 0.20189997598598139 0 0.41062960281468341 0.22114340343388519 0 0.38863472054153603 0.22026900841706409 0 0.39976569523335098 0.20189997598598139 0 0.41062960281468341 0.22114340343388519 0 0.36757885250694078 0.21377180028374271 0 0.38602251764437351 0.20710494603248389 0 0.38811080229566619 0.1924789994431477 0 0.36757885250694078 0.21377180028374271 0 0.38863472054153603 0.22026900841706409 0 0.38602251764437351 0.20710494603248389 0 0.3746226893549644 0.1929459670174633 0 0.36757885250694078 0.21377180028374271 0 0.38811080229566619 0.1924789994431477 0 0.36757885250694078 0.21377180028374271 0 0.38811080229566619 0.1924789994431477 0 0.3746226893549644 0.1929459670174633 0 0.38335460271040561 0.18423353483665941 0 0.38811080229566619 0.1924789994431477 0 0.38811080229566619 0.1924789994431477 0 0.39976569523335098 0.20189997598598139 0 0.40161443790157469 0.18858055799520251 0 0.38602251764437351 0.20710494603248389 0 0.38811080229566619 0.1924789994431477 0 0.39976569523335098 0.20189997598598139 0 0.39976569523335098 0.20189997598598139 0 0.40161443790157469 0.18858055799520251 0 0.40993850199289172 0.18875705794912959 0 0.39976569523335098 0.20189997598598139 0 0.40993850199289172 0.18875705794912959 0 0.41588504304380092 0.2008320516709875 0 0.40993850199289172 0.18875705794912959 0 0.41588504304380092 0.2008320516709875 0 0.41866707913043633 0.18824290990379969 0 0.41588504304380092 0.2008320516709875 0 0.41866707913043633 0.18824290990379969 0 0.42549447660711348 0.19290793535536871 0 0.42833681746065461 0.18350452489036889 0 0.41866707913043633 0.18824290990379969 0 0.42549447660711348 0.19290793535536871 0 0.42833681746065461 0.18350452489036889 0 0.42549447660711348 0.19290793535536871 0 0.43829124845001399 0.19223996323669229 0 0.42549447660711348 0.19290793535536871 0 0.4284916269284994 0.20167082573833589 0 0.43829124845001399 0.19223996323669229 0 0.4284916269284994 0.20167082573833589 0 0.43751763851559322 0.20646135293759121 0 0.43829124845001399 0.19223996323669229 0 0.41588504304380092 0.2008320516709875 0 0.42549447660711348 0.19290793535536871 0 0.4284916269284994 0.20167082573833589 0 0.42498208965499179 0.21065524241640099 0 0.41062960281468341 0.22114340343388519 0 0.43238653697238211 0.22316857830120501 0 0.42498208965499179 0.21065524241640099 0 0.43238653697238211 0.22316857830120501 0 0.43751763851559322 0.20646135293759121 0 0.41588504304380092 0.2008320516709875 0 0.4284916269284994 0.20167082573833589 0 0.42498208965499179 0.21065524241640099 0 0.4284916269284994 0.20167082573833589 0 0.42498208965499179 0.21065524241640099 0 0.43751763851559322 0.20646135293759121 0 0.41588504304380092 0.2008320516709875 0 0.42498208965499179 0.21065524241640099 0 0.41062960281468341 0.22114340343388519 0 0.39976569523335098 0.20189997598598139 0 0.41588504304380092 0.2008320516709875 0 0.41062960281468341 0.22114340343388519 0 0.40250747748805349 0.23502143930553379 0 0.41062960281468341 0.22114340343388519 0 0.42149351039601568 0.240386830881789 0 0.41062960281468341 0.22114340343388519 0 0.42149351039601568 0.240386830881789 0 0.41062960281468341 0.22114340343388519 0 0.43238653697238211 0.22316857830120501 0 0.42149351039601568 0.240386830881789 0 0.43238653697238211 0.22316857830120501 0 0.42149351039601568 0.240386830881789 0 0.43904628575441829 0.23581590753005521 0 0.43580054548076502 0.24640930265761921 0 0.42149351039601568 0.240386830881789 0 0.43904628575441829 0.23581590753005521 0 0.43235741797735128 0.25963025832969078 0 0.42149351039601568 0.240386830881789 0 0.43235741797735128 0.25963025832969078 0 0.43580054548076502 0.24640930265761921 0 0.42149351039601568 0.240386830881789 0 0.40351641397187349 0.25231503434502822 0 0.40250747748805349 0.23502143930553379 0 0.42149351039601568 0.240386830881789 0 0.44205408084550751 0.25322742984009622 0 0.45629013458137141 0.25130954486438128 0 0.46136938723034032 0.24047329002028181 0 0.46501638559879183 0.25090558385571898 0 0.46136938723034032 0.24047329002028181 0 0.47445022821952781 0.24216793471238779 0 0.4549813876407654 0.24345007207732261 0 0.46790869443602329 0.23367271431454889 0 0.46136938723034032 0.24047329002028181 0 0.4549813876407654 0.24345007207732261 0 0.46790869443602329 0.23367271431454889 0 0.4549813876407654 0.24345007207732261 0 0.45519897741300752 0.2296712694042162 0 0.46790869443602329 0.23367271431454889 0 0.45629013458137141 0.25130954486438128 0 0.46501638559879183 0.25090558385571898 0 0.46136938723034032 0.24047329002028181 0 0.44205408084550751 0.25322742984009622 0 0.46136938723034032 0.24047329002028181 0 0.4549813876407654 0.24345007207732261 0 0.44205408084550751 0.25322742984009622 0 0.4549813876407654 0.24345007207732261 0 0.44405143243053208 0.2429860867064649 0 0.44205408084550751 0.25322742984009622 0 0.46136938723034032 0.24047329002028181 0 0.44205408084550751 0.25322742984009622 0 0.4549813876407654 0.24345007207732261 0 0.44205408084550751 0.25322742984009622 0 0.43580054548076502 0.24640930265761921 0 0.44405143243053208 0.2429860867064649 0 0.44405143243053208 0.2429860867064649 0 0.43904628575441829 0.23581590753005521 0 0.44859144349816971 0.2363497059453433 0 0.43580054548076502 0.24640930265761921 0 0.44405143243053208 0.2429860867064649 0 0.43904628575441829 0.23581590753005521 0 0.4549813876407654 0.24345007207732261 0 0.44405143243053208 0.2429860867064649 0 0.44859144349816971 0.2363497059453433 0 0.4549813876407654 0.24345007207732261 0 0.44859144349816971 0.2363497059453433 0 0.45519897741300752 0.2296712694042162 0 0.44859144349816971 0.2363497059453433 0 0.44519077404298918 0.22885591897561169 0 0.45519897741300752 0.2296712694042162 0 0.43904628575441829 0.23581590753005521 0 0.44859144349816971 0.2363497059453433 0 0.44519077404298918 0.22885591897561169 0 0.43238653697238211 0.22316857830120501 0 0.43904628575441829 0.23581590753005521 0 0.44519077404298918 0.22885591897561169 0 0.43238653697238211 0.22316857830120501 0 0.44519077404298918 0.22885591897561169 0 0.44663560831323962 0.2193232746601666 0 0.44663560831323962 0.2193232746601666 0 0.45655536118089479 0.21990691216011279 0 0.45519897741300752 0.2296712694042162 0 0.44519077404298918 0.22885591897561169 0 0.44663560831323962 0.2193232746601666 0 0.45519897741300752 0.2296712694042162 0 0.45655536118089479 0.21990691216011279 0 0.45519897741300752 0.2296712694042162 0 0.46342661212134201 0.22484299239962491 0 0.45519897741300752 0.2296712694042162 0 0.46790869443602329 0.23367271431454889 0 0.46342661212134201 0.22484299239962491 0 0.46790869443602329 0.23367271431454889 0 0.46342661212134201 0.22484299239962491 0 0.47108005894711691 0.224123664496092 0 0.46342661212134201 0.22484299239962491 0 0.46540440218698742 0.2150558762146273 0 0.47108005894711691 0.224123664496092 0 0.45655536118089479 0.21990691216011279 0 0.46342661212134201 0.22484299239962491 0 0.46540440218698742 0.2150558762146273 0 0.46540440218698742 0.2150558762146273 0 0.46207461728170879 0.20296097487582301 0 0.47551872855090471 0.2014567941307274 0 0.46540440218698742 0.2150558762146273 0 0.45239555294310452 0.2092427255182672 0 0.46207461728170879 0.20296097487582301 0 0.45655536118089479 0.21990691216011279 0 0.46540440218698742 0.2150558762146273 0 0.45239555294310452 0.2092427255182672 0 0.44663560831323962 0.2193232746601666 0 0.45655536118089479 0.21990691216011279 0 0.45239555294310452 0.2092427255182672 0 0.44663560831323962 0.2193232746601666 0 0.43751763851559322 0.20646135293759121 0 0.45239555294310452 0.2092427255182672 0 0.43238653697238211 0.22316857830120501 0 0.44663560831323962 0.2193232746601666 0 0.43751763851559322 0.20646135293759121 0 0.43751763851559322 0.20646135293759121 0 0.45239555294310452 0.2092427255182672 0 0.45212303772189832 0.19669281690540891 0 0.43751763851559322 0.20646135293759121 0 0.45212303772189832 0.19669281690540891 0 0.43829124845001399 0.19223996323669229 0 0.45212303772189832 0.19669281690540891 0 0.43829124845001399 0.19223996323669229 0 0.45169287715100509 0.18340902802246539 0 0.45212303772189832 0.19669281690540891 0 0.46391709341282061 0.1913704841449444 0 0.45169287715100509 0.18340902802246539 0 0.45212303772189832 0.19669281690540891 0 0.46207461728170879 0.20296097487582301 0 0.46391709341282061 0.1913704841449444 0 0.45239555294310452 0.2092427255182672 0 0.45212303772189832 0.19669281690540891 0 0.46207461728170879 0.20296097487582301 0 0.46207461728170879 0.20296097487582301 0 0.46391709341282061 0.1913704841449444 0 0.47551872855090471 0.2014567941307274 0 0.46391709341282061 0.1913704841449444 0 0.47551872855090471 0.2014567941307274 0 0.47568024176724699 0.18682593517923141 0 0.47551872855090471 0.2014567941307274 0 0.48256828546459157 0.1920423990344613 0 0.48931335826082573 0.19733963656180359 0 0.47551872855090471 0.2014567941307274 0 0.48931335826082573 0.19733963656180359 0 0.4858177467820825 0.20938028107002149 0 0.47551872855090471 0.2014567941307274 0 0.48256828546459157 0.1920423990344613 0 0.47568024176724699 0.18682593517923141 0 0.48931335826082573 0.19733963656180359 0 0.50000000000000466 0.21496501038065111 0 0.5 0.18609363500910239 0 0.48256828546459157 0.1920423990344613 0 0.48931335826082573 0.19733963656180359 0 0.48976081327938908 0.18254723026608299 0 0.48931335826082573 0.19733963656180359 0 0.48976081327938908 0.18254723026608299 0 0.5 0.18609363500910239 0 0.48931335826082573 0.19733963656180359 0 0.4858177467820825 0.20938028107002149 0 0.50000000000000466 0.21496501038065111 0 0.4858177467820825 0.20938028107002149 0 0.50000000000000466 0.21496501038065111 0 0.48068469361517319 0.22771915020046751 0 0.4858177467820825 0.20938028107002149 0 0.47600475949069848 0.2157585385341366 0 0.48068469361517319 0.22771915020046751 0 0.47551872855090471 0.2014567941307274 0 0.4858177467820825 0.20938028107002149 0 0.47600475949069848 0.2157585385341366 0 0.46540440218698742 0.2150558762146273 0 0.47551872855090471 0.2014567941307274 0 0.47600475949069848 0.2157585385341366 0 0.46540440218698742 0.2150558762146273 0 0.47600475949069848 0.2157585385341366 0 0.47108005894711691 0.224123664496092 0 0.46136938723034032 0.24047329002028181 0 0.46790869443602329 0.23367271431454889 0 0.48068469361517319 0.22771915020046751 0 0.46136938723034032 0.24047329002028181 0 0.48068469361517319 0.22771915020046751 0 0.47600475949069848 0.2157585385341366 0 0.47108005894711691 0.224123664496092 0 0.48068469361517319 0.22771915020046751 0 0.46790869443602329 0.23367271431454889 0 0.47108005894711691 0.224123664496092 0 0.48068469361517319 0.22771915020046751 0 0.50000000000000466 0.21496501038065111 0 0.48068469361517319 0.22771915020046751 0 0.50000000000000466 0.21496501038065111 0 0.48068469361517319 0.22771915020046751 0 0.5 0.23576256022957681 0 0.48068469361517319 0.22771915020046751 0 0.48582453945629078 0.24003457212056151 0 0.5 0.23576256022957681 0 0.47935613519704268 0.25170707736490938 0 0.5 0.25656011007850232 0 0.48582453945629078 0.24003457212056151 0 0.5 0.25656011007850232 0 0.48582453945629078 0.24003457212056151 0 0.5 0.23576256022957681 0 0.46136938723034032 0.24047329002028181 0 0.48068469361517319 0.22771915020046751 0 0.47445022821952781 0.24216793471238779 0 0.47935613519704268 0.25170707736490938 0 0.48582453945629078 0.24003457212056151 0 0.47445022821952781 0.24216793471238779 0 0.48068469361517319 0.22771915020046751 0 0.48582453945629078 0.24003457212056151 0 0.47445022821952781 0.24216793471238779 0 0.46501638559879183 0.25090558385571898 0 0.47935613519704268 0.25170707736490938 0 0.47445022821952781 0.24216793471238779 0 0.45861183842442638 0.1507961501056061 0 0.456207264094878 0.13125100543566839 0 0.46925665747185591 0.1336489416332271 0 0.456207264094878 0.13125100543566839 0 0.46925665747185591 0.1336489416332271 0 0.46690871064254708 0.12294083182832879 0 0.456207264094878 0.13125100543566839 0 0.43963292072273252 0.14042686037451441 0 0.44236402243188999 0.1239996416514161 0 0.43362729525440791 0.160991174354078 0 0.45861183842442638 0.1507961501056061 0 0.43963292072273252 0.14042686037451441 0 0.43362729525440791 0.160991174354078 0 0.45861183842442638 0.1507961501056061 0 0.45861183842442638 0.1507961501056061 0 0.456207264094878 0.13125100543566839 0 0.43963292072273252 0.14042686037451441 0 0.43362729525440791 0.160991174354078 0 0.43924304489278532 0.17656920842250109 0 0.45329898193747459 0.1680854260226563 0 0.43362729525440791 0.160991174354078 0 0.45861183842442638 0.1507961501056061 0 0.45329898193747459 0.1680854260226563 0 0.43829124845001399 0.19223996323669229 0 0.43924304489278532 0.17656920842250109 0 0.45169287715100509 0.18340902802246539 0 0.43924304489278532 0.17656920842250109 0 0.45169287715100509 0.18340902802246539 0 0.45329898193747459 0.1680854260226563 0 0.46391709341282061 0.1913704841449444 0 0.45169287715100509 0.18340902802246539 0 0.46547136880955259 0.17666158037800839 0 0.45169287715100509 0.18340902802246539 0 0.46547136880955259 0.17666158037800839 0 0.45329898193747459 0.1680854260226563 0 0.46391709341282061 0.1913704841449444 0 0.46547136880955259 0.17666158037800839 0 0.47568024176724699 0.18682593517923141 0 0.46547136880955259 0.17666158037800839 0 0.45329898193747459 0.1680854260226563 0 0.47090081097999509 0.16187622136210919 0 0.45861183842442638 0.1507961501056061 0 0.45329898193747459 0.1680854260226563 0 0.47090081097999509 0.16187622136210919 0 0.47090081097999509 0.16187622136210919 0 0.47774769767715519 0.1735388677476421 0 0.48667859743691699 0.1615741780616084 0 0.46547136880955259 0.17666158037800839 0 0.47090081097999509 0.16187622136210919 0 0.47774769767715519 0.1735388677476421 0 0.46547136880955259 0.17666158037800839 0 0.47568024176724699 0.18682593517923141 0 0.47774769767715519 0.1735388677476421 0 0.47568024176724699 0.18682593517923141 0 0.47774769767715519 0.1735388677476421 0 0.48976081327938908 0.18254723026608299 0 0.48256828546459157 0.1920423990344613 0 0.47568024176724699 0.18682593517923141 0 0.48976081327938908 0.18254723026608299 0 0.47774769767715519 0.1735388677476421 0 0.48976081327938908 0.18254723026608299 0 0.48667859743691699 0.1615741780616084 0 0.48976081327938908 0.18254723026608299 0 0.48667859743691699 0.1615741780616084 0 0.48976081327938908 0.18254723026608299 0 0.5 0.18609363500910239 0 0.5 0.15722225963755379 0 0.48976081327938908 0.18254723026608299 0 0.48667859743691699 0.1615741780616084 0 0.5 0.15722225963755379 0 0.5 0.15722225963755379 0 0.4924639871238472 0.14836903156253681 0 0.5 0.13407856269385121 0 0.4924639871238472 0.14836903156253681 0 0.48359638159444501 0.14060112585713391 0 0.5 0.13407856269385121 0 0.48667859743691699 0.1615741780616084 0 0.48359638159444501 0.14060112585713391 0 0.48667859743691699 0.1615741780616084 0 0.5 0.15722225963755379 0 0.4924639871238472 0.14836903156253681 0 0.48667859743691699 0.1615741780616084 0 0.4924639871238472 0.14836903156253681 0 0.48359638159444501 0.14060112585713391 0 0.45861183842442638 0.1507961501056061 0 0.48359638159444501 0.14060112585713391 0 0.47090081097999509 0.16187622136210919 0 0.48667859743691699 0.1615741780616084 0 0.48359638159444501 0.14060112585713391 0 0.45861183842442638 0.1507961501056061 0 0.48359638159444501 0.14060112585713391 0 0.46925665747185591 0.1336489416332271 0 0.45861183842442638 0.1507961501056061 0 0.47090081097999509 0.16187622136210919 0 0.48359638159444501 0.14060112585713391 0 0.48359638159444501 0.14060112585713391 0 0.46925665747185591 0.1336489416332271 0 0.48095909260298292 0.1226555949393985 0 0.48359638159444501 0.14060112585713391 0 0.48095909260298292 0.1226555949393985 0 0.46925665747185591 0.1336489416332271 0 0.48095909260298292 0.1226555949393985 0 0.46690871064254708 0.12294083182832879 0 0.48359638159444501 0.14060112585713391 0 0.49038616929497331 0.12869291837431929 0 0.5 0.13407856269385121 0 0.48359638159444501 0.14060112585713391 0 0.5 0.13407856269385121 0 0.48359638159444501 0.14060112585713391 0 0.49038616929497331 0.12869291837431929 0 0.48095909260298292 0.1226555949393985 0 0.49038616929497331 0.12869291837431929 0 0.5 0.13407856269385121 0 0.5 0.12835088426600499 0 0.5 0.12835088426600499 0 0.49084039787680572 0.1138431411285989 0 0.5 0.099479508894456337 0 0.49038616929497331 0.12869291837431929 0 0.5 0.12835088426600499 0 0.49084039787680572 0.1138431411285989 0 0.49038616929497331 0.12869291837431929 0 0.49084039787680572 0.1138431411285989 0 0.48095909260298292 0.1226555949393985 0 0.49084039787680572 0.1138431411285989 0 0.5 0.099479508894456337 0 0.47832180361152088 0.10471006402166309 0 0.5 0.099479508894456337 0 0.47832180361152088 0.10471006402166309 0 0.48382689212410851 0.084393513228784828 0 0.47832180361152088 0.10471006402166309 0 0.47128428954759971 0.1126742511437427 0 0.46512039500439523 0.088731264267660689 0 0.47832180361152088 0.10471006402166309 0 0.48095909260298292 0.1226555949393985 0 0.49084039787680572 0.1138431411285989 0 0.47832180361152088 0.10471006402166309 0 0.48095909260298292 0.1226555949393985 0 0.47832180361152088 0.10471006402166309 0 0.47128428954759971 0.1126742511437427 0 0.48095909260298292 0.1226555949393985 0 0.47128428954759971 0.1126742511437427 0 0.48095909260298292 0.1226555949393985 0 0.46690871064254708 0.12294083182832879 0 0.5 0.070608133522907512 0 0.48382689212410851 0.084393513228784828 0 0.47969833090369668 0.06002762551271637 0 0.5 0.099479508894456337 0 0.5 0.070608133522907512 0 0.48382689212410851 0.084393513228784828 0 0.48382689212410851 0.084393513228784828 0 0.47174755603252561 0.074449037819228486 0 0.46512039500439523 0.088731264267660689 0 0.47832180361152088 0.10471006402166309 0 0.48382689212410851 0.084393513228784828 0 0.46512039500439523 0.088731264267660689 0 0.48382689212410851 0.084393513228784828 0 0.47174755603252561 0.074449037819228486 0 0.47969833090369668 0.06002762551271637 0 0.47174755603252561 0.074449037819228486 0 0.45895650046119069 0.064788277391578761 0 0.47969833090369668 0.06002762551271637 0 0.45895650046119069 0.064788277391578761 0 0.46512039500439523 0.088731264267660689 0 0.44868925806764742 0.080509933147612803 0 0.45895650046119069 0.064788277391578761 0 0.46512039500439523 0.088731264267660689 0 0.47174755603252561 0.074449037819228486 0 0.45895650046119069 0.064788277391578761 0 0.46512039500439523 0.088731264267660689 0 0.46512039500439523 0.088731264267660689 0 0.44868925806764742 0.080509933147612803 0 0.4483705949668253 0.09548609325025198 0 0.44868925806764742 0.080509933147612803 0 0.43915409354376761 0.062882574093118482 0 0.43278964984224338 0.091414516782104133 0 0.44868925806764742 0.080509933147612803 0 0.4483705949668253 0.09548609325025198 0 0.43278964984224338 0.091414516782104133 0 0.45895650046119069 0.064788277391578761 0 0.44868925806764742 0.080509933147612803 0 0.43915409354376761 0.062882574093118482 0 0.45695934221000772 0.1174455384040704 0 0.45822914185009561 0.10416781792007319 0 0.44730903667740768 0.1089418854884526 0 0.456207264094878 0.13125100543566839 0 0.45695934221000772 0.1174455384040704 0 0.46690871064254708 0.12294083182832879 0 0.47128428954759971 0.1126742511437427 0 0.45695934221000772 0.1174455384040704 0 0.46690871064254708 0.12294083182832879 0 0.47128428954759971 0.1126742511437427 0 0.45695934221000772 0.1174455384040704 0 0.45822914185009561 0.10416781792007319 0 0.47128428954759971 0.1126742511437427 0 0.46512039500439523 0.088731264267660689 0 0.46512039500439523 0.088731264267660689 0 0.45822914185009561 0.10416781792007319 0 0.4483705949668253 0.09548609325025198 0 0.47128428954759971 0.1126742511437427 0 0.46512039500439523 0.088731264267660689 0 0.45822914185009561 0.10416781792007319 0 0.45822914185009561 0.10416781792007319 0 0.44730903667740768 0.1089418854884526 0 0.4483705949668253 0.09548609325025198 0 0.4483705949668253 0.09548609325025198 0 0.43817896369133069 0.1042574775415756 0 0.43278964984224338 0.091414516782104133 0 0.44730903667740768 0.1089418854884526 0 0.4483705949668253 0.09548609325025198 0 0.43817896369133069 0.1042574775415756 0 0.44730903667740768 0.1089418854884526 0 0.43817896369133069 0.1042574775415756 0 0.43856930723533688 0.1142863660381335 0 0.44730903667740768 0.1089418854884526 0 0.43856930723533688 0.1142863660381335 0 0.44236402243188999 0.1239996416514161 0 0.45695934221000772 0.1174455384040704 0 0.44730903667740768 0.1089418854884526 0 0.44236402243188999 0.1239996416514161 0 0.456207264094878 0.13125100543566839 0 0.45695934221000772 0.1174455384040704 0 0.44236402243188999 0.1239996416514161 0 0.43856930723533688 0.1142863660381335 0 0.44236402243188999 0.1239996416514161 0 0.42642520614071922 0.1199464594710897 0 0.43817896369133069 0.1042574775415756 0 0.43856930723533688 0.1142863660381335 0 0.42642520614071922 0.1199464594710897 0 0.42642520614071922 0.1199464594710897 0 0.42121973910157312 0.106084304441585 0 0.40617443876893522 0.1183196256441785 0 0.41958292577087258 0.094709581916297303 0 0.40617443876893522 0.1183196256441785 0 0.41149791129169039 0.09759772000075323 0 0.41958292577087258 0.094709581916297303 0 0.40617443876893522 0.1183196256441785 0 0.41149791129169039 0.09759772000075323 0 0.40617443876893522 0.1183196256441785 0 0.40233216366066649 0.1047940928742002 0 0.42121973910157312 0.106084304441585 0 0.41958292577087258 0.094709581916297303 0 0.40617443876893522 0.1183196256441785 0 0.41149791129169039 0.09759772000075323 0 0.41010306437941241 0.090134185147952267 0 0.40253388699660542 0.094771213968565859 0 0.41149791129169039 0.09759772000075323 0 0.41958292577087258 0.094709581916297303 0 0.42098735110041102 0.092236630013658727 0 0.42121973910157312 0.106084304441585 0 0.41958292577087258 0.094709581916297303 0 0.43278964984224338 0.091414516782104133 0 0.43817896369133069 0.1042574775415756 0 0.42642520614071922 0.1199464594710897 0 0.43278964984224338 0.091414516782104133 0 0.42642520614071922 0.1199464594710897 0 0.42121973910157312 0.106084304441585 0 0.43278964984224338 0.091414516782104133 0 0.42642520614071922 0.1199464594710897 0 0.43278964984224338 0.091414516782104133 0 0.42846669336869497 0.078310305416390072 0 0.42098735110041102 0.092236630013658727 0 0.42846669336869497 0.078310305416390072 0 0.42284273761066882 0.078683934427259822 0 0.42098735110041102 0.092236630013658727 0 0.43278964984224338 0.091414516782104133 0 0.42846669336869497 0.078310305416390072 0 0.42098735110041102 0.092236630013658727 0 0.41958292577087258 0.094709581916297303 0 0.43278964984224338 0.091414516782104133 0 0.42098735110041102 0.092236630013658727 0 0.43915409354376761 0.062882574093118482 0 0.43278964984224338 0.091414516782104133 0 0.43915409354376761 0.062882574093118482 0 0.43278964984224338 0.091414516782104133 0 0.42846669336869497 0.078310305416390072 0 0.43519634680066699 0.065779880312276356 0 0.42522368468367661 0.062643353108051469 0 0.43172089056317681 0.05940775463281419 0 0.43915409354376761 0.062882574093118482 0 0.42846669336869497 0.078310305416390072 0 0.43519634680066699 0.065779880312276356 0 0.43915409354376761 0.062882574093118482 0 0.43519634680066699 0.065779880312276356 0 0.43172089056317681 0.05940775463281419 0 0.43915409354376761 0.062882574093118482 0 0.42846669336869497 0.078310305416390072 0 0.42846669336869497 0.078310305416390072 0 0.43519634680066699 0.065779880312276356 0 0.42846669336869497 0.078310305416390072 0 0.42284273761066882 0.078683934427259822 0 0.43519634680066699 0.065779880312276356 0 0.42284273761066882 0.078683934427259822 0 0.43519634680066699 0.065779880312276356 0 0.42471811413672922 0.070103816789448548 0 0.42284273761066882 0.078683934427259822 0 0.42471811413672922 0.070103816789448548 0 0.41899203900935822 0.074541586024245182 0 0.43519634680066699 0.065779880312276356 0 0.42471811413672922 0.070103816789448548 0 0.42522368468367661 0.062643353108051469 0 0.42471811413672922 0.070103816789448548 0 0.42522368468367661 0.062643353108051469 0 0.41934861529495532 0.067623690293330332 0 0.41934861529495532 0.067623690293330332 0 0.41197643805266049 0.070295229610278481 0 0.41583280059235189 0.06053446593462794 0 0.42522368468367661 0.062643353108051469 0 0.41934861529495532 0.067623690293330332 0 0.41583280059235189 0.06053446593462794 0 0.41934861529495532 0.067623690293330332 0 0.41899203900935822 0.074541586024245182 0 0.41197643805266049 0.070295229610278481 0 0.41899203900935822 0.074541586024245182 0 0.4117481501522402 0.077252503847284201 0 0.41197643805266049 0.070295229610278481 0 0.42471811413672922 0.070103816789448548 0 0.41934861529495532 0.067623690293330332 0 0.41899203900935822 0.074541586024245182 0 0.41899203900935822 0.074541586024245182 0 0.4117481501522402 0.077252503847284201 0 0.41687423336912027 0.081547582362633791 0 0.4117481501522402 0.077252503847284201 0 0.41197643805266049 0.070295229610278481 0 0.40119328219482547 0.076850938134902541 0 0.41197643805266049 0.070295229610278481 0 0.40290542908842808 0.062006549871646527 0 0.41583280059235189 0.06053446593462794 0 0.41149791129169039 0.09759772000075323 0 0.415189825202948 0.091286784898411272 0 0.42098735110041102 0.092236630013658727 0 0.41564253010290553 0.087186620994344002 0 0.415189825202948 0.091286784898411272 0 0.41802022745593082 0.089465645370779445 0 0.41564253010290553 0.087186620994344002 0 0.41802022745593082 0.089465645370779445 0 0.41956608047183352 0.085907172360196987 0 0.415189825202948 0.091286784898411272 0 0.42098735110041102 0.092236630013658727 0 0.41802022745593082 0.089465645370779445 0 0.41958292577087258 0.094709581916297303 0 0.42098735110041102 0.092236630013658727 0 0.42098735110041102 0.092236630013658727 0 0.41802022745593082 0.089465645370779445 0 0.41956608047183352 0.085907172360196987 0 0.42284273761066882 0.078683934427259822 0 0.42098735110041102 0.092236630013658727 0 0.41956608047183352 0.085907172360196987 0 0.42284273761066882 0.078683934427259822 0 0.41956608047183352 0.085907172360196987 0 0.41687423336912027 0.081547582362633791 0 0.42284273761066882 0.078683934427259822 0 0.41899203900935822 0.074541586024245182 0 0.41687423336912027 0.081547582362633791 0 0.41564253010290553 0.087186620994344002 0 0.41687423336912027 0.081547582362633791 0 0.40970475813523649 0.083027183104360969 0 0.41564253010290553 0.087186620994344002 0 0.41956608047183352 0.085907172360196987 0 0.41687423336912027 0.081547582362633791 0 0.4117481501522402 0.077252503847284201 0 0.40970475813523649 0.083027183104360969 0 0.40119328219482547 0.076850938134902541 0 0.4117481501522402 0.077252503847284201 0 0.41687423336912027 0.081547582362633791 0 0.40970475813523649 0.083027183104360969 0 0.40970475813523649 0.083027183104360969 0 0.41010306437941241 0.090134185147952267 0 0.40394413674664148 0.086681609111953384 0 0.41564253010290553 0.087186620994344002 0 0.40970475813523649 0.083027183104360969 0 0.41010306437941241 0.090134185147952267 0 0.41564253010290553 0.087186620994344002 0 0.415189825202948 0.091286784898411272 0 0.41010306437941241 0.090134185147952267 0 0.41149791129169039 0.09759772000075323 0 0.415189825202948 0.091286784898411272 0 0.41010306437941241 0.090134185147952267 0 0.40394413674664148 0.086681609111953384 0 0.3961856920271275 0.088624525203985241 0 0.40253388699660542 0.094771213968565859 0 0.41010306437941241 0.090134185147952267 0 0.40394413674664148 0.086681609111953384 0 0.40253388699660542 0.094771213968565859 0 0.40394413674664148 0.086681609111953384 0 0.3961856920271275 0.088624525203985241 0 0.40119328219482547 0.076850938134902541 0 0.40970475813523649 0.083027183104360969 0 0.40394413674664148 0.086681609111953384 0 0.40119328219482547 0.076850938134902541 0 0.3961856920271275 0.088624525203985241 0 0.40119328219482547 0.076850938134902541 0 0.38612544583262121 0.079009072552390605 0 0.40119328219482547 0.076850938134902541 0 0.386925423230635 0.066254882025505196 0 0.40290542908842808 0.062006549871646527 0 0.41197643805266049 0.070295229610278481 0 0.40119328219482547 0.076850938134902541 0 0.40290542908842808 0.062006549871646527 0 0.40119328219482547 0.076850938134902541 0 0.386925423230635 0.066254882025505196 0 0.38612544583262121 0.079009072552390605 0 0.37059746633178869 0.078350970794459962 0 0.386925423230635 0.066254882025505196 0 0.38612544583262121 0.079009072552390605 0 0.37059746633178869 0.078350970794459962 0 0.36753173232208891 0.05295853319131269 0 0.386925423230635 0.066254882025505196 0 0.37059746633178869 0.078350970794459962 0 0.38474333993602933 0.090797248028552713 0 0.37830231007793103 0.1057169847280022 0 0.3961856920271275 0.088624525203985241 0 0.38474333993602933 0.090797248028552713 0 0.38612544583262121 0.079009072552390605 0 0.37059746633178869 0.078350970794459962 0 0.38474333993602933 0.090797248028552713 0 0.38612544583262121 0.079009072552390605 0 0.38474333993602933 0.090797248028552713 0 0.37830231007793103 0.1057169847280022 0 0.39250578541067788 0.1022846868639256 0 0.37830231007793103 0.1057169847280022 0 0.38971127026644342 0.1164306519604178 0 0.39250578541067788 0.1022846868639256 0 0.38600715382407319 0.13308299866154441 0 0.37830231007793103 0.1057169847280022 0 0.37445249119852658 0.1157691199985582 0 0.38600715382407319 0.13308299866154441 0 0.37830231007793103 0.1057169847280022 0 0.38600715382407319 0.13308299866154441 0 0.37830231007793103 0.1057169847280022 0 0.38971127026644342 0.1164306519604178 0 0.38600715382407319 0.13308299866154441 0 0.38971127026644342 0.1164306519604178 0 0.40617443876893522 0.1183196256441785 0 0.38971127026644342 0.1164306519604178 0 0.39762357900954909 0.1109135084043069 0 0.39250578541067788 0.1022846868639256 0 0.38971127026644342 0.1164306519604178 0 0.39762357900954909 0.1109135084043069 0 0.40617443876893522 0.1183196256441785 0 0.39762357900954909 0.1109135084043069 0 0.40617443876893522 0.1183196256441785 0 0.40233216366066649 0.1047940928742002 0 0.40233216366066649 0.1047940928742002 0 0.40253388699660542 0.094771213968565859 0 0.39250578541067788 0.1022846868639256 0 0.41149791129169039 0.09759772000075323 0 0.40233216366066649 0.1047940928742002 0 0.40253388699660542 0.094771213968565859 0 0.3961856920271275 0.088624525203985241 0 0.38474333993602933 0.090797248028552713 0 0.39250578541067788 0.1022846868639256 0 0.3961856920271275 0.088624525203985241 0 0.40253388699660542 0.094771213968565859 0 0.39250578541067788 0.1022846868639256 0 0.39762357900954909 0.1109135084043069 0 0.40233216366066649 0.1047940928742002 0 0.39250578541067788 0.1022846868639256 0 0.39758351941708958 0.020648728294975591 0 0.40551810548001832 0.034972714956126652 0 0.41434435756187382 0.02416620078459317 0 0.39758351941708958 0.020648728294975591 0 0.41017625883895448 0.0057126082291806442 0 0.39224541728111167 -0.0066404865599946281 0 0.39758351941708958 0.020648728294975591 0 0.39224541728111167 -0.0066404865599946281 0 0.36961526472597789 0.01040140373563264 0 0.39758351941708958 0.020648728294975591 0 0.39224541728111167 -0.0066404865599946281 0 0.36961526472597789 0.01040140373563264 0 0.39758351941708958 0.020648728294975591 0 0.37625031185001512 0.030988576380894979 0 0.36753173232208891 0.05295853319131269 0 0.37625031185001512 0.030988576380894979 0 0.3903538962768503 0.043554596488793548 0 0.39758351941708958 0.020648728294975591 0 0.37625031185001512 0.030988576380894979 0 0.3903538962768503 0.043554596488793548 0 0.36753173232208891 0.05295853319131269 0 0.386925423230635 0.066254882025505196 0 0.3903538962768503 0.043554596488793548 0 0.386925423230635 0.066254882025505196 0 0.3903538962768503 0.043554596488793548 0 0.40290542908842808 0.062006549871646527 0 0.3903538962768503 0.043554596488793548 0 0.40290542908842808 0.062006549871646527 0 0.41128219147624112 0.048726418033921401 0 0.3903538962768503 0.043554596488793548 0 0.40551810548001832 0.034972714956126652 0 0.41128219147624112 0.048726418033921401 0 0.39758351941708958 0.020648728294975591 0 0.3903538962768503 0.043554596488793548 0 0.40551810548001832 0.034972714956126652 0 0.40551810548001832 0.034972714956126652 0 0.42052988616247278 0.038282285903815799 0 0.41434435756187382 0.02416620078459317 0 0.40551810548001832 0.034972714956126652 0 0.42052988616247278 0.038282285903815799 0 0.41128219147624112 0.048726418033921401 0 0.42052988616247278 0.038282285903815799 0 0.41128219147624112 0.048726418033921401 0 0.42638854598688969 0.051302381628063859 0 0.40290542908842808 0.062006549871646527 0 0.41128219147624112 0.048726418033921401 0 0.41583280059235189 0.06053446593462794 0 0.41128219147624112 0.048726418033921401 0 0.41583280059235189 0.06053446593462794 0 0.42638854598688969 0.051302381628063859 0 0.43915409354376761 0.062882574093118482 0 0.43172089056317681 0.05940775463281419 0 0.44041044540509022 0.044192318919868523 0 0.42522368468367661 0.062643353108051469 0 0.42638854598688969 0.051302381628063859 0 0.43172089056317681 0.05940775463281419 0 0.42522368468367661 0.062643353108051469 0 0.41583280059235189 0.06053446593462794 0 0.42638854598688969 0.051302381628063859 0 0.42638854598688969 0.051302381628063859 0 0.43172089056317681 0.05940775463281419 0 0.44041044540509022 0.044192318919868523 0 0.42052988616247278 0.038282285903815799 0 0.43182599259886573 0.039550474835339168 0 0.42843660348481422 0.028618904192672351 0 0.42052988616247278 0.038282285903815799 0 0.42638854598688969 0.051302381628063859 0 0.43182599259886573 0.039550474835339168 0 0.43182599259886573 0.039550474835339168 0 0.44041044540509022 0.044192318919868523 0 0.43850291075274522 0.038242335296834323 0 0.42638854598688969 0.051302381628063859 0 0.43182599259886573 0.039550474835339168 0 0.44041044540509022 0.044192318919868523 0 0.43182599259886573 0.039550474835339168 0 0.43640483541880731 0.033335209684371071 0 0.42843660348481422 0.028618904192672351 0 0.43182599259886573 0.039550474835339168 0 0.43640483541880731 0.033335209684371071 0 0.43850291075274522 0.038242335296834323 0 0.43640483541880731 0.033335209684371071 0 0.43676290084364472 0.02728813139335777 0 0.42843660348481422 0.028618904192672351 0 0.43676290084364472 0.02728813139335777 0 0.43496716984122841 0.020742265514545648 0 0.42843660348481422 0.028618904192672351 0 0.43496716984122841 0.020742265514545648 0 0.42487843181946588 0.01532387079922724 0 0.43537067029707582 0.011187256961464021 0 0.43496716984122841 0.020742265514545648 0 0.43537067029707582 0.011187256961464021 0 0.44134430293130472 0.018149306556718321 0 0.42843660348481422 0.028618904192672351 0 0.41434435756187382 0.02416620078459317 0 0.42487843181946588 0.01532387079922724 0 0.43496716984122841 0.020742265514545648 0 0.42843660348481422 0.028618904192672351 0 0.42487843181946588 0.01532387079922724 0 0.42052988616247278 0.038282285903815799 0 0.42843660348481422 0.028618904192672351 0 0.41434435756187382 0.02416620078459317 0 0.39758351941708958 0.020648728294975591 0 0.41434435756187382 0.02416620078459317 0 0.41017625883895448 0.0057126082291806442 0 0.41017625883895448 0.0057126082291806442 0 0.42660959953690047 0.002748391819441272 0 0.41813010893820313 -0.008132150289160707 0 0.41434435756187382 0.02416620078459317 0 0.41017625883895448 0.0057126082291806442 0 0.42487843181946588 0.01532387079922724 0 0.41017625883895448 0.0057126082291806442 0 0.42660959953690047 0.002748391819441272 0 0.42487843181946588 0.01532387079922724 0 0.42660959953690047 0.002748391819441272 0 0.42487843181946588 0.01532387079922724 0 0.43537067029707582 0.011187256961464021 0 0.42660959953690047 0.002748391819441272 0 0.43537067029707582 0.011187256961464021 0 0.44221130537595471 -0.001512071288043383 0 0.44526724217252672 0.010698875283376621 0 0.45869297704401119 0.0076121702152344602 0 0.44221130537595471 -0.001512071288043383 0 0.43537067029707582 0.011187256961464021 0 0.44526724217252672 0.010698875283376621 0 0.44221130537595471 -0.001512071288043383 0 0.44526724217252672 0.010698875283376621 0 0.44848038053007622 0.024094913761684929 0 0.45869297704401119 0.0076121702152344602 0 0.43537067029707582 0.011187256961464021 0 0.44526724217252672 0.010698875283376621 0 0.44134430293130472 0.018149306556718321 0 0.44526724217252672 0.010698875283376621 0 0.44134430293130472 0.018149306556718321 0 0.44848038053007622 0.024094913761684929 0 0.44915170252785358 0.026702592019278631 0 0.44848038053007622 0.024094913761684929 0 0.45869297704401119 0.0076121702152344602 0 0.43496716984122841 0.020742265514545648 0 0.44134430293130472 0.018149306556718321 0 0.44263605181561649 0.024023221262520392 0 0.44134430293130472 0.018149306556718321 0 0.44263605181561649 0.024023221262520392 0 0.44848038053007622 0.024094913761684929 0 0.43640483541880731 0.033335209684371071 0 0.43676290084364472 0.02728813139335777 0 0.4413698436577575 0.029721056312679388 0 0.43676290084364472 0.02728813139335777 0 0.43496716984122841 0.020742265514545648 0 0.44263605181561649 0.024023221262520392 0 0.43676290084364472 0.02728813139335777 0 0.4413698436577575 0.029721056312679388 0 0.44263605181561649 0.024023221262520392 0 0.4413698436577575 0.029721056312679388 0 0.44263605181561649 0.024023221262520392 0 0.44423822471142982 0.027675372806535359 0 0.44263605181561649 0.024023221262520392 0 0.44423822471142982 0.027675372806535359 0 0.44626089599124258 0.02608899898832362 0 0.44423822471142982 0.027675372806535359 0 0.44466597259187468 0.030703211828927109 0 0.4469401627056 0.02797745284196004 0 0.4413698436577575 0.029721056312679388 0 0.44423822471142982 0.027675372806535359 0 0.44466597259187468 0.030703211828927109 0 0.44915170252785358 0.026702592019278631 0 0.45430475264801018 0.031036621584036639 0 0.45136811448917219 0.035312006429257498 0 0.44915170252785358 0.026702592019278631 0 0.45136811448917219 0.035312006429257498 0 0.4469401627056 0.02797745284196004 0 0.44567110812338828 0.033666652763734109 0 0.44915170252785358 0.026702592019278631 0 0.44567110812338828 0.033666652763734109 0 0.4469401627056 0.02797745284196004 0 0.44915170252785358 0.026702592019278631 0 0.44567110812338828 0.033666652763734109 0 0.44466597259187468 0.030703211828927109 0 0.4469401627056 0.02797745284196004 0 0.44567110812338828 0.033666652763734109 0 0.44263605181561649 0.024023221262520392 0 0.44626089599124258 0.02608899898832362 0 0.44848038053007622 0.024094913761684929 0 0.44915170252785358 0.026702592019278631 0 0.44626089599124258 0.02608899898832362 0 0.44848038053007622 0.024094913761684929 0 0.4469401627056 0.02797745284196004 0 0.44915170252785358 0.026702592019278631 0 0.44626089599124258 0.02608899898832362 0 0.44423822471142982 0.027675372806535359 0 0.4469401627056 0.02797745284196004 0 0.44626089599124258 0.02608899898832362 0 0.44915170252785358 0.026702592019278631 0 0.44848038053007622 0.024094913761684929 0 0.44915170252785358 0.026702592019278631 0 0.45869297704401119 0.0076121702152344602 0 0.44915170252785358 0.026702592019278631 0 0.46595288217045733 0.017415315808924858 0 0.45869297704401119 0.0076121702152344602 0 0.44915170252785358 0.026702592019278631 0 0.46076585132588033 0.027962018112576179 0 0.46595288217045733 0.017415315808924858 0 0.44915170252785358 0.026702592019278631 0 0.46076585132588033 0.027962018112576179 0 0.45430475264801018 0.031036621584036639 0 0.46076585132588033 0.027962018112576179 0 0.46595288217045733 0.017415315808924858 0 0.47486369710106091 0.0252443152873459 0 0.46595288217045733 0.017415315808924858 0 0.45869297704401119 0.0076121702152344602 0 0.47193452810173669 0.002300669536839212 0 0.45895650046119069 0.064788277391578761 0 0.43915409354376761 0.062882574093118482 0 0.45279260591798698 0.040845290515496652 0 0.43915409354376761 0.062882574093118482 0 0.44041044540509022 0.044192318919868523 0 0.44567110812338828 0.033666652763734109 0 0.43915409354376761 0.062882574093118482 0 0.45279260591798698 0.040845290515496652 0 0.43915409354376761 0.062882574093118482 0 0.44567110812338828 0.033666652763734109 0 0.43915409354376761 0.062882574093118482 0 0.45279260591798698 0.040845290515496652 0 0.44567110812338828 0.033666652763734109 0 0.43640483541880731 0.033335209684371071 0 0.4413698436577575 0.029721056312679388 0 0.44567110812338828 0.033666652763734109 0 0.44041044540509022 0.044192318919868523 0 0.43850291075274522 0.038242335296834323 0 0.44567110812338828 0.033666652763734109 0 0.43640483541880731 0.033335209684371071 0 0.44567110812338828 0.033666652763734109 0 0.43640483541880731 0.033335209684371071 0 0.43850291075274522 0.038242335296834323 0 0.44567110812338828 0.033666652763734109 0 0.44041044540509022 0.044192318919868523 0 0.44567110812338828 0.033666652763734109 0 0.4413698436577575 0.029721056312679388 0 0.44466597259187468 0.030703211828927109 0 0.44567110812338828 0.033666652763734109 0 0.44915170252785358 0.026702592019278631 0 0.44567110812338828 0.033666652763734109 0 0.45136811448917219 0.035312006429257498 0 0.44567110812338828 0.033666652763734109 0 0.45136811448917219 0.035312006429257498 0 0.45279260591798698 0.040845290515496652 0 0.44567110812338828 0.033666652763734109 0 0.45136811448917219 0.035312006429257498 0 0.45279260591798698 0.040845290515496652 0 0.45136811448917219 0.035312006429257498 0 0.46076585132588033 0.027962018112576179 0 0.45585057562885251 0.035904183755387731 0 0.47792528781442678 0.0388204709533733 0 0.45585057562885251 0.035904183755387731 0 0.46581451387068101 0.045487518224174781 0 0.47792528781442678 0.0388204709533733 0 0.45585057562885251 0.035904183755387731 0 0.47792528781442678 0.0388204709533733 0 0.46076585132588033 0.027962018112576179 0 0.45585057562885251 0.035904183755387731 0 0.46076585132588033 0.027962018112576179 0 0.45430475264801018 0.031036621584036639 0 0.45585057562885251 0.035904183755387731 0 0.45430475264801018 0.031036621584036639 0 0.45136811448917219 0.035312006429257498 0 0.45585057562885251 0.035904183755387731 0 0.45136811448917219 0.035312006429257498 0 0.45585057562885251 0.035904183755387731 0 0.45279260591798698 0.040845290515496652 0 0.45136811448917219 0.035312006429257498 0 0.45585057562885251 0.035904183755387731 0 0.45279260591798698 0.040845290515496652 0 0.45585057562885251 0.035904183755387731 0 0.45279260591798698 0.040845290515496652 0 0.45585057562885251 0.035904183755387731 0 0.46581451387068101 0.045487518224174781 0 0.45895650046119069 0.064788277391578761 0 0.45279260591798698 0.040845290515496652 0 0.45895650046119069 0.064788277391578761 0 0.45279260591798698 0.040845290515496652 0 0.46581451387068101 0.045487518224174781 0 0.45895650046119069 0.064788277391578761 0 0.46581451387068101 0.045487518224174781 0 0.47969833090369668 0.06002762551271637 0 0.46581451387068101 0.045487518224174781 0 0.47969833090369668 0.06002762551271637 0 0.47792528781442678 0.0388204709533733 0 0.47969833090369668 0.06002762551271637 0 0.47792528781442678 0.0388204709533733 0 0.50000000000000111 0.041736758151358702 0 0.47792528781442678 0.0388204709533733 0 0.50000000000000111 0.041736758151358702 0 0.47792528781442678 0.0388204709533733 0 0.50000000000000111 0.041736758151358702 0 0.48728398317393351 0.02700540130184732 0 0.5 0.070608133522907512 0 0.47969833090369668 0.06002762551271637 0 0.50000000000000111 0.041736758151358702 0 0.48030853692220132 0.01467012968227482 0 0.47193452810173669 0.002300669536839212 0 0.48480617019657229 -0.0022918018197453029 0 0.46595288217045733 0.017415315808924858 0 0.48030853692220132 0.01467012968227482 0 0.47193452810173669 0.002300669536839212 0 0.46595288217045733 0.017415315808924858 0 0.48030853692220132 0.01467012968227482 0 0.47486369710106091 0.0252443152873459 0 0.46076585132588033 0.027962018112576179 0 0.47792528781442678 0.0388204709533733 0 0.47486369710106091 0.0252443152873459 0 0.47792528781442678 0.0388204709533733 0 0.47486369710106091 0.0252443152873459 0 0.48728398317393351 0.02700540130184732 0 0.48030853692220132 0.01467012968227482 0 0.47486369710106091 0.0252443152873459 0 0.48728398317393351 0.02700540130184732 0 0.50000000000000111 0.041736758151358702 0 0.48728398317393351 0.02700540130184732 0 0.5 0.013248823175675439 0 0.48030853692220132 0.01467012968227482 0 0.48728398317393351 0.02700540130184732 0 0.5 0.013248823175675439 0 0.48030853692220132 0.01467012968227482 0 0.5 0.013248823175675439 0 0.48480617019657229 -0.0022918018197453029 0 0.48480617019657229 -0.0022918018197453029 0 0.5 -0.015239111800008091 0 0.482703986958267 -0.014894459650354229 0 0.5 0.013248823175675439 0 0.48480617019657229 -0.0022918018197453029 0 0.5 -0.015239111800008091 0 0.48480617019657229 -0.0022918018197453029 0 0.482703986958267 -0.014894459650354229 0 0.46823425156016901 -0.01147825158880969 0 0.47193452810173669 0.002300669536839212 0 0.48480617019657229 -0.0022918018197453029 0 0.46823425156016901 -0.01147825158880969 0 0.482703986958267 -0.014894459650354229 0 0.47777552607632667 -0.030568673392853851 0 0.46823425156016901 -0.01147825158880969 0 0.47777552607632667 -0.030568673392853851 0 0.46823425156016901 -0.01147825158880969 0 0.46612348092656852 -0.022025470399502148 0 0.47777552607632667 -0.030568673392853851 0 0.46823425156016901 -0.01147825158880969 0 0.47777552607632667 -0.030568673392853851 0 0.46990752438514888 -0.037140252968802259 0 0.46612348092656852 -0.022025470399502148 0 0.5 -0.015239111800008091 0 0.482703986958267 -0.014894459650354229 0 0.47777552607632667 -0.030568673392853851 0 0.5 -0.015239111800008091 0 0.47777552607632667 -0.030568673392853851 0 0.5 -0.043727046775691607 0 0.47777552607632667 -0.030568673392853851 0 0.5 -0.043727046775691607 0 0.4805850152837155 -0.042950039300627622 0 0.5 -0.043727046775691607 0 0.48198402156912701 -0.056043180485014832 0 0.4805850152837155 -0.042950039300627622 0 0.5 -0.043727046775691607 0 0.48198402156912701 -0.056043180485014832 0 0.5 -0.072214981751375085 0 0.48198402156912701 -0.056043180485014832 0 0.46434828909580522 -0.059125181887568608 0 0.4806783545314906 -0.071910221076610048 0 0.48198402156912701 -0.056043180485014832 0 0.46434828909580522 -0.059125181887568608 0 0.46856052806297871 -0.047024736642387342 0 0.48198402156912701 -0.056043180485014832 0 0.4805850152837155 -0.042950039300627622 0 0.46856052806297871 -0.047024736642387342 0 0.4805850152837155 -0.042950039300627622 0 0.46990752438514888 -0.037140252968802259 0 0.46856052806297871 -0.047024736642387342 0 0.47777552607632667 -0.030568673392853851 0 0.4805850152837155 -0.042950039300627622 0 0.46990752438514888 -0.037140252968802259 0 0.46990752438514888 -0.037140252968802259 0 0.45649307157615521 -0.043132345108640349 0 0.46612348092656852 -0.022025470399502148 0 0.45649307157615521 -0.043132345108640349 0 0.46612348092656852 -0.022025470399502148 0 0.46990752438514888 -0.037140252968802259 0 0.45649307157615521 -0.043132345108640349 0 0.46856052806297871 -0.047024736642387342 0 0.45649307157615521 -0.043132345108640349 0 0.46434828909580522 -0.059125181887568608 0 0.46856052806297871 -0.047024736642387342 0 0.45649307157615521 -0.043132345108640349 0 0.46434828909580522 -0.059125181887568608 0 0.44686266222574172 -0.064239219817778248 0 0.45649307157615521 -0.043132345108640349 0 0.44686266222574172 -0.064239219817778248 0 0.43997834122896828 -0.059515087884053269 0 0.4449085877940202 -0.045897497531232068 0 0.44686266222574172 -0.064239219817778248 0 0.45649307157615521 -0.043132345108640349 0 0.4449085877940202 -0.045897497531232068 0 0.44686266222574172 -0.064239219817778248 0 0.43997834122896828 -0.059515087884053269 0 0.4449085877940202 -0.045897497531232068 0 0.43997834122896828 -0.059515087884053269 0 0.4449085877940202 -0.045897497531232068 0 0.43496467402256839 -0.05001099782519576 0 0.43997834122896828 -0.059515087884053269 0 0.44686266222574172 -0.064239219817778248 0 0.45649307157615521 -0.043132345108640349 0 0.44706236012203959 -0.029437971310055239 0 0.45447966036473891 -0.022060034405315999 0 0.45649307157615521 -0.043132345108640349 0 0.44712020722913148 -0.038230650205485987 0 0.44706236012203959 -0.029437971310055239 0 0.45649307157615521 -0.043132345108640349 0 0.44712020722913148 -0.038230650205485987 0 0.4449085877940202 -0.045897497531232068 0 0.4449085877940202 -0.045897497531232068 0 0.43481609744171801 -0.042507873815494243 0 0.43496467402256839 -0.05001099782519576 0 0.44712020722913148 -0.038230650205485987 0 0.4449085877940202 -0.045897497531232068 0 0.44001680942431098 -0.034454786872016308 0 0.4449085877940202 -0.045897497531232068 0 0.44001680942431098 -0.034454786872016308 0 0.43481609744171801 -0.042507873815494243 0 0.44712020722913148 -0.038230650205485987 0 0.44001680942431098 -0.034454786872016308 0 0.44706236012203959 -0.029437971310055239 0 0.44001680942431098 -0.034454786872016308 0 0.44189002717735371 -0.021953273037490211 0 0.43137728371686362 -0.024589754000124881 0 0.44001680942431098 -0.034454786872016308 0 0.44706236012203959 -0.029437971310055239 0 0.44189002717735371 -0.021953273037490211 0 0.44706236012203959 -0.029437971310055239 0 0.44189002717735371 -0.021953273037490211 0 0.45447966036473891 -0.022060034405315999 0 0.44189002717735371 -0.021953273037490211 0 0.44806123274522952 -0.01220973545325175 0 0.45447966036473891 -0.022060034405315999 0 0.44221130537595471 -0.001512071288043383 0 0.44806123274522952 -0.01220973545325175 0 0.43274694009564502 -0.01083024446177412 0 0.44189002717735371 -0.021953273037490211 0 0.44806123274522952 -0.01220973545325175 0 0.43274694009564502 -0.01083024446177412 0 0.45869297704401119 0.0076121702152344602 0 0.44221130537595471 -0.001512071288043383 0 0.45561099459649401 -0.006614844315311931 0 0.44221130537595471 -0.001512071288043383 0 0.44806123274522952 -0.01220973545325175 0 0.45561099459649401 -0.006614844315311931 0 0.45869297704401119 0.0076121702152344602 0 0.47193452810173669 0.002300669536839212 0 0.46823425156016901 -0.01147825158880969 0 0.45869297704401119 0.0076121702152344602 0 0.46823425156016901 -0.01147825158880969 0 0.44806123274522952 -0.01220973545325175 0 0.45917429038677299 -0.01505157186936716 0 0.45561099459649401 -0.006614844315311931 0 0.45869297704401119 0.0076121702152344602 0 0.45561099459649401 -0.006614844315311931 0 0.46823425156016901 -0.01147825158880969 0 0.45917429038677299 -0.01505157186936716 0 0.45561099459649401 -0.006614844315311931 0 0.46823425156016901 -0.01147825158880969 0 0.45649307157615521 -0.043132345108640349 0 0.46612348092656852 -0.022025470399502148 0 0.45447966036473891 -0.022060034405315999 0 0.45917429038677299 -0.01505157186936716 0 0.46823425156016901 -0.01147825158880969 0 0.46612348092656852 -0.022025470399502148 0 0.45917429038677299 -0.01505157186936716 0 0.46612348092656852 -0.022025470399502148 0 0.45447966036473891 -0.022060034405315999 0 0.44806123274522952 -0.01220973545325175 0 0.45917429038677299 -0.01505157186936716 0 0.45447966036473891 -0.022060034405315999 0 0.48633756404387302 -0.1152354149142889 0 0.467897266848743 -0.1240618816077621 0 0.48441019828931992 -0.1349608687492867 0 0.48633756404387302 -0.1152354149142889 0 0.47720317891511338 -0.099771114443371348 0 0.467897266848743 -0.1240618816077621 0 0.5 -0.12415141145516929 0 0.48633756404387302 -0.1152354149142889 0 0.50000000000000022 -0.1007029167270586 0 0.5 -0.12415141145516929 0 0.48633756404387302 -0.1152354149142889 0 0.48441019828931992 -0.1349608687492867 0 0.50000000000000022 -0.1007029167270586 0 0.47720317891511338 -0.099771114443371348 0 0.50000000000000022 -0.1007029167270586 0 0.48228755407524709 -0.088548351090632318 0 0.50000000000000022 -0.1007029167270586 0 0.47720317891511338 -0.099771114443371348 0 0.48228755407524709 -0.088548351090632318 0 0.48633756404387302 -0.1152354149142889 0 0.50000000000000022 -0.1007029167270586 0 0.47720317891511338 -0.099771114443371348 0 0.48228755407524709 -0.088548351090632318 0 0.46457510815049391 -0.076393785454206053 0 0.46910448568569552 -0.089807899448934733 0 0.48228755407524709 -0.088548351090632318 0 0.46457510815049391 -0.076393785454206053 0 0.48228755407524709 -0.088548351090632318 0 0.4806783545314906 -0.071910221076610048 0 0.46457510815049391 -0.076393785454206053 0 0.47720317891511338 -0.099771114443371348 0 0.46910448568569552 -0.089807899448934733 0 0.48228755407524709 -0.088548351090632318 0 0.50000000000000022 -0.1007029167270586 0 0.48228755407524709 -0.088548351090632318 0 0.5 -0.072214981751375085 0 0.48228755407524709 -0.088548351090632318 0 0.5 -0.072214981751375085 0 0.4806783545314906 -0.071910221076610048 0 0.48198402156912701 -0.056043180485014832 0 0.5 -0.072214981751375085 0 0.4806783545314906 -0.071910221076610048 0 0.46434828909580522 -0.059125181887568608 0 0.4806783545314906 -0.071910221076610048 0 0.46457510815049391 -0.076393785454206053 0 0.46434828909580522 -0.059125181887568608 0 0.46457510815049391 -0.076393785454206053 0 0.44686266222574172 -0.064239219817778248 0 0.46457510815049391 -0.076393785454206053 0 0.44686266222574172 -0.064239219817778248 0 0.43997834122896828 -0.059515087884053269 0 0.44686266222574172 -0.064239219817778248 0 0.43311616066491088 -0.078468777646920562 0 0.44686266222574172 -0.064239219817778248 0 0.43923609948554632 -0.080954283358850493 0 0.46457510815049391 -0.076393785454206053 0 0.44686266222574172 -0.064239219817778248 0 0.43923609948554632 -0.080954283358850493 0 0.44686266222574172 -0.064239219817778248 0 0.43923609948554632 -0.080954283358850493 0 0.43311616066491088 -0.078468777646920562 0 0.46457510815049391 -0.076393785454206053 0 0.43923609948554632 -0.080954283358850493 0 0.45440635783023231 -0.098720230671648035 0 0.43923609948554632 -0.080954283358850493 0 0.45440635783023231 -0.098720230671648035 0 0.4316095367453513 -0.097669346899922863 0 0.46910448568569552 -0.089807899448934733 0 0.46457510815049391 -0.076393785454206053 0 0.45440635783023231 -0.098720230671648035 0 0.47720317891511338 -0.099771114443371348 0 0.45440635783023231 -0.098720230671648035 0 0.47720317891511338 -0.099771114443371348 0 0.45440635783023231 -0.098720230671648035 0 0.45448094119456472 -0.1142346870066194 0 0.47720317891511338 -0.099771114443371348 0 0.46910448568569552 -0.089807899448934733 0 0.45440635783023231 -0.098720230671648035 0 0.45440635783023231 -0.098720230671648035 0 0.44071280512265087 -0.1067337182596949 0 0.4316095367453513 -0.097669346899922863 0 0.45440635783023231 -0.098720230671648035 0 0.4316095367453513 -0.097669346899922863 0 0.45440635783023231 -0.098720230671648035 0 0.44071280512265087 -0.1067337182596949 0 0.45448094119456472 -0.1142346870066194 0 0.44071280512265087 -0.1067337182596949 0 0.45448094119456472 -0.1142346870066194 0 0.43399748722976289 -0.11849707429160999 0 0.45448094119456472 -0.1142346870066194 0 0.43399748722976289 -0.11849707429160999 0 0.44738359457480759 -0.12684865963359659 0 0.467897266848743 -0.1240618816077621 0 0.45448094119456472 -0.1142346870066194 0 0.44738359457480759 -0.12684865963359659 0 0.47720317891511338 -0.099771114443371348 0 0.467897266848743 -0.1240618816077621 0 0.45448094119456472 -0.1142346870066194 0 0.41850686768160872 -0.1188203837108401 0 0.43399748722976289 -0.11849707429160999 0 0.42382268572277532 -0.1308952210656063 0 0.44071280512265087 -0.1067337182596949 0 0.43399748722976289 -0.11849707429160999 0 0.42875972720945849 -0.1039152468020282 0 0.41850686768160872 -0.1188203837108401 0 0.43399748722976289 -0.11849707429160999 0 0.42875972720945849 -0.1039152468020282 0 0.41850686768160872 -0.1188203837108401 0 0.42625398010085253 -0.097422467409787467 0 0.41850686768160872 -0.1188203837108401 0 0.42875972720945849 -0.1039152468020282 0 0.42625398010085253 -0.097422467409787467 0 0.44071280512265087 -0.1067337182596949 0 0.42875972720945849 -0.1039152468020282 0 0.4316095367453513 -0.097669346899922863 0 0.42875972720945849 -0.1039152468020282 0 0.4316095367453513 -0.097669346899922863 0 0.4316095367453513 -0.097669346899922863 0 0.42625398010085253 -0.097422467409787467 0 0.42875972720945849 -0.1039152468020282 0 0.4316095367453513 -0.097669346899922863 0 0.42625398010085253 -0.097422467409787467 0 0.42625398010085253 -0.097422467409787467 0 0.40136293037726278 -0.096275044261693851 0 0.41850686768160872 -0.1188203837108401 0 0.42625398010085253 -0.097422467409787467 0 0.40136293037726278 -0.096275044261693851 0 0.42625398010085253 -0.097422467409787467 0 0.41723208577936 -0.083437021301894232 0 0.40136293037726278 -0.096275044261693851 0 0.41723208577936 -0.083437021301894232 0 0.40216383554861518 -0.081027228708064863 0 0.40136293037726278 -0.096275044261693851 0 0.41723208577936 -0.083437021301894232 0 0.40893605570207608 -0.071767228799591729 0 0.40216383554861518 -0.081027228708064863 0 0.42625398010085253 -0.097422467409787467 0 0.43311616066491088 -0.078468777646920562 0 0.42625398010085253 -0.097422467409787467 0 0.41723208577936 -0.083437021301894232 0 0.43311616066491088 -0.078468777646920562 0 0.41723208577936 -0.083437021301894232 0 0.43311616066491088 -0.078468777646920562 0 0.41749431197308012 -0.073074291820465223 0 0.43923609948554632 -0.080954283358850493 0 0.4316095367453513 -0.097669346899922863 0 0.43311616066491088 -0.078468777646920562 0 0.4316095367453513 -0.097669346899922863 0 0.42625398010085253 -0.097422467409787467 0 0.43311616066491088 -0.078468777646920562 0 0.43923609948554632 -0.080954283358850493 0 0.4316095367453513 -0.097669346899922863 0 0.43997834122896828 -0.059515087884053269 0 0.43311616066491088 -0.078468777646920562 0 0.43084581583794962 -0.061182537770678419 0 0.43311616066491088 -0.078468777646920562 0 0.42475095532577639 -0.066518312937751026 0 0.43084581583794962 -0.061182537770678419 0 0.43997834122896828 -0.059515087884053269 0 0.43311616066491088 -0.078468777646920562 0 0.43311616066491088 -0.078468777646920562 0 0.42475095532577639 -0.066518312937751026 0 0.41749431197308012 -0.073074291820465223 0 0.42475095532577639 -0.066518312937751026 0 0.41596811889968449 -0.064389381330695869 0 0.41749431197308012 -0.073074291820465223 0 0.42475095532577639 -0.066518312937751026 0 0.41596811889968449 -0.064389381330695869 0 0.42312937736007988 -0.058428151993983657 0 0.41596811889968449 -0.064389381330695869 0 0.41749431197308012 -0.073074291820465223 0 0.40893605570207608 -0.071767228799591729 0 0.41723208577936 -0.083437021301894232 0 0.41749431197308012 -0.073074291820465223 0 0.40893605570207608 -0.071767228799591729 0 0.41596811889968449 -0.064389381330695869 0 0.40893605570207608 -0.071767228799591729 0 0.40678326680138133 -0.0609212463301965 0 0.40893605570207608 -0.071767228799591729 0 0.39500561377115712 -0.068500140644093779 0 0.40678326680138133 -0.0609212463301965 0 0.40893605570207608 -0.071767228799591729 0 0.39500561377115712 -0.068500140644093779 0 0.40216383554861518 -0.081027228708064863 0 0.37918373777773268 -0.073413839571001907 0 0.38304552646143319 -0.053671770492983377 0 0.36771497176328682 -0.065773212096561465 0 0.39500561377115712 -0.068500140644093779 0 0.37918373777773268 -0.073413839571001907 0 0.38828249211321991 -0.08515670853305074 0 0.39500561377115712 -0.068500140644093779 0 0.37918373777773268 -0.073413839571001907 0 0.38304552646143319 -0.053671770492983377 0 0.37918373777773268 -0.073413839571001907 0 0.38304552646143319 -0.053671770492983377 0 0.38828249211321991 -0.08515670853305074 0 0.40136293037726278 -0.096275044261693851 0 0.37647188065367287 -0.095127621113602984 0 0.37918373777773268 -0.073413839571001907 0 0.37532194909403221 -0.0931559086490205 0 0.37918373777773268 -0.073413839571001907 0 0.38828249211321991 -0.08515670853305074 0 0.37532194909403221 -0.0931559086490205 0 0.37918373777773268 -0.073413839571001907 0 0.37532194909403221 -0.0931559086490205 0 0.3711125082498255 -0.082083749909608122 0 0.38828249211321991 -0.08515670853305074 0 0.37532194909403221 -0.0931559086490205 0 0.37647188065367287 -0.095127621113602984 0 0.39500561377115712 -0.068500140644093779 0 0.38828249211321991 -0.08515670853305074 0 0.40216383554861518 -0.081027228708064863 0 0.38828249211321991 -0.08515670853305074 0 0.40216383554861518 -0.081027228708064863 0 0.40136293037726278 -0.096275044261693851 0 0.40136293037726278 -0.096275044261693851 0 0.38121244279607691 -0.1094840806007828 0 0.39791025057909007 -0.1136603720457766 0 0.40136293037726278 -0.096275044261693851 0 0.37647188065367287 -0.095127621113602984 0 0.40136293037726278 -0.096275044261693851 0 0.37647188065367287 -0.095127621113602984 0 0.38121244279607691 -0.1094840806007828 0 0.37647188065367287 -0.095127621113602984 0 0.38121244279607691 -0.1094840806007828 0 0.36769147361298299 -0.1097896847227423 0 0.38121244279607691 -0.1094840806007828 0 0.38815374443130157 -0.12197725109127169 0 0.39791025057909007 -0.1136603720457766 0 0.38121244279607691 -0.1094840806007828 0 0.37897174858859312 -0.11879794181578469 0 0.38815374443130157 -0.12197725109127169 0 0.38121244279607691 -0.1094840806007828 0 0.37897174858859312 -0.11879794181578469 0 0.37239648771490741 -0.1151248446400753 0 0.37897174858859312 -0.11879794181578469 0 0.38815374443130157 -0.12197725109127169 0 0.38004885390348908 -0.12519507008919131 0 0.37897174858859312 -0.11879794181578469 0 0.37304721409719022 -0.1222084626576021 0 0.38004885390348908 -0.12519507008919131 0 0.38815374443130157 -0.12197725109127169 0 0.39791025057909007 -0.1136603720457766 0 0.401398621407 -0.12639064519887031 0 0.41850686768160872 -0.1188203837108401 0 0.40136293037726278 -0.096275044261693851 0 0.39791025057909007 -0.1136603720457766 0 0.41850686768160872 -0.1188203837108401 0 0.39791025057909007 -0.1136603720457766 0 0.401398621407 -0.12639064519887031 0 0.41282316183968309 -0.020640007200711841 0 0.42373221567265151 -0.017587300919705711 0 0.42293486615538078 -0.02730949074340339 0 0.4151920231002002 -0.030398654765630018 0 0.41282316183968309 -0.020640007200711841 0 0.42293486615538078 -0.02730949074340339 0 0.4151920231002002 -0.030398654765630018 0 0.40774650655791689 -0.031150327771080219 0 0.41282316183968309 -0.020640007200711841 0 0.40774650655791689 -0.031150327771080219 0 0.41282316183968309 -0.020640007200711841 0 0.40110775057917669 -0.022740849469655419 0 0.41282316183968309 -0.020640007200711841 0 0.40644394738952688 -0.01038451619868132 0 0.40110775057917669 -0.022740849469655419 0 0.41017625883895448 0.0057126082291806442 0 0.40644394738952688 -0.01038451619868132 0 0.41813010893820313 -0.008132150289160707 0 0.41282316183968309 -0.020640007200711841 0 0.40644394738952688 -0.01038451619868132 0 0.41813010893820313 -0.008132150289160707 0 0.41282316183968309 -0.020640007200711841 0 0.41813010893820313 -0.008132150289160707 0 0.42373221567265151 -0.017587300919705711 0 0.41813010893820313 -0.008132150289160707 0 0.43274694009564502 -0.01083024446177412 0 0.42373221567265151 -0.017587300919705711 0 0.42660959953690047 0.002748391819441272 0 0.41813010893820313 -0.008132150289160707 0 0.43274694009564502 -0.01083024446177412 0 0.42660959953690047 0.002748391819441272 0 0.44221130537595471 -0.001512071288043383 0 0.43274694009564502 -0.01083024446177412 0 0.44189002717735371 -0.021953273037490211 0 0.43274694009564502 -0.01083024446177412 0 0.43137728371686362 -0.024589754000124881 0 0.42373221567265151 -0.017587300919705711 0 0.42293486615538078 -0.02730949074340339 0 0.43137728371686362 -0.024589754000124881 0 0.43274694009564502 -0.01083024446177412 0 0.42373221567265151 -0.017587300919705711 0 0.43137728371686362 -0.024589754000124881 0 0.42293486615538078 -0.02730949074340339 0 0.43137728371686362 -0.024589754000124881 0 0.43041769427773657 -0.034341631190859492 0 0.44001680942431098 -0.034454786872016308 0 0.43137728371686362 -0.024589754000124881 0 0.43041769427773657 -0.034341631190859492 0 0.44001680942431098 -0.034454786872016308 0 0.43041769427773657 -0.034341631190859492 0 0.43481609744171801 -0.042507873815494243 0 0.43481609744171801 -0.042507873815494243 0 0.43033523656050632 -0.046640748443163488 0 0.4269910004587591 -0.042221468906911343 0 0.43041769427773657 -0.034341631190859492 0 0.43481609744171801 -0.042507873815494243 0 0.4269910004587591 -0.042221468906911343 0 0.43481609744171801 -0.042507873815494243 0 0.43033523656050632 -0.046640748443163488 0 0.43496467402256839 -0.05001099782519576 0 0.43033523656050632 -0.046640748443163488 0 0.4269910004587591 -0.042221468906911343 0 0.42612317629791691 -0.045400642021309133 0 0.4269910004587591 -0.042221468906911343 0 0.42612317629791691 -0.045400642021309133 0 0.42195804928751929 -0.04336062141980767 0 0.42612317629791691 -0.045400642021309133 0 0.42195804928751929 -0.04336062141980767 0 0.42520841888488298 -0.049379729315354018 0 0.4269910004587591 -0.042221468906911343 0 0.42347205047309883 -0.036080542891236529 0 0.42014614453944721 -0.039836982377010333 0 0.4269910004587591 -0.042221468906911343 0 0.42195804928751929 -0.04336062141980767 0 0.42014614453944721 -0.039836982377010333 0 0.43041769427773657 -0.034341631190859492 0 0.4269910004587591 -0.042221468906911343 0 0.42347205047309883 -0.036080542891236529 0 0.42293486615538078 -0.02730949074340339 0 0.43041769427773657 -0.034341631190859492 0 0.42347205047309883 -0.036080542891236529 0 0.43997834122896828 -0.059515087884053269 0 0.43084581583794962 -0.061182537770678419 0 0.42853541960926061 -0.051662770790747589 0 0.43997834122896828 -0.059515087884053269 0 0.42853541960926061 -0.051662770790747589 0 0.43997834122896828 -0.059515087884053269 0 0.43496467402256839 -0.05001099782519576 0 0.42853541960926061 -0.051662770790747589 0 0.43033523656050632 -0.046640748443163488 0 0.43496467402256839 -0.05001099782519576 0 0.42520841888488298 -0.049379729315354018 0 0.42853541960926061 -0.051662770790747589 0 0.42312937736007988 -0.058428151993983657 0 0.42005434944241349 -0.053604895393947798 0 0.43496467402256839 -0.05001099782519576 0 0.42520841888488298 -0.049379729315354018 0 0.42853541960926061 -0.051662770790747589 0 0.43033523656050632 -0.046640748443163488 0 0.42612317629791691 -0.045400642021309133 0 0.42520841888488298 -0.049379729315354018 0 0.42520841888488298 -0.049379729315354018 0 0.42853541960926061 -0.051662770790747589 0 0.42475095532577639 -0.066518312937751026 0 0.43084581583794962 -0.061182537770678419 0 0.42312937736007988 -0.058428151993983657 0 0.43084581583794962 -0.061182537770678419 0 0.42853541960926061 -0.051662770790747589 0 0.42312937736007988 -0.058428151993983657 0 0.42520841888488298 -0.049379729315354018 0 0.42853541960926061 -0.051662770790747589 0 0.40758963625838662 -0.042988203499167842 0 0.42853541960926061 -0.051662770790747589 0 0.41340893883498842 -0.048209383096778601 0 0.40758963625838662 -0.042988203499167842 0 0.42853541960926061 -0.051662770790747589 0 0.40758963625838662 -0.042988203499167842 0 0.42312937736007988 -0.058428151993983657 0 0.41471474623571319 -0.055627056102187107 0 0.42005434944241349 -0.053604895393947798 0 0.41596811889968449 -0.064389381330695869 0 0.42312937736007988 -0.058428151993983657 0 0.41471474623571319 -0.055627056102187107 0 0.42853541960926061 -0.051662770790747589 0 0.42005434944241349 -0.053604895393947798 0 0.41340893883498842 -0.048209383096778601 0 0.41471474623571319 -0.055627056102187107 0 0.42005434944241349 -0.053604895393947798 0 0.41340893883498842 -0.048209383096778601 0 0.41340893883498842 -0.048209383096778601 0 0.40823029337984917 -0.047724525670340467 0 0.40691721721780272 -0.052060422616375279 0 0.41471474623571319 -0.055627056102187107 0 0.41340893883498842 -0.048209383096778601 0 0.40691721721780272 -0.052060422616375279 0 0.41471474623571319 -0.055627056102187107 0 0.40691721721780272 -0.052060422616375279 0 0.40678326680138133 -0.0609212463301965 0 0.41596811889968449 -0.064389381330695869 0 0.41471474623571319 -0.055627056102187107 0 0.40678326680138133 -0.0609212463301965 0 0.42520841888488298 -0.049379729315354018 0 0.41043849654079873 -0.039244370746653483 0 0.40758963625838662 -0.042988203499167842 0 0.4151920231002002 -0.030398654765630018 0 0.42347205047309883 -0.036080542891236529 0 0.41644524951610001 -0.036374366744219171 0 0.41644524951610001 -0.036374366744219171 0 0.42014614453944721 -0.039836982377010333 0 0.41043849654079873 -0.039244370746653483 0 0.4151920231002002 -0.030398654765630018 0 0.42293486615538078 -0.02730949074340339 0 0.42347205047309883 -0.036080542891236529 0 0.4151920231002002 -0.030398654765630018 0 0.41644524951610001 -0.036374366744219171 0 0.4124555689287539 -0.034291930006895718 0 0.42347205047309883 -0.036080542891236529 0 0.41644524951610001 -0.036374366744219171 0 0.42014614453944721 -0.039836982377010333 0 0.42195804928751929 -0.04336062141980767 0 0.42520841888488298 -0.049379729315354018 0 0.41043849654079873 -0.039244370746653483 0 0.42520841888488298 -0.049379729315354018 0 0.41043849654079873 -0.039244370746653483 0 0.42195804928751929 -0.04336062141980767 0 0.42014614453944721 -0.039836982377010333 0 0.41043849654079873 -0.039244370746653483 0 0.40823029337984917 -0.047724525670340467 0 0.40758963625838662 -0.042988203499167842 0 0.4031737520996182 -0.048133294824246442 0 0.41340893883498842 -0.048209383096778601 0 0.40823029337984917 -0.047724525670340467 0 0.40758963625838662 -0.042988203499167842 0 0.40774650655791689 -0.031150327771080219 0 0.41043849654079873 -0.039244370746653483 0 0.40095160537200097 -0.033808037734361487 0 0.40774650655791689 -0.031150327771080219 0 0.41043849654079873 -0.039244370746653483 0 0.4124555689287539 -0.034291930006895718 0 0.41043849654079873 -0.039244370746653483 0 0.40758963625838662 -0.042988203499167842 0 0.40095160537200097 -0.033808037734361487 0 0.41644524951610001 -0.036374366744219171 0 0.41043849654079873 -0.039244370746653483 0 0.4124555689287539 -0.034291930006895718 0 0.4151920231002002 -0.030398654765630018 0 0.40774650655791689 -0.031150327771080219 0 0.4124555689287539 -0.034291930006895718 0 0.40758963625838662 -0.042988203499167842 0 0.39496741533111879 -0.043667056691715132 0 0.38690731514513199 -0.033929701414964569 0 0.40758963625838662 -0.042988203499167842 0 0.38690731514513199 -0.033929701414964569 0 0.40758963625838662 -0.042988203499167842 0 0.40095160537200097 -0.033808037734361487 0 0.38690731514513199 -0.033929701414964569 0 0.40758963625838662 -0.042988203499167842 0 0.39496741533111879 -0.043667056691715132 0 0.4031737520996182 -0.048133294824246442 0 0.39500561377115712 -0.068500140644093779 0 0.40678326680138133 -0.0609212463301965 0 0.39768721156390241 -0.054354703496551748 0 0.40691721721780272 -0.052060422616375279 0 0.40678326680138133 -0.0609212463301965 0 0.39768721156390241 -0.054354703496551748 0 0.39496741533111879 -0.043667056691715132 0 0.4031737520996182 -0.048133294824246442 0 0.39768721156390241 -0.054354703496551748 0 0.40691721721780272 -0.052060422616375279 0 0.4031737520996182 -0.048133294824246442 0 0.39768721156390241 -0.054354703496551748 0 0.40823029337984917 -0.047724525670340467 0 0.40691721721780272 -0.052060422616375279 0 0.4031737520996182 -0.048133294824246442 0 0.39496741533111879 -0.043667056691715132 0 0.39768721156390241 -0.054354703496551748 0 0.38304552646143319 -0.053671770492983377 0 0.39500561377115712 -0.068500140644093779 0 0.39768721156390241 -0.054354703496551748 0 0.38304552646143319 -0.053671770492983377 0 0.38304552646143319 -0.053671770492983377 0 0.38690731514513199 -0.033929701414964569 0 0.37405057997907309 -0.040739289537867318 0 0.38690731514513199 -0.033929701414964569 0 0.36870754782885801 -0.025958515334655031 0 0.37405057997907309 -0.040739289537867318 0 0.38304552646143319 -0.053671770492983377 0 0.38690731514513199 -0.033929701414964569 0 0.39496741533111879 -0.043667056691715132 0 0.38304552646143319 -0.053671770492983377 0 0.38690731514513199 -0.033929701414964569 0 0.38690731514513199 -0.033929701414964569 0 0.36870754782885801 -0.025958515334655031 0 0.38690731514513199 -0.033929701414964569 0 0.3744134359038328 -0.010384471696323829 0 0.36870754782885801 -0.025958515334655031 0 0.38690731514513199 -0.033929701414964569 0 0.39224541728111167 -0.0066404865599946281 0 0.3744134359038328 -0.010384471696323829 0 0.38690731514513199 -0.033929701414964569 0 0.39224541728111167 -0.0066404865599946281 0 0.40095160537200097 -0.033808037734361487 0 0.38690731514513199 -0.033929701414964569 0 0.40110775057917669 -0.022740849469655419 0 0.38690731514513199 -0.033929701414964569 0 0.40110775057917669 -0.022740849469655419 0 0.39224541728111167 -0.0066404865599946281 0 0.40774650655791689 -0.031150327771080219 0 0.40095160537200097 -0.033808037734361487 0 0.40110775057917669 -0.022740849469655419 0 0.40644394738952688 -0.01038451619868132 0 0.40110775057917669 -0.022740849469655419 0 0.39224541728111167 -0.0066404865599946281 0 0.41017625883895448 0.0057126082291806442 0 0.40644394738952688 -0.01038451619868132 0 0.39224541728111167 -0.0066404865599946281 0 0.36961526472597789 0.01040140373563264 0 0.39224541728111167 -0.0066404865599946281 0 0.3744134359038328 -0.010384471696323829 0 0.36961526472597789 0.01040140373563264 0 0.3744134359038328 -0.010384471696323829 0 0.36201279132916869 -0.0024114915845460652 0 0.3744134359038328 -0.010384471696323829 0 0.36181257927386618 -0.01217787991739679 0 0.36201279132916869 -0.0024114915845460652 0 0.36181257927386618 -0.01217787991739679 0 0.36870754782885801 -0.025958515334655031 0 0.35050778051258369 -0.017987329254345989 0 0.36870754782885801 -0.025958515334655031 0 0.35050778051258369 -0.017987329254345989 0 0.3744134359038328 -0.010384471696323829 0 0.36181257927386618 -0.01217787991739679 0 0.36870754782885801 -0.025958515334655031 0 0.35050778051258369 -0.017987329254345989 0 0.34468165938572781 -0.02311071920528748 0 0.34925241747878533 -0.033808623940779492 0 0.36870754782885801 -0.025958515334655031 0 0.35050778051258369 -0.017987329254345989 0 0.34925241747878533 -0.033808623940779492 0 0.35050778051258369 -0.017987329254345989 0 0.34925241747878533 -0.033808623940779492 0 0.35050778051258369 -0.017987329254345989 0 0.34468165938572781 -0.02311071920528748 0 0.34449657552927909 -0.01535452452359653 0 0.35050778051258369 -0.017987329254345989 0 0.34449657552927909 -0.01535452452359653 0 0.35235658949011461 0.002088700480312592 0 0.36201279132916869 -0.0024114915845460652 0 0.35121121547386958 -0.0091219640048710582 0 0.36181257927386618 -0.01217787991739679 0 0.35050778051258369 -0.017987329254345989 0 0.35121121547386958 -0.0091219640048710582 0 0.36181257927386618 -0.01217787991739679 0 0.36201279132916869 -0.0024114915845460652 0 0.35121121547386958 -0.0091219640048710582 0 0.35121121547386958 -0.0091219640048710582 0 0.34449657552927909 -0.01535452452359653 0 0.34011561505920168 -0.0038166958142838458 0 0.35050778051258369 -0.017987329254345989 0 0.35121121547386958 -0.0091219640048710582 0 0.34449657552927909 -0.01535452452359653 0 0.35050778051258369 -0.017987329254345989 0 0.35121121547386958 -0.0091219640048710582 0 0.35235658949011461 0.002088700480312592 0 0.35121121547386958 -0.0091219640048710582 0 0.34011561505920168 -0.0038166958142838458 0 0.34449657552927909 -0.01535452452359653 0 0.34011561505920168 -0.0038166958142838458 0 0.33722637601254929 -0.025258173931194599 0 0.34011561505920168 -0.0038166958142838458 0 0.33722637601254929 -0.025258173931194599 0 0.32645569758011078 -0.00088642923517560576 0 0.33722637601254929 -0.025258173931194599 0 0.32645569758011078 -0.00088642923517560576 0 0.34468165938572781 -0.02311071920528748 0 0.34449657552927909 -0.01535452452359653 0 0.33722637601254929 -0.025258173931194599 0 0.34468165938572781 -0.02311071920528748 0 0.33722637601254929 -0.025258173931194599 0 0.34925241747878533 -0.033808623940779492 0 0.33722637601254929 -0.025258173931194599 0 0.32061604679959238 -0.017866630590284639 0 0.32346849047619108 -0.030720992536239632 0 0.32061604679959238 -0.017866630590284639 0 0.32346849047619108 -0.030720992536239632 0 0.30871306304808982 -0.027593702884235561 0 0.33722637601254929 -0.025258173931194599 0 0.32061604679959238 -0.017866630590284639 0 0.32645569758011078 -0.00088642923517560576 0 0.32061604679959238 -0.017866630590284639 0 0.32645569758011078 -0.00088642923517560576 0 0.3058626674399878 -0.0050360613042316066 0 0.31614505359500938 -0.055220306515702977 0 0.32968211673957681 -0.042843659393341532 0 0.3355976498834875 -0.055569303657724403 0 0.31614505359500938 -0.055220306515702977 0 0.31478180248378851 -0.039677033747761312 0 0.32968211673957681 -0.042843659393341532 0 0.32346849047619108 -0.030720992536239632 0 0.31478180248378851 -0.039677033747761312 0 0.30871306304808982 -0.027593702884235561 0 0.32346849047619108 -0.030720992536239632 0 0.31478180248378851 -0.039677033747761312 0 0.32968211673957681 -0.042843659393341532 0 0.33722637601254929 -0.025258173931194599 0 0.32346849047619108 -0.030720992536239632 0 0.32968211673957681 -0.042843659393341532 0 0.33722637601254929 -0.025258173931194599 0 0.32968211673957681 -0.042843659393341532 0 0.3479970544449888 -0.049629918627213221 0 0.33722637601254929 -0.025258173931194599 0 0.3479970544449888 -0.049629918627213221 0 0.32968211673957681 -0.042843659393341532 0 0.3355976498834875 -0.055569303657724403 0 0.3479970544449888 -0.049629918627213221 0 0.31614505359500938 -0.055220306515702977 0 0.3355976498834875 -0.055569303657724403 0 0.33406096061616952 -0.064837942915412464 0 0.3355976498834875 -0.055569303657724403 0 0.3479970544449888 -0.049629918627213221 0 0.34319773618012761 -0.067026188762501673 0 0.3355976498834875 -0.055569303657724403 0 0.33406096061616952 -0.064837942915412464 0 0.34319773618012761 -0.067026188762501673 0 0.3479970544449888 -0.049629918627213221 0 0.36520099097262421 -0.05126470472347968 0 0.35412394802356789 -0.063493770102632685 0 0.3479970544449888 -0.049629918627213221 0 0.35412394802356789 -0.063493770102632685 0 0.3479970544449888 -0.049629918627213221 0 0.36125571019472402 -0.040223872244417147 0 0.36520099097262421 -0.05126470472347968 0 0.3479970544449888 -0.049629918627213221 0 0.34925241747878533 -0.033808623940779492 0 0.36125571019472402 -0.040223872244417147 0 0.3479970544449888 -0.049629918627213221 0 0.34925241747878533 -0.033808623940779492 0 0.33722637601254929 -0.025258173931194599 0 0.3479970544449888 -0.049629918627213221 0 0.34925241747878533 -0.033808623940779492 0 0.36870754782885801 -0.025958515334655031 0 0.34925241747878533 -0.033808623940779492 0 0.36125571019472402 -0.040223872244417147 0 0.36125571019472402 -0.040223872244417147 0 0.37405057997907309 -0.040739289537867318 0 0.36520099097262421 -0.05126470472347968 0 0.36870754782885801 -0.025958515334655031 0 0.36125571019472402 -0.040223872244417147 0 0.37405057997907309 -0.040739289537867318 0 0.38304552646143319 -0.053671770492983377 0 0.37405057997907309 -0.040739289537867318 0 0.36520099097262421 -0.05126470472347968 0 0.38304552646143319 -0.053671770492983377 0 0.36520099097262421 -0.05126470472347968 0 0.36771497176328682 -0.065773212096561465 0 0.36520099097262421 -0.05126470472347968 0 0.36771497176328682 -0.065773212096561465 0 0.35412394802356789 -0.063493770102632685 0 0.37918373777773268 -0.073413839571001907 0 0.36771497176328682 -0.065773212096561465 0 0.3711125082498255 -0.082083749909608122 0 0.36771497176328682 -0.065773212096561465 0 0.36025084160214788 -0.077357621578051788 0 0.3711125082498255 -0.082083749909608122 0 0.36771497176328682 -0.065773212096561465 0 0.36025084160214788 -0.077357621578051788 0 0.35412394802356789 -0.063493770102632685 0 0.36025084160214788 -0.077357621578051788 0 0.3711125082498255 -0.082083749909608122 0 0.35158083093008302 -0.093980197965514295 0 0.37532194909403221 -0.0931559086490205 0 0.3711125082498255 -0.082083749909608122 0 0.35158083093008302 -0.093980197965514295 0 0.34592176550093512 -0.075784709758902821 0 0.35158083093008302 -0.093980197965514295 0 0.36025084160214788 -0.077357621578051788 0 0.34592176550093512 -0.075784709758902821 0 0.35158083093008302 -0.093980197965514295 0 0.34529608850060461 -0.083670094252689162 0 0.34592176550093512 -0.075784709758902821 0 0.35158083093008302 -0.093980197965514295 0 0.34465415758192403 -0.091760326288661848 0 0.34529608850060461 -0.083670094252689162 0 0.34823875227223627 -0.093826135422656526 0 0.34529608850060461 -0.083670094252689162 0 0.34823875227223627 -0.093826135422656526 0 0.34529608850060461 -0.083670094252689162 0 0.35158083093008302 -0.093980197965514295 0 0.34823875227223627 -0.093826135422656526 0 0.34465415758192403 -0.091760326288661848 0 0.34529608850060461 -0.083670094252689162 0 0.34465415758192403 -0.091760326288661848 0 0.34619233264624449 -0.093731799937584515 0 0.34465415758192403 -0.091760326288661848 0 0.34450390397342689 -0.093653967055299492 0 0.34619233264624449 -0.093731799937584515 0 0.34465415758192403 -0.091760326288661848 0 0.34450390397342689 -0.093653967055299492 0 0.34450390397342689 -0.093653967055299492 0 0.34619233264624449 -0.093731799937584515 0 0.34465415758192403 -0.091760326288661848 0 0.34619233264624449 -0.093731799937584515 0 0.34823875227223627 -0.093826135422656526 0 0.34529608850060461 -0.083670094252689162 0 0.34592176550093512 -0.075784709758902821 0 0.3479970544449888 -0.049629918627213221 0 0.34592176550093512 -0.075784709758902821 0 0.34319773618012761 -0.067026188762501673 0 0.3479970544449888 -0.049629918627213221 0 0.34592176550093512 -0.075784709758902821 0 0.35412394802356789 -0.063493770102632685 0 0.34592176550093512 -0.075784709758902821 0 0.34319773618012761 -0.067026188762501673 0 0.3479970544449888 -0.049629918627213221 0 0.34592176550093512 -0.075784709758902821 0 0.36025084160214788 -0.077357621578051788 0 0.34592176550093512 -0.075784709758902821 0 0.35412394802356789 -0.063493770102632685 0 0.36025084160214788 -0.077357621578051788 0 0.35412394802356789 -0.063493770102632685 0 0.37057086147279189 -0.12497767584327669 0 0.35502418706451511 -0.1050515571359725 0 0.36363408799328101 -0.13273481204279061 0 0.37057086147279189 -0.12497767584327669 0 0.36769147361298299 -0.1097896847227423 0 0.35502418706451511 -0.1050515571359725 0 0.37057086147279189 -0.12497767584327669 0 0.35502418706451511 -0.1050515571359725 0 0.37057086147279189 -0.12497767584327669 0 0.37304721409719022 -0.1222084626576021 0 0.37239648771490741 -0.1151248446400753 0 0.37057086147279189 -0.12497767584327669 0 0.37304721409719022 -0.1222084626576021 0 0.37897174858859312 -0.11879794181578469 0 0.37304721409719022 -0.1222084626576021 0 0.37239648771490741 -0.1151248446400753 0 0.37057086147279189 -0.12497767584327669 0 0.36769147361298299 -0.1097896847227423 0 0.37239648771490741 -0.1151248446400753 0 0.38121244279607691 -0.1094840806007828 0 0.36769147361298299 -0.1097896847227423 0 0.37239648771490741 -0.1151248446400753 0 0.37647188065367287 -0.095127621113602984 0 0.35158083093008302 -0.093980197965514295 0 0.35502418706451511 -0.1050515571359725 0 0.37647188065367287 -0.095127621113602984 0 0.36769147361298299 -0.1097896847227423 0 0.35502418706451511 -0.1050515571359725 0 0.37532194909403221 -0.0931559086490205 0 0.37647188065367287 -0.095127621113602984 0 0.35158083093008302 -0.093980197965514295 0 0.37647188065367287 -0.095127621113602984 0 0.35158083093008302 -0.093980197965514295 0 0.34450390397342689 -0.093653967055299492 0 0.34924975841554018 -0.097650491949638193 0 0.34315879212754768 -0.1106063627583327 0 0.34924975841554018 -0.097650491949638193 0 0.354470114038894 -0.11739765296698849 0 0.34315879212754768 -0.1106063627583327 0 0.34450390397342689 -0.093653967055299492 0 0.34315879212754768 -0.1106063627583327 0 0.34924975841554018 -0.097650491949638193 0 0.35502418706451511 -0.1050515571359725 0 0.354470114038894 -0.11739765296698849 0 0.34924975841554018 -0.097650491949638193 0 0.354470114038894 -0.11739765296698849 0 0.35158083093008302 -0.093980197965514295 0 0.35502418706451511 -0.1050515571359725 0 0.35158083093008302 -0.093980197965514295 0 0.34924975841554018 -0.097650491949638193 0 0.35502418706451511 -0.1050515571359725 0 0.34924975841554018 -0.097650491949638193 0 0.35502418706451511 -0.1050515571359725 0 0.34619233264624449 -0.093731799937584515 0 0.34924975841554018 -0.097650491949638193 0 0.35158083093008302 -0.093980197965514295 0 0.34823875227223627 -0.093826135422656526 0 0.34924975841554018 -0.097650491949638193 0 0.34619233264624449 -0.093731799937584515 0 0.34823875227223627 -0.093826135422656526 0 0.34924975841554018 -0.097650491949638193 0 0.35158083093008302 -0.093980197965514295 0 0.34823875227223627 -0.093826135422656526 0 0.34823875227223627 -0.093826135422656526 0 0.34924975841554018 -0.097650491949638193 0 0.34450390397342689 -0.093653967055299492 0 0.34619233264624449 -0.093731799937584515 0 0.34924975841554018 -0.097650491949638193 0 0.34619233264624449 -0.093731799937584515 0 0.34823875227223627 -0.093826135422656526 0 0.35502418706451511 -0.1050515571359725 0 0.36363408799328101 -0.13273481204279061 0 0.35502418706451511 -0.1050515571359725 0 0.354470114038894 -0.11739765296698849 0 0.36363408799328101 -0.13273481204279061 0 0.354470114038894 -0.11739765296698849 0 0.34315879212754768 -0.1106063627583327 0 0.34181368028166859 -0.12755875846136611 0 0.32092518024315531 -0.1095814417033721 0 0.34181368028166859 -0.12755875846136611 0 0.34315879212754768 -0.1106063627583327 0 0.32092518024315531 -0.1095814417033721 0 0.34181368028166859 -0.12755875846136611 0 0.32092518024315531 -0.1095814417033721 0 0.32994986656544428 -0.13341193394869411 0 0.34181368028166859 -0.12755875846136611 0 0.34315879212754768 -0.1106063627583327 0 0.34181368028166859 -0.12755875846136611 0 0.34450390397342689 -0.093653967055299492 0 0.33271454210829099 -0.101617704379336 0 0.32227029208903452 -0.092629046000339582 0 0.34450390397342689 -0.093653967055299492 0 0.34315879212754768 -0.1106063627583327 0 0.33271454210829099 -0.101617704379336 0 0.34315879212754768 -0.1106063627583327 0 0.33271454210829099 -0.101617704379336 0 0.32092518024315531 -0.1095814417033721 0 0.33271454210829099 -0.101617704379336 0 0.32092518024315531 -0.1095814417033721 0 0.32227029208903452 -0.092629046000339582 0 0.32092518024315531 -0.1095814417033721 0 0.32227029208903452 -0.092629046000339582 0 0.30003668020464203 -0.091604124945377743 0 0.32092518024315531 -0.1095814417033721 0 0.30086380450263361 -0.1195227929754501 0 0.31704765417529451 -0.13840489187019611 0 0.33039960558846682 -0.07349031640218226 0 0.33406096061616952 -0.064837942915412464 0 0.33927720233739989 -0.074224443649390751 0 0.33406096061616952 -0.064837942915412464 0 0.34319773618012761 -0.067026188762501673 0 0.33927720233739989 -0.074224443649390751 0 0.34592176550093512 -0.075784709758902821 0 0.34319773618012761 -0.067026188762501673 0 0.33927720233739989 -0.074224443649390751 0 0.34529608850060461 -0.083670094252689162 0 0.34592176550093512 -0.075784709758902821 0 0.33927720233739989 -0.074224443649390751 0 0.34450390397342689 -0.093653967055299492 0 0.32227029208903452 -0.092629046000339582 0 0.34465415758192403 -0.091760326288661848 0 0.33039960558846682 -0.07349031640218226 0 0.33322121365673152 -0.085984671873100965 0 0.34465415758192403 -0.091760326288661848 0 0.34529608850060461 -0.083670094252689162 0 0.33927720233739989 -0.074224443649390751 0 0.34450390397342689 -0.093653967055299492 0 0.33322121365673152 -0.085984671873100965 0 0.32227029208903452 -0.092629046000339582 0 0.34465415758192403 -0.091760326288661848 0 0.33039960558846682 -0.07349031640218226 0 0.34465415758192403 -0.091760326288661848 0 0.33039960558846682 -0.07349031640218226 0 0.33927720233739989 -0.074224443649390751 0 0.34465415758192403 -0.091760326288661848 0 0.34450390397342689 -0.093653967055299492 0 0.33322121365673152 -0.085984671873100965 0 0.32227029208903452 -0.092629046000339582 0 0.31742935111954029 -0.078791209560412856 0 0.30003668020464203 -0.091604124945377743 0 0.33039960558846682 -0.07349031640218226 0 0.33322121365673152 -0.085984671873100965 0 0.31742935111954029 -0.078791209560412856 0 0.33322121365673152 -0.085984671873100965 0 0.32227029208903452 -0.092629046000339582 0 0.31742935111954029 -0.078791209560412856 0 0.31614505359500938 -0.055220306515702977 0 0.33039960558846682 -0.07349031640218226 0 0.31742935111954029 -0.078791209560412856 0 0.31614505359500938 -0.055220306515702977 0 0.33039960558846682 -0.07349031640218226 0 0.31614505359500938 -0.055220306515702977 0 0.33039960558846682 -0.07349031640218226 0 0.33406096061616952 -0.064837942915412464 0 0.31614505359500938 -0.055220306515702977 0 0.30250326158335777 -0.073818791625774011 0 0.29714393724270183 -0.060138891108539608 0 0.31614505359500938 -0.055220306515702977 0 0.31742935111954029 -0.078791209560412856 0 0.30250326158335777 -0.073818791625774011 0 0.31742935111954029 -0.078791209560412856 0 0.30250326158335777 -0.073818791625774011 0 0.30003668020464203 -0.091604124945377743 0 0.30250326158335777 -0.073818791625774011 0 0.30003668020464203 -0.091604124945377743 0 0.28998174781703312 -0.082950525875125261 0 0.32227029208903452 -0.092629046000339582 0 0.30003668020464203 -0.091604124945377743 0 0.30003668020464203 -0.091604124945377743 0 0.28998174781703312 -0.082950525875125261 0 0.27021994600447791 -0.09022963847728388 0 0.30003668020464203 -0.091604124945377743 0 0.27021994600447791 -0.09022963847728388 0 0.30003668020464203 -0.091604124945377743 0 0.28998174781703312 -0.082950525875125261 0 0.28998174781703312 -0.082950525875125261 0 0.28754317835370669 -0.070137655842775704 0 0.27996587029199921 -0.077920394773710808 0 0.28754317835370669 -0.070137655842775704 0 0.27360772538489331 -0.06802236244538018 0 0.28504338427302811 -0.05743863452510109 0 0.30250326158335777 -0.073818791625774011 0 0.28754317835370669 -0.070137655842775704 0 0.29714393724270183 -0.060138891108539608 0 0.28754317835370669 -0.070137655842775704 0 0.29714393724270183 -0.060138891108539608 0 0.28504338427302811 -0.05743863452510109 0 0.30250326158335777 -0.073818791625774011 0 0.28998174781703312 -0.082950525875125261 0 0.28754317835370669 -0.070137655842775704 0 0.32092518024315531 -0.1095814417033721 0 0.30003668020464203 -0.091604124945377743 0 0.32092518024315531 -0.1095814417033721 0 0.30003668020464203 -0.091604124945377743 0 0.30086380450263361 -0.1195227929754501 0 0.30003668020464203 -0.091604124945377743 0 0.28425152620576838 -0.10716531774635341 0 0.27021994600447791 -0.09022963847728388 0 0.30003668020464203 -0.091604124945377743 0 0.30086380450263361 -0.1195227929754501 0 0.28425152620576838 -0.10716531774635341 0 0.30086380450263361 -0.1195227929754501 0 0.28425152620576838 -0.10716531774635341 0 0.2811461458805618 -0.1244709005811114 0 0.28425152620576838 -0.10716531774635341 0 0.2811461458805618 -0.1244709005811114 0 0.266192860764701 -0.11662763654077291 0 0.266192860764701 -0.11662763654077291 0 0.27021994600447791 -0.09022963847728388 0 0.263515251681394 -0.089920566680287015 0 0.266192860764701 -0.11662763654077291 0 0.27021994600447791 -0.09022963847728388 0 0.28425152620576838 -0.10716531774635341 0 0.266192860764701 -0.11662763654077291 0 0.27021994600447791 -0.09022963847728388 0 0.25264708782957512 -0.114543471519108 0 0.263515251681394 -0.089920566680287015 0 0.2412268191678282 -0.088893118513791503 0 0.25264708782957512 -0.114543471519108 0 0.263515251681394 -0.089920566680287015 0 0.266192860764701 -0.11662763654077291 0 0.25264708782957512 -0.114543471519108 0 0.263515251681394 -0.089920566680287015 0 0.266192860764701 -0.11662763654077291 0 0.25264708782957512 -0.114543471519108 0 0.26393247389470698 -0.1398908731385882 0 0.26955495097390447 -0.076237027955420839 0 0.27360772538489331 -0.06802236244538018 0 0.26327286036324399 -0.069578426180936223 0 0.27360772538489331 -0.06802236244538018 0 0.26327286036324399 -0.069578426180936223 0 0.26557795400548367 -0.055087827252455902 0 0.28754317835370669 -0.070137655842775704 0 0.27360772538489331 -0.06802236244538018 0 0.27996587029199921 -0.077920394773710808 0 0.27360772538489331 -0.06802236244538018 0 0.27996587029199921 -0.077920394773710808 0 0.27021994600447791 -0.09022963847728388 0 0.28998174781703312 -0.082950525875125261 0 0.27996587029199921 -0.077920394773710808 0 0.27021994600447791 -0.09022963847728388 0 0.26955495097390447 -0.076237027955420839 0 0.27360772538489331 -0.06802236244538018 0 0.27021994600447791 -0.09022963847728388 0 0.27360772538489331 -0.06802236244538018 0 0.27021994600447791 -0.09022963847728388 0 0.27021994600447791 -0.09022963847728388 0 0.263515251681394 -0.089920566680287015 0 0.26955495097390447 -0.076237027955420839 0 0.27021994600447791 -0.09022963847728388 0 0.263515251681394 -0.089920566680287015 0 0.26955495097390447 -0.076237027955420839 0 0.263515251681394 -0.089920566680287015 0 0.26255616382860392 -0.081322556737027277 0 0.263515251681394 -0.089920566680287015 0 0.25464150959547199 -0.07782915254287362 0 0.263515251681394 -0.089920566680287015 0 0.25464150959547199 -0.07782915254287362 0 0.2412268191678282 -0.088893118513791503 0 0.263515251681394 -0.089920566680287015 0 0.2412268191678282 -0.088893118513791503 0 0.26955495097390447 -0.076237027955420839 0 0.26255616382860392 -0.081322556737027277 0 0.263515251681394 -0.089920566680287015 0 0.26255616382860392 -0.081322556737027277 0 0.25464150959547199 -0.07782915254287362 0 0.26327286036324399 -0.069578426180936223 0 0.26955495097390447 -0.076237027955420839 0 0.26255616382860392 -0.081322556737027277 0 0.26327286036324399 -0.069578426180936223 0 0.25464150959547199 -0.07782915254287362 0 0.26327286036324399 -0.069578426180936223 0 0.25217464700224312 -0.062567623772278841 0 0.25348378498021429 -0.048782810029235811 0 0.26557795400548367 -0.055087827252455902 0 0.26449318364902102 -0.037001328910916488 0 0.25217464700224312 -0.062567623772278841 0 0.25348378498021429 -0.048782810029235811 0 0.26557795400548367 -0.055087827252455902 0 0.26327286036324399 -0.069578426180936223 0 0.25217464700224312 -0.062567623772278841 0 0.26557795400548367 -0.055087827252455902 0 0.27360772538489331 -0.06802236244538018 0 0.2769955047653086 -0.045815086413476473 0 0.27360772538489331 -0.06802236244538018 0 0.26557795400548367 -0.055087827252455902 0 0.2769955047653086 -0.045815086413476473 0 0.27360772538489331 -0.06802236244538018 0 0.2769955047653086 -0.045815086413476473 0 0.28504338427302811 -0.05743863452510109 0 0.2769955047653086 -0.045815086413476473 0 0.26449318364902102 -0.037001328910916488 0 0.28038328414572389 -0.023607810381572749 0 0.26557795400548367 -0.055087827252455902 0 0.2769955047653086 -0.045815086413476473 0 0.26449318364902102 -0.037001328910916488 0 0.2769955047653086 -0.045815086413476473 0 0.28038328414572389 -0.023607810381572749 0 0.26449318364902102 -0.037001328910916488 0 0.26185438328468308 -0.02058105882955464 0 0.24329488954303111 -0.036216910055988621 0 0.25348378498021429 -0.048782810029235811 0 0.26449318364902102 -0.037001328910916488 0 0.24329488954303111 -0.036216910055988621 0 0.26185438328468308 -0.02058105882955464 0 0.24329488954303111 -0.036216910055988621 0 0.26185438328468308 -0.02058105882955464 0 0.26312431422554627 -0.003192974568002418 0 0.24717904482605901 -0.0064480234920759024 0 0.26185438328468308 -0.02058105882955464 0 0.26312431422554627 -0.003192974568002418 0 0.28041387702633502 -0.0049452076031206646 0 0.26185438328468308 -0.02058105882955464 0 0.28041387702633502 -0.0049452076031206646 0 0.26449318364902102 -0.037001328910916488 0 0.26185438328468308 -0.02058105882955464 0 0.28038328414572389 -0.023607810381572749 0 0.26185438328468308 -0.02058105882955464 0 0.28041387702633502 -0.0049452076031206646 0 0.28038328414572389 -0.023607810381572749 0 0.28038328414572389 -0.023607810381572749 0 0.2955228107455713 -0.018673511376478071 0 0.29590028856007572 -0.042006507409286839 0 0.28041387702633502 -0.0049452076031206646 0 0.28038328414572389 -0.023607810381572749 0 0.2955228107455713 -0.018673511376478071 0 0.28041387702633502 -0.0049452076031206646 0 0.2955228107455713 -0.018673511376478071 0 0.3058626674399878 -0.0050360613042316066 0 0.2955228107455713 -0.018673511376478071 0 0.30871306304808982 -0.027593702884235561 0 0.29590028856007572 -0.042006507409286839 0 0.2955228107455713 -0.018673511376478071 0 0.3058626674399878 -0.0050360613042316066 0 0.30871306304808982 -0.027593702884235561 0 0.32061604679959238 -0.017866630590284639 0 0.3058626674399878 -0.0050360613042316066 0 0.30871306304808982 -0.027593702884235561 0 0.31478180248378851 -0.039677033747761312 0 0.30871306304808982 -0.027593702884235561 0 0.29590028856007572 -0.042006507409286839 0 0.31614505359500938 -0.055220306515702977 0 0.31478180248378851 -0.039677033747761312 0 0.29590028856007572 -0.042006507409286839 0 0.31614505359500938 -0.055220306515702977 0 0.29714393724270183 -0.060138891108539608 0 0.29590028856007572 -0.042006507409286839 0 0.2769955047653086 -0.045815086413476473 0 0.28504338427302811 -0.05743863452510109 0 0.29590028856007572 -0.042006507409286839 0 0.29714393724270183 -0.060138891108539608 0 0.28504338427302811 -0.05743863452510109 0 0.29590028856007572 -0.042006507409286839 0 0.2769955047653086 -0.045815086413476473 0 0.28038328414572389 -0.023607810381572749 0 0.29590028856007572 -0.042006507409286839 0 0.29267881874366558 -0.20445624500746151 0 0.30301249141559872 -0.22766606254565899 0 0.27566878639885373 -0.21345846913679539 0 0.29267881874366558 -0.20445624500746151 0 0.2965359234122199 -0.20703251387776259 0 0.29885577976820032 -0.2051739887234813 0 0.29267881874366558 -0.20445624500746151 0 0.2965359234122199 -0.20703251387776259 0 0.29267881874366558 -0.20445624500746151 0 0.28599857487107999 -0.18945216598194539 0 0.26962301157179541 -0.18905662187024619 0 0.28599857487107999 -0.18945216598194539 0 0.30581608491145879 -0.1973905379381953 0 0.29267881874366558 -0.20445624500746151 0 0.28599857487107999 -0.18945216598194539 0 0.30581608491145879 -0.1973905379381953 0 0.29267881874366558 -0.20445624500746151 0 0.28599857487107999 -0.18945216598194539 0 0.28599857487107999 -0.18945216598194539 0 0.29947213391802829 -0.18827293614452151 0 0.30581608491145879 -0.1973905379381953 0 0.29267881874366558 -0.20445624500746151 0 0.30581608491145879 -0.1973905379381953 0 0.29885577976820032 -0.2051739887234813 0 0.30581608491145879 -0.1973905379381953 0 0.30589069945439351 -0.20381696763059931 0 0.29885577976820032 -0.2051739887234813 0 0.30581608491145879 -0.1973905379381953 0 0.29885577976820032 -0.2051739887234813 0 0.29947213391802829 -0.18827293614452151 0 0.30920302392403509 -0.19360304980734799 0 0.30581608491145879 -0.1973905379381953 0 0.30581608491145879 -0.1973905379381953 0 0.31240476843080878 -0.20002979081971661 0 0.30589069945439351 -0.20381696763059931 0 0.30920302392403509 -0.19360304980734799 0 0.30581608491145879 -0.1973905379381953 0 0.30581608491145879 -0.1973905379381953 0 0.31240476843080878 -0.20002979081971661 0 0.30920302392403509 -0.19360304980734799 0 0.31240476843080878 -0.20002979081971661 0 0.30920302392403509 -0.19360304980734799 0 0.30581608491145879 -0.1973905379381953 0 0.31240476843080878 -0.20002979081971661 0 0.29267881874366558 -0.20445624500746151 0 0.2965359234122199 -0.20703251387776259 0 0.30301249141559872 -0.22766606254565899 0 0.2965359234122199 -0.20703251387776259 0 0.30648616470710599 -0.21267355304100469 0 0.30301249141559872 -0.22766606254565899 0 0.29267881874366558 -0.20445624500746151 0 0.30301249141559872 -0.22766606254565899 0 0.31240476843080878 -0.20002979081971661 0 0.30589069945439351 -0.20381696763059931 0 0.30648616470710599 -0.21267355304100469 0 0.30589069945439351 -0.20381696763059931 0 0.29885577976820032 -0.2051739887234813 0 0.30648616470710599 -0.21267355304100469 0 0.2965359234122199 -0.20703251387776259 0 0.29885577976820032 -0.2051739887234813 0 0.30648616470710599 -0.21267355304100469 0 0.30648616470710599 -0.21267355304100469 0 0.30301249141559872 -0.22766606254565899 0 0.32435910601694651 -0.22402528186467971 0 0.30301249141559872 -0.22766606254565899 0 0.28715639929698827 -0.24149745897015271 0 0.3133461640875308 -0.25087588008385681 0 0.30301249141559872 -0.22766606254565899 0 0.3133461640875308 -0.25087588008385681 0 0.30301249141559872 -0.22766606254565899 0 0.28715639929698827 -0.24149745897015271 0 0.27820005025250177 -0.23061050561286889 0 0.30301249141559872 -0.22766606254565899 0 0.27820005025250177 -0.23061050561286889 0 0.27566878639885373 -0.21345846913679539 0 0.27820005025250177 -0.23061050561286889 0 0.26303224478887938 -0.22241644093838431 0 0.27566878639885373 -0.21345846913679539 0 0.27820005025250177 -0.23061050561286889 0 0.26496884838609291 -0.23778449251189029 0 0.26303224478887938 -0.22241644093838431 0 0.28715639929698827 -0.24149745897015271 0 0.2741632304055126 -0.2420282307314382 0 0.27927456080570567 -0.2502777682216264 0 0.2741632304055126 -0.2420282307314382 0 0.26940730529687013 -0.248748097407756 0 0.27927456080570567 -0.2502777682216264 0 0.28715639929698827 -0.24149745897015271 0 0.27820005025250177 -0.23061050561286889 0 0.2741632304055126 -0.2420282307314382 0 0.27820005025250177 -0.23061050561286889 0 0.2741632304055126 -0.2420282307314382 0 0.26496884838609291 -0.23778449251189029 0 0.2741632304055126 -0.2420282307314382 0 0.26495857989242533 -0.24360137799552611 0 0.26496884838609291 -0.23778449251189029 0 0.2741632304055126 -0.2420282307314382 0 0.26940730529687013 -0.248748097407756 0 0.26495857989242533 -0.24360137799552611 0 0.26012032717505429 -0.24027480478673791 0 0.25682034462202752 -0.2502527256973604 0 0.23485810088638359 -0.24579051096395491 0 0.26495857989242533 -0.24360137799552611 0 0.26012032717505429 -0.24027480478673791 0 0.25682034462202752 -0.2502527256973604 0 0.26940730529687013 -0.248748097407756 0 0.26495857989242533 -0.24360137799552611 0 0.25682034462202752 -0.2502527256973604 0 0.26495857989242533 -0.24360137799552611 0 0.26012032717505429 -0.24027480478673791 0 0.26496884838609291 -0.23778449251189029 0 0.26496884838609291 -0.23778449251189029 0 0.26303224478887938 -0.22241644093838431 0 0.24662459634762179 -0.22443897333996951 0 0.26303224478887938 -0.22241644093838431 0 0.25300289250444852 -0.21311160727847051 0 0.24662459634762179 -0.22443897333996951 0 0.26496884838609291 -0.23778449251189029 0 0.24662459634762179 -0.22443897333996951 0 0.26012032717505429 -0.24027480478673791 0 0.26496884838609291 -0.23778449251189029 0 0.24662459634762179 -0.22443897333996951 0 0.26200664536515178 -0.21279697425211161 0 0.27566878639885373 -0.21345846913679539 0 0.25632265776842611 -0.20220137965479629 0 0.25300289250444852 -0.21311160727847051 0 0.26200664536515178 -0.21279697425211161 0 0.25632265776842611 -0.20220137965479629 0 0.25300289250444852 -0.21311160727847051 0 0.25632265776842611 -0.20220137965479629 0 0.24176743701184181 -0.20496317654336829 0 0.26303224478887938 -0.22241644093838431 0 0.25300289250444852 -0.21311160727847051 0 0.26200664536515178 -0.21279697425211161 0 0.27566878639885373 -0.21345846913679539 0 0.25632265776842611 -0.20220137965479629 0 0.27566878639885373 -0.21345846913679539 0 0.26934403020740461 -0.2020756128785742 0 0.25632265776842611 -0.20220137965479629 0 0.26303224478887938 -0.22241644093838431 0 0.26200664536515178 -0.21279697425211161 0 0.27566878639885373 -0.21345846913679539 0 0.29267881874366558 -0.20445624500746151 0 0.27566878639885373 -0.21345846913679539 0 0.26934403020740461 -0.2020756128785742 0 0.29267881874366558 -0.20445624500746151 0 0.26962301157179541 -0.18905662187024619 0 0.29267881874366558 -0.20445624500746151 0 0.26934403020740461 -0.2020756128785742 0 0.26962301157179541 -0.18905662187024619 0 0.26934403020740461 -0.2020756128785742 0 0.26962301157179541 -0.18905662187024619 0 0.2598362719163696 -0.19305729592595311 0 0.26934403020740461 -0.2020756128785742 0 0.2598362719163696 -0.19305729592595311 0 0.25632265776842611 -0.20220137965479629 0 0.2598362719163696 -0.19305729592595311 0 0.25632265776842611 -0.20220137965479629 0 0.25144642967774222 -0.19523779337555 0 0.26962301157179541 -0.18905662187024619 0 0.24656720439992599 -0.17365699873302959 0 0.26962301157179541 -0.18905662187024619 0 0.2598362719163696 -0.19305729592595311 0 0.24656720439992599 -0.17365699873302959 0 0.26628288963550362 -0.18155458235748609 0 0.24656720439992599 -0.17365699873302959 0 0.26962301157179541 -0.18905662187024619 0 0.26628288963550362 -0.18155458235748609 0 0.24656720439992599 -0.17365699873302959 0 0.2598362719163696 -0.19305729592595311 0 0.25144642967774222 -0.19523779337555 0 0.24656720439992599 -0.17365699873302959 0 0.26078555382829383 -0.17066343428554831 0 0.26628288963550362 -0.18155458235748609 0 0.24656720439992599 -0.17365699873302959 0 0.2567486540422404 -0.15827454560976609 0 0.25435914142031613 -0.15626943727654569 0 0.27394749639742799 -0.1623849904102298 0 0.25665224909583739 -0.1652696631488762 0 0.26078555382829383 -0.17066343428554831 0 0.27394749639742799 -0.1623849904102298 0 0.25665224909583739 -0.1652696631488762 0 0.26078555382829383 -0.17066343428554831 0 0.24656720439992599 -0.17365699873302959 0 0.25665224909583739 -0.1652696631488762 0 0.2495830616654052 -0.16438751129136239 0 0.24656720439992599 -0.17365699873302959 0 0.25665224909583739 -0.1652696631488762 0 0.2567486540422404 -0.15827454560976609 0 0.27394749639742799 -0.1623849904102298 0 0.25435914142031613 -0.15626943727654569 0 0.27394749639742799 -0.1623849904102298 0 0.2567486540422404 -0.15827454560976609 0 0.25435914142031613 -0.15626943727654569 0 0.2495830616654052 -0.16438751129136239 0 0.25665224909583739 -0.1652696631488762 0 0.2567486540422404 -0.15827454560976609 0 0.2495830616654052 -0.16438751129136239 0 0.2567486540422404 -0.15827454560976609 0 0.25435914142031613 -0.15626943727654569 0 0.26078555382829383 -0.17066343428554831 0 0.27394749639742799 -0.1623849904102298 0 0.26628288963550362 -0.18155458235748609 0 0.28599857487107999 -0.18945216598194539 0 0.26962301157179541 -0.18905662187024619 0 0.26628288963550362 -0.18155458235748609 0 0.28599857487107999 -0.18945216598194539 0 0.27394749639742799 -0.1623849904102298 0 0.26628288963550362 -0.18155458235748609 0 0.28599857487107999 -0.18945216598194539 0 0.27394749639742799 -0.1623849904102298 0 0.28599857487107999 -0.18945216598194539 0 0.26628288963550362 -0.18155458235748609 0 0.25264708782957512 -0.114543471519108 0 0.26393247389470698 -0.1398908731385882 0 0.2467260942977996 -0.12795807055091399 0 0.25264708782957512 -0.114543471519108 0 0.26393247389470698 -0.1398908731385882 0 0.26393247389470698 -0.1398908731385882 0 0.2467260942977996 -0.12795807055091399 0 0.2411781625611682 -0.1405274610262357 0 0.26393247389470698 -0.1398908731385882 0 0.2411781625611682 -0.1405274610262357 0 0.25435914142031613 -0.15626943727654569 0 0.27394749639742799 -0.1623849904102298 0 0.26393247389470698 -0.1398908731385882 0 0.25435914142031613 -0.15626943727654569 0 0.26393247389470698 -0.1398908731385882 0 0.2411781625611682 -0.1405274610262357 0 0.27394749639742799 -0.1623849904102298 0 0.26393247389470698 -0.1398908731385882 0 0.29049006403500077 -0.13914788250439181 0 0.27394749639742799 -0.1623849904102298 0 0.26393247389470698 -0.1398908731385882 0 0.2811461458805618 -0.1244709005811114 0 0.26393247389470698 -0.1398908731385882 0 0.29049006403500077 -0.13914788250439181 0 0.2811461458805618 -0.1244709005811114 0 0.266192860764701 -0.11662763654077291 0 0.26393247389470698 -0.1398908731385882 0 0.26393247389470698 -0.1398908731385882 0 0.29049006403500077 -0.13914788250439181 0 0.30086380450263361 -0.1195227929754501 0 0.2811461458805618 -0.1244709005811114 0 0.29049006403500077 -0.13914788250439181 0 0.29049006403500077 -0.13914788250439181 0 0.29863979533414298 -0.17009401275114761 0 0.31945346122740542 -0.1582214295081667 0 0.29049006403500077 -0.13914788250439181 0 0.31945346122740542 -0.1582214295081667 0 0.31704765417529451 -0.13840489187019611 0 0.30086380450263361 -0.1195227929754501 0 0.29049006403500077 -0.13914788250439181 0 0.31704765417529451 -0.13840489187019611 0 0.29049006403500077 -0.13914788250439181 0 0.31704765417529451 -0.13840489187019611 0 0.28599857487107999 -0.18945216598194539 0 0.27394749639742799 -0.1623849904102298 0 0.29863979533414298 -0.17009401275114761 0 0.28599857487107999 -0.18945216598194539 0 0.29863979533414298 -0.17009401275114761 0 0.30015643069053699 -0.1754441643519527 0 0.28599857487107999 -0.18945216598194539 0 0.29947213391802829 -0.18827293614452151 0 0.30015643069053699 -0.1754441643519527 0 0.27394749639742799 -0.1623849904102298 0 0.29049006403500077 -0.13914788250439181 0 0.29863979533414298 -0.17009401275114761 0 0.27394749639742799 -0.1623849904102298 0 0.29863979533414298 -0.17009401275114761 0 0.30920302392403509 -0.19360304980734799 0 0.30015643069053699 -0.1754441643519527 0 0.29863979533414298 -0.17009401275114761 0 0.30783283605489348 -0.17923606550062829 0 0.32333209427085807 -0.17780303509206469 0 0.30920302392403509 -0.19360304980734799 0 0.30783283605489348 -0.17923606550062829 0 0.30015643069053699 -0.1754441643519527 0 0.29947213391802829 -0.18827293614452151 0 0.30920302392403509 -0.19360304980734799 0 0.30015643069053699 -0.1754441643519527 0 0.29863979533414298 -0.17009401275114761 0 0.32333209427085807 -0.17780303509206469 0 0.29863979533414298 -0.17009401275114761 0 0.30783283605489348 -0.17923606550062829 0 0.30015643069053699 -0.1754441643519527 0 0.30920302392403509 -0.19360304980734799 0 0.30783283605489348 -0.17923606550062829 0 0.32333209427085807 -0.17780303509206469 0 0.30920302392403509 -0.19360304980734799 0 0.32333209427085807 -0.17780303509206469 0 0.29863979533414298 -0.17009401275114761 0 0.32333209427085807 -0.17780303509206469 0 0.31945346122740542 -0.1582214295081667 0 0.32333209427085807 -0.17780303509206469 0 0.31945346122740542 -0.1582214295081667 0 0.33941168407521249 -0.157831029346334 0 0.32333209427085807 -0.17780303509206469 0 0.33941168407521249 -0.157831029346334 0 0.34603071727395152 -0.17052431532896839 0 0.32333209427085807 -0.17780303509206469 0 0.33941168407521249 -0.157831029346334 0 0.32333209427085807 -0.17780303509206469 0 0.35063773477409382 -0.1863279518368339 0 0.34603071727395152 -0.17052431532896839 0 0.32333209427085807 -0.17780303509206469 0 0.35063773477409382 -0.1863279518368339 0 0.32333209427085807 -0.17780303509206469 0 0.35063773477409382 -0.1863279518368339 0 0.32861132084541811 -0.1941979329136104 0 0.32092518024315531 -0.1095814417033721 0 0.31704765417529451 -0.13840489187019611 0 0.32994986656544428 -0.13341193394869411 0 0.31704765417529451 -0.13840489187019611 0 0.3292904646546494 -0.1471725719409791 0 0.32994986656544428 -0.13341193394869411 0 0.31945346122740542 -0.1582214295081667 0 0.31704765417529451 -0.13840489187019611 0 0.3292904646546494 -0.1471725719409791 0 0.31945346122740542 -0.1582214295081667 0 0.33941168407521249 -0.157831029346334 0 0.3292904646546494 -0.1471725719409791 0 0.33941168407521249 -0.157831029346334 0 0.34061268217844071 -0.1426948939038501 0 0.3292904646546494 -0.1471725719409791 0 0.33941168407521249 -0.157831029346334 0 0.34061268217844071 -0.1426948939038501 0 0.34061268217844071 -0.1426948939038501 0 0.3292904646546494 -0.1471725719409791 0 0.32994986656544428 -0.13341193394869411 0 0.34061268217844071 -0.1426948939038501 0 0.32994986656544428 -0.13341193394869411 0 0.34181368028166859 -0.12755875846136611 0 0.34061268217844071 -0.1426948939038501 0 0.34181368028166859 -0.12755875846136611 0 0.34181368028166859 -0.12755875846136611 0 0.35675990205742653 -0.1404219589162875 0 0.35969046966224838 -0.1371448139843387 0 0.354470114038894 -0.11739765296698849 0 0.35969046966224838 -0.1371448139843387 0 0.36363408799328101 -0.13273481204279061 0 0.34061268217844071 -0.1426948939038501 0 0.34181368028166859 -0.12755875846136611 0 0.35675990205742653 -0.1404219589162875 0 0.354470114038894 -0.11739765296698849 0 0.35969046966224838 -0.1371448139843387 0 0.354470114038894 -0.11739765296698849 0 0.34181368028166859 -0.12755875846136611 0 0.35969046966224838 -0.1371448139843387 0 0.34181368028166859 -0.12755875846136611 0 0.35675990205742653 -0.1404219589162875 0 0.35675990205742653 -0.1404219589162875 0 0.35969046966224838 -0.1371448139843387 0 0.36167510523793811 -0.14465214128184939 0 0.35799749278419229 -0.16123530415375201 0 0.35326061722313279 -0.15787604316968129 0 0.33941168407521249 -0.157831029346334 0 0.34061268217844071 -0.1426948939038501 0 0.35675990205742653 -0.1404219589162875 0 0.35675990205742653 -0.1404219589162875 0 0.36167510523793811 -0.14465214128184939 0 0.35326061722313279 -0.15787604316968129 0 0.33941168407521249 -0.157831029346334 0 0.35675990205742653 -0.1404219589162875 0 0.33941168407521249 -0.157831029346334 0 0.35675990205742653 -0.1404219589162875 0 0.35326061722313279 -0.15787604316968129 0 0.35675990205742653 -0.1404219589162875 0 0.36167510523793811 -0.14465214128184939 0 0.36941129372502313 -0.15131015457507391 0 0.36167510523793811 -0.14465214128184939 0 0.36907404751668171 -0.17264029287114249 0 0.36941129372502313 -0.15131015457507391 0 0.36363408799328101 -0.13273481204279061 0 0.36941129372502313 -0.15131015457507391 0 0.36363408799328101 -0.13273481204279061 0 0.37728859432631318 -0.14135079596887071 0 0.36941129372502313 -0.15131015457507391 0 0.36167510523793811 -0.14465214128184939 0 0.36363408799328101 -0.13273481204279061 0 0.36941129372502313 -0.15131015457507391 0 0.36167510523793811 -0.14465214128184939 0 0.35675990205742653 -0.1404219589162875 0 0.36167510523793811 -0.14465214128184939 0 0.35969046966224838 -0.1371448139843387 0 0.36167510523793811 -0.14465214128184939 0 0.35969046966224838 -0.1371448139843387 0 0.36167510523793811 -0.14465214128184939 0 0.35969046966224838 -0.1371448139843387 0 0.36363408799328101 -0.13273481204279061 0 0.35969046966224838 -0.1371448139843387 0 0.36363408799328101 -0.13273481204279061 0 0.36363408799328101 -0.13273481204279061 0 0.37516744064227098 -0.13086909543393849 0 0.37728859432631318 -0.14135079596887071 0 0.37057086147279189 -0.12497767584327669 0 0.36363408799328101 -0.13273481204279061 0 0.37516744064227098 -0.13086909543393849 0 0.37057086147279189 -0.12497767584327669 0 0.37304721409719022 -0.1222084626576021 0 0.37516744064227098 -0.13086909543393849 0 0.37057086147279189 -0.12497767584327669 0 0.37516744064227098 -0.13086909543393849 0 0.37057086147279189 -0.12497767584327669 0 0.36363408799328101 -0.13273481204279061 0 0.35063773477409382 -0.1863279518368339 0 0.34603071727395152 -0.17052431532896839 0 0.35705448782114391 -0.17131004233305239 0 0.35063773477409382 -0.1863279518368339 0 0.34603071727395152 -0.17052431532896839 0 0.35063773477409382 -0.1863279518368339 0 0.35705448782114391 -0.17131004233305239 0 0.36170849291082169 -0.18115207669093791 0 0.35063773477409382 -0.1863279518368339 0 0.36170849291082169 -0.18115207669093791 0 0.36203174309436759 -0.1898852012010471 0 0.33941168407521249 -0.157831029346334 0 0.34603071727395152 -0.17052431532896839 0 0.35326061722313279 -0.15787604316968129 0 0.35799749278419229 -0.16123530415375201 0 0.35326061722313279 -0.15787604316968129 0 0.35705448782114391 -0.17131004233305239 0 0.35799749278419229 -0.16123530415375201 0 0.35705448782114391 -0.17131004233305239 0 0.3620697410745311 -0.16367661086359009 0 0.34603071727395152 -0.17052431532896839 0 0.35326061722313279 -0.15787604316968129 0 0.35705448782114391 -0.17131004233305239 0 0.36167510523793811 -0.14465214128184939 0 0.36907404751668171 -0.17264029287114249 0 0.36941129372502313 -0.15131015457507391 0 0.36907404751668171 -0.17264029287114249 0 0.37783052348798851 -0.17838034801581559 0 0.36167510523793811 -0.14465214128184939 0 0.3620697410745311 -0.16367661086359009 0 0.36907404751668171 -0.17264029287114249 0 0.36167510523793811 -0.14465214128184939 0 0.35799749278419229 -0.16123530415375201 0 0.3620697410745311 -0.16367661086359009 0 0.35705448782114391 -0.17131004233305239 0 0.3620697410745311 -0.16367661086359009 0 0.36907404751668171 -0.17264029287114249 0 0.36941129372502313 -0.15131015457507391 0 0.37783052348798851 -0.17838034801581559 0 0.36974445134782108 -0.18559689521261361 0 0.3761086989603622 -0.19408550010473599 0 0.37783052348798851 -0.17838034801581559 0 0.36907404751668171 -0.17264029287114249 0 0.36974445134782108 -0.18559689521261361 0 0.37783052348798851 -0.17838034801581559 0 0.35705448782114391 -0.17131004233305239 0 0.36907404751668171 -0.17264029287114249 0 0.36170849291082169 -0.18115207669093791 0 0.36907404751668171 -0.17264029287114249 0 0.36170849291082169 -0.18115207669093791 0 0.36974445134782108 -0.18559689521261361 0 0.36170849291082169 -0.18115207669093791 0 0.36974445134782108 -0.18559689521261361 0 0.36203174309436759 -0.1898852012010471 0 0.36974445134782108 -0.18559689521261361 0 0.36786368464907598 -0.19826499758611579 0 0.3761086989603622 -0.19408550010473599 0 0.36786368464907598 -0.19826499758611579 0 0.37574346188664681 -0.20346124488164691 0 0.3761086989603622 -0.19408550010473599 0 0.36786368464907598 -0.19826499758611579 0 0.36203174309436759 -0.1898852012010471 0 0.3554263807297966 -0.20275463570474689 0 0.36974445134782108 -0.18559689521261361 0 0.36786368464907598 -0.19826499758611579 0 0.36203174309436759 -0.1898852012010471 0 0.36895479875409237 -0.20857980401951309 0 0.3554263807297966 -0.20275463570474689 0 0.36021502668549349 -0.2191813195726616 0 0.37443681177068727 -0.21726639327823211 0 0.36895479875409237 -0.20857980401951309 0 0.36021502668549349 -0.2191813195726616 0 0.37443681177068727 -0.21726639327823211 0 0.36895479875409237 -0.20857980401951309 0 0.37723039765042388 -0.21084296796917881 0 0.36786368464907598 -0.19826499758611579 0 0.36895479875409237 -0.20857980401951309 0 0.37574346188664681 -0.20346124488164691 0 0.36895479875409237 -0.20857980401951309 0 0.37723039765042388 -0.21084296796917881 0 0.37574346188664681 -0.20346124488164691 0 0.36786368464907598 -0.19826499758611579 0 0.36895479875409237 -0.20857980401951309 0 0.3554263807297966 -0.20275463570474689 0 0.3554263807297966 -0.20275463570474689 0 0.3427463334768649 -0.1982215189128454 0 0.33630989755815072 -0.20960555519619051 0 0.3554263807297966 -0.20275463570474689 0 0.33630989755815072 -0.20960555519619051 0 0.36021502668549349 -0.2191813195726616 0 0.33630989755815072 -0.20960555519619051 0 0.36021502668549349 -0.2191813195726616 0 0.3554263807297966 -0.20275463570474689 0 0.36021502668549349 -0.2191813195726616 0 0.35063773477409382 -0.1863279518368339 0 0.36203174309436759 -0.1898852012010471 0 0.3554263807297966 -0.20275463570474689 0 0.35063773477409382 -0.1863279518368339 0 0.3554263807297966 -0.20275463570474689 0 0.3427463334768649 -0.1982215189128454 0 0.35063773477409382 -0.1863279518368339 0 0.3554263807297966 -0.20275463570474689 0 0.35063773477409382 -0.1863279518368339 0 0.36203174309436759 -0.1898852012010471 0 0.35063773477409382 -0.1863279518368339 0 0.32861132084541811 -0.1941979329136104 0 0.3427463334768649 -0.1982215189128454 0 0.32861132084541811 -0.1941979329136104 0 0.3427463334768649 -0.1982215189128454 0 0.33630989755815072 -0.20960555519619051 0 0.31240476843080878 -0.20002979081971661 0 0.33630989755815072 -0.20960555519619051 0 0.31240476843080878 -0.20002979081971661 0 0.30648616470710599 -0.21267355304100469 0 0.32435910601694651 -0.22402528186467971 0 0.31240476843080878 -0.20002979081971661 0 0.32435910601694651 -0.22402528186467971 0 0.31240476843080878 -0.20002979081971661 0 0.33630989755815072 -0.20960555519619051 0 0.32435910601694651 -0.22402528186467971 0 0.30920302392403509 -0.19360304980734799 0 0.32333209427085807 -0.17780303509206469 0 0.32861132084541811 -0.1941979329136104 0 0.31240476843080878 -0.20002979081971661 0 0.32861132084541811 -0.1941979329136104 0 0.33630989755815072 -0.20960555519619051 0 0.30920302392403509 -0.19360304980734799 0 0.31240476843080878 -0.20002979081971661 0 0.32861132084541811 -0.1941979329136104 0 0.30301249141559872 -0.22766606254565899 0 0.32202716481814547 -0.23976467989733541 0 0.3133461640875308 -0.25087588008385681 0 0.32202716481814547 -0.23976467989733541 0 0.32435910601694651 -0.22402528186467971 0 0.33631344360308491 -0.24802077290964231 0 0.32202716481814547 -0.23976467989733541 0 0.33631344360308491 -0.24802077290964231 0 0.32565416382846391 -0.2500373696370346 0 0.32202716481814547 -0.23976467989733541 0 0.3133461640875308 -0.25087588008385681 0 0.32565416382846391 -0.2500373696370346 0 0.30301249141559872 -0.22766606254565899 0 0.32202716481814547 -0.23976467989733541 0 0.32435910601694651 -0.22402528186467971 0 0.32435910601694651 -0.22402528186467971 0 0.33839436391039729 -0.23568838960050911 0 0.34416188395833319 -0.227672288310479 0 0.33630989755815072 -0.20960555519619051 0 0.32435910601694651 -0.22402528186467971 0 0.34416188395833319 -0.227672288310479 0 0.32435910601694651 -0.22402528186467971 0 0.33631344360308491 -0.24802077290964231 0 0.32435910601694651 -0.22402528186467971 0 0.33839436391039729 -0.23568838960050911 0 0.33631344360308491 -0.24802077290964231 0 0.33839436391039729 -0.23568838960050911 0 0.33631344360308491 -0.24802077290964231 0 0.34874302206322461 -0.24303521531723521 0 0.33631344360308491 -0.24802077290964231 0 0.34874302206322461 -0.24303521531723521 0 0.34165606911048391 -0.25209302725434413 0 0.34874302206322461 -0.24303521531723521 0 0.36545324423839548 -0.23715018688270029 0 0.35876745274961469 -0.25095791129181999 0 0.34874302206322461 -0.24303521531723521 0 0.35480395986783569 -0.23195513612400531 0 0.36545324423839548 -0.23715018688270029 0 0.33839436391039729 -0.23568838960050911 0 0.34874302206322461 -0.24303521531723521 0 0.34416188395833319 -0.227672288310479 0 0.34416188395833319 -0.227672288310479 0 0.35480395986783569 -0.23195513612400531 0 0.36021502668549349 -0.2191813195726616 0 0.33630989755815072 -0.20960555519619051 0 0.34416188395833319 -0.227672288310479 0 0.36021502668549349 -0.2191813195726616 0 0.34874302206322461 -0.24303521531723521 0 0.34416188395833319 -0.227672288310479 0 0.35480395986783569 -0.23195513612400531 0 0.36021502668549349 -0.2191813195726616 0 0.36545324423839548 -0.23715018688270029 0 0.38361034480454681 -0.22855286710237471 0 0.36021502668549349 -0.2191813195726616 0 0.36545324423839548 -0.23715018688270029 0 0.37443681177068727 -0.21726639327823211 0 0.36021502668549349 -0.2191813195726616 0 0.38361034480454681 -0.22855286710237471 0 0.36021502668549349 -0.2191813195726616 0 0.38361034480454681 -0.22855286710237471 0 0.35480395986783569 -0.23195513612400531 0 0.36021502668549349 -0.2191813195726616 0 0.36545324423839548 -0.23715018688270029 0 0.36545324423839548 -0.23715018688270029 0 0.37069146179129192 -0.25511905419274078 0 0.36545324423839548 -0.23715018688270029 0 0.37735899763471742 -0.2426458215315821 0 0.37069146179129192 -0.25511905419274078 0 0.36545324423839548 -0.23715018688270029 0 0.35876745274961469 -0.25095791129181999 0 0.37069146179129192 -0.25511905419274078 0 0.36545324423839548 -0.23715018688270029 0 0.37735899763471742 -0.2426458215315821 0 0.38361034480454681 -0.22855286710237471 0 0.37735899763471742 -0.2426458215315821 0 0.38961748738554941 -0.24852913003707741 0 0.37069146179129192 -0.25511905419274078 0 0.37735899763471742 -0.2426458215315821 0 0.38961748738554941 -0.24852913003707741 0 0.38361034480454681 -0.22855286710237471 0 0.38961748738554941 -0.24852913003707741 0 0.40700566292360141 -0.23792441463208441 0 0.40408524102952192 -0.25174897102061122 0 0.38961748738554941 -0.24852913003707741 0 0.38361034480454681 -0.22855286710237471 0 0.40700566292360141 -0.23792441463208441 0 0.38361034480454681 -0.22855286710237471 0 0.40700566292360141 -0.23792441463208441 0 0.39176581687007389 -0.22320516527211809 0 0.38361034480454681 -0.22855286710237471 0 0.40700566292360141 -0.23792441463208441 0 0.40040789284065792 -0.22299486114357661 0 0.39176581687007389 -0.22320516527211809 0 0.40700566292360141 -0.23792441463208441 0 0.40040789284065792 -0.22299486114357661 0 0.39176581687007389 -0.22320516527211809 0 0.39259093319102162 -0.2124239491622881 0 0.39176581687007389 -0.22320516527211809 0 0.38361034480454681 -0.22855286710237471 0 0.38217349095888142 -0.21917500772742879 0 0.37443681177068727 -0.21726639327823211 0 0.38361034480454681 -0.22855286710237471 0 0.38217349095888142 -0.21917500772742879 0 0.38217349095888142 -0.21917500772742879 0 0.39002420511772529 -0.19749093818209329 0 0.37443681177068727 -0.21726639327823211 0 0.38217349095888142 -0.21917500772742879 0 0.37723039765042388 -0.21084296796917881 0 0.38217349095888142 -0.21917500772742879 0 0.39002420511772529 -0.19749093818209329 0 0.39259093319102162 -0.2124239491622881 0 0.38217349095888142 -0.21917500772742879 0 0.3862497532509569 -0.20545054145655639 0 0.39002420511772529 -0.19749093818209329 0 0.38217349095888142 -0.21917500772742879 0 0.37723039765042388 -0.21084296796917881 0 0.3862497532509569 -0.20545054145655639 0 0.37723039765042388 -0.21084296796917881 0 0.37574346188664681 -0.20346124488164691 0 0.3862497532509569 -0.20545054145655639 0 0.39176581687007389 -0.22320516527211809 0 0.38217349095888142 -0.21917500772742879 0 0.39259093319102162 -0.2124239491622881 0 0.3862497532509569 -0.20545054145655639 0 0.37783052348798851 -0.17838034801581559 0 0.3862497532509569 -0.20545054145655639 0 0.39002420511772529 -0.19749093818209329 0 0.37783052348798851 -0.17838034801581559 0 0.3862497532509569 -0.20545054145655639 0 0.3761086989603622 -0.19408550010473599 0 0.37783052348798851 -0.17838034801581559 0 0.37574346188664681 -0.20346124488164691 0 0.3862497532509569 -0.20545054145655639 0 0.3761086989603622 -0.19408550010473599 0 0.3989034372928657 -0.1904964345279018 0 0.40631474429856701 -0.19903085740562501 0 0.40248718265066269 -0.17977633123553519 0 0.39002420511772529 -0.19749093818209329 0 0.3989034372928657 -0.1904964345279018 0 0.39787491927656587 -0.1758068686367564 0 0.39002420511772529 -0.19749093818209329 0 0.3989034372928657 -0.1904964345279018 0 0.3976482425481675 -0.204487408084297 0 0.3989034372928657 -0.1904964345279018 0 0.3976482425481675 -0.204487408084297 0 0.40631474429856701 -0.19903085740562501 0 0.40040789284065792 -0.22299486114357661 0 0.40631474429856701 -0.19903085740562501 0 0.40040789284065792 -0.22299486114357661 0 0.39259093319102162 -0.2124239491622881 0 0.3976482425481675 -0.204487408084297 0 0.40040789284065792 -0.22299486114357661 0 0.3976482425481675 -0.204487408084297 0 0.40631474429856701 -0.19903085740562501 0 0.39002420511772529 -0.19749093818209329 0 0.39259093319102162 -0.2124239491622881 0 0.3976482425481675 -0.204487408084297 0 0.40040789284065792 -0.22299486114357661 0 0.41267567479994921 -0.21325107141628841 0 0.40631474429856701 -0.19903085740562501 0 0.41267567479994921 -0.21325107141628841 0 0.41968524632323911 -0.20402633519418681 0 0.40631474429856701 -0.19903085740562501 0 0.41267567479994921 -0.21325107141628841 0 0.42527156667552718 -0.2164134835769003 0 0.4126672399114249 -0.22526713540926591 0 0.41267567479994921 -0.21325107141628841 0 0.41968524632323911 -0.20402633519418681 0 0.42527156667552718 -0.2164134835769003 0 0.41968524632323911 -0.20402633519418681 0 0.40631474429856701 -0.19903085740562501 0 0.42453586860350362 -0.19078426189599459 0 0.40631474429856701 -0.19903085740562501 0 0.42453586860350362 -0.19078426189599459 0 0.4122215957564761 -0.17506685366767341 0 0.42453586860350362 -0.19078426189599459 0 0.43156500933798869 -0.20360663297235029 0 0.44622180556481977 -0.19260052187958879 0 0.41968524632323911 -0.20402633519418681 0 0.42453586860350362 -0.19078426189599459 0 0.43156500933798869 -0.20360663297235029 0 0.42527156667552718 -0.2164134835769003 0 0.43556638667775388 -0.22379594774253589 0 0.44328604904508678 -0.2145959574231974 0 0.42527156667552718 -0.2164134835769003 0 0.43156500933798869 -0.20360663297235029 0 0.44328604904508678 -0.2145959574231974 0 0.41968524632323911 -0.20402633519418681 0 0.42527156667552718 -0.2164134835769003 0 0.43156500933798869 -0.20360663297235029 0 0.43556638667775388 -0.22379594774253589 0 0.42504552645134952 -0.23124099017023669 0 0.44472110717454238 -0.23324298688564571 0 0.42527156667552718 -0.2164134835769003 0 0.43556638667775388 -0.22379594774253589 0 0.42504552645134952 -0.23124099017023669 0 0.42504552645134952 -0.23124099017023669 0 0.43040098104265467 -0.24729596216179731 0 0.44472110717454238 -0.23324298688564571 0 0.43040098104265467 -0.24729596216179731 0 0.44093132457937778 -0.25151414010904122 0 0.42504552645134952 -0.23124099017023669 0 0.43040098104265467 -0.24729596216179731 0 0.40700566292360141 -0.23792441463208441 0 0.43040098104265467 -0.24729596216179731 0 0.41510406206834938 -0.24726733678295609 0 0.40700566292360141 -0.23792441463208441 0 0.43040098104265467 -0.24729596216179731 0 0.40700566292360141 -0.23792441463208441 0 0.43040098104265467 -0.24729596216179731 0 0.41510406206834938 -0.24726733678295609 0 0.41892436327761862 -0.25209999931733468 0 0.41510406206834938 -0.24726733678295609 0 0.40700566292360141 -0.23792441463208441 0 0.40408524102952192 -0.25174897102061122 0 0.40040789284065792 -0.22299486114357661 0 0.40700566292360141 -0.23792441463208441 0 0.4126672399114249 -0.22526713540926591 0 0.42504552645134952 -0.23124099017023669 0 0.40700566292360141 -0.23792441463208441 0 0.4126672399114249 -0.22526713540926591 0 0.40040789284065792 -0.22299486114357661 0 0.41267567479994921 -0.21325107141628841 0 0.4126672399114249 -0.22526713540926591 0 0.42527156667552718 -0.2164134835769003 0 0.42504552645134952 -0.23124099017023669 0 0.4126672399114249 -0.22526713540926591 0 0.401398621407 -0.12639064519887031 0 0.40039121501509117 -0.13812249766731191 0 0.41075975526236158 -0.14021830001189131 0 0.401398621407 -0.12639064519887031 0 0.41075975526236158 -0.14021830001189131 0 0.40039121501509117 -0.13812249766731191 0 0.39302950467134679 -0.1318643952230853 0 0.39052001386263141 -0.14243190358137989 0 0.401398621407 -0.12639064519887031 0 0.40039121501509117 -0.13812249766731191 0 0.39302950467134679 -0.1318643952230853 0 0.38815374443130157 -0.12197725109127169 0 0.401398621407 -0.12639064519887031 0 0.39302950467134679 -0.1318643952230853 0 0.38815374443130157 -0.12197725109127169 0 0.38004885390348908 -0.12519507008919131 0 0.3844316995900442 -0.13331657674351341 0 0.38815374443130157 -0.12197725109127169 0 0.39302950467134679 -0.1318643952230853 0 0.3844316995900442 -0.13331657674351341 0 0.37304721409719022 -0.1222084626576021 0 0.38004885390348908 -0.12519507008919131 0 0.37516744064227098 -0.13086909543393849 0 0.38004885390348908 -0.12519507008919131 0 0.37516744064227098 -0.13086909543393849 0 0.3844316995900442 -0.13331657674351341 0 0.37516744064227098 -0.13086909543393849 0 0.3844316995900442 -0.13331657674351341 0 0.37728859432631318 -0.14135079596887071 0 0.3844316995900442 -0.13331657674351341 0 0.39052001386263141 -0.14243190358137989 0 0.37728859432631318 -0.14135079596887071 0 0.39302950467134679 -0.1318643952230853 0 0.3844316995900442 -0.13331657674351341 0 0.39052001386263141 -0.14243190358137989 0 0.39052001386263141 -0.14243190358137989 0 0.37728859432631318 -0.14135079596887071 0 0.38383282214700198 -0.1517574679188429 0 0.36941129372502313 -0.15131015457507391 0 0.37728859432631318 -0.14135079596887071 0 0.38383282214700198 -0.1517574679188429 0 0.36941129372502313 -0.15131015457507391 0 0.38383282214700198 -0.1517574679188429 0 0.38364310650079497 -0.16355851160591461 0 0.39052001386263141 -0.14243190358137989 0 0.38383282214700198 -0.1517574679188429 0 0.40431733726946678 -0.15801258432432511 0 0.40039121501509117 -0.13812249766731191 0 0.40431733726946678 -0.15801258432432511 0 0.41075975526236158 -0.14021830001189131 0 0.40039121501509117 -0.13812249766731191 0 0.39052001386263141 -0.14243190358137989 0 0.40431733726946678 -0.15801258432432511 0 0.40431733726946678 -0.15801258432432511 0 0.39787491927656587 -0.1758068686367564 0 0.40431733726946678 -0.15801258432432511 0 0.39787491927656587 -0.1758068686367564 0 0.40488763389121568 -0.17232284956655999 0 0.40431733726946678 -0.15801258432432511 0 0.38364310650079497 -0.16355851160591461 0 0.39787491927656587 -0.1758068686367564 0 0.38364310650079497 -0.16355851160591461 0 0.39787491927656587 -0.1758068686367564 0 0.38383282214700198 -0.1517574679188429 0 0.40431733726946678 -0.15801258432432511 0 0.38364310650079497 -0.16355851160591461 0 0.36941129372502313 -0.15131015457507391 0 0.38364310650079497 -0.16355851160591461 0 0.37783052348798851 -0.17838034801581559 0 0.36941129372502313 -0.15131015457507391 0 0.38364310650079497 -0.16355851160591461 0 0.38364310650079497 -0.16355851160591461 0 0.3874309427624803 -0.17577513556308119 0 0.39787491927656587 -0.1758068686367564 0 0.39002420511772529 -0.19749093818209329 0 0.37783052348798851 -0.17838034801581559 0 0.3882901476611898 -0.18186332259943691 0 0.3874309427624803 -0.17577513556308119 0 0.37783052348798851 -0.17838034801581559 0 0.3882901476611898 -0.18186332259943691 0 0.38364310650079497 -0.16355851160591461 0 0.3874309427624803 -0.17577513556308119 0 0.37783052348798851 -0.17838034801581559 0 0.39002420511772529 -0.19749093818209329 0 0.39787491927656587 -0.1758068686367564 0 0.39002420511772529 -0.19749093818209329 0 0.3882901476611898 -0.18186332259943691 0 0.39787491927656587 -0.1758068686367564 0 0.3874309427624803 -0.17577513556308119 0 0.3882901476611898 -0.18186332259943691 0 0.39787491927656587 -0.1758068686367564 0 0.39787491927656587 -0.1758068686367564 0 0.40488763389121568 -0.17232284956655999 0 0.40248718265066269 -0.17977633123553519 0 0.39787491927656587 -0.1758068686367564 0 0.40248718265066269 -0.17977633123553519 0 0.3989034372928657 -0.1904964345279018 0 0.39787491927656587 -0.1758068686367564 0 0.40248718265066269 -0.17977633123553519 0 0.40631474429856701 -0.19903085740562501 0 0.40248718265066269 -0.17977633123553519 0 0.4122215957564761 -0.17506685366767341 0 0.40631474429856701 -0.19903085740562501 0 0.4122215957564761 -0.17506685366767341 0 0.40488763389121568 -0.17232284956655999 0 0.40248718265066269 -0.17977633123553519 0 0.4122215957564761 -0.17506685366767341 0 0.42453586860350362 -0.19078426189599459 0 0.43217512638960143 -0.17185168590465549 0 0.44622180556481977 -0.19260052187958879 0 0.42453586860350362 -0.19078426189599459 0 0.4122215957564761 -0.17506685366767341 0 0.43217512638960143 -0.17185168590465549 0 0.43217512638960143 -0.17185168590465549 0 0.41812844721438419 -0.15110284992972159 0 0.43217512638960143 -0.17185168590465549 0 0.41812844721438419 -0.15110284992972159 0 0.42985655833769182 -0.1508353901238311 0 0.43217512638960143 -0.17185168590465549 0 0.42985655833769182 -0.1508353901238311 0 0.44312989964433369 -0.1542820674710883 0 0.4122215957564761 -0.17506685366767341 0 0.43217512638960143 -0.17185168590465549 0 0.41812844721438419 -0.15110284992972159 0 0.40431733726946678 -0.15801258432432511 0 0.40488763389121568 -0.17232284956655999 0 0.4122215957564761 -0.17506685366767341 0 0.40431733726946678 -0.15801258432432511 0 0.4122215957564761 -0.17506685366767341 0 0.41812844721438419 -0.15110284992972159 0 0.4122215957564761 -0.17506685366767341 0 0.41812844721438419 -0.15110284992972159 0 0.40431733726946678 -0.15801258432432511 0 0.41812844721438419 -0.15110284992972159 0 0.41075975526236158 -0.14021830001189131 0 0.40431733726946678 -0.15801258432432511 0 0.41075975526236158 -0.14021830001189131 0 0.42063014745998217 -0.14095349126310941 0 0.41812844721438419 -0.15110284992972159 0 0.41812844721438419 -0.15110284992972159 0 0.41075975526236158 -0.14021830001189131 0 0.42063014745998217 -0.14095349126310941 0 0.41812844721438419 -0.15110284992972159 0 0.41075975526236158 -0.14021830001189131 0 0.42985655833769182 -0.1508353901238311 0 0.43521917098015839 -0.13598685605057989 0 0.44312989964433369 -0.1542820674710883 0 0.42063014745998217 -0.14095349126310941 0 0.42985655833769182 -0.1508353901238311 0 0.43521917098015839 -0.13598685605057989 0 0.42063014745998217 -0.14095349126310941 0 0.41812844721438419 -0.15110284992972159 0 0.42985655833769182 -0.1508353901238311 0 0.43399748722976289 -0.11849707429160999 0 0.43521917098015839 -0.13598685605057989 0 0.42382268572277532 -0.1308952210656063 0 0.42063014745998217 -0.14095349126310941 0 0.43521917098015839 -0.13598685605057989 0 0.42382268572277532 -0.1308952210656063 0 0.41850686768160872 -0.1188203837108401 0 0.42382268572277532 -0.1308952210656063 0 0.41075975526236158 -0.14021830001189131 0 0.41850686768160872 -0.1188203837108401 0 0.401398621407 -0.12639064519887031 0 0.41075975526236158 -0.14021830001189131 0 0.41850686768160872 -0.1188203837108401 0 0.41075975526236158 -0.14021830001189131 0 0.42063014745998217 -0.14095349126310941 0 0.42382268572277532 -0.1308952210656063 0 0.41075975526236158 -0.14021830001189131 0 0.467897266848743 -0.1240618816077621 0 0.44738359457480759 -0.12684865963359659 0 0.45529743250722998 -0.140891631157397 0 0.467897266848743 -0.1240618816077621 0 0.45529743250722998 -0.140891631157397 0 0.47048022001621692 -0.1422326574227446 0 0.43399748722976289 -0.11849707429160999 0 0.43521917098015839 -0.13598685605057989 0 0.44738359457480759 -0.12684865963359659 0 0.43521917098015839 -0.13598685605057989 0 0.44738359457480759 -0.12684865963359659 0 0.45529743250722998 -0.140891631157397 0 0.43521917098015839 -0.13598685605057989 0 0.44312989964433369 -0.1542820674710883 0 0.45529743250722998 -0.140891631157397 0 0.44312989964433369 -0.1542820674710883 0 0.45529743250722998 -0.140891631157397 0 0.46161096491123021 -0.15704405617147579 0 0.45529743250722998 -0.140891631157397 0 0.46161096491123021 -0.15704405617147579 0 0.47048022001621692 -0.1422326574227446 0 0.46161096491123021 -0.15704405617147579 0 0.45111844649813798 -0.17426224369185189 0 0.46893131002313959 -0.17212181341440369 0 0.44312989964433369 -0.1542820674710883 0 0.46161096491123021 -0.15704405617147579 0 0.45111844649813798 -0.17426224369185189 0 0.43217512638960143 -0.17185168590465549 0 0.44312989964433369 -0.1542820674710883 0 0.45111844649813798 -0.17426224369185189 0 0.43217512638960143 -0.17185168590465549 0 0.44622180556481977 -0.19260052187958879 0 0.43217512638960143 -0.17185168590465549 0 0.45111844649813798 -0.17426224369185189 0 0.44622180556481977 -0.19260052187958879 0 0.45111844649813798 -0.17426224369185189 0 0.46893131002313959 -0.17212181341440369 0 0.46459989738158769 -0.1927355856344633 0 0.45111844649813798 -0.17426224369185189 0 0.44622180556481977 -0.19260052187958879 0 0.46459989738158769 -0.1927355856344633 0 0.46893131002313959 -0.17212181341440369 0 0.46459989738158769 -0.1927355856344633 0 0.48165451479593357 -0.18644221291633251 0 0.46893131002313959 -0.17212181341440369 0 0.48129256045912988 -0.15818431404618619 0 0.48165451479593357 -0.18644221291633251 0 0.46893131002313959 -0.17212181341440369 0 0.46459989738158769 -0.1927355856344633 0 0.48165451479593357 -0.18644221291633251 0 0.5 -0.1708102379353191 0 0.50000000000001066 -0.19413965117539389 0 0.5 -0.1708102379353191 0 0.48129256045912988 -0.15818431404618619 0 0.5 -0.14748082469524421 0 0.48165451479593357 -0.18644221291633251 0 0.5 -0.1708102379353191 0 0.48129256045912988 -0.15818431404618619 0 0.46161096491123021 -0.15704405617147579 0 0.46893131002313959 -0.17212181341440369 0 0.48129256045912988 -0.15818431404618619 0 0.48129256045912988 -0.15818431404618619 0 0.47048022001621692 -0.1422326574227446 0 0.48441019828931992 -0.1349608687492867 0 0.46161096491123021 -0.15704405617147579 0 0.48129256045912988 -0.15818431404618619 0 0.47048022001621692 -0.1422326574227446 0 0.48129256045912988 -0.15818431404618619 0 0.5 -0.14748082469524421 0 0.48441019828931992 -0.1349608687492867 0 0.5 -0.12415141145516929 0 0.5 -0.14748082469524421 0 0.48441019828931992 -0.1349608687492867 0 0.467897266848743 -0.1240618816077621 0 0.47048022001621692 -0.1422326574227446 0 0.48441019828931992 -0.1349608687492867 0 0.45904123330642471 -0.21919001160948839 0 0.46818460311919158 -0.22504253029465371 0 0.45515148683785128 -0.23770183542600479 0 0.45904123330642471 -0.21919001160948839 0 0.45515148683785128 -0.23770183542600479 0 0.46818460311919158 -0.22504253029465371 0 0.46215432451356447 -0.2161349970542065 0 0.45904123330642471 -0.21919001160948839 0 0.46818460311919158 -0.22504253029465371 0 0.46215432451356447 -0.2161349970542065 0 0.46818460311919158 -0.22504253029465371 0 0.45515148683785128 -0.23770183542600479 0 0.45515148683785128 -0.23770183542600479 0 0.45139186265369441 -0.25571716578652282 0 0.46591233231007328 -0.2430604950878115 0 0.45515148683785128 -0.23770183542600479 0 0.45139186265369441 -0.25571716578652282 0 0.46818460311919158 -0.22504253029465371 0 0.46591233231007328 -0.2430604950878115 0 0.45515148683785128 -0.23770183542600479 0 0.43040098104265467 -0.24729596216179731 0 0.44472110717454238 -0.23324298688564571 0 0.44093132457937778 -0.25151414010904122 0 0.45515148683785128 -0.23770183542600479 0 0.44093132457937778 -0.25151414010904122 0 0.45139186265369441 -0.25571716578652282 0 0.45515148683785128 -0.23770183542600479 0 0.44472110717454238 -0.23324298688564571 0 0.44093132457937778 -0.25151414010904122 0 0.45515148683785128 -0.23770183542600479 0 0.44093132457937778 -0.25151414010904122 0 0.43040098104265467 -0.24729596216179731 0 0.44472110717454238 -0.23324298688564571 0 0.45904123330642471 -0.21919001160948839 0 0.44472110717454238 -0.23324298688564571 0 0.44328604904508678 -0.2145959574231974 0 0.45904123330642471 -0.21919001160948839 0 0.45515148683785128 -0.23770183542600479 0 0.44472110717454238 -0.23324298688564571 0 0.43556638667775388 -0.22379594774253589 0 0.44472110717454238 -0.23324298688564571 0 0.44328604904508678 -0.2145959574231974 0 0.45904123330642471 -0.21919001160948839 0 0.44472110717454238 -0.23324298688564571 0 0.44328604904508678 -0.2145959574231974 0 0.44622180556481977 -0.19260052187958879 0 0.4602684847400369 -0.213349357854523 0 0.43156500933798869 -0.20360663297235029 0 0.44328604904508678 -0.2145959574231974 0 0.44622180556481977 -0.19260052187958879 0 0.46459989738158769 -0.1927355856344633 0 0.4602684847400369 -0.213349357854523 0 0.44622180556481977 -0.19260052187958879 0 0.46459989738158769 -0.1927355856344633 0 0.4602684847400369 -0.213349357854523 0 0.44622180556481977 -0.19260052187958879 0 0.4602684847400369 -0.213349357854523 0 0.46459989738158769 -0.1927355856344633 0 0.4602684847400369 -0.213349357854523 0 0.47039132353520619 -0.2070291539043411 0 0.46818460311919158 -0.22504253029465371 0 0.46215432451356447 -0.2161349970542065 0 0.47039132353520619 -0.2070291539043411 0 0.45904123330642471 -0.21919001160948839 0 0.44328604904508678 -0.2145959574231974 0 0.4602684847400369 -0.213349357854523 0 0.45904123330642471 -0.21919001160948839 0 0.4602684847400369 -0.213349357854523 0 0.46215432451356447 -0.2161349970542065 0 0.45904123330642471 -0.21919001160948839 0 0.4602684847400369 -0.213349357854523 0 0.45904123330642471 -0.21919001160948839 0 0.46215432451356447 -0.2161349970542065 0 0.4602684847400369 -0.213349357854523 0 0.46215432451356447 -0.2161349970542065 0 0.47039132353520619 -0.2070291539043411 0 0.4602684847400369 -0.213349357854523 0 0.46215432451356447 -0.2161349970542065 0 0.46818460311919158 -0.22504253029465371 0 0.48409230155960398 -0.20959109073502699 0 0.46818460311919158 -0.22504253029465371 0 0.48409230155960398 -0.20959109073502699 0 0.47039132353520619 -0.2070291539043411 0 0.48165451479593357 -0.18644221291633251 0 0.48409230155960398 -0.20959109073502699 0 0.47039132353520619 -0.2070291539043411 0 0.48165451479593357 -0.18644221291633251 0 0.46459989738158769 -0.1927355856344633 0 0.47039132353520619 -0.2070291539043411 0 0.48409230155960398 -0.20959109073502699 0 0.50000000000001066 -0.19413965117539389 0 0.48165451479593357 -0.18644221291633251 0 0.48409230155960398 -0.20959109073502699 0 0.50000000000001066 -0.19413965117539389 0 0.48409230155960398 -0.20959109073502699 0 0.50000000000001066 -0.19413965117539389 0 0.5 -0.21753560113441769 0 0.48409230155960398 -0.20959109073502699 0 0.5 -0.21753560113441769 0 0.48548462512698559 -0.2267018234678278 0 0.5 -0.21753560113441769 0 0.48548462512698559 -0.2267018234678278 0 0.50000000000000244 -0.24093155109344139 0 0.46818460311919158 -0.22504253029465371 0 0.48548462512698559 -0.2267018234678278 0 0.48041073287670422 -0.24310216971423951 0 0.46818460311919158 -0.22504253029465371 0 0.48409230155960398 -0.20959109073502699 0 0.48548462512698559 -0.2267018234678278 0 0.46818460311919158 -0.22504253029465371 0 0.48041073287670422 -0.24310216971423951 0 0.46818460311919158 -0.22504253029465371 0 0.46591233231007328 -0.2430604950878115 0 0.48041073287670422 -0.24310216971423951 0 0.46591233231007328 -0.2430604950878115 0 0.48041073287670422 -0.24310216971423951 0 0.47442197551264192 -0.25372726148224461 0 0.48548462512698559 -0.2267018234678278 0 0.48041073287670422 -0.24310216971423951 0 0.50000000000000244 -0.24093155109344139 0 0.50000000000000244 -0.24093155109344139 0 0.50000000000000067 -0.25150432325675592 0 0.47442197551264192 -0.25372726148224461 0 0.50000000000000244 -0.24093155109344139 0 0.47442197551264192 -0.25372726148224461 0 0.48041073287670422 -0.24310216971423951 0 0.50000000000000244 -0.24093155109344139 0 0.47442197551264192 -0.25372726148224461 0 0.50000000000000067 -0.25150432325675592 0 0.47442197551264192 -0.25372726148224461 0 0.50000000000000067 -0.25150432325675592 0 0.5 -0.27484001791177892 0 0.48377933544338142 -0.26739119897820091 0 0.50000000000000067 -0.25150432325675592 0 0.48377933544338142 -0.26739119897820091 0 0.47442197551264192 -0.25372726148224461 0 0.5 -0.27484001791177892 0 0.48377933544338142 -0.26739119897820091 0 0.48379271776647748 -0.28546450087911929 0 0.48377933544338142 -0.26739119897820091 0 0.47326542947153921 -0.27637957453433359 0 0.48379271776647748 -0.28546450087911929 0 0.47326542947153921 -0.27637957453433359 0 0.47181464011346708 -0.26388518195296262 0 0.46143455884724188 -0.27501553537710099 0 0.48377933544338142 -0.26739119897820091 0 0.47326542947153921 -0.27637957453433359 0 0.47181464011346708 -0.26388518195296262 0 0.48377933544338142 -0.26739119897820091 0 0.47181464011346708 -0.26388518195296262 0 0.47442197551264192 -0.25372726148224461 0 0.47181464011346708 -0.26388518195296262 0 0.47442197551264192 -0.25372726148224461 0 0.46198646397713811 -0.2599482737509371 0 0.46591233231007328 -0.2430604950878115 0 0.47442197551264192 -0.25372726148224461 0 0.45139186265369441 -0.25571716578652282 0 0.47442197551264192 -0.25372726148224461 0 0.45139186265369441 -0.25571716578652282 0 0.47442197551264192 -0.25372726148224461 0 0.46198646397713811 -0.2599482737509371 0 0.45139186265369441 -0.25571716578652282 0 0.47442197551264192 -0.25372726148224461 0 0.46198646397713811 -0.2599482737509371 0 0.46198646397713811 -0.2599482737509371 0 0.44912507483886999 -0.26638233634605352 0 0.46198646397713811 -0.2599482737509371 0 0.45139186265369441 -0.25571716578652282 0 0.46198646397713811 -0.2599482737509371 0 0.44912507483886999 -0.26638233634605352 0 0.45139186265369441 -0.25571716578652282 0 0.47181464011346708 -0.26388518195296262 0 0.46198646397713811 -0.2599482737509371 0 0.47181464011346708 -0.26388518195296262 0 0.46198646397713811 -0.2599482737509371 0 0.46143455884724188 -0.27501553537710099 0 0.47326542947153921 -0.27637957453433359 0 0.46143455884724188 -0.27501553537710099 0 0.46550589518712798 -0.29014145548428449 0 0.46198646397713811 -0.2599482737509371 0 0.46143455884724188 -0.27501553537710099 0 0.44912507483886999 -0.26638233634605352 0 0.46143455884724188 -0.27501553537710099 0 0.44912507483886999 -0.26638233634605352 0 0.44414540030234367 -0.29008127364915443 0 0.44912507483886999 -0.26638233634605352 0 0.44414540030234367 -0.29008127364915443 0 0.44912507483886999 -0.26638233634605352 0 0.44414540030234367 -0.29008127364915443 0 0.42551765166573219 -0.27819223003423049 0 0.44912507483886999 -0.26638233634605352 0 0.45139186265369441 -0.25571716578652282 0 0.43513793711593851 -0.25714136371857582 0 0.44093132457937778 -0.25151414010904122 0 0.45139186265369441 -0.25571716578652282 0 0.43513793711593851 -0.25714136371857582 0 0.45139186265369441 -0.25571716578652282 0 0.43513793711593851 -0.25714136371857582 0 0.44093132457937778 -0.25151414010904122 0 0.43513793711593851 -0.25714136371857582 0 0.44093132457937778 -0.25151414010904122 0 0.45139186265369441 -0.25571716578652282 0 0.44912507483886999 -0.26638233634605352 0 0.45139186265369441 -0.25571716578652282 0 0.44414540030234367 -0.29008127364915443 0 0.43916572576581681 -0.31378021095225522 0 0.44414540030234367 -0.29008127364915443 0 0.45543043247654103 -0.30482514915656139 0 0.43916572576581681 -0.31378021095225522 0 0.44414540030234367 -0.29008127364915443 0 0.46550589518712798 -0.29014145548428449 0 0.45543043247654103 -0.30482514915656139 0 0.46143455884724188 -0.27501553537710099 0 0.44414540030234367 -0.29008127364915443 0 0.46550589518712798 -0.29014145548428449 0 0.46550589518712798 -0.29014145548428449 0 0.45543043247654103 -0.30482514915656139 0 0.47558558246246269 -0.31053636545742669 0 0.46550589518712798 -0.29014145548428449 0 0.47558558246246269 -0.31053636545742669 0 0.48379271776647748 -0.28546450087911929 0 0.47326542947153921 -0.27637957453433359 0 0.46550589518712798 -0.29014145548428449 0 0.48379271776647748 -0.28546450087911929 0 0.5 -0.27484001791177892 0 0.48379271776647748 -0.28546450087911929 0 0.49999999999999878 -0.29817571256680198 0 0.47558558246246269 -0.31053636545742669 0 0.49999999999999878 -0.29817571256680198 0 0.47558558246246269 -0.31053636545742669 0 0.48379271776647748 -0.28546450087911929 0 0.49999999999999878 -0.29817571256680198 0 0.47558558246246269 -0.31053636545742669 0 0.49999999999999878 -0.29817571256680198 0 0.5 -0.32415382493724698 0 0.47558558246246269 -0.31053636545742669 0 0.5 -0.32415382493724698 0 0.46853312421580923 -0.33288912567274992 0 0.5 -0.32415382493724698 0 0.48246465439197761 -0.34537152320717918 0 0.46853312421580923 -0.33288912567274992 0 0.5 -0.32415382493724698 0 0.5 -0.35013193730769199 0 0.48246465439197761 -0.34537152320717918 0 0.48246465439197761 -0.34537152320717918 0 0.46600528229298782 -0.35221916798868969 0 0.46853312421580923 -0.33288912567274992 0 0.5 -0.35013193730769199 0 0.47778486545109111 -0.36746356012951759 0 0.5 -0.37611004967813699 0 0.5 -0.35013193730769199 0 0.48246465439197761 -0.34537152320717918 0 0.47778486545109111 -0.36746356012951759 0 0.48246465439197761 -0.34537152320717918 0 0.47778486545109111 -0.36746356012951759 0 0.46600528229298782 -0.35221916798868969 0 0.47778486545109111 -0.36746356012951759 0 0.46600528229298782 -0.35221916798868969 0 0.45165634526089637 -0.36806131001541648 0 0.47778486545109111 -0.36746356012951759 0 0.45165634526089637 -0.36806131001541648 0 0.46189403497471948 -0.38899928250966131 0 0.46600528229298782 -0.35221916798868969 0 0.45165634526089637 -0.36806131001541648 0 0.45051776069734772 -0.34364953098720807 0 0.45165634526089637 -0.36806131001541648 0 0.45051776069734772 -0.34364953098720807 0 0.43223949291038621 -0.35165495720669049 0 0.47558558246246269 -0.31053636545742669 0 0.45117116492492682 -0.32289701834805179 0 0.45543043247654103 -0.30482514915656139 0 0.47558558246246269 -0.31053636545742669 0 0.45117116492492682 -0.32289701834805179 0 0.47558558246246269 -0.31053636545742669 0 0.46853312421580923 -0.33288912567274992 0 0.45117116492492682 -0.32289701834805179 0 0.46853312421580923 -0.33288912567274992 0 0.45051776069734772 -0.34364953098720807 0 0.45117116492492682 -0.32289701834805179 0 0.46600528229298782 -0.35221916798868969 0 0.46853312421580923 -0.33288912567274992 0 0.45051776069734772 -0.34364953098720807 0 0.45051776069734772 -0.34364953098720807 0 0.45117116492492682 -0.32289701834805179 0 0.43463039245640639 -0.33306575588918719 0 0.45051776069734772 -0.34364953098720807 0 0.43463039245640639 -0.33306575588918719 0 0.43223949291038621 -0.35165495720669049 0 0.43916572576581681 -0.31378021095225522 0 0.45117116492492682 -0.32289701834805179 0 0.43463039245640639 -0.33306575588918719 0 0.45543043247654103 -0.30482514915656139 0 0.43916572576581681 -0.31378021095225522 0 0.45117116492492682 -0.32289701834805179 0 0.43916572576581681 -0.31378021095225522 0 0.42678066369447032 -0.32275839502821269 0 0.41953160498580061 -0.31211159359829033 0 0.43916572576581681 -0.31378021095225522 0 0.42678066369447032 -0.32275839502821269 0 0.43463039245640639 -0.33306575588918719 0 0.43463039245640639 -0.33306575588918719 0 0.4212809902625767 -0.33761684601772118 0 0.43223949291038621 -0.35165495720669049 0 0.42678066369447032 -0.32275839502821269 0 0.43463039245640639 -0.33306575588918719 0 0.4212809902625767 -0.33761684601772118 0 0.42678066369447032 -0.32275839502821269 0 0.4212809902625767 -0.33761684601772118 0 0.40934255652677598 -0.32707792782076861 0 0.4212809902625767 -0.33761684601772118 0 0.40934255652677598 -0.32707792782076861 0 0.40840009275061689 -0.35071648444284592 0 0.42678066369447032 -0.32275839502821269 0 0.40934255652677598 -0.32707792782076861 0 0.41953160498580061 -0.31211159359829033 0 0.40934255652677598 -0.32707792782076861 0 0.40087911638448648 -0.31285710237211151 0 0.41953160498580061 -0.31211159359829033 0 0.45165634526089637 -0.36806131001541648 0 0.4264895106788365 -0.37092345251952008 0 0.43223949291038621 -0.35165495720669049 0 0.4264895106788365 -0.37092345251952008 0 0.43223949291038621 -0.35165495720669049 0 0.40840009275061689 -0.35071648444284592 0 0.4212809902625767 -0.33761684601772118 0 0.43223949291038621 -0.35165495720669049 0 0.40840009275061689 -0.35071648444284592 0 0.4264895106788365 -0.37092345251952008 0 0.40840009275061689 -0.35071648444284592 0 0.4021182501826045 -0.3743034524728498 0 0.40840009275061689 -0.35071648444284592 0 0.4021182501826045 -0.3743034524728498 0 0.3817140416070961 -0.35530245260660559 0 0.4021182501826045 -0.3743034524728498 0 0.3817140416070961 -0.35530245260660559 0 0.40840009275061689 -0.35071648444284592 0 0.3817140416070961 -0.35530245260660559 0 0.38359682655310662 -0.33282460399322511 0 0.4021182501826045 -0.3743034524728498 0 0.3817140416070961 -0.35530245260660559 0 0.3711584531960917 -0.38072445612012012 0 0.40934255652677598 -0.32707792782076861 0 0.40087911638448648 -0.31285710237211151 0 0.38359682655310662 -0.33282460399322511 0 0.40934255652677598 -0.32707792782076861 0 0.40840009275061689 -0.35071648444284592 0 0.38359682655310662 -0.33282460399322511 0 0.3817140416070961 -0.35530245260660559 0 0.38359682655310662 -0.33282460399322511 0 0.36130983303158443 -0.33630145274036499 0 0.38359682655310662 -0.33282460399322511 0 0.38103831672514971 -0.30968931827014418 0 0.36141057964371298 -0.32875409966149299 0 0.40087911638448648 -0.31285710237211151 0 0.38359682655310662 -0.33282460399322511 0 0.38103831672514971 -0.30968931827014418 0 0.38168991654179613 -0.30011757481291401 0 0.38103831672514971 -0.30968931827014418 0 0.36271377927700788 -0.30961061274703428 0 0.38168991654179613 -0.30011757481291401 0 0.38103831672514971 -0.30968931827014418 0 0.40066605380658349 -0.29062453687879208 0 0.40087911638448648 -0.31285710237211151 0 0.40066605380658349 -0.29062453687879208 0 0.41109933970950402 -0.3048146336714499 0 0.38103831672514971 -0.30968931827014418 0 0.40066605380658349 -0.29062453687879208 0 0.40087911638448648 -0.31285710237211151 0 0.38103831672514971 -0.30968931827014418 0 0.40066605380658349 -0.29062453687879208 0 0.40066605380658349 -0.29062453687879208 0 0.38118793955290381 -0.28005260871787863 0 0.38168991654179613 -0.30011757481291401 0 0.40066605380658349 -0.29062453687879208 0 0.40066605380658349 -0.29062453687879208 0 0.41037136426834908 -0.2940646188261728 0 0.38168991654179613 -0.30011757481291401 0 0.38118793955290381 -0.28005260871787863 0 0.37121325471253558 -0.29872690816311642 0 0.38168991654179613 -0.30011757481291401 0 0.40066605380658349 -0.29062453687879208 0 0.38118793955290381 -0.28005260871787863 0 0.38118793955290381 -0.28005260871787863 0 0.40005615141526102 -0.26607630401760629 0 0.38118793955290381 -0.28005260871787863 0 0.38425001390147262 -0.26360936766002102 0 0.40005615141526102 -0.26607630401760629 0 0.38961748738554941 -0.24852913003707741 0 0.38425001390147262 -0.26360936766002102 0 0.37069146179129192 -0.25511905419274078 0 0.38961748738554941 -0.24852913003707741 0 0.38425001390147262 -0.26360936766002102 0 0.39450222343295122 -0.25749094318382892 0 0.38425001390147262 -0.26360936766002102 0 0.39450222343295122 -0.25749094318382892 0 0.40005615141526102 -0.26607630401760629 0 0.38961748738554941 -0.24852913003707741 0 0.39450222343295122 -0.25749094318382892 0 0.40408524102952192 -0.25174897102061122 0 0.39450222343295122 -0.25749094318382892 0 0.40408524102952192 -0.25174897102061122 0 0.40005615141526102 -0.26607630401760629 0 0.40066605380658349 -0.29062453687879208 0 0.38118793955290381 -0.28005260871787863 0 0.40503665766883051 -0.27218709831425131 0 0.38118793955290381 -0.28005260871787863 0 0.40005615141526102 -0.26607630401760629 0 0.40503665766883051 -0.27218709831425131 0 0.40005615141526102 -0.26607630401760629 0 0.40503665766883051 -0.27218709831425131 0 0.41043399792936403 -0.26252623297180488 0 0.40066605380658349 -0.29062453687879208 0 0.40503665766883051 -0.27218709831425131 0 0.4183221899260986 -0.2734748077002308 0 0.40066605380658349 -0.29062453687879208 0 0.4183221899260986 -0.2734748077002308 0 0.42551765166573219 -0.27819223003423049 0 0.40503665766883051 -0.27218709831425131 0 0.4183221899260986 -0.2734748077002308 0 0.41771881935574551 -0.25974153023802732 0 0.40503665766883051 -0.27218709831425131 0 0.41771881935574551 -0.25974153023802732 0 0.40005615141526102 -0.26607630401760629 0 0.41892436327761862 -0.25209999931733468 0 0.40408524102952192 -0.25174897102061122 0 0.40005615141526102 -0.26607630401760629 0 0.41892436327761862 -0.25209999931733468 0 0.40005615141526102 -0.26607630401760629 0 0.41043399792936403 -0.26252623297180488 0 0.41892436327761862 -0.25209999931733468 0 0.41510406206834938 -0.24726733678295609 0 0.40408524102952192 -0.25174897102061122 0 0.41892436327761862 -0.25209999931733468 0 0.40503665766883051 -0.27218709831425131 0 0.41043399792936403 -0.26252623297180488 0 0.41771881935574551 -0.25974153023802732 0 0.41043399792936403 -0.26252623297180488 0 0.41771881935574551 -0.25974153023802732 0 0.41892436327761862 -0.25209999931733468 0 0.4183221899260986 -0.2734748077002308 0 0.41771881935574551 -0.25974153023802732 0 0.42997380766632332 -0.2575901685416766 0 0.4183221899260986 -0.2734748077002308 0 0.43513793711593851 -0.25714136371857582 0 0.4183221899260986 -0.2734748077002308 0 0.42997380766632332 -0.2575901685416766 0 0.43513793711593851 -0.25714136371857582 0 0.43040098104265467 -0.24729596216179731 0 0.41771881935574551 -0.25974153023802732 0 0.41892436327761862 -0.25209999931733468 0 0.43040098104265467 -0.24729596216179731 0 0.41771881935574551 -0.25974153023802732 0 0.42997380766632332 -0.2575901685416766 0 0.43040098104265467 -0.24729596216179731 0 0.41771881935574551 -0.25974153023802732 0 0.43040098104265467 -0.24729596216179731 0 0.44093132457937778 -0.25151414010904122 0 0.43513793711593851 -0.25714136371857582 0 0.43040098104265467 -0.24729596216179731 0 0.42997380766632332 -0.2575901685416766 0 0.43513793711593851 -0.25714136371857582 0 0.42997380766632332 -0.2575901685416766 0 0.43513793711593851 -0.25714136371857582 0 0.44912507483886999 -0.26638233634605352 0 0.42551765166573219 -0.27819223003423049 0 0.44912507483886999 -0.26638233634605352 0 0.43513793711593851 -0.25714136371857582 0 0.42551765166573219 -0.27819223003423049 0 0.4183221899260986 -0.2734748077002308 0 0.43513793711593851 -0.25714136371857582 0 0.42551765166573219 -0.27819223003423049 0 0.44414540030234367 -0.29008127364915443 0 0.42551765166573219 -0.27819223003423049 0 0.42497184778292441 -0.29884076012192551 0 0.44414540030234367 -0.29008127364915443 0 0.43916572576581681 -0.31378021095225522 0 0.42497184778292441 -0.29884076012192551 0 0.43916572576581681 -0.31378021095225522 0 0.42497184778292441 -0.29884076012192551 0 0.41953160498580061 -0.31211159359829033 0 0.40087911638448648 -0.31285710237211151 0 0.41953160498580061 -0.31211159359829033 0 0.41109933970950402 -0.3048146336714499 0 0.42497184778292441 -0.29884076012192551 0 0.41109933970950402 -0.3048146336714499 0 0.41037136426834908 -0.2940646188261728 0 0.42497184778292441 -0.29884076012192551 0 0.41953160498580061 -0.31211159359829033 0 0.41109933970950402 -0.3048146336714499 0 0.42551765166573219 -0.27819223003423049 0 0.42497184778292441 -0.29884076012192551 0 0.41037136426834908 -0.2940646188261728 0 0.40066605380658349 -0.29062453687879208 0 0.42551765166573219 -0.27819223003423049 0 0.40066605380658349 -0.29062453687879208 0 0.4183221899260986 -0.2734748077002308 0 0.40066605380658349 -0.29062453687879208 0 0.41109933970950402 -0.3048146336714499 0 0.41037136426834908 -0.2940646188261728 0 0.40066605380658349 -0.29062453687879208 0 0.42551765166573219 -0.27819223003423049 0 0.41037136426834908 -0.2940646188261728 0 0.44260126732024752 -0.5 0 0.44741123107355019 -0.4782485872650083 0 0.46765053978852661 -0.48181928898837678 0 0.44260126732024752 -0.5 0 0.44741123107355019 -0.4782485872650083 0 0.43296163954986577 -0.48459524932000808 0 0.44741123107355019 -0.4782485872650083 0 0.44271139184800778 -0.4616737226119042 0 0.431230457834192 -0.47318901154485282 0 0.44741123107355019 -0.4782485872650083 0 0.46765053978852661 -0.48181928898837678 0 0.46520654490397251 -0.46002024426476562 0 0.5 -0.5 0 0.4822354916778091 -0.46980140443971968 0 0.5 -0.4589635659983331 0 0.44260126732024752 -0.5 0 0.46765053978852661 -0.48181928898837678 0 0.5 -0.5 0 0.46765053978852661 -0.48181928898837678 0 0.5 -0.5 0 0.4822354916778091 -0.46980140443971968 0 0.46765053978852661 -0.48181928898837678 0 0.4822354916778091 -0.46980140443971968 0 0.46520654490397251 -0.46002024426476562 0 0.4822354916778091 -0.46980140443971968 0 0.48800827873881653 -0.45428677625964953 0 0.46520654490397251 -0.46002024426476562 0 0.48800827873881653 -0.45428677625964953 0 0.5 -0.4589635659983331 0 0.50000000000000577 -0.40208816204858211 0 0.4822354916778091 -0.46980140443971968 0 0.48800827873881653 -0.45428677625964953 0 0.5 -0.4589635659983331 0 0.48800827873881653 -0.45428677625964953 0 0.47026285793195749 -0.4377617178566347 0 0.48800827873881653 -0.45428677625964953 0 0.47026285793195749 -0.4377617178566347 0 0.46520654490397251 -0.46002024426476562 0 0.47026285793195749 -0.4377617178566347 0 0.46520654490397251 -0.46002024426476562 0 0.44627582395346599 -0.44193440429017861 0 0.44741123107355019 -0.4782485872650083 0 0.46520654490397251 -0.46002024426476562 0 0.44271139184800778 -0.4616737226119042 0 0.46520654490397251 -0.46002024426476562 0 0.44271139184800778 -0.4616737226119042 0 0.44627582395346599 -0.44193440429017861 0 0.44271139184800778 -0.4616737226119042 0 0.44627582395346599 -0.44193440429017861 0 0.4318128005355597 -0.44770862483026802 0 0.4525174371250994 -0.4212366594536191 0 0.42742178376397472 -0.4313570915484275 0 0.44627582395346599 -0.44193440429017861 0 0.4525174371250994 -0.4212366594536191 0 0.42742178376397472 -0.4313570915484275 0 0.44292666733362079 -0.4123054522053386 0 0.4525174371250994 -0.4212366594536191 0 0.46287433441939307 -0.40527697345000002 0 0.44292666733362079 -0.4123054522053386 0 0.4525174371250994 -0.4212366594536191 0 0.42742178376397472 -0.4313570915484275 0 0.44292666733362079 -0.4123054522053386 0 0.4525174371250994 -0.4212366594536191 0 0.4525174371250994 -0.4212366594536191 0 0.47625871856255292 -0.41166241075110138 0 0.4525174371250994 -0.4212366594536191 0 0.47625871856255292 -0.41166241075110138 0 0.46287433441939307 -0.40527697345000002 0 0.47026285793195749 -0.4377617178566347 0 0.4525174371250994 -0.4212366594536191 0 0.47625871856255292 -0.41166241075110138 0 0.47026285793195749 -0.4377617178566347 0 0.4525174371250994 -0.4212366594536191 0 0.47026285793195749 -0.4377617178566347 0 0.44627582395346599 -0.44193440429017861 0 0.4525174371250994 -0.4212366594536191 0 0.48800827873881653 -0.45428677625964953 0 0.47026285793195749 -0.4377617178566347 0 0.47625871856255292 -0.41166241075110138 0 0.48800827873881653 -0.45428677625964953 0 0.47625871856255292 -0.41166241075110138 0 0.50000000000000577 -0.40208816204858211 0 0.47625871856255292 -0.41166241075110138 0 0.50000000000000577 -0.40208816204858211 0 0.47625871856255292 -0.41166241075110138 0 0.48077481410097261 -0.39218106233028083 0 0.46287433441939307 -0.40527697345000002 0 0.47625871856255292 -0.41166241075110138 0 0.48077481410097261 -0.39218106233028083 0 0.50000000000000577 -0.40208816204858211 0 0.47778486545109111 -0.36746356012951759 0 0.48077481410097261 -0.39218106233028083 0 0.5 -0.37611004967813699 0 0.48077481410097261 -0.39218106233028083 0 0.50000000000000577 -0.40208816204858211 0 0.5 -0.37611004967813699 0 0.47778486545109111 -0.36746356012951759 0 0.48077481410097261 -0.39218106233028083 0 0.46189403497471948 -0.38899928250966131 0 0.44292666733362079 -0.4123054522053386 0 0.46189403497471948 -0.38899928250966131 0 0.46287433441939307 -0.40527697345000002 0 0.48077481410097261 -0.39218106233028083 0 0.46189403497471948 -0.38899928250966131 0 0.46287433441939307 -0.40527697345000002 0 0.44292666733362079 -0.4123054522053386 0 0.46189403497471948 -0.38899928250966131 0 0.44292666733362079 -0.4123054522053386 0 0.46189403497471948 -0.38899928250966131 0 0.44200042421040192 -0.38750005864022402 0 0.45165634526089637 -0.36806131001541648 0 0.4264895106788365 -0.37092345251952008 0 0.44200042421040192 -0.38750005864022402 0 0.45165634526089637 -0.36806131001541648 0 0.46189403497471948 -0.38899928250966131 0 0.44200042421040192 -0.38750005864022402 0 0.4264895106788365 -0.37092345251952008 0 0.44200042421040192 -0.38750005864022402 0 0.42252245875811301 -0.39330445233909389 0 0.44292666733362079 -0.4123054522053386 0 0.42252245875811301 -0.39330445233909389 0 0.44292666733362079 -0.4123054522053386 0 0.44200042421040192 -0.38750005864022402 0 0.42252245875811301 -0.39330445233909389 0 0.42252245875811301 -0.39330445233909389 0 0.3955951940262476 -0.39167212479945368 0 0.40378120742354201 -0.40427010041910483 0 0.42252245875811301 -0.39330445233909389 0 0.40378120742354201 -0.40427010041910483 0 0.4127686806455505 -0.4141710215622848 0 0.4021182501826045 -0.3743034524728498 0 0.42252245875811301 -0.39330445233909389 0 0.3955951940262476 -0.39167212479945368 0 0.4021182501826045 -0.3743034524728498 0 0.42252245875811301 -0.39330445233909389 0 0.4264895106788365 -0.37092345251952008 0 0.4021182501826045 -0.3743034524728498 0 0.42252245875811301 -0.39330445233909389 0 0.4021182501826045 -0.3743034524728498 0 0.3955951940262476 -0.39167212479945368 0 0.3711584531960917 -0.38072445612012012 0 0.38129611638564448 -0.40349402898769388 0 0.3955951940262476 -0.39167212479945368 0 0.39057429630684432 -0.4095330213642745 0 0.38129611638564448 -0.40349402898769388 0 0.3711584531960917 -0.38072445612012012 0 0.38129611638564448 -0.40349402898769388 0 0.3955951940262476 -0.39167212479945368 0 0.3711584531960917 -0.38072445612012012 0 0.3955951940262476 -0.39167212479945368 0 0.40378120742354201 -0.40427010041910483 0 0.39057429630684432 -0.4095330213642745 0 0.40132313403706599 -0.41745447678071451 0 0.39057429630684432 -0.4095330213642745 0 0.39346088800329171 -0.43081656363758009 0 0.40378120742354201 -0.40427010041910483 0 0.40132313403706599 -0.41745447678071451 0 0.39057429630684432 -0.4095330213642745 0 0.40378120742354201 -0.40427010041910483 0 0.40132313403706599 -0.41745447678071451 0 0.4127686806455505 -0.4141710215622848 0 0.38129611638564448 -0.40349402898769388 0 0.39057429630684432 -0.4095330213642745 0 0.39346088800329171 -0.43081656363758009 0 0.38129611638564448 -0.40349402898769388 0 0.39346088800329171 -0.43081656363758009 0 0.37462953769176699 -0.42748823441279471 0 0.38129611638564448 -0.40349402898769388 0 0.39346088800329171 -0.43081656363758009 0 0.38129611638564448 -0.40349402898769388 0 0.39057429630684432 -0.4095330213642745 0 0.39346088800329171 -0.43081656363758009 0 0.38091358764212691 -0.45014275167897477 0 0.37462953769176699 -0.42748823441279471 0 0.39346088800329171 -0.43081656363758009 0 0.41323980884568079 -0.43707631758592658 0 0.4075387745115957 -0.42504622148191878 0 0.40132313403706599 -0.41745447678071451 0 0.39346088800329171 -0.43081656363758009 0 0.4075387745115957 -0.42504622148191878 0 0.41323980884568079 -0.43707631758592658 0 0.41690136102638908 -0.42571272784308772 0 0.42742178376397472 -0.4313570915484275 0 0.41323980884568079 -0.43707631758592658 0 0.42742178376397472 -0.4313570915484275 0 0.41323980884568079 -0.43707631758592658 0 0.41690136102638908 -0.42571272784308772 0 0.4075387745115957 -0.42504622148191878 0 0.40132313403706599 -0.41745447678071451 0 0.4075387745115957 -0.42504622148191878 0 0.4127686806455505 -0.4141710215622848 0 0.41690136102638908 -0.42571272784308772 0 0.4075387745115957 -0.42504622148191878 0 0.4127686806455505 -0.4141710215622848 0 0.42252245875811301 -0.39330445233909389 0 0.4127686806455505 -0.4141710215622848 0 0.42659371418344277 -0.41506193515394701 0 0.41690136102638908 -0.42571272784308772 0 0.4127686806455505 -0.4141710215622848 0 0.42659371418344277 -0.41506193515394701 0 0.44292666733362079 -0.4123054522053386 0 0.42659371418344277 -0.41506193515394701 0 0.42742178376397472 -0.4313570915484275 0 0.44292666733362079 -0.4123054522053386 0 0.42252245875811301 -0.39330445233909389 0 0.42659371418344277 -0.41506193515394701 0 0.44292666733362079 -0.4123054522053386 0 0.42742178376397472 -0.4313570915484275 0 0.41690136102638908 -0.42571272784308772 0 0.42659371418344277 -0.41506193515394701 0 0.42742178376397472 -0.4313570915484275 0 0.42742178376397472 -0.4313570915484275 0 0.4318128005355597 -0.44770862483026802 0 0.41652372169245239 -0.44474809491794459 0 0.44627582395346599 -0.44193440429017861 0 0.42742178376397472 -0.4313570915484275 0 0.4318128005355597 -0.44770862483026802 0 0.4318128005355597 -0.44770862483026802 0 0.4248463198793514 -0.45920128125287901 0 0.41652372169245239 -0.44474809491794459 0 0.42742178376397472 -0.4313570915484275 0 0.41652372169245239 -0.44474809491794459 0 0.44271139184800778 -0.4616737226119042 0 0.4318128005355597 -0.44770862483026802 0 0.4248463198793514 -0.45920128125287901 0 0.44271139184800778 -0.4616737226119042 0 0.4248463198793514 -0.45920128125287901 0 0.431230457834192 -0.47318901154485282 0 0.4248463198793514 -0.45920128125287901 0 0.42117388774495768 -0.46974913532483831 0 0.431230457834192 -0.47318901154485282 0 0.405625659620937 -0.45813909828746707 0 0.41262204271801989 -0.47385323790325212 0 0.4248463198793514 -0.45920128125287901 0 0.405625659620937 -0.45813909828746707 0 0.42117388774495768 -0.46974913532483831 0 0.4248463198793514 -0.45920128125287901 0 0.41652372169245239 -0.44474809491794459 0 0.405625659620937 -0.45813909828746707 0 0.405625659620937 -0.45813909828746707 0 0.41262204271801989 -0.47385323790325212 0 0.42117388774495768 -0.46974913532483831 0 0.41652372169245239 -0.44474809491794459 0 0.405625659620937 -0.45813909828746707 0 0.41323980884568079 -0.43707631758592658 0 0.41652372169245239 -0.44474809491794459 0 0.405625659620937 -0.45813909828746707 0 0.41323980884568079 -0.43707631758592658 0 0.42742178376397472 -0.4313570915484275 0 0.41652372169245239 -0.44474809491794459 0 0.39346088800329171 -0.43081656363758009 0 0.405625659620937 -0.45813909828746707 0 0.39346088800329171 -0.43081656363758009 0 0.41323980884568079 -0.43707631758592658 0 0.405625659620937 -0.45813909828746707 0 0.39346088800329171 -0.43081656363758009 0 0.38091358764212691 -0.45014275167897477 0 0.405625659620937 -0.45813909828746707 0 0.38091358764212691 -0.45014275167897477 0 0.37912127730606421 -0.46609234390534088 0 0.39038416606521809 -0.46282762743378147 0 0.37912127730606421 -0.46609234390534088 0 0.39038416606521809 -0.46282762743378147 0 0.3910856974570816 -0.47600508960326299 0 0.405625659620937 -0.45813909828746707 0 0.3910856974570816 -0.47600508960326299 0 0.38091358764212691 -0.45014275167897477 0 0.39038416606521809 -0.46282762743378147 0 0.405625659620937 -0.45813909828746707 0 0.39038416606521809 -0.46282762743378147 0 0.405625659620937 -0.45813909828746707 0 0.3910856974570816 -0.47600508960326299 0 0.405625659620937 -0.45813909828746707 0 0.40171409481833809 -0.47719187387280598 0 0.3910856974570816 -0.47600508960326299 0 0.40171409481833809 -0.47719187387280598 0 0.3910856974570816 -0.47600508960326299 0 0.38583087098624808 -0.48786572121973482 0 0.40171409481833809 -0.47719187387280598 0 0.38583087098624808 -0.48786572121973482 0 0.41115368809402381 -0.48512818806231722 0 0.38583087098624808 -0.48786572121973482 0 0.39839828310455139 -0.5 0 0.35926591150957488 -0.48942022335674068 0 0.38583087098624808 -0.48786572121973482 0 0.3658743938538262 -0.48372516061727211 0 0.37362530574773117 -0.47691642823077302 0 0.37912127730606421 -0.46609234390534088 0 0.3910856974570816 -0.47600508960326299 0 0.37362530574773117 -0.47691642823077302 0 0.3910856974570816 -0.47600508960326299 0 0.38583087098624808 -0.48786572121973482 0 0.37362530574773117 -0.47691642823077302 0 0.38583087098624808 -0.48786572121973482 0 0.39839828310455139 -0.5 0 0.41115368809402381 -0.48512818806231722 0 0.38583087098624808 -0.48786572121973482 0 0.41115368809402381 -0.48512818806231722 0 0.44260126732024752 -0.5 0 0.39839828310455139 -0.5 0 0.41961842581510062 -0.48956737751903801 0 0.39839828310455139 -0.5 0 0.41961842581510062 -0.48956737751903801 0 0.41115368809402381 -0.48512818806231722 0 0.40171409481833809 -0.47719187387280598 0 0.41115368809402381 -0.48512818806231722 0 0.41262204271801989 -0.47385323790325212 0 0.41961842581510062 -0.48956737751903801 0 0.41262204271801989 -0.47385323790325212 0 0.405625659620937 -0.45813909828746707 0 0.40171409481833809 -0.47719187387280598 0 0.41262204271801989 -0.47385323790325212 0 0.41961842581510062 -0.48956737751903801 0 0.41262204271801989 -0.47385323790325212 0 0.42306950520770148 -0.47855710074608282 0 0.41961842581510062 -0.48956737751903801 0 0.41115368809402381 -0.48512818806231722 0 0.41262204271801989 -0.47385323790325212 0 0.41262204271801989 -0.47385323790325212 0 0.42117388774495768 -0.46974913532483831 0 0.42306950520770148 -0.47855710074608282 0 0.44741123107355019 -0.4782485872650083 0 0.431230457834192 -0.47318901154485282 0 0.43296163954986577 -0.48459524932000808 0 0.42306950520770148 -0.47855710074608282 0 0.431230457834192 -0.47318901154485282 0 0.43296163954986577 -0.48459524932000808 0 0.41961842581510062 -0.48956737751903801 0 0.42306950520770148 -0.47855710074608282 0 0.43296163954986577 -0.48459524932000808 0 0.42117388774495768 -0.46974913532483831 0 0.42306950520770148 -0.47855710074608282 0 0.431230457834192 -0.47318901154485282 0 0.44260126732024752 -0.5 0 0.41961842581510062 -0.48956737751903801 0 0.43296163954986577 -0.48459524932000808 0 0.32142995831260301 -0.5 0 0.31819706146820631 -0.49517730094366869 0 0.30471795731500029 -0.49999999999999301 0 0.32142995831260301 -0.5 0 0.31819706146820631 -0.49517730094366869 0 0.335185236770697 -0.49334078753457011 0 0.31819706146820631 -0.49517730094366869 0 0.3203224003897831 -0.48339813133031462 0 0.335185236770697 -0.49334078753457011 0 0.31819706146820631 -0.49517730094366869 0 0.335185236770697 -0.49334078753457011 0 0.31819706146820631 -0.49517730094366869 0 0.3203224003897831 -0.48339813133031462 0 0.3094226516048299 -0.48935832744609459 0 0.31579130454257431 -0.47587804928057748 0 0.3203224003897831 -0.48339813133031462 0 0.3094226516048299 -0.48935832744609459 0 0.3203224003897831 -0.48339813133031462 0 0.335185236770697 -0.49334078753457011 0 0.32319932358957648 -0.46634578161205797 0 0.31579130454257431 -0.47587804928057748 0 0.3203224003897831 -0.48339813133031462 0 0.32319932358957648 -0.46634578161205797 0 0.31579130454257431 -0.47587804928057748 0 0.32319932358957648 -0.46634578161205797 0 0.31022084258610783 -0.464409956733843 0 0.3432983991130773 -0.47270165163926708 0 0.335185236770697 -0.49334078753457011 0 0.32319932358957648 -0.46634578161205797 0 0.335185236770697 -0.49334078753457011 0 0.32319932358957648 -0.46634578161205797 0 0.32142995831260301 -0.5 0 0.335185236770697 -0.49334078753457011 0 0.33814195931020569 -0.50000000000000111 0 0.335185236770697 -0.49334078753457011 0 0.33814195931020569 -0.50000000000000111 0 0.3432983991130773 -0.47270165163926708 0 0.335185236770697 -0.49334078753457011 0 0.35926591150957488 -0.48942022335674068 0 0.335185236770697 -0.49334078753457011 0 0.35926591150957488 -0.48942022335674068 0 0.39839828310455139 -0.5 0 0.33814195931020569 -0.50000000000000111 0 0.35926591150957488 -0.48942022335674068 0 0.335185236770697 -0.49334078753457011 0 0.33814195931020569 -0.50000000000000111 0 0.35926591150957488 -0.48942022335674068 0 0.38583087098624808 -0.48786572121973482 0 0.35926591150957488 -0.48942022335674068 0 0.3658743938538262 -0.48372516061727211 0 0.38583087098624808 -0.48786572121973482 0 0.35926591150957488 -0.48942022335674068 0 0.35926591150957488 -0.48942022335674068 0 0.3658743938538262 -0.48372516061727211 0 0.35959762961816327 -0.46456982257991281 0 0.3658743938538262 -0.48372516061727211 0 0.37362530574773117 -0.47691642823077302 0 0.35959762961816327 -0.46456982257991281 0 0.35926591150957488 -0.48942022335674068 0 0.35959762961816327 -0.46456982257991281 0 0.37912127730606421 -0.46609234390534088 0 0.37362530574773117 -0.47691642823077302 0 0.35959762961816327 -0.46456982257991281 0 0.3432983991130773 -0.47270165163926708 0 0.35926591150957488 -0.48942022335674068 0 0.35959762961816327 -0.46456982257991281 0 0.3432983991130773 -0.47270165163926708 0 0.35959762961816327 -0.46456982257991281 0 0.33943697852087901 -0.44953744074886542 0 0.38091358764212691 -0.45014275167897477 0 0.37912127730606421 -0.46609234390534088 0 0.35959762961816327 -0.46456982257991281 0 0.35959762961816327 -0.46456982257991281 0 0.35992934772675172 -0.43971942180308482 0 0.38091358764212691 -0.45014275167897477 0 0.35992934772675172 -0.43971942180308482 0 0.37462953769176699 -0.42748823441279471 0 0.38091358764212691 -0.45014275167897477 0 0.35959762961816327 -0.46456982257991281 0 0.35992934772675172 -0.43971942180308482 0 0.35959762961816327 -0.46456982257991281 0 0.35992934772675172 -0.43971942180308482 0 0.33943697852087901 -0.44953744074886542 0 0.33943697852087901 -0.44953744074886542 0 0.32514231575797992 -0.44643625869657272 0 0.32671955051300688 -0.43051103673582158 0 0.33943697852087901 -0.44953744074886542 0 0.32319932358957648 -0.46634578161205797 0 0.32514231575797992 -0.44643625869657272 0 0.3432983991130773 -0.47270165163926708 0 0.33943697852087901 -0.44953744074886542 0 0.32319932358957648 -0.46634578161205797 0 0.32319932358957648 -0.46634578161205797 0 0.31101903356738531 -0.43946158602159158 0 0.31022084258610783 -0.464409956733843 0 0.32514231575797992 -0.44643625869657272 0 0.32671955051300688 -0.43051103673582158 0 0.31101903356738531 -0.43946158602159158 0 0.32319932358957648 -0.46634578161205797 0 0.32514231575797992 -0.44643625869657272 0 0.31101903356738531 -0.43946158602159158 0 0.32319932358957648 -0.46634578161205797 0 0.31101903356738531 -0.43946158602159158 0 0.32671955051300688 -0.43051103673582158 0 0.31170973028128829 -0.41787307140245861 0 0.31101903356738531 -0.43946158602159158 0 0.32671955051300688 -0.43051103673582158 0 0.31101903356738531 -0.43946158602159158 0 0.32671955051300688 -0.43051103673582158 0 0.32833928004419438 -0.41342111753248623 0 0.31170973028128829 -0.41787307140245861 0 0.32833928004419438 -0.41342111753248623 0 0.31238405522762652 -0.39679627507631099 0 0.31170973028128829 -0.41787307140245861 0 0.32671955051300688 -0.43051103673582158 0 0.32833928004419438 -0.41342111753248623 0 0.34222569061755681 -0.42167129778209772 0 0.32833928004419438 -0.41342111753248623 0 0.34222569061755681 -0.42167129778209772 0 0.34685569678806749 -0.40778107699031257 0 0.33943697852087901 -0.44953744074886542 0 0.32671955051300688 -0.43051103673582158 0 0.34222569061755681 -0.42167129778209772 0 0.32671955051300688 -0.43051103673582158 0 0.34222569061755681 -0.42167129778209772 0 0.35992934772675172 -0.43971942180308482 0 0.34222569061755681 -0.42167129778209772 0 0.36026106583534001 -0.41486902102625678 0 0.35992934772675172 -0.43971942180308482 0 0.33943697852087901 -0.44953744074886542 0 0.34222569061755681 -0.42167129778209772 0 0.35992934772675172 -0.43971942180308482 0 0.37462953769176699 -0.42748823441279471 0 0.36026106583534001 -0.41486902102625678 0 0.35992934772675172 -0.43971942180308482 0 0.36026106583534001 -0.41486902102625678 0 0.38129611638564448 -0.40349402898769388 0 0.37462953769176699 -0.42748823441279471 0 0.36026106583534001 -0.41486902102625678 0 0.34222569061755681 -0.42167129778209772 0 0.36026106583534001 -0.41486902102625678 0 0.34685569678806749 -0.40778107699031257 0 0.36026106583534001 -0.41486902102625678 0 0.34685569678806749 -0.40778107699031257 0 0.36059278394392968 -0.3900186202494289 0 0.34685569678806749 -0.40778107699031257 0 0.36059278394392968 -0.3900186202494289 0 0.33586413392253278 -0.39663577024383517 0 0.38129611638564448 -0.40349402898769388 0 0.36059278394392968 -0.3900186202494289 0 0.3711584531960917 -0.38072445612012012 0 0.38129611638564448 -0.40349402898769388 0 0.36059278394392968 -0.3900186202494289 0 0.38129611638564448 -0.40349402898769388 0 0.36026106583534001 -0.41486902102625678 0 0.36059278394392968 -0.3900186202494289 0 0.36026106583534001 -0.41486902102625678 0 0.36059278394392968 -0.3900186202494289 0 0.36059278394392968 -0.3900186202494289 0 0.3711584531960917 -0.38072445612012012 0 0.3608067869752356 -0.37398675175098711 0 0.36059278394392968 -0.3900186202494289 0 0.3608067869752356 -0.37398675175098711 0 0.36059278394392968 -0.3900186202494289 0 0.34195445357771559 -0.377887282427817 0 0.33586413392253278 -0.39663577024383517 0 0.36059278394392968 -0.3900186202494289 0 0.34195445357771559 -0.377887282427817 0 0.3608067869752356 -0.37398675175098711 0 0.36059278394392968 -0.3900186202494289 0 0.34195445357771559 -0.377887282427817 0 0.34195445357771559 -0.377887282427817 0 0.33586413392253278 -0.39663577024383517 0 0.32576076025435352 -0.38332270960492559 0 0.34195445357771559 -0.377887282427817 0 0.32576076025435352 -0.38332270960492559 0 0.32331612321150149 -0.36575594460620547 0 0.32833928004419438 -0.41342111753248623 0 0.34685569678806749 -0.40778107699031257 0 0.33586413392253278 -0.39663577024383517 0 0.32833928004419438 -0.41342111753248623 0 0.33586413392253278 -0.39663577024383517 0 0.31238405522762652 -0.39679627507631099 0 0.33586413392253278 -0.39663577024383517 0 0.32576076025435352 -0.38332270960492559 0 0.31238405522762652 -0.39679627507631099 0 0.31305838017395909 -0.37571947875016332 0 0.31238405522762652 -0.39679627507631099 0 0.32576076025435352 -0.38332270960492559 0 0.31305838017395909 -0.37571947875016332 0 0.31238405522762652 -0.39679627507631099 0 0.31305838017395909 -0.37571947875016332 0 0.29503479550409678 -0.39322611745200409 0 0.29786347482236969 -0.3670746651364622 0 0.31305838017395909 -0.37571947875016332 0 0.29503479550409678 -0.39322611745200409 0 0.31305838017395909 -0.37571947875016332 0 0.30309416010889739 -0.39800109135149558 0 0.29503479550409678 -0.39322611745200409 0 0.31305838017395909 -0.37571947875016332 0 0.31238405522762652 -0.39679627507631099 0 0.30309416010889739 -0.39800109135149558 0 0.31238405522762652 -0.39679627507631099 0 0.30309416010889739 -0.39800109135149558 0 0.30485450122514718 -0.40685908960805772 0 0.30309416010889739 -0.39800109135149558 0 0.2943779052269645 -0.40143338423048008 0 0.30485450122514718 -0.40685908960805772 0 0.30309416010889739 -0.39800109135149558 0 0.29503479550409678 -0.39322611745200409 0 0.2943779052269645 -0.40143338423048008 0 0.29503479550409678 -0.39322611745200409 0 0.27701121083423708 -0.41073275615384769 0 0.29503479550409678 -0.39322611745200409 0 0.2943779052269645 -0.40143338423048008 0 0.27701121083423708 -0.41073275615384769 0 0.29503479550409678 -0.39322611745200409 0 0.27155007027265432 -0.38547242893783112 0 0.28066096311778821 -0.37018778930889462 0 0.29503479550409678 -0.39322611745200409 0 0.29786347482236969 -0.3670746651364622 0 0.28066096311778821 -0.37018778930889462 0 0.25679921550318058 -0.3788378097432894 0 0.25672449412054898 -0.40197393605751908 0 0.2458800538562696 -0.38904174214955239 0 0.27155007027265432 -0.38547242893783112 0 0.25679921550318058 -0.3788378097432894 0 0.2664639064815747 -0.36837345449922299 0 0.27155007027265432 -0.38547242893783112 0 0.25679921550318058 -0.3788378097432894 0 0.25672449412054898 -0.40197393605751908 0 0.27155007027265432 -0.38547242893783112 0 0.25672449412054898 -0.40197393605751908 0 0.27701121083423708 -0.41073275615384769 0 0.29503479550409678 -0.39322611745200409 0 0.27155007027265432 -0.38547242893783112 0 0.27701121083423708 -0.41073275615384769 0 0.27701121083423708 -0.41073275615384769 0 0.25898762616437732 -0.42823939485569151 0 0.25672449412054898 -0.40197393605751908 0 0.25898762616437732 -0.42823939485569151 0 0.24146073222529199 -0.42050762998936581 0 0.25672449412054898 -0.40197393605751908 0 0.27701121083423708 -0.41073275615384769 0 0.25898762616437732 -0.42823939485569151 0 0.25898762616437732 -0.42823939485569151 0 0.28303941014088219 -0.43053453410028247 0 0.27086120101972228 -0.44222963562171907 0 0.27701121083423708 -0.41073275615384769 0 0.25898762616437732 -0.42823939485569151 0 0.28303941014088219 -0.43053453410028247 0 0.28303941014088219 -0.43053453410028247 0 0.29601614770025281 -0.42816378612797951 0 0.29020842648584572 -0.41451277648170648 0 0.28303941014088219 -0.43053453410028247 0 0.29601614770025281 -0.42816378612797951 0 0.29782426772118109 -0.43777728370107499 0 0.27701121083423708 -0.41073275615384769 0 0.28303941014088219 -0.43053453410028247 0 0.29020842648584572 -0.41451277648170648 0 0.2943779052269645 -0.40143338423048008 0 0.27701121083423708 -0.41073275615384769 0 0.29020842648584572 -0.41451277648170648 0 0.2943779052269645 -0.40143338423048008 0 0.29020842648584572 -0.41451277648170648 0 0.3027066552809593 -0.42019162597954268 0 0.29601614770025281 -0.42816378612797951 0 0.29020842648584572 -0.41451277648170648 0 0.3027066552809593 -0.42019162597954268 0 0.2943779052269645 -0.40143338423048008 0 0.3027066552809593 -0.42019162597954268 0 0.30485450122514718 -0.40685908960805772 0 0.2943779052269645 -0.40143338423048008 0 0.3027066552809593 -0.42019162597954268 0 0.31238405522762652 -0.39679627507631099 0 0.30485450122514718 -0.40685908960805772 0 0.31170973028128829 -0.41787307140245861 0 0.31238405522762652 -0.39679627507631099 0 0.31170973028128829 -0.41787307140245861 0 0.3027066552809593 -0.42019162597954268 0 0.30485450122514718 -0.40685908960805772 0 0.31170973028128829 -0.41787307140245861 0 0.3027066552809593 -0.42019162597954268 0 0.31101903356738531 -0.43946158602159158 0 0.29601614770025281 -0.42816378612797951 0 0.3027066552809593 -0.42019162597954268 0 0.31101903356738531 -0.43946158602159158 0 0.31170973028128829 -0.41787307140245861 0 0.31101903356738531 -0.43946158602159158 0 0.3027066552809593 -0.42019162597954268 0 0.31170973028128829 -0.41787307140245861 0 0.31101903356738531 -0.43946158602159158 0 0.29601614770025281 -0.42816378612797951 0 0.29782426772118109 -0.43777728370107499 0 0.31101903356738531 -0.43946158602159158 0 0.29782426772118109 -0.43777728370107499 0 0.31101903356738531 -0.43946158602159158 0 0.28899747237546708 -0.45201563564177272 0 0.31101903356738531 -0.43946158602159158 0 0.31022084258610783 -0.464409956733843 0 0.30181691884128048 -0.45479762399770929 0 0.31101903356738531 -0.43946158602159158 0 0.31022084258610783 -0.464409956733843 0 0.31101903356738531 -0.43946158602159158 0 0.30181691884128048 -0.45479762399770929 0 0.28899747237546708 -0.45201563564177272 0 0.31101903356738531 -0.43946158602159158 0 0.28899747237546708 -0.45201563564177272 0 0.31022084258610783 -0.464409956733843 0 0.29668999966639681 -0.46299966231427681 0 0.29760066085053688 -0.47606400291351619 0 0.31022084258610783 -0.464409956733843 0 0.30181691884128048 -0.45479762399770929 0 0.29668999966639681 -0.46299966231427681 0 0.29668999966639681 -0.46299966231427681 0 0.28627826307025278 -0.46711470804384247 0 0.28899747237546708 -0.45201563564177272 0 0.30181691884128048 -0.45479762399770929 0 0.29668999966639681 -0.46299966231427681 0 0.28899747237546708 -0.45201563564177272 0 0.29668999966639681 -0.46299966231427681 0 0.28627826307025278 -0.46711470804384247 0 0.29760066085053688 -0.47606400291351619 0 0.28303941014088219 -0.43053453410028247 0 0.29782426772118109 -0.43777728370107499 0 0.28899747237546708 -0.45201563564177272 0 0.28899747237546708 -0.45201563564177272 0 0.27086120101972228 -0.44222963562171907 0 0.26862483864427922 -0.45353364683290159 0 0.28303941014088219 -0.43053453410028247 0 0.28899747237546708 -0.45201563564177272 0 0.27086120101972228 -0.44222963562171907 0 0.27086120101972228 -0.44222963562171907 0 0.25871018117475703 -0.44637428176047877 0 0.26862483864427922 -0.45353364683290159 0 0.25898762616437732 -0.42823939485569151 0 0.27086120101972228 -0.44222963562171907 0 0.25871018117475703 -0.44637428176047877 0 0.25898762616437732 -0.42823939485569151 0 0.25871018117475703 -0.44637428176047877 0 0.24096404149451839 -0.44574603355753623 0 0.25871018117475703 -0.44637428176047877 0 0.26104565638491167 -0.46283529382261962 0 0.24096404149451839 -0.44574603355753623 0 0.26104565638491167 -0.46283529382261962 0 0.24096404149451839 -0.44574603355753623 0 0.25871018117475703 -0.44637428176047877 0 0.26104565638491167 -0.46283529382261962 0 0.26862483864427922 -0.45353364683290159 0 0.26104565638491167 -0.46283529382261962 0 0.26697591118354908 -0.46456968526195458 0 0.26862483864427922 -0.45353364683290159 0 0.28899747237546708 -0.45201563564177272 0 0.26697591118354908 -0.46456968526195458 0 0.28627826307025278 -0.46711470804384247 0 0.28899747237546708 -0.45201563564177272 0 0.26697591118354908 -0.46456968526195458 0 0.28899747237546708 -0.45201563564177272 0 0.26697591118354908 -0.46456968526195458 0 0.26862483864427922 -0.45353364683290159 0 0.26104565638491167 -0.46283529382261962 0 0.28112727127531439 -0.47992455408769191 0 0.28627826307025278 -0.46711470804384247 0 0.26697591118354908 -0.46456968526195458 0 0.28112727127531439 -0.47992455408769191 0 0.26104565638491167 -0.46283529382261962 0 0.28112727127531439 -0.47992455408769191 0 0.25779359295506821 -0.48340793506768909 0 0.26104565638491167 -0.46283529382261962 0 0.26697591118354908 -0.46456968526195458 0 0.28112727127531439 -0.47992455408769191 0 0.26104565638491167 -0.46283529382261962 0 0.25779359295506821 -0.48340793506768909 0 0.24224996770912741 -0.46804919578681592 0 0.25779359295506821 -0.48340793506768909 0 0.27481547626751568 -0.5 0 0.2449129952200311 -0.5 0 0.28112727127531439 -0.47992455408769191 0 0.27481547626751568 -0.5 0 0.27750147272399728 -0.49999999999999939 0 0.28112727127531439 -0.47992455408769191 0 0.25779359295506821 -0.48340793506768909 0 0.27481547626751568 -0.5 0 0.28112727127531439 -0.47992455408769191 0 0.30120888616571539 -0.49701381435276598 0 0.29733986747409918 -0.48559017470001747 0 0.28112727127531439 -0.47992455408769191 0 0.30120888616571539 -0.49701381435276598 0 0.28112727127531439 -0.47992455408769191 0 0.27750147272399728 -0.49999999999999939 0 0.30120888616571539 -0.49701381435276598 0 0.27750147272399728 -0.49999999999999939 0 0.30120888616571539 -0.49701381435276598 0 0.27750147272399728 -0.49999999999999939 0 0.30471795731500029 -0.49999999999999301 0 0.30120888616571539 -0.49701381435276598 0 0.28627826307025278 -0.46711470804384247 0 0.28112727127531439 -0.47992455408769191 0 0.29760066085053688 -0.47606400291351619 0 0.28112727127531439 -0.47992455408769191 0 0.29760066085053688 -0.47606400291351619 0 0.29733986747409918 -0.48559017470001747 0 0.31022084258610783 -0.464409956733843 0 0.29760066085053688 -0.47606400291351619 0 0.3094226516048299 -0.48935832744609459 0 0.31579130454257431 -0.47587804928057748 0 0.31022084258610783 -0.464409956733843 0 0.3094226516048299 -0.48935832744609459 0 0.31022084258610783 -0.464409956733843 0 0.3094226516048299 -0.48935832744609459 0 0.29760066085053688 -0.47606400291351619 0 0.3094226516048299 -0.48935832744609459 0 0.29733986747409918 -0.48559017470001747 0 0.31819706146820631 -0.49517730094366869 0 0.30120888616571539 -0.49701381435276598 0 0.31819706146820631 -0.49517730094366869 0 0.3094226516048299 -0.48935832744609459 0 0.30120888616571539 -0.49701381435276598 0 0.31819706146820631 -0.49517730094366869 0 0.30471795731500029 -0.49999999999999301 0 0.30120888616571539 -0.49701381435276598 0 0.30471795731500029 -0.49999999999999301 0 0.30120888616571539 -0.49701381435276598 0 0.3094226516048299 -0.48935832744609459 0 0.30120888616571539 -0.49701381435276598 0 0.29733986747409918 -0.48559017470001747 0 0.33401350943139518 -0.2972955151602526 0 0.32367983675946299 -0.2740856976220547 0 0.33401350943139518 -0.2972955151602526 0 0.34330939290248758 -0.28098923665271108 0 0.35080941170231839 -0.29014636117114839 0 0.33401350943139518 -0.2972955151602526 0 0.32367983675946299 -0.2740856976220547 0 0.34330939290248758 -0.28098923665271108 0 0.33401350943139518 -0.2972955151602526 0 0.3516191965081007 -0.30195514857766509 0 0.34434718210332899 -0.32050533269844972 0 0.33401350943139518 -0.2972955151602526 0 0.34434718210332899 -0.32050533269844972 0 0.33342137798953703 -0.31033090217660092 0 0.33401350943139518 -0.2972955151602526 0 0.34434718210332899 -0.32050533269844972 0 0.33342137798953703 -0.31033090217660092 0 0.33401350943139518 -0.2972955151602526 0 0.31983129395618087 -0.30522817237960082 0 0.33401350943139518 -0.2972955151602526 0 0.31983129395618087 -0.30522817237960082 0 0.31616540709426799 -0.29049411796115898 0 0.33342137798953703 -0.31033090217660092 0 0.31983129395618087 -0.30522817237960082 0 0.32616541280634109 -0.31882724407234952 0 0.33401350943139518 -0.2972955151602526 0 0.31616540709426799 -0.29049411796115898 0 0.32367983675946299 -0.2740856976220547 0 0.31616540709426799 -0.29049411796115898 0 0.32367983675946299 -0.2740856976220547 0 0.30230094081484338 -0.27944650240061869 0 0.32367983675946299 -0.2740856976220547 0 0.3133461640875308 -0.25087588008385681 0 0.30230094081484338 -0.27944650240061869 0 0.32367983675946299 -0.2740856976220547 0 0.3133461640875308 -0.25087588008385681 0 0.32565416382846391 -0.2500373696370346 0 0.32367983675946299 -0.2740856976220547 0 0.32565416382846391 -0.2500373696370346 0 0.33373907402309522 -0.25727070460918322 0 0.32367983675946299 -0.2740856976220547 0 0.3133461640875308 -0.25087588008385681 0 0.33631344360308491 -0.24802077290964231 0 0.32565416382846391 -0.2500373696370346 0 0.33373907402309522 -0.25727070460918322 0 0.33373907402309522 -0.25727070460918322 0 0.34165606911048391 -0.25209302725434413 0 0.34872585882932788 -0.2564585056733118 0 0.33631344360308491 -0.24802077290964231 0 0.33373907402309522 -0.25727070460918322 0 0.34165606911048391 -0.25209302725434413 0 0.32367983675946299 -0.2740856976220547 0 0.33610867437181791 -0.27010463764365272 0 0.34330939290248758 -0.28098923665271108 0 0.32367983675946299 -0.2740856976220547 0 0.33373907402309522 -0.25727070460918322 0 0.33610867437181791 -0.27010463764365272 0 0.33373907402309522 -0.25727070460918322 0 0.33610867437181791 -0.27010463764365272 0 0.34653013752450612 -0.27187479706521062 0 0.33610867437181791 -0.27010463764365272 0 0.34330939290248758 -0.28098923665271108 0 0.34653013752450612 -0.27187479706521062 0 0.34330939290248758 -0.28098923665271108 0 0.34653013752450612 -0.27187479706521062 0 0.36203003953713092 -0.28234774975697391 0 0.33373907402309522 -0.25727070460918322 0 0.34653013752450612 -0.27187479706521062 0 0.3574635067879991 -0.26866165666353181 0 0.34653013752450612 -0.27187479706521062 0 0.3574635067879991 -0.26866165666353181 0 0.36203003953713092 -0.28234774975697391 0 0.3574635067879991 -0.26866165666353181 0 0.34872585882932788 -0.2564585056733118 0 0.35876745274961469 -0.25095791129181999 0 0.33373907402309522 -0.25727070460918322 0 0.3574635067879991 -0.26866165666353181 0 0.33373907402309522 -0.25727070460918322 0 0.3574635067879991 -0.26866165666353181 0 0.34872585882932788 -0.2564585056733118 0 0.34874302206322461 -0.24303521531723521 0 0.34165606911048391 -0.25209302725434413 0 0.34872585882932788 -0.2564585056733118 0 0.34874302206322461 -0.24303521531723521 0 0.34872585882932788 -0.2564585056733118 0 0.35876745274961469 -0.25095791129181999 0 0.3574635067879991 -0.26866165666353181 0 0.35876745274961469 -0.25095791129181999 0 0.37069146179129192 -0.25511905419274078 0 0.38425001390147262 -0.26360936766002102 0 0.3574635067879991 -0.26866165666353181 0 0.37069146179129192 -0.25511905419274078 0 0.38118793955290381 -0.28005260871787863 0 0.38425001390147262 -0.26360936766002102 0 0.3574635067879991 -0.26866165666353181 0 0.38118793955290381 -0.28005260871787863 0 0.3574635067879991 -0.26866165666353181 0 0.38118793955290381 -0.28005260871787863 0 0.3574635067879991 -0.26866165666353181 0 0.36203003953713092 -0.28234774975697391 0 0.38118793955290381 -0.28005260871787863 0 0.36186966219868832 -0.29436229172103973 0 0.38118793955290381 -0.28005260871787863 0 0.36186966219868832 -0.29436229172103973 0 0.36203003953713092 -0.28234774975697391 0 0.38118793955290381 -0.28005260871787863 0 0.36186966219868832 -0.29436229172103973 0 0.37121325471253558 -0.29872690816311642 0 0.36186966219868832 -0.29436229172103973 0 0.36203003953713092 -0.28234774975697391 0 0.34330939290248758 -0.28098923665271108 0 0.36203003953713092 -0.28234774975697391 0 0.35080941170231839 -0.29014636117114839 0 0.36186966219868832 -0.29436229172103973 0 0.36203003953713092 -0.28234774975697391 0 0.35080941170231839 -0.29014636117114839 0 0.33401350943139518 -0.2972955151602526 0 0.35080941170231839 -0.29014636117114839 0 0.3516191965081007 -0.30195514857766509 0 0.36186966219868832 -0.29436229172103973 0 0.35080941170231839 -0.29014636117114839 0 0.3516191965081007 -0.30195514857766509 0 0.3516191965081007 -0.30195514857766509 0 0.3616401209211953 -0.31155819569126619 0 0.35508305981367477 -0.32007015210518902 0 0.36186966219868832 -0.29436229172103973 0 0.3516191965081007 -0.30195514857766509 0 0.3616401209211953 -0.31155819569126619 0 0.36186966219868832 -0.29436229172103973 0 0.3516191965081007 -0.30195514857766509 0 0.38168991654179613 -0.30011757481291401 0 0.36271377927700788 -0.30961061274703428 0 0.37121325471253558 -0.29872690816311642 0 0.38103831672514971 -0.30968931827014418 0 0.3616401209211953 -0.31155819569126619 0 0.36271377927700788 -0.30961061274703428 0 0.36186966219868832 -0.29436229172103973 0 0.3616401209211953 -0.31155819569126619 0 0.36186966219868832 -0.29436229172103973 0 0.3616401209211953 -0.31155819569126619 0 0.36271377927700788 -0.30961061274703428 0 0.38168991654179613 -0.30011757481291401 0 0.36271377927700788 -0.30961061274703428 0 0.36186966219868832 -0.29436229172103973 0 0.36271377927700788 -0.30961061274703428 0 0.37121325471253558 -0.29872690816311642 0 0.3616401209211953 -0.31155819569126619 0 0.36141057964371298 -0.32875409966149299 0 0.38103831672514971 -0.30968931827014418 0 0.36141057964371298 -0.32875409966149299 0 0.38103831672514971 -0.30968931827014418 0 0.3616401209211953 -0.31155819569126619 0 0.36141057964371298 -0.32875409966149299 0 0.3616401209211953 -0.31155819569126619 0 0.36141057964371298 -0.32875409966149299 0 0.35508305981367477 -0.32007015210518902 0 0.38359682655310662 -0.33282460399322511 0 0.36130983303158443 -0.33630145274036499 0 0.36141057964371298 -0.32875409966149299 0 0.36130983303158443 -0.33630145274036499 0 0.36141057964371298 -0.32875409966149299 0 0.36130983303158443 -0.33630145274036499 0 0.36141057964371298 -0.32875409966149299 0 0.35739429618254548 -0.33265518952607509 0 0.36141057964371298 -0.32875409966149299 0 0.35739429618254548 -0.33265518952607509 0 0.35206244844577528 -0.33783411112522349 0 0.34434718210332899 -0.32050533269844972 0 0.34085975596945067 -0.33412290178776388 0 0.35739429618254548 -0.33265518952607509 0 0.35206244844577528 -0.33783411112522349 0 0.34434718210332899 -0.32050533269844972 0 0.36130983303158443 -0.33630145274036499 0 0.35739429618254548 -0.33265518952607509 0 0.35206244844577528 -0.33783411112522349 0 0.35206244844577528 -0.33783411112522349 0 0.34434718210332899 -0.32050533269844972 0 0.36130983303158443 -0.33630145274036499 0 0.35739429618254548 -0.33265518952607509 0 0.35739429618254548 -0.33265518952607509 0 0.35206244844577528 -0.33783411112522349 0 0.35739429618254548 -0.33265518952607509 0 0.34434718210332899 -0.32050533269844972 0 0.3516191965081007 -0.30195514857766509 0 0.34434718210332899 -0.32050533269844972 0 0.35508305981367477 -0.32007015210518902 0 0.35739429618254548 -0.33265518952607509 0 0.34434718210332899 -0.32050533269844972 0 0.35508305981367477 -0.32007015210518902 0 0.36141057964371298 -0.32875409966149299 0 0.35739429618254548 -0.33265518952607509 0 0.35508305981367477 -0.32007015210518902 0 0.3711584531960917 -0.38072445612012012 0 0.36102079000654091 -0.35795488325254521 0 0.3817140416070961 -0.35530245260660559 0 0.3711584531960917 -0.38072445612012012 0 0.36102079000654091 -0.35795488325254521 0 0.3608067869752356 -0.37398675175098711 0 0.36102079000654091 -0.35795488325254521 0 0.3711584531960917 -0.38072445612012012 0 0.3608067869752356 -0.37398675175098711 0 0.36102079000654091 -0.35795488325254521 0 0.3817140416070961 -0.35530245260660559 0 0.36130983303158443 -0.33630145274036499 0 0.3817140416070961 -0.35530245260660559 0 0.36130983303158443 -0.33630145274036499 0 0.36102079000654091 -0.35795488325254521 0 0.36130983303158443 -0.33630145274036499 0 0.36102079000654091 -0.35795488325254521 0 0.35206244844577528 -0.33783411112522349 0 0.36102079000654091 -0.35795488325254521 0 0.36102079000654091 -0.35795488325254521 0 0.34495748791992598 -0.36547597798065412 0 0.33768928582863827 -0.35179502786571443 0 0.36130983303158443 -0.33630145274036499 0 0.35206244844577528 -0.33783411112522349 0 0.36102079000654091 -0.35795488325254521 0 0.35206244844577528 -0.33783411112522349 0 0.36102079000654091 -0.35795488325254521 0 0.33768928582863827 -0.35179502786571443 0 0.35206244844577528 -0.33783411112522349 0 0.33768928582863827 -0.35179502786571443 0 0.3608067869752356 -0.37398675175098711 0 0.36102079000654091 -0.35795488325254521 0 0.34495748791992598 -0.36547597798065412 0 0.34195445357771559 -0.377887282427817 0 0.3608067869752356 -0.37398675175098711 0 0.34495748791992598 -0.36547597798065412 0 0.34195445357771559 -0.377887282427817 0 0.34495748791992598 -0.36547597798065412 0 0.32331612321150149 -0.36575594460620547 0 0.34195445357771559 -0.377887282427817 0 0.32331612321150149 -0.36575594460620547 0 0.34495748791992598 -0.36547597798065412 0 0.33768928582863827 -0.35179502786571443 0 0.32331612321150149 -0.36575594460620547 0 0.33768928582863827 -0.35179502786571443 0 0.32349692699697541 -0.35038527989055129 0 0.32875822848350628 -0.33307873261277138 0 0.33768928582863827 -0.35179502786571443 0 0.32349692699697541 -0.35038527989055129 0 0.32331612321150149 -0.36575594460620547 0 0.33768928582863827 -0.35179502786571443 0 0.32331612321150149 -0.36575594460620547 0 0.32349692699697541 -0.35038527989055129 0 0.3135798987615761 -0.35941881968201261 0 0.31414109869965517 -0.34187787468605207 0 0.3135798987615761 -0.35941881968201261 0 0.31414109869965517 -0.34187787468605207 0 0.32349692699697541 -0.35038527989055129 0 0.32331612321150149 -0.36575594460620547 0 0.3135798987615761 -0.35941881968201261 0 0.32576076025435352 -0.38332270960492559 0 0.31305838017395909 -0.37571947875016332 0 0.32331612321150149 -0.36575594460620547 0 0.31305838017395909 -0.37571947875016332 0 0.32331612321150149 -0.36575594460620547 0 0.3135798987615761 -0.35941881968201261 0 0.31305838017395909 -0.37571947875016332 0 0.3135798987615761 -0.35941881968201261 0 0.32331612321150149 -0.36575594460620547 0 0.3135798987615761 -0.35941881968201261 0 0.31305838017395909 -0.37571947875016332 0 0.32331612321150149 -0.36575594460620547 0 0.34434718210332899 -0.32050533269844972 0 0.32875822848350628 -0.33307873261277138 0 0.32616541280634109 -0.31882724407234952 0 0.33342137798953703 -0.31033090217660092 0 0.34434718210332899 -0.32050533269844972 0 0.32616541280634109 -0.31882724407234952 0 0.33342137798953703 -0.31033090217660092 0 0.34434718210332899 -0.32050533269844972 0 0.33768928582863827 -0.35179502786571443 0 0.34085975596945067 -0.33412290178776388 0 0.32875822848350628 -0.33307873261277138 0 0.34434718210332899 -0.32050533269844972 0 0.34085975596945067 -0.33412290178776388 0 0.32875822848350628 -0.33307873261277138 0 0.35206244844577528 -0.33783411112522349 0 0.33768928582863827 -0.35179502786571443 0 0.34085975596945067 -0.33412290178776388 0 0.32349692699697541 -0.35038527989055129 0 0.32875822848350628 -0.33307873261277138 0 0.31414109869965517 -0.34187787468605207 0 0.32875822848350628 -0.33307873261277138 0 0.31414109869965517 -0.34187787468605207 0 0.31367309886093531 -0.31992668778865219 0 0.32875822848350628 -0.33307873261277138 0 0.32616541280634109 -0.31882724407234952 0 0.31367309886093531 -0.31992668778865219 0 0.31983129395618087 -0.30522817237960082 0 0.32616541280634109 -0.31882724407234952 0 0.31367309886093531 -0.31992668778865219 0 0.31367309886093531 -0.31992668778865219 0 0.29352747225641612 -0.31962480873601229 0 0.30121187645246861 -0.30212687732247628 0 0.31367309886093531 -0.31992668778865219 0 0.29907631106692067 -0.33313845227843553 0 0.29352747225641612 -0.31962480873601229 0 0.31414109869965517 -0.34187787468605207 0 0.29907631106692067 -0.33313845227843553 0 0.29587326142639098 -0.34789390328782471 0 0.31414109869965517 -0.34187787468605207 0 0.31367309886093531 -0.31992668778865219 0 0.29907631106692067 -0.33313845227843553 0 0.29907631106692067 -0.33313845227843553 0 0.29352747225641612 -0.31962480873601229 0 0.27816662409120602 -0.33636898689363642 0 0.29587326142639098 -0.34789390328782471 0 0.27816662409120602 -0.33636898689363642 0 0.29907631106692067 -0.33313845227843553 0 0.29587326142639098 -0.34789390328782471 0 0.27816662409120602 -0.33636898689363642 0 0.29352747225641612 -0.31962480873601229 0 0.27643276579566078 -0.31987142759115711 0 0.27816662409120602 -0.33636898689363642 0 0.29352747225641612 -0.31962480873601229 0 0.27643276579566078 -0.31987142759115711 0 0.28748508529348499 -0.30733856109359381 0 0.31305838017395909 -0.37571947875016332 0 0.3135798987615761 -0.35941881968201261 0 0.29786347482236969 -0.3670746651364622 0 0.3135798987615761 -0.35941881968201261 0 0.29786347482236969 -0.3670746651364622 0 0.29587326142639098 -0.34789390328782471 0 0.3135798987615761 -0.35941881968201261 0 0.29587326142639098 -0.34789390328782471 0 0.3135798987615761 -0.35941881968201261 0 0.31414109869965517 -0.34187787468605207 0 0.29587326142639098 -0.34789390328782471 0 0.29587326142639098 -0.34789390328782471 0 0.28754130603427042 -0.35967591999442933 0 0.27576752477053279 -0.35354732224453572 0 0.29786347482236969 -0.3670746651364622 0 0.29587326142639098 -0.34789390328782471 0 0.28754130603427042 -0.35967591999442933 0 0.29587326142639098 -0.34789390328782471 0 0.27576752477053279 -0.35354732224453572 0 0.27816662409120602 -0.33636898689363642 0 0.28754130603427042 -0.35967591999442933 0 0.28066096311778821 -0.37018778930889462 0 0.27576752477053279 -0.35354732224453572 0 0.29786347482236969 -0.3670746651364622 0 0.28754130603427042 -0.35967591999442933 0 0.28066096311778821 -0.37018778930889462 0 0.28066096311778821 -0.37018778930889462 0 0.2664639064815747 -0.36837345449922299 0 0.27576752477053279 -0.35354732224453572 0 0.27155007027265432 -0.38547242893783112 0 0.28066096311778821 -0.37018778930889462 0 0.2664639064815747 -0.36837345449922299 0 0.2664639064815747 -0.36837345449922299 0 0.27576752477053279 -0.35354732224453572 0 0.2594661322353366 -0.35577576785272508 0 0.26589016395812493 -0.34502448721796602 0 0.27576752477053279 -0.35354732224453572 0 0.27816662409120602 -0.33636898689363642 0 0.26589016395812493 -0.34502448721796602 0 0.27576752477053279 -0.35354732224453572 0 0.2594661322353366 -0.35577576785272508 0 0.26589016395812493 -0.34502448721796602 0 0.2594661322353366 -0.35577576785272508 0 0.2488961756730794 -0.34824991907878983 0 0.2594661322353366 -0.35577576785272508 0 0.24747703044425479 -0.35873046471940079 0 0.2488961756730794 -0.34824991907878983 0 0.2664639064815747 -0.36837345449922299 0 0.2594661322353366 -0.35577576785272508 0 0.25453953298995602 -0.36641960890806252 0 0.2594661322353366 -0.35577576785272508 0 0.25453953298995602 -0.36641960890806252 0 0.24747703044425479 -0.35873046471940079 0 0.25679921550318058 -0.3788378097432894 0 0.25453953298995602 -0.36641960890806252 0 0.24260295249042171 -0.37428177081278119 0 0.25679921550318058 -0.3788378097432894 0 0.2664639064815747 -0.36837345449922299 0 0.25453953298995602 -0.36641960890806252 0 0.27643276579566078 -0.31987142759115711 0 0.27816662409120602 -0.33636898689363642 0 0.25953180590826008 -0.3339765017708235 0 0.26589016395812493 -0.34502448721796602 0 0.27816662409120602 -0.33636898689363642 0 0.25953180590826008 -0.3339765017708235 0 0.26589016395812493 -0.34502448721796602 0 0.25953180590826008 -0.3339765017708235 0 0.2488961756730794 -0.34824991907878983 0 0.27643276579566078 -0.31987142759115711 0 0.25953180590826008 -0.3339765017708235 0 0.26076324366078191 -0.31442699891659559 0 0.25953180590826008 -0.3339765017708235 0 0.26076324366078191 -0.31442699891659559 0 0.23906220310815851 -0.33002689553297948 0 0.26076324366078191 -0.31442699891659559 0 0.25662004614303791 -0.28944421434627571 0 0.2423481860785236 -0.30416632232724478 0 0.26076324366078191 -0.31442699891659559 0 0.25662004614303791 -0.28944421434627571 0 0.2752518136561285 -0.29984728770883878 0 0.25662004614303791 -0.28944421434627571 0 0.2752518136561285 -0.29984728770883878 0 0.27931663477233992 -0.27660431987416972 0 0.27643276579566078 -0.31987142759115711 0 0.26076324366078191 -0.31442699891659559 0 0.2752518136561285 -0.29984728770883878 0 0.27643276579566078 -0.31987142759115711 0 0.2752518136561285 -0.29984728770883878 0 0.28748508529348499 -0.30733856109359381 0 0.28748508529348499 -0.30733856109359381 0 0.2908645820516535 -0.29039183609486202 0 0.30121187645246861 -0.30212687732247628 0 0.2752518136561285 -0.29984728770883878 0 0.28748508529348499 -0.30733856109359381 0 0.2908645820516535 -0.29039183609486202 0 0.29352747225641612 -0.31962480873601229 0 0.28748508529348499 -0.30733856109359381 0 0.30121187645246861 -0.30212687732247628 0 0.2752518136561285 -0.29984728770883878 0 0.2908645820516535 -0.29039183609486202 0 0.27931663477233992 -0.27660431987416972 0 0.2908645820516535 -0.29039183609486202 0 0.30230094081484338 -0.27944650240061869 0 0.27931663477233992 -0.27660431987416972 0 0.31616540709426799 -0.29049411796115898 0 0.30121187645246861 -0.30212687732247628 0 0.30230094081484338 -0.27944650240061869 0 0.2908645820516535 -0.29039183609486202 0 0.30121187645246861 -0.30212687732247628 0 0.30230094081484338 -0.27944650240061869 0 0.31983129395618087 -0.30522817237960082 0 0.31367309886093531 -0.31992668778865219 0 0.30121187645246861 -0.30212687732247628 0 0.31983129395618087 -0.30522817237960082 0 0.31616540709426799 -0.29049411796115898 0 0.30121187645246861 -0.30212687732247628 0 0.3133461640875308 -0.25087588008385681 0 0.30230094081484338 -0.27944650240061869 0 0.28952335736786122 -0.25908224372925071 0 0.30230094081484338 -0.27944650240061869 0 0.28952335736786122 -0.25908224372925071 0 0.27931663477233992 -0.27660431987416972 0 0.28715639929698827 -0.24149745897015271 0 0.3133461640875308 -0.25087588008385681 0 0.28952335736786122 -0.25908224372925071 0 0.28715639929698827 -0.24149745897015271 0 0.28952335736786122 -0.25908224372925071 0 0.27927456080570567 -0.2502777682216264 0 0.28952335736786122 -0.25908224372925071 0 0.269607871433103 -0.25911882188112623 0 0.27931663477233992 -0.27660431987416972 0 0.28952335736786122 -0.25908224372925071 0 0.27927456080570567 -0.2502777682216264 0 0.269607871433103 -0.25911882188112623 0 0.26940730529687013 -0.248748097407756 0 0.27927456080570567 -0.2502777682216264 0 0.269607871433103 -0.25911882188112623 0 0.269607871433103 -0.25911882188112623 0 0.27931663477233992 -0.27660431987416972 0 0.26147504436885988 -0.27147977611509488 0 0.25662004614303791 -0.28944421434627571 0 0.27931663477233992 -0.27660431987416972 0 0.26147504436885988 -0.27147977611509488 0 0.26147504436885988 -0.27147977611509488 0 0.250213213026443 -0.26121941622598033 0 0.2458362746118396 -0.27388419707300232 0 0.25662004614303791 -0.28944421434627571 0 0.26147504436885988 -0.27147977611509488 0 0.2458362746118396 -0.27388419707300232 0 0.269607871433103 -0.25911882188112623 0 0.26147504436885988 -0.27147977611509488 0 0.250213213026443 -0.26121941622598033 0 0.269607871433103 -0.25911882188112623 0 0.250213213026443 -0.26121941622598033 0 0.25682034462202752 -0.2502527256973604 0 0.26940730529687013 -0.248748097407756 0 0.269607871433103 -0.25911882188112623 0 0.25682034462202752 -0.2502527256973604 0 0.250213213026443 -0.26121941622598033 0 0.2311669625675406 -0.26692120518025658 0 0.23485810088638359 -0.24579051096395491 0 0.250213213026443 -0.26121941622598033 0 0.25682034462202752 -0.2502527256973604 0 0.23485810088638359 -0.24579051096395491 0 0.250213213026443 -0.26121941622598033 0 0.2458362746118396 -0.27388419707300232 0 0.2311669625675406 -0.26692120518025658 0 0.2458362746118396 -0.27388419707300232 0 0.2311669625675406 -0.26692120518025658 0 0.22788411228045349 -0.28814275624111252 0 0.2311669625675406 -0.26692120518025658 0 0.21332427547743549 -0.27321153104507429 0 0.22788411228045349 -0.28814275624111252 0 0.2311669625675406 -0.26692120518025658 0 0.20959587459771289 -0.25130621714117202 0 0.23485810088638359 -0.24579051096395491 0 0.2311669625675406 -0.26692120518025658 0 0.20959587459771289 -0.25130621714117202 0 0.21332427547743549 -0.27321153104507429 0 0.20959587459771289 -0.25130621714117202 0 0.21332427547743549 -0.27321153104507429 0 0.1962929666702406 -0.27145852604777471 0 0.21332427547743549 -0.27321153104507429 0 0.1962929666702406 -0.27145852604777471 0 0.20758812212318481 -0.28650030358526829 0 0.1962929666702406 -0.27145852604777471 0 0.19203562163583601 -0.28895417399236051 0 0.17581982045158251 -0.27287232862034189 0 0.20959587459771289 -0.25130621714117202 0 0.1962929666702406 -0.27145852604777471 0 0.18433364830904231 -0.25682192331838899 0 0.20959587459771289 -0.25130621714117202 0 0.18433364830904231 -0.25682192331838899 0 0.19015015444443431 -0.30357933215708749 0 0.2004994347633324 -0.31922545238814187 0 0.1730462617431105 -0.3137626780415399 0 0.19015015444443431 -0.30357933215708749 0 0.20796246807394539 -0.30291846176447051 0 0.2004994347633324 -0.31922545238814187 0 0.19015015444443431 -0.30357933215708749 0 0.19203562163583601 -0.28895417399236051 0 0.20796246807394539 -0.30291846176447051 0 0.19203562163583601 -0.28895417399236051 0 0.20758812212318481 -0.28650030358526829 0 0.20796246807394539 -0.30291846176447051 0 0.1962929666702406 -0.27145852604777471 0 0.19203562163583601 -0.28895417399236051 0 0.20758812212318481 -0.28650030358526829 0 0.20758812212318481 -0.28650030358526829 0 0.20796246807394539 -0.30291846176447051 0 0.22788411228045349 -0.28814275624111252 0 0.21332427547743549 -0.27321153104507429 0 0.20758812212318481 -0.28650030358526829 0 0.22788411228045349 -0.28814275624111252 0 0.20796246807394539 -0.30291846176447051 0 0.22565741571911979 -0.31166488306033352 0 0.2136928762560685 -0.31897598034101321 0 0.22565741571911979 -0.31166488306033352 0 0.22788411228045349 -0.28814275624111252 0 0.2423481860785236 -0.30416632232724478 0 0.20796246807394539 -0.30291846176447051 0 0.22565741571911979 -0.31166488306033352 0 0.22788411228045349 -0.28814275624111252 0 0.25662004614303791 -0.28944421434627571 0 0.2458362746118396 -0.27388419707300232 0 0.22788411228045349 -0.28814275624111252 0 0.25662004614303791 -0.28944421434627571 0 0.22788411228045349 -0.28814275624111252 0 0.2423481860785236 -0.30416632232724478 0 0.26076324366078191 -0.31442699891659559 0 0.2423481860785236 -0.30416632232724478 0 0.23906220310815851 -0.33002689553297948 0 0.26076324366078191 -0.31442699891659559 0 0.23906220310815851 -0.33002689553297948 0 0.22565741571911979 -0.31166488306033352 0 0.2423481860785236 -0.30416632232724478 0 0.23906220310815851 -0.33002689553297948 0 0.25953180590826008 -0.3339765017708235 0 0.23906220310815851 -0.33002689553297948 0 0.2488961756730794 -0.34824991907878983 0 0.23906220310815851 -0.33002689553297948 0 0.2488961756730794 -0.34824991907878983 0 0.23463667047385581 -0.34625562266238069 0 0.23906220310815851 -0.33002689553297948 0 0.22261559462057071 -0.32740463023763838 0 0.21736116255553531 -0.34562679214936348 0 0.23906220310815851 -0.33002689553297948 0 0.23463667047385581 -0.34625562266238069 0 0.21736116255553531 -0.34562679214936348 0 0.23906220310815851 -0.33002689553297948 0 0.21736116255553531 -0.34562679214936348 0 0.22565741571911979 -0.31166488306033352 0 0.23906220310815851 -0.33002689553297948 0 0.22261559462057071 -0.32740463023763838 0 0.22565741571911979 -0.31166488306033352 0 0.22261559462057071 -0.32740463023763838 0 0.2136928762560685 -0.31897598034101321 0 0.24260295249042171 -0.37428177081278119 0 0.23427922360974671 -0.36680367623892052 0 0.22729874338192091 -0.37111090541273167 0 0.24260295249042171 -0.37428177081278119 0 0.2398073241296233 -0.36626906440037382 0 0.23427922360974671 -0.36680367623892052 0 0.24260295249042171 -0.37428177081278119 0 0.24565247797381709 -0.36559265895506698 0 0.2398073241296233 -0.36626906440037382 0 0.25453953298995602 -0.36641960890806252 0 0.24260295249042171 -0.37428177081278119 0 0.24565247797381709 -0.36559265895506698 0 0.25453953298995602 -0.36641960890806252 0 0.24565247797381709 -0.36559265895506698 0 0.24747703044425479 -0.35873046471940079 0 0.24565247797381709 -0.36559265895506698 0 0.24033512468907681 -0.36140930632656992 0 0.24747703044425479 -0.35873046471940079 0 0.24033512468907681 -0.36140930632656992 0 0.2398073241296233 -0.36626906440037382 0 0.23543758665052231 -0.36308018475016629 0 0.24565247797381709 -0.36559265895506698 0 0.24033512468907681 -0.36140930632656992 0 0.2398073241296233 -0.36626906440037382 0 0.2398073241296233 -0.36626906440037382 0 0.23543758665052231 -0.36308018475016629 0 0.23427922360974671 -0.36680367623892052 0 0.24033512468907681 -0.36140930632656992 0 0.23610517274195289 -0.35995798766560011 0 0.23543758665052231 -0.36308018475016629 0 0.23610517274195289 -0.35995798766560011 0 0.23543758665052231 -0.36308018475016629 0 0.23217786397254001 -0.36093999740702959 0 0.24033512468907681 -0.36140930632656992 0 0.23647011565567261 -0.35440246217863469 0 0.24747703044425479 -0.35873046471940079 0 0.24033512468907681 -0.36140930632656992 0 0.23610517274195289 -0.35995798766560011 0 0.23647011565567261 -0.35440246217863469 0 0.23610517274195289 -0.35995798766560011 0 0.23647011565567261 -0.35440246217863469 0 0.23217786397254001 -0.36093999740702959 0 0.23647011565567261 -0.35440246217863469 0 0.24747703044425479 -0.35873046471940079 0 0.2488961756730794 -0.34824991907878983 0 0.23647011565567261 -0.35440246217863469 0 0.2488961756730794 -0.34824991907878983 0 0.23463667047385581 -0.34625562266238069 0 0.22406633937358059 -0.36282166970228752 0 0.21736116255553531 -0.34562679214936348 0 0.2258787393619274 -0.35221013339236379 0 0.22406633937358059 -0.36282166970228752 0 0.21736116255553531 -0.34562679214936348 0 0.23463667047385581 -0.34625562266238069 0 0.2258787393619274 -0.35221013339236379 0 0.21736116255553531 -0.34562679214936348 0 0.23647011565567261 -0.35440246217863469 0 0.23463667047385581 -0.34625562266238069 0 0.2258787393619274 -0.35221013339236379 0 0.2258787393619274 -0.35221013339236379 0 0.22812655817858671 -0.35833939262164249 0 0.22406633937358059 -0.36282166970228752 0 0.23647011565567261 -0.35440246217863469 0 0.2258787393619274 -0.35221013339236379 0 0.22812655817858671 -0.35833939262164249 0 0.23647011565567261 -0.35440246217863469 0 0.22812655817858671 -0.35833939262164249 0 0.23217786397254001 -0.36093999740702959 0 0.2301393098738875 -0.36518952266818783 0 0.22406633937358059 -0.36282166970228752 0 0.22729874338192091 -0.37111090541273167 0 0.23543758665052231 -0.36308018475016629 0 0.23217786397254001 -0.36093999740702959 0 0.2301393098738875 -0.36518952266818783 0 0.23217786397254001 -0.36093999740702959 0 0.2301393098738875 -0.36518952266818783 0 0.23543758665052231 -0.36308018475016629 0 0.23427922360974671 -0.36680367623892052 0 0.2301393098738875 -0.36518952266818783 0 0.23427922360974671 -0.36680367623892052 0 0.2301393098738875 -0.36518952266818783 0 0.2301393098738875 -0.36518952266818783 0 0.22406633937358059 -0.36282166970228752 0 0.22812655817858671 -0.35833939262164249 0 0.23217786397254001 -0.36093999740702959 0 0.2301393098738875 -0.36518952266818783 0 0.22812655817858671 -0.35833939262164249 0 0.2301393098738875 -0.36518952266818783 0 0.22406633937358059 -0.36282166970228752 0 0.22406633937358059 -0.36282166970228752 0 0.22729874338192091 -0.37111090541273167 0 0.21229330205890709 -0.36700056286747368 0 0.22406633937358059 -0.36282166970228752 0 0.22729874338192091 -0.37111090541273167 0 0.2301393098738875 -0.36518952266818783 0 0.22729874338192091 -0.37111090541273167 0 0.23427922360974671 -0.36680367623892052 0 0.2301393098738875 -0.36518952266818783 0 0.22729874338192091 -0.37111090541273167 0 0.22406633937358059 -0.36282166970228752 0 0.21229330205890709 -0.36700056286747368 0 0.20421080355383239 -0.35507999050625683 0 0.20805029469830449 -0.37366782866446829 0 0.20371027716514539 -0.36760278257781809 0 0.20281970815879111 -0.38306163547375288 0 0.20805029469830449 -0.37366782866446829 0 0.20371027716514539 -0.36760278257781809 0 0.21229330205890709 -0.36700056286747368 0 0.22729874338192091 -0.37111090541273167 0 0.21229330205890709 -0.36700056286747368 0 0.21477065439764989 -0.37862779324904539 0 0.20805029469830449 -0.37366782866446829 0 0.21229330205890709 -0.36700056286747368 0 0.21477065439764989 -0.37862779324904539 0 0.20371027716514539 -0.36760278257781809 0 0.21229330205890709 -0.36700056286747368 0 0.20421080355383239 -0.35507999050625683 0 0.22406633937358059 -0.36282166970228752 0 0.20421080355383239 -0.35507999050625683 0 0.21736116255553531 -0.34562679214936348 0 0.22406633937358059 -0.36282166970228752 0 0.20421080355383239 -0.35507999050625683 0 0.20421080355383239 -0.35507999050625683 0 0.21736116255553531 -0.34562679214936348 0 0.20421080355383239 -0.35507999050625683 0 0.21736116255553531 -0.34562679214936348 0 0.20359011359598159 -0.34328541255830508 0 0.20421080355383239 -0.35507999050625683 0 0.1880987057224692 -0.3487978788716089 0 0.20359011359598159 -0.34328541255830508 0 0.20421080355383239 -0.35507999050625683 0 0.1880987057224692 -0.3487978788716089 0 0.19396280333044399 -0.3624468143975742 0 0.20421080355383239 -0.35507999050625683 0 0.1880987057224692 -0.3487978788716089 0 0.1880987057224692 -0.3487978788716089 0 0.19396280333044399 -0.3624468143975742 0 0.18348904398871041 -0.36056614956399752 0 0.1880987057224692 -0.3487978788716089 0 0.19396280333044399 -0.3624468143975742 0 0.20421080355383239 -0.35507999050625683 0 0.19396280333044399 -0.3624468143975742 0 0.19396280333044399 -0.3624468143975742 0 0.17976191609798489 -0.37265518998906122 0 0.18956673095554991 -0.38242665666570819 0 0.20371027716514539 -0.36760278257781809 0 0.19396280333044399 -0.3624468143975742 0 0.20281970815879111 -0.38306163547375288 0 0.19396280333044399 -0.3624468143975742 0 0.20281970815879111 -0.38306163547375288 0 0.20371027716514539 -0.36760278257781809 0 0.20421080355383239 -0.35507999050625683 0 0.19396280333044399 -0.3624468143975742 0 0.20796246807394539 -0.30291846176447051 0 0.2136928762560685 -0.31897598034101321 0 0.2004994347633324 -0.31922545238814187 0 0.2136928762560685 -0.31897598034101321 0 0.2120455956209048 -0.33199545549029807 0 0.2004994347633324 -0.31922545238814187 0 0.22261559462057071 -0.32740463023763838 0 0.2136928762560685 -0.31897598034101321 0 0.2120455956209048 -0.33199545549029807 0 0.22261559462057071 -0.32740463023763838 0 0.21736116255553531 -0.34562679214936348 0 0.2120455956209048 -0.33199545549029807 0 0.2120455956209048 -0.33199545549029807 0 0.20359011359598159 -0.34328541255830508 0 0.1962343005271677 -0.3349269457739984 0 0.21736116255553531 -0.34562679214936348 0 0.2120455956209048 -0.33199545549029807 0 0.21736116255553531 -0.34562679214936348 0 0.2120455956209048 -0.33199545549029807 0 0.20359011359598159 -0.34328541255830508 0 0.1880987057224692 -0.3487978788716089 0 0.1962343005271677 -0.3349269457739984 0 0.18057248373278839 -0.33128027845657498 0 0.1962343005271677 -0.3349269457739984 0 0.2004994347633324 -0.31922545238814187 0 0.18057248373278839 -0.33128027845657498 0 0.2120455956209048 -0.33199545549029807 0 0.1962343005271677 -0.3349269457739984 0 0.2004994347633324 -0.31922545238814187 0 0.1880987057224692 -0.3487978788716089 0 0.20359011359598159 -0.34328541255830508 0 0.1962343005271677 -0.3349269457739984 0 0.2004994347633324 -0.31922545238814187 0 0.1730462617431105 -0.3137626780415399 0 0.18057248373278839 -0.33128027845657498 0 0.2004994347633324 -0.31922545238814187 0 0.1730462617431105 -0.3137626780415399 0 0.1730462617431105 -0.3137626780415399 0 0.18057248373278839 -0.33128027845657498 0 0.1685622369502309 -0.32656895962873739 0 0.1730462617431105 -0.3137626780415399 0 0.18057248373278839 -0.33128027845657498 0 0.1880987057224692 -0.3487978788716089 0 0.18057248373278839 -0.33128027845657498 0 0.16476310639705069 -0.33969932190168117 0 0.1880987057224692 -0.3487978788716089 0 0.18057248373278839 -0.33128027845657498 0 0.18057248373278839 -0.33128027845657498 0 0.16476310639705069 -0.33969932190168117 0 0.1685622369502309 -0.32656895962873739 0 0.16476310639705069 -0.33969932190168117 0 0.1685622369502309 -0.32656895962873739 0 0.15586709592797379 -0.32153356011515372 0 0.1730462617431105 -0.3137626780415399 0 0.15586709592797379 -0.32153356011515372 0 0.1439152642449868 -0.30796604150313478 0 0.1730462617431105 -0.3137626780415399 0 0.1685622369502309 -0.32656895962873739 0 0.15586709592797379 -0.32153356011515372 0 0.19396280333044399 -0.3624468143975742 0 0.17976191609798489 -0.37265518998906122 0 0.19396280333044399 -0.3624468143975742 0 0.17976191609798489 -0.37265518998906122 0 0.18348904398871041 -0.36056614956399752 0 0.17976191609798489 -0.37265518998906122 0 0.18348904398871041 -0.36056614956399752 0 0.17213275080394119 -0.35836471499774591 0 0.1880987057224692 -0.3487978788716089 0 0.16476310639705069 -0.33969932190168117 0 0.1880987057224692 -0.3487978788716089 0 0.18348904398871041 -0.36056614956399752 0 0.17213275080394119 -0.35836471499774591 0 0.1880987057224692 -0.3487978788716089 0 0.16476310639705069 -0.33969932190168117 0 0.17213275080394119 -0.35836471499774591 0 0.16476310639705069 -0.33969932190168117 0 0.17213275080394119 -0.35836471499774591 0 0.1551124989841845 -0.35653293579042228 0 0.17976191609798489 -0.37265518998906122 0 0.17213275080394119 -0.35836471499774591 0 0.16251935889430771 -0.37323306306092868 0 0.17213275080394119 -0.35836471499774591 0 0.16251935889430771 -0.37323306306092868 0 0.1551124989841845 -0.35653293579042228 0 0.16251935889430771 -0.37323306306092868 0 0.1379202342802078 -0.36337032723134322 0 0.150219053311729 -0.38290513286204753 0 0.16251935889430771 -0.37323306306092868 0 0.1379202342802078 -0.36337032723134322 0 0.16251935889430771 -0.37323306306092868 0 0.1551124989841845 -0.35653293579042228 0 0.1379202342802078 -0.36337032723134322 0 0.16476310639705069 -0.33969932190168117 0 0.1551124989841845 -0.35653293579042228 0 0.13967387067591761 -0.34698554608154819 0 0.1551124989841845 -0.35653293579042228 0 0.13967387067591761 -0.34698554608154819 0 0.1379202342802078 -0.36337032723134322 0 0.13967387067591761 -0.34698554608154819 0 0.12804537332447311 -0.34454816871805372 0 0.1379202342802078 -0.36337032723134322 0 0.1379202342802078 -0.36337032723134322 0 0.1166601978712198 -0.35484636037810402 0 0.13967387067591761 -0.34698554608154819 0 0.1379202342802078 -0.36337032723134322 0 0.12804537332447311 -0.34454816871805372 0 0.1379202342802078 -0.36337032723134322 0 0.1166601978712198 -0.35484636037810402 0 0.1379202342802078 -0.36337032723134322 0 0.13540398186711711 -0.38688047175550372 0 0.120704603114049 -0.37459450352841539 0 0.1379202342802078 -0.36337032723134322 0 0.120704603114049 -0.37459450352841539 0 0.1166601978712198 -0.35484636037810402 0 0.1414275070716321 -0.33060076493175372 0 0.1436624103590643 -0.30971935454073002 0 0.15586709592797379 -0.32153356011515372 0 0.1414275070716321 -0.33060076493175372 0 0.1436624103590643 -0.30971935454073002 0 0.15586709592797379 -0.32153356011515372 0 0.1439152642449868 -0.30796604150313478 0 0.1436624103590643 -0.30971935454073002 0 0.16476310639705069 -0.33969932190168117 0 0.15586709592797379 -0.32153356011515372 0 0.1414275070716321 -0.33060076493175372 0 0.16476310639705069 -0.33969932190168117 0 0.13967387067591761 -0.34698554608154819 0 0.1414275070716321 -0.33060076493175372 0 0.16476310639705069 -0.33969932190168117 0 0.1414275070716321 -0.33060076493175372 0 0.13967387067591761 -0.34698554608154819 0 0.1414275070716321 -0.33060076493175372 0 0.13943054877772729 -0.33424997705800452 0 0.1414275070716321 -0.33060076493175372 0 0.13264973651804721 -0.33553679367440647 0 0.124558309624545 -0.33165852067868062 0 0.1414275070716321 -0.33060076493175372 0 0.13943054877772729 -0.33424997705800452 0 0.13264973651804721 -0.33553679367440647 0 0.13967387067591761 -0.34698554608154819 0 0.1414275070716321 -0.33060076493175372 0 0.13967387067591761 -0.34698554608154819 0 0.12804537332447311 -0.34454816871805372 0 0.13943054877772729 -0.33424997705800452 0 0.12804537332447311 -0.34454816871805372 0 0.13943054877772729 -0.33424997705800452 0 0.12804537332447311 -0.34454816871805372 0 0.13943054877772729 -0.33424997705800452 0 0.13264973651804721 -0.33553679367440647 0 0.12804537332447311 -0.34454816871805372 0 0.13264973651804721 -0.33553679367440647 0 0.124558309624545 -0.33165852067868062 0 0.1414275070716321 -0.33060076493175372 0 0.13022680020978181 -0.31790237763831791 0 0.1436624103590643 -0.30971935454073002 0 0.1414275070716321 -0.33060076493175372 0 0.11415148907348251 -0.31996583757427649 0 0.1414275070716321 -0.33060076493175372 0 0.13022680020978181 -0.31790237763831791 0 0.11415148907348251 -0.31996583757427649 0 0.1414275070716321 -0.33060076493175372 0 0.11415148907348251 -0.31996583757427649 0 0.124558309624545 -0.33165852067868062 0 0.13022680020978181 -0.31790237763831791 0 0.12934804612683529 -0.31154460324423949 0 0.1436624103590643 -0.30971935454073002 0 0.12934804612683529 -0.31154460324423949 0 0.1439152642449868 -0.30796604150313478 0 0.1147842667468615 -0.30216940496473788 0 0.1439152642449868 -0.30796604150313478 0 0.1147842667468615 -0.30216940496473788 0 0.14425257657948701 -0.29817363741000907 0 0.1147842667468615 -0.30216940496473788 0 0.1439152642449868 -0.30796604150313478 0 0.14425257657948701 -0.29817363741000907 0 0.1147842667468615 -0.30216940496473788 0 0.12934804612683529 -0.31154460324423949 0 0.1439152642449868 -0.30796604150313478 0 0.1436624103590643 -0.30971935454073002 0 0.1439152642449868 -0.30796604150313478 0 0.15035877619316201 -0.30072301217817632 0 0.15992318972836009 -0.30361544407613061 0 0.1439152642449868 -0.30796604150313478 0 0.14425257657948701 -0.29817363741000907 0 0.15035877619316201 -0.30072301217817632 0 0.15035877619316201 -0.30072301217817632 0 0.153344074219814 -0.29313692572343059 0 0.15992318972836009 -0.30361544407613061 0 0.14425257657948701 -0.29817363741000907 0 0.15035877619316201 -0.30072301217817632 0 0.153344074219814 -0.29313692572343059 0 0.153344074219814 -0.29313692572343059 0 0.14419003046943249 -0.2797772429111049 0 0.16132323479258051 -0.28647683634626708 0 0.14425257657948701 -0.29817363741000907 0 0.153344074219814 -0.29313692572343059 0 0.14419003046943249 -0.2797772429111049 0 0.12808359034767541 -0.28887984357415492 0 0.14419003046943249 -0.2797772429111049 0 0.12170918036561899 -0.27563453964396539 0 0.14425257657948701 -0.29817363741000907 0 0.12808359034767541 -0.28887984357415492 0 0.14419003046943249 -0.2797772429111049 0 0.14425257657948701 -0.29817363741000907 0 0.12808359034767541 -0.28887984357415492 0 0.1147842667468615 -0.30216940496473788 0 0.12940389620191431 -0.25557245137933371 0 0.14419003046943249 -0.2797772429111049 0 0.12170918036561899 -0.27563453964396539 0 0.12940389620191431 -0.25557245137933371 0 0.14960020784205499 -0.25919099465099238 0 0.14419003046943249 -0.2797772429111049 0 0.14960020784205499 -0.25919099465099238 0 0.16132323479258051 -0.28647683634626708 0 0.14960020784205499 -0.25919099465099238 0 0.14419003046943249 -0.2797772429111049 0 0.16132323479258051 -0.28647683634626708 0 0.14960020784205499 -0.25919099465099238 0 0.17581982045158251 -0.27287232862034189 0 0.16132323479258051 -0.28647683634626708 0 0.14960020784205499 -0.25919099465099238 0 0.17581982045158251 -0.27287232862034189 0 0.16663567319535791 -0.24743712982111701 0 0.18433364830904231 -0.25682192331838899 0 0.17581982045158251 -0.27287232862034189 0 0.16663567319535791 -0.24743712982111701 0 0.1962929666702406 -0.27145852604777471 0 0.18433364830904231 -0.25682192331838899 0 0.17581982045158251 -0.27287232862034189 0 0.19203562163583601 -0.28895417399236051 0 0.17581982045158251 -0.27287232862034189 0 0.17847501861350881 -0.29312906983151937 0 0.17581982045158251 -0.27287232862034189 0 0.17847501861350881 -0.29312906983151937 0 0.16132323479258051 -0.28647683634626708 0 0.19015015444443431 -0.30357933215708749 0 0.19203562163583601 -0.28895417399236051 0 0.17847501861350881 -0.29312906983151937 0 0.19015015444443431 -0.30357933215708749 0 0.1730462617431105 -0.3137626780415399 0 0.17847501861350881 -0.29312906983151937 0 0.1730462617431105 -0.3137626780415399 0 0.1439152642449868 -0.30796604150313478 0 0.15992318972836009 -0.30361544407613061 0 0.1730462617431105 -0.3137626780415399 0 0.1439152642449868 -0.30796604150313478 0 0.1730462617431105 -0.3137626780415399 0 0.16132323479258051 -0.28647683634626708 0 0.1730462617431105 -0.3137626780415399 0 0.15992318972836009 -0.30361544407613061 0 0.16132323479258051 -0.28647683634626708 0 0.1730462617431105 -0.3137626780415399 0 0.17847501861350881 -0.29312906983151937 0 0.16132323479258051 -0.28647683634626708 0 0.153344074219814 -0.29313692572343059 0 0.15992318972836009 -0.30361544407613061 0 0.16132323479258051 -0.28647683634626708 0 0.20372670258154449 -0.48191534451917067 0 0.21501051417254641 -0.5 0 0.18510803312506169 -0.49999999999999239 0 0.20372670258154449 -0.48191534451917067 0 0.18510803312506169 -0.49999999999999239 0 0.20372670258154449 -0.48191534451917067 0 0.1852968015852772 -0.4815487518189695 0 0.18510803312506169 -0.49999999999999239 0 0.20372670258154449 -0.48191534451917067 0 0.19476366375948739 -0.46743241715333489 0 0.1852968015852772 -0.4815487518189695 0 0.20372670258154449 -0.48191534451917067 0 0.20665952765666279 -0.46435204820968012 0 0.19476366375948739 -0.46743241715333489 0 0.19476366375948739 -0.46743241715333489 0 0.18512925918500439 -0.47074830980688859 0 0.1852968015852772 -0.4815487518189695 0 0.20372670258154449 -0.48191534451917067 0 0.22996175469628879 -0.48420361465759998 0 0.22234537203803101 -0.46383068903835301 0 0.20372670258154449 -0.48191534451917067 0 0.22234537203803101 -0.46383068903835301 0 0.20372670258154449 -0.48191534451917067 0 0.22234537203803101 -0.46383068903835301 0 0.20665952765666279 -0.46435204820968012 0 0.20372670258154449 -0.48191534451917067 0 0.21501051417254641 -0.5 0 0.22996175469628879 -0.48420361465759998 0 0.21501051417254641 -0.5 0 0.2449129952200311 -0.5 0 0.22996175469628879 -0.48420361465759998 0 0.25779359295506821 -0.48340793506768909 0 0.2449129952200311 -0.5 0 0.22996175469628879 -0.48420361465759998 0 0.25779359295506821 -0.48340793506768909 0 0.22996175469628879 -0.48420361465759998 0 0.24224996770912741 -0.46804919578681592 0 0.22996175469628879 -0.48420361465759998 0 0.22234537203803101 -0.46383068903835301 0 0.24224996770912741 -0.46804919578681592 0 0.22234537203803101 -0.46383068903835301 0 0.24096404149451839 -0.44574603355753623 0 0.22463418683578359 -0.45180356937992899 0 0.22234537203803101 -0.46383068903835301 0 0.24096404149451839 -0.44574603355753623 0 0.22234537203803101 -0.46383068903835301 0 0.22463418683578359 -0.45180356937992899 0 0.213046545980735 -0.45656886942495339 0 0.22234537203803101 -0.46383068903835301 0 0.24224996770912741 -0.46804919578681592 0 0.24096404149451839 -0.44574603355753623 0 0.26104565638491167 -0.46283529382261962 0 0.24224996770912741 -0.46804919578681592 0 0.24096404149451839 -0.44574603355753623 0 0.24096404149451839 -0.44574603355753623 0 0.22328897622703731 -0.43070472377213609 0 0.24096404149451839 -0.44574603355753623 0 0.22941469981820811 -0.44496260485380479 0 0.22463418683578359 -0.45180356937992899 0 0.24096404149451839 -0.44574603355753623 0 0.22941469981820811 -0.44496260485380479 0 0.22328897622703731 -0.43070472377213609 0 0.22463418683578359 -0.45180356937992899 0 0.22076127165782941 -0.44472758482830249 0 0.213046545980735 -0.45656886942495339 0 0.22941469981820811 -0.44496260485380479 0 0.22463418683578359 -0.45180356937992899 0 0.22076127165782941 -0.44472758482830249 0 0.22941469981820811 -0.44496260485380479 0 0.22076127165782941 -0.44472758482830249 0 0.22328897622703731 -0.43070472377213609 0 0.22941469981820811 -0.44496260485380479 0 0.22328897622703731 -0.43070472377213609 0 0.22076127165782941 -0.44472758482830249 0 0.2134219494273806 -0.4395981567106918 0 0.22328897622703731 -0.43070472377213609 0 0.2134219494273806 -0.4395981567106918 0 0.20492257734437261 -0.44411763659631798 0 0.213046545980735 -0.45656886942495339 0 0.22076127165782941 -0.44472758482830249 0 0.2134219494273806 -0.4395981567106918 0 0.213046545980735 -0.45656886942495339 0 0.2134219494273806 -0.4395981567106918 0 0.213046545980735 -0.45656886942495339 0 0.20492257734437261 -0.44411763659631798 0 0.19771033994657949 -0.43774200674822628 0 0.20750297551049821 -0.43216391083591738 0 0.2134219494273806 -0.4395981567106918 0 0.20492257734437261 -0.44411763659631798 0 0.20750297551049821 -0.43216391083591738 0 0.20492257734437261 -0.44411763659631798 0 0.213046545980735 -0.45656886942495339 0 0.199415353923516 -0.45201292091258832 0 0.22234537203803101 -0.46383068903835301 0 0.213046545980735 -0.45656886942495339 0 0.20665952765666279 -0.46435204820968012 0 0.213046545980735 -0.45656886942495339 0 0.20665952765666279 -0.46435204820968012 0 0.199415353923516 -0.45201292091258832 0 0.20665952765666279 -0.46435204820968012 0 0.19476366375948739 -0.46743241715333489 0 0.199415353923516 -0.45201292091258832 0 0.19476366375948739 -0.46743241715333489 0 0.18570725242960581 -0.45633195056990361 0 0.18512925918500439 -0.47074830980688859 0 0.19476366375948739 -0.46743241715333489 0 0.199415353923516 -0.45201292091258832 0 0.18570725242960581 -0.45633195056990361 0 0.1916026813493352 -0.44720132544803559 0 0.18570725242960581 -0.45633195056990361 0 0.1916026813493352 -0.44720132544803559 0 0.199415353923516 -0.45201292091258832 0 0.18570725242960581 -0.45633195056990361 0 0.1916026813493352 -0.44720132544803559 0 0.19771033994657949 -0.43774200674822628 0 0.1916026813493352 -0.44720132544803559 0 0.1892540472433214 -0.4328255769598145 0 0.18317415522776459 -0.44039941796354121 0 0.20492257734437261 -0.44411763659631798 0 0.19771033994657949 -0.43774200674822628 0 0.199415353923516 -0.45201292091258832 0 0.1916026813493352 -0.44720132544803559 0 0.19771033994657949 -0.43774200674822628 0 0.199415353923516 -0.45201292091258832 0 0.1916026813493352 -0.44720132544803559 0 0.20133213182084289 -0.42524033560457353 0 0.1892540472433214 -0.4328255769598145 0 0.1916026813493352 -0.44720132544803559 0 0.19771033994657949 -0.43774200674822628 0 0.20133213182084289 -0.42524033560457353 0 0.1916026813493352 -0.44720132544803559 0 0.20133213182084289 -0.42524033560457353 0 0.19771033994657949 -0.43774200674822628 0 0.20133213182084289 -0.42524033560457353 0 0.20971342746355301 -0.41915206292654877 0 0.20133213182084289 -0.42524033560457353 0 0.1892540472433214 -0.4328255769598145 0 0.1918597919878208 -0.42373094639246123 0 0.1918597919878208 -0.42373094639246123 0 0.19770630134229519 -0.41617416721292588 0 0.18670405178821509 -0.41564257073970701 0 0.1971850553546648 -0.40847454710095599 0 0.19770630134229519 -0.41617416721292588 0 0.18670405178821509 -0.41564257073970701 0 0.1971850553546648 -0.40847454710095599 0 0.18484338302740369 -0.40451939345974719 0 0.18670405178821509 -0.41564257073970701 0 0.1971850553546648 -0.40847454710095599 0 0.19770630134229519 -0.41617416721292588 0 0.21167661298713719 -0.40367645654993201 0 0.20133213182084289 -0.42524033560457353 0 0.19770630134229519 -0.41617416721292588 0 0.20582145053984491 -0.41588200004979231 0 0.20133213182084289 -0.42524033560457353 0 0.1918597919878208 -0.42373094639246123 0 0.19770630134229519 -0.41617416721292588 0 0.20133213182084289 -0.42524033560457353 0 0.20582145053984491 -0.41588200004979231 0 0.21402183527866231 -0.41247935816366937 0 0.22328897622703731 -0.43070472377213609 0 0.20133213182084289 -0.42524033560457353 0 0.20582145053984491 -0.41588200004979231 0 0.20971342746355301 -0.41915206292654877 0 0.20582145053984491 -0.41588200004979231 0 0.20971342746355301 -0.41915206292654877 0 0.2110877129226828 -0.41210858492708891 0 0.20582145053984491 -0.41588200004979231 0 0.20971342746355301 -0.41915206292654877 0 0.20582145053984491 -0.41588200004979231 0 0.21167661298713719 -0.40367645654993201 0 0.19770630134229519 -0.41617416721292588 0 0.20582145053984491 -0.41588200004979231 0 0.21167661298713719 -0.40367645654993201 0 0.20582145053984491 -0.41588200004979231 0 0.2110877129226828 -0.41210858492708891 0 0.21167661298713719 -0.40367645654993201 0 0.2140921909721332 -0.40929881660927597 0 0.2110877129226828 -0.41210858492708891 0 0.21167661298713719 -0.40367645654993201 0 0.2140921909721332 -0.40929881660927597 0 0.21167661298713719 -0.40367645654993201 0 0.2140921909721332 -0.40929881660927597 0 0.21402183527866231 -0.41247935816366937 0 0.2140921909721332 -0.40929881660927597 0 0.2110877129226828 -0.41210858492708891 0 0.21402183527866231 -0.41247935816366937 0 0.2140921909721332 -0.40929881660927597 0 0.21402183527866231 -0.41247935816366937 0 0.21896532845482949 -0.4048230563748324 0 0.21402183527866231 -0.41247935816366937 0 0.21896532845482949 -0.4048230563748324 0 0.20971342746355301 -0.41915206292654877 0 0.21402183527866231 -0.41247935816366937 0 0.21379735287402571 -0.42262744399643021 0 0.21402183527866231 -0.41247935816366937 0 0.21379735287402571 -0.42262744399643021 0 0.20971342746355301 -0.41915206292654877 0 0.21379735287402571 -0.42262744399643021 0 0.20971342746355301 -0.41915206292654877 0 0.2110877129226828 -0.41210858492708891 0 0.21402183527866231 -0.41247935816366937 0 0.20971342746355301 -0.41915206292654877 0 0.21402183527866231 -0.41247935816366937 0 0.21402183527866231 -0.41247935816366937 0 0.21379735287402571 -0.42262744399643021 0 0.22328897622703731 -0.43070472377213609 0 0.2134219494273806 -0.4395981567106918 0 0.21379735287402571 -0.42262744399643021 0 0.20750297551049821 -0.43216391083591738 0 0.19771033994657949 -0.43774200674822628 0 0.20971342746355301 -0.41915206292654877 0 0.20750297551049821 -0.43216391083591738 0 0.2134219494273806 -0.4395981567106918 0 0.21379735287402571 -0.42262744399643021 0 0.21379735287402571 -0.42262744399643021 0 0.22328897622703731 -0.43070472377213609 0 0.2134219494273806 -0.4395981567106918 0 0.21379735287402571 -0.42262744399643021 0 0.22328897622703731 -0.43070472377213609 0 0.19771033994657949 -0.43774200674822628 0 0.20971342746355301 -0.41915206292654877 0 0.20971342746355301 -0.41915206292654877 0 0.21379735287402571 -0.42262744399643021 0 0.20750297551049821 -0.43216391083591738 0 0.25898762616437732 -0.42823939485569151 0 0.24096404149451839 -0.44574603355753623 0 0.25898762616437732 -0.42823939485569151 0 0.24096404149451839 -0.44574603355753623 0 0.24146073222529199 -0.42050762998936581 0 0.24096404149451839 -0.44574603355753623 0 0.22328897622703731 -0.43070472377213609 0 0.24146073222529199 -0.42050762998936581 0 0.24146073222529199 -0.42050762998936581 0 0.2290497650277836 -0.41334186407477419 0 0.23974949031749071 -0.40303982761853802 0 0.25672449412054898 -0.40197393605751908 0 0.24146073222529199 -0.42050762998936581 0 0.23974949031749071 -0.40303982761853802 0 0.21402183527866231 -0.41247935816366937 0 0.22328897622703731 -0.43070472377213609 0 0.2290497650277836 -0.41334186407477419 0 0.22328897622703731 -0.43070472377213609 0 0.24146073222529199 -0.42050762998936581 0 0.2290497650277836 -0.41334186407477419 0 0.2290497650277836 -0.41334186407477419 0 0.22880008669488841 -0.40436392446536362 0 0.23974949031749071 -0.40303982761853802 0 0.21402183527866231 -0.41247935816366937 0 0.2290497650277836 -0.41334186407477419 0 0.21896532845482949 -0.4048230563748324 0 0.2290497650277836 -0.41334186407477419 0 0.21896532845482949 -0.4048230563748324 0 0.22880008669488841 -0.40436392446536362 0 0.21896532845482949 -0.4048230563748324 0 0.22638667948362851 -0.39510875148721192 0 0.21433934593106829 -0.39812578172781138 0 0.22638667948362851 -0.39510875148721192 0 0.23974949031749071 -0.40303982761853802 0 0.23352411684970589 -0.38707536651563479 0 0.21896532845482949 -0.4048230563748324 0 0.22638667948362851 -0.39510875148721192 0 0.22880008669488841 -0.40436392446536362 0 0.22638667948362851 -0.39510875148721192 0 0.22880008669488841 -0.40436392446536362 0 0.23974949031749071 -0.40303982761853802 0 0.23974949031749071 -0.40303982761853802 0 0.2458800538562696 -0.38904174214955239 0 0.23352411684970589 -0.38707536651563479 0 0.23974949031749071 -0.40303982761853802 0 0.23352411684970589 -0.38707536651563479 0 0.25672449412054898 -0.40197393605751908 0 0.23974949031749071 -0.40303982761853802 0 0.2458800538562696 -0.38904174214955239 0 0.24260295249042171 -0.37428177081278119 0 0.22729874338192091 -0.37111090541273167 0 0.23352411684970589 -0.38707536651563479 0 0.25679921550318058 -0.3788378097432894 0 0.24260295249042171 -0.37428177081278119 0 0.2458800538562696 -0.38904174214955239 0 0.24260295249042171 -0.37428177081278119 0 0.2458800538562696 -0.38904174214955239 0 0.23352411684970589 -0.38707536651563479 0 0.22729874338192091 -0.37111090541273167 0 0.22638667948362851 -0.39510875148721192 0 0.21433934593106829 -0.39812578172781138 0 0.22729874338192091 -0.37111090541273167 0 0.21477065439764989 -0.37862779324904539 0 0.21433934593106829 -0.39812578172781138 0 0.22729874338192091 -0.37111090541273167 0 0.23352411684970589 -0.38707536651563479 0 0.22729874338192091 -0.37111090541273167 0 0.21433934593106829 -0.39812578172781138 0 0.22729874338192091 -0.37111090541273167 0 0.22638667948362851 -0.39510875148721192 0 0.23352411684970589 -0.38707536651563479 0 0.21477065439764989 -0.37862779324904539 0 0.21433934593106829 -0.39812578172781138 0 0.21477065439764989 -0.37862779324904539 0 0.21433934593106829 -0.39812578172781138 0 0.20281970815879111 -0.38306163547375288 0 0.20805029469830449 -0.37366782866446829 0 0.21477065439764989 -0.37862779324904539 0 0.20281970815879111 -0.38306163547375288 0 0.21167661298713719 -0.40367645654993201 0 0.20169938001845561 -0.39773932080723889 0 0.20281970815879111 -0.38306163547375288 0 0.21167661298713719 -0.40367645654993201 0 0.20281970815879111 -0.38306163547375288 0 0.21433934593106829 -0.39812578172781138 0 0.21167661298713719 -0.40367645654993201 0 0.20281970815879111 -0.38306163547375288 0 0.2140921909721332 -0.40929881660927597 0 0.21896532845482949 -0.4048230563748324 0 0.21433934593106829 -0.39812578172781138 0 0.2140921909721332 -0.40929881660927597 0 0.21433934593106829 -0.39812578172781138 0 0.2140921909721332 -0.40929881660927597 0 0.21433934593106829 -0.39812578172781138 0 0.21167661298713719 -0.40367645654993201 0 0.21433934593106829 -0.39812578172781138 0 0.21167661298713719 -0.40367645654993201 0 0.1971850553546648 -0.40847454710095599 0 0.21167661298713719 -0.40367645654993201 0 0.20169938001845561 -0.39773932080723889 0 0.20169938001845561 -0.39773932080723889 0 0.19511614357323109 -0.39574464410431398 0 0.20281970815879111 -0.38306163547375288 0 0.1971850553546648 -0.40847454710095599 0 0.20169938001845561 -0.39773932080723889 0 0.19511614357323109 -0.39574464410431398 0 0.1971850553546648 -0.40847454710095599 0 0.19511614357323109 -0.39574464410431398 0 0.18484338302740369 -0.40451939345974719 0 0.19511614357323109 -0.39574464410431398 0 0.18484322662392699 -0.39361337783522699 0 0.18484338302740369 -0.40451939345974719 0 0.19396280333044399 -0.3624468143975742 0 0.18956673095554991 -0.38242665666570819 0 0.20281970815879111 -0.38306163547375288 0 0.19511614357323109 -0.39574464410431398 0 0.18956673095554991 -0.38242665666570819 0 0.18484322662392699 -0.39361337783522699 0 0.19511614357323109 -0.39574464410431398 0 0.18956673095554991 -0.38242665666570819 0 0.20281970815879111 -0.38306163547375288 0 0.17880040580735851 -0.38581332866036788 0 0.17169710547297121 -0.39711296721809081 0 0.16556102886552629 -0.38286356558054868 0 0.17976191609798489 -0.37265518998906122 0 0.16556102886552629 -0.38286356558054868 0 0.17976191609798489 -0.37265518998906122 0 0.17880040580735851 -0.38581332866036788 0 0.16556102886552629 -0.38286356558054868 0 0.17976191609798489 -0.37265518998906122 0 0.18956673095554991 -0.38242665666570819 0 0.17880040580735851 -0.38581332866036788 0 0.18956673095554991 -0.38242665666570819 0 0.17880040580735851 -0.38581332866036788 0 0.18484322662392699 -0.39361337783522699 0 0.18484338302740369 -0.40451939345974719 0 0.17169710547297121 -0.39711296721809081 0 0.1725171569196125 -0.41290021537428961 0 0.18484322662392699 -0.39361337783522699 0 0.18484338302740369 -0.40451939345974719 0 0.17169710547297121 -0.39711296721809081 0 0.17880040580735851 -0.38581332866036788 0 0.18484322662392699 -0.39361337783522699 0 0.17169710547297121 -0.39711296721809081 0 0.17169710547297121 -0.39711296721809081 0 0.15618393538003969 -0.40328324608712329 0 0.1725171569196125 -0.41290021537428961 0 0.17169710547297121 -0.39711296721809081 0 0.15760976496545001 -0.39157510600533629 0 0.15618393538003969 -0.40328324608712329 0 0.17976191609798489 -0.37265518998906122 0 0.16251935889430771 -0.37323306306092868 0 0.16556102886552629 -0.38286356558054868 0 0.15760976496545001 -0.39157510600533629 0 0.16556102886552629 -0.38286356558054868 0 0.150219053311729 -0.38290513286204753 0 0.17169710547297121 -0.39711296721809081 0 0.15760976496545001 -0.39157510600533629 0 0.16556102886552629 -0.38286356558054868 0 0.16251935889430771 -0.37323306306092868 0 0.16556102886552629 -0.38286356558054868 0 0.150219053311729 -0.38290513286204753 0 0.1379202342802078 -0.36337032723134322 0 0.150219053311729 -0.38290513286204753 0 0.13540398186711711 -0.38688047175550372 0 0.150219053311729 -0.38290513286204753 0 0.13540398186711711 -0.38688047175550372 0 0.1452556695571989 -0.39872967754285721 0 0.13540398186711711 -0.38688047175550372 0 0.1250446296226935 -0.39434600538328157 0 0.120704603114049 -0.37459450352841539 0 0.1379202342802078 -0.36337032723134322 0 0.13540398186711711 -0.38688047175550372 0 0.1250446296226935 -0.39434600538328157 0 0.13288772945403049 -0.41039061627966461 0 0.12126514487978041 -0.40485673988733317 0 0.13540398186711711 -0.38688047175550372 0 0.1452556695571989 -0.39872967754285721 0 0.13288772945403049 -0.41039061627966461 0 0.13540398186711711 -0.38688047175550372 0 0.1250446296226935 -0.39434600538328157 0 0.13288772945403049 -0.41039061627966461 0 0.13540398186711711 -0.38688047175550372 0 0.13288772945403049 -0.41039061627966461 0 0.15760976496545001 -0.39157510600533629 0 0.150219053311729 -0.38290513286204753 0 0.1452556695571989 -0.39872967754285721 0 0.1452556695571989 -0.39872967754285721 0 0.15618393538003969 -0.40328324608712329 0 0.1463232769074701 -0.41547488587762388 0 0.15760976496545001 -0.39157510600533629 0 0.1452556695571989 -0.39872967754285721 0 0.15618393538003969 -0.40328324608712329 0 0.1452556695571989 -0.39872967754285721 0 0.1463232769074701 -0.41547488587762388 0 0.13288772945403049 -0.41039061627966461 0 0.15618393538003969 -0.40328324608712329 0 0.1463232769074701 -0.41547488587762388 0 0.15696343983058389 -0.42746243456534277 0 0.1463232769074701 -0.41547488587762388 0 0.13288772945403049 -0.41039061627966461 0 0.13037147704094401 -0.4339007608038255 0 0.13288772945403049 -0.41039061627966461 0 0.13037147704094401 -0.4339007608038255 0 0.1234788795306333 -0.41517948795779291 0 0.13288772945403049 -0.41039061627966461 0 0.1234788795306333 -0.41517948795779291 0 0.12126514487978041 -0.40485673988733317 0 0.13288772945403049 -0.41039061627966461 0 0.13037147704094401 -0.4339007608038255 0 0.1463232769074701 -0.41547488587762388 0 0.13037147704094401 -0.4339007608038255 0 0.15696343983058389 -0.42746243456534277 0 0.13037147704094401 -0.4339007608038255 0 0.15696343983058389 -0.42746243456534277 0 0.1422549209524652 -0.44694292187240803 0 0.15696343983058389 -0.42746243456534277 0 0.1789165065256326 -0.42795297017928269 0 0.17220794016457869 -0.44393808847271538 0 0.15696343983058389 -0.42746243456534277 0 0.1725171569196125 -0.41290021537428961 0 0.1789165065256326 -0.42795297017928269 0 0.15618393538003969 -0.40328324608712329 0 0.15696343983058389 -0.42746243456534277 0 0.15618393538003969 -0.40328324608712329 0 0.15696343983058389 -0.42746243456534277 0 0.1725171569196125 -0.41290021537428961 0 0.1725171569196125 -0.41290021537428961 0 0.18670405178821509 -0.41564257073970701 0 0.1789165065256326 -0.42795297017928269 0 0.18484338302740369 -0.40451939345974719 0 0.1725171569196125 -0.41290021537428961 0 0.18670405178821509 -0.41564257073970701 0 0.1892540472433214 -0.4328255769598145 0 0.1918597919878208 -0.42373094639246123 0 0.1789165065256326 -0.42795297017928269 0 0.1918597919878208 -0.42373094639246123 0 0.18670405178821509 -0.41564257073970701 0 0.1789165065256326 -0.42795297017928269 0 0.1789165065256326 -0.42795297017928269 0 0.17220794016457869 -0.44393808847271538 0 0.18317415522776459 -0.44039941796354121 0 0.1892540472433214 -0.4328255769598145 0 0.1789165065256326 -0.42795297017928269 0 0.18317415522776459 -0.44039941796354121 0 0.1916026813493352 -0.44720132544803559 0 0.18317415522776459 -0.44039941796354121 0 0.18570725242960581 -0.45633195056990361 0 0.17220794016457869 -0.44393808847271538 0 0.18317415522776459 -0.44039941796354121 0 0.18570725242960581 -0.45633195056990361 0 0.17220794016457869 -0.44393808847271538 0 0.18570725242960581 -0.45633195056990361 0 0.17074334269275729 -0.45984013451466033 0 0.18570725242960581 -0.45633195056990361 0 0.17370416491263199 -0.47492189439158078 0 0.18570725242960581 -0.45633195056990361 0 0.17370416491263199 -0.47492189439158078 0 0.18512925918500439 -0.47074830980688859 0 0.18570725242960581 -0.45633195056990361 0 0.17074334269275729 -0.45984013451466033 0 0.17370416491263199 -0.47492189439158078 0 0.17074334269275729 -0.45984013451466033 0 0.15774294428112809 -0.45164162304356209 0 0.15852244873167229 -0.47582081152178157 0 0.15774294428112809 -0.45164162304356209 0 0.15852244873167229 -0.47582081152178157 0 0.15696343983058389 -0.42746243456534277 0 0.15774294428112809 -0.45164162304356209 0 0.15696343983058389 -0.42746243456534277 0 0.17220794016457869 -0.44393808847271538 0 0.15774294428112809 -0.45164162304356209 0 0.17220794016457869 -0.44393808847271538 0 0.17074334269275729 -0.45984013451466033 0 0.15774294428112809 -0.45164162304356209 0 0.15696343983058389 -0.42746243456534277 0 0.15774294428112809 -0.45164162304356209 0 0.1422549209524652 -0.44694292187240803 0 0.13037147704094401 -0.4339007608038255 0 0.12785522462785739 -0.45741090532798651 0 0.13037147704094401 -0.4339007608038255 0 0.1422549209524652 -0.44694292187240803 0 0.12785522462785739 -0.45741090532798651 0 0.1422549209524652 -0.44694292187240803 0 0.12785522462785739 -0.45741090532798651 0 0.14632488515616479 -0.46411188520736202 0 0.12785522462785739 -0.45741090532798651 0 0.14632488515616479 -0.46411188520736202 0 0.13645204310702841 -0.47783801002421578 0 0.15774294428112809 -0.45164162304356209 0 0.14632488515616479 -0.46411188520736202 0 0.15852244873167229 -0.47582081152178157 0 0.15774294428112809 -0.45164162304356209 0 0.1422549209524652 -0.44694292187240803 0 0.14632488515616479 -0.46411188520736202 0 0.13645204310702841 -0.47783801002421578 0 0.14764849303801419 -0.48841470538649928 0 0.15852244873167229 -0.47582081152178157 0 0.14632488515616479 -0.46411188520736202 0 0.13645204310702841 -0.47783801002421578 0 0.15852244873167229 -0.47582081152178157 0 0.12785522462785739 -0.45741090532798651 0 0.13645204310702841 -0.47783801002421578 0 0.11435486590354239 -0.47792628194120701 0 0.13645204310702841 -0.47783801002421578 0 0.1363175271311394 -0.5 0 0.11435486590354239 -0.47792628194120701 0 0.13645204310702841 -0.47783801002421578 0 0.1363175271311394 -0.5 0 0.14764849303801419 -0.48841470538649928 0 0.14764849303801419 -0.48841470538649928 0 0.1593019531822166 -0.50000000000000089 0 0.15852244873167229 -0.47582081152178157 0 0.1363175271311394 -0.5 0 0.14764849303801419 -0.48841470538649928 0 0.1593019531822166 -0.50000000000000089 0 0.1593019531822166 -0.50000000000000089 0 0.17080209056832241 -0.48680015234399288 0 0.15852244873167229 -0.47582081152178157 0 0.1593019531822166 -0.50000000000000089 0 0.15852244873167229 -0.47582081152178157 0 0.1593019531822166 -0.50000000000000089 0 0.17080209056832241 -0.48680015234399288 0 0.18510803312506169 -0.49999999999999239 0 0.17074334269275729 -0.45984013451466033 0 0.15852244873167229 -0.47582081152178157 0 0.17370416491263199 -0.47492189439158078 0 0.17080209056832241 -0.48680015234399288 0 0.15852244873167229 -0.47582081152178157 0 0.17370416491263199 -0.47492189439158078 0 0.17080209056832241 -0.48680015234399288 0 0.17370416491263199 -0.47492189439158078 0 0.1852968015852772 -0.4815487518189695 0 0.17370416491263199 -0.47492189439158078 0 0.18512925918500439 -0.47074830980688859 0 0.1852968015852772 -0.4815487518189695 0 0.17080209056832241 -0.48680015234399288 0 0.1852968015852772 -0.4815487518189695 0 0.18510803312506169 -0.49999999999999239 0 0.065878273069825188 -0.5 0 0.078061908659036394 -0.48473997069109442 0 0.090348675028985012 -0.50000000000000255 0 0.065878273069825188 -0.5 0 0.078061908659036394 -0.48473997069109442 0 0.059916563069415313 -0.47921447207936269 0 0.078061908659036394 -0.48473997069109442 0 0.077052941488753607 -0.46480119264405112 0 0.059916563069415313 -0.47921447207936269 0 0.078061908659036394 -0.48473997069109442 0 0.092907208141076864 -0.47260735265066889 0 0.077052941488753607 -0.46480119264405112 0 0.092907208141076864 -0.47260735265066889 0 0.090348675028985012 -0.50000000000000255 0 0.078061908659036394 -0.48473997069109442 0 0.092907208141076864 -0.47260735265066889 0 0.090348675028985012 -0.50000000000000255 0 0.090348675028985012 -0.50000000000000255 0 0.1133331010800622 -0.5 0 0.11435486590354239 -0.47792628194120701 0 0.1363175271311394 -0.5 0 0.1133331010800622 -0.5 0 0.11435486590354239 -0.47792628194120701 0 0.092907208141076864 -0.47260735265066889 0 0.11435486590354239 -0.47792628194120701 0 0.10863522361659771 -0.4594626967278535 0 0.092907208141076864 -0.47260735265066889 0 0.090348675028985012 -0.50000000000000255 0 0.11435486590354239 -0.47792628194120701 0 0.092907208141076864 -0.47260735265066889 0 0.095465741253168493 -0.44521470530133522 0 0.092907208141076864 -0.47260735265066889 0 0.10863522361659771 -0.4594626967278535 0 0.095465741253168493 -0.44521470530133522 0 0.12785522462785739 -0.45741090532798651 0 0.11435486590354239 -0.47792628194120701 0 0.10863522361659771 -0.4594626967278535 0 0.12785522462785739 -0.45741090532798651 0 0.10863522361659771 -0.4594626967278535 0 0.1127036100475851 -0.43938485221314061 0 0.13037147704094401 -0.4339007608038255 0 0.12785522462785739 -0.45741090532798651 0 0.1127036100475851 -0.43938485221314061 0 0.10863522361659771 -0.4594626967278535 0 0.1127036100475851 -0.43938485221314061 0 0.095465741253168493 -0.44521470530133522 0 0.095465741253168493 -0.44521470530133522 0 0.073868782983947626 -0.44656148943117507 0 0.077591188542252387 -0.4292210051890486 0 0.095465741253168493 -0.44521470530133522 0 0.077052941488753607 -0.46480119264405112 0 0.073868782983947626 -0.44656148943117507 0 0.092907208141076864 -0.47260735265066889 0 0.095465741253168493 -0.44521470530133522 0 0.077052941488753607 -0.46480119264405112 0 0.077052941488753607 -0.46480119264405112 0 0.061221219305642449 -0.45899482486038162 0 0.059916563069415313 -0.47921447207936269 0 0.077052941488753607 -0.46480119264405112 0 0.073868782983947626 -0.44656148943117507 0 0.061221219305642449 -0.45899482486038162 0 0.073868782983947626 -0.44656148943117507 0 0.057158102719242883 -0.44061995242609497 0 0.061221219305642449 -0.45899482486038162 0 0.073868782983947626 -0.44656148943117507 0 0.077591188542252387 -0.4292210051890486 0 0.057158102719242883 -0.44061995242609497 0 0.077591188542252387 -0.4292210051890486 0 0.057158102719242883 -0.44061995242609497 0 0.077591188542252387 -0.4292210051890486 0 0.069776917393597676 -0.4127139036847014 0 0.085649582666151261 -0.40505304198216258 0 0.077591188542252387 -0.4292210051890486 0 0.069776917393597676 -0.4127139036847014 0 0.052314532916267968 -0.41871559025392868 0 0.077591188542252387 -0.4292210051890486 0 0.098024274365261635 -0.41782205795200189 0 0.085649582666151261 -0.40505304198216258 0 0.077591188542252387 -0.4292210051890486 0 0.098024274365261635 -0.41782205795200189 0 0.095465741253168493 -0.44521470530133522 0 0.077591188542252387 -0.4292210051890486 0 0.098024274365261635 -0.41782205795200189 0 0.1127036100475851 -0.43938485221314061 0 0.095465741253168493 -0.44521470530133522 0 0.098024274365261635 -0.41782205795200189 0 0.095465741253168493 -0.44521470530133522 0 0.098024274365261635 -0.41782205795200189 0 0.1127036100475851 -0.43938485221314061 0 0.11586971938168331 -0.42249798716584169 0 0.098024274365261635 -0.41782205795200189 0 0.13037147704094401 -0.4339007608038255 0 0.1127036100475851 -0.43938485221314061 0 0.11586971938168331 -0.42249798716584169 0 0.13037147704094401 -0.4339007608038255 0 0.11586971938168331 -0.42249798716584169 0 0.1234788795306333 -0.41517948795779291 0 0.1107462525750067 -0.40705177026905542 0 0.098024274365261635 -0.41782205795200189 0 0.12126514487978041 -0.40485673988733317 0 0.11586971938168331 -0.42249798716584169 0 0.1234788795306333 -0.41517948795779291 0 0.12126514487978041 -0.40485673988733317 0 0.11586971938168331 -0.42249798716584169 0 0.098024274365261635 -0.41782205795200189 0 0.12126514487978041 -0.40485673988733317 0 0.098024274365261635 -0.41782205795200189 0 0.12126514487978041 -0.40485673988733317 0 0.098024274365261635 -0.41782205795200189 0 0.10017939178731471 -0.39474853536998072 0 0.1107462525750067 -0.40705177026905542 0 0.098024274365261635 -0.41782205795200189 0 0.10017939178731471 -0.39474853536998072 0 0.098024274365261635 -0.41782205795200189 0 0.10017939178731471 -0.39474853536998072 0 0.085649582666151261 -0.40505304198216258 0 0.10017939178731471 -0.39474853536998072 0 0.10093890414611389 -0.38661690162102691 0 0.10017939178731471 -0.39474853536998072 0 0.1076600437302488 -0.39073489571889919 0 0.10093890414611389 -0.38661690162102691 0 0.10017939178731471 -0.39474853536998072 0 0.1076600437302488 -0.39073489571889919 0 0.1135816231483187 -0.39814135832160819 0 0.1107462525750067 -0.40705177026905542 0 0.10017939178731471 -0.39474853536998072 0 0.1135816231483187 -0.39814135832160819 0 0.1107462525750067 -0.40705177026905542 0 0.10017939178731471 -0.39474853536998072 0 0.1107462525750067 -0.40705177026905542 0 0.1135816231483187 -0.39814135832160819 0 0.12126514487978041 -0.40485673988733317 0 0.1076600437302488 -0.39073489571889919 0 0.1144712997305572 -0.39198214386663172 0 0.1135816231483187 -0.39814135832160819 0 0.1250446296226935 -0.39434600538328157 0 0.1144712997305572 -0.39198214386663172 0 0.1135816231483187 -0.39814135832160819 0 0.1250446296226935 -0.39434600538328157 0 0.1135816231483187 -0.39814135832160819 0 0.12126514487978041 -0.40485673988733317 0 0.1250446296226935 -0.39434600538328157 0 0.1144712997305572 -0.39198214386663172 0 0.120704603114049 -0.37459450352841539 0 0.1144712997305572 -0.39198214386663172 0 0.1106068718136437 -0.38110145197561052 0 0.120704603114049 -0.37459450352841539 0 0.1076600437302488 -0.39073489571889919 0 0.1144712997305572 -0.39198214386663172 0 0.1106068718136437 -0.38110145197561052 0 0.10093890414611389 -0.38661690162102691 0 0.088097866756541188 -0.38068174265081911 0 0.1023790323138794 -0.36776405151446029 0 0.1106068718136437 -0.38110145197561052 0 0.10093890414611389 -0.38661690162102691 0 0.1023790323138794 -0.36776405151446029 0 0.1076600437302488 -0.39073489571889919 0 0.1106068718136437 -0.38110145197561052 0 0.10093890414611389 -0.38661690162102691 0 0.10017939178731471 -0.39474853536998072 0 0.088097866756541188 -0.38068174265081911 0 0.10017939178731471 -0.39474853536998072 0 0.10093890414611389 -0.38661690162102691 0 0.088097866756541188 -0.38068174265081911 0 0.088097866756541188 -0.38068174265081911 0 0.072628097085444154 -0.39467455757614461 0 0.10017939178731471 -0.39474853536998072 0 0.088097866756541188 -0.38068174265081911 0 0.085649582666151261 -0.40505304198216258 0 0.088097866756541188 -0.38068174265081911 0 0.085649582666151261 -0.40505304198216258 0 0.072628097085444154 -0.39467455757614461 0 0.069776917393597676 -0.4127139036847014 0 0.085649582666151261 -0.40505304198216258 0 0.072628097085444154 -0.39467455757614461 0 0.069776917393597676 -0.4127139036847014 0 0.072628097085444154 -0.39467455757614461 0 0.047470963113292922 -0.3968112280817625 0 0.088097866756541188 -0.38068174265081911 0 0.072628097085444154 -0.39467455757614461 0 0.060580674955052573 -0.37772309159070178 0 0.072628097085444154 -0.39467455757614461 0 0.060580674955052573 -0.37772309159070178 0 0.047470963113292922 -0.3968112280817625 0 0.060580674955052573 -0.37772309159070178 0 0.047470963113292922 -0.3968112280817625 0 0.042627393310317903 -0.37490686590959632 0 0.047470963113292922 -0.3968112280817625 0 0.02904125316588262 -0.39524374785104571 0 0.034950574568017631 -0.41403676241240689 0 0.047470963113292922 -0.3968112280817625 0 0.042627393310317903 -0.37490686590959632 0 0.047470963113292922 -0.3968112280817625 0 0.02904125316588262 -0.39524374785104571 0 0.042627393310317903 -0.37490686590959632 0 0.01541932378543062 -0.38039074189951072 0 0.02904125316588262 -0.39524374785104571 0 0.042627393310317903 -0.37490686590959632 0 -0.0083876326739897138 -0.38025561398471153 0 0.01541932378543062 -0.38039074189951072 0 0.0075023266872388302 -0.39965810289103038 0 0.0075023266872388302 -0.39965810289103038 0 0.02904125316588262 -0.39524374785104571 0 0.0227479861752347 -0.41045843543358651 0 0.01541932378543062 -0.38039074189951072 0 0.0075023266872388302 -0.39965810289103038 0 0.02904125316588262 -0.39524374785104571 0 0.02904125316588262 -0.39524374785104571 0 0.0227479861752347 -0.41045843543358651 0 0.034950574568017631 -0.41403676241240689 0 0.0227479861752347 -0.41045843543358651 0 0.023494176712619101 -0.42691709154107937 0 0.034950574568017631 -0.41403676241240689 0 0.0075023266872388302 -0.39965810289103038 0 0.0227479861752347 -0.41045843543358651 0 0.0025665329022295309 -0.43021143016787788 0 0.0025665329022295309 -0.43021143016787788 0 0.023494176712619101 -0.42691709154107937 0 0.017421448147059732 -0.44022817887255178 0 0.023494176712619101 -0.42691709154107937 0 0.034634535324808507 -0.43607448131303878 0 0.017421448147059732 -0.44022817887255178 0 0.0227479861752347 -0.41045843543358651 0 0.0025665329022295309 -0.43021143016787788 0 0.023494176712619101 -0.42691709154107937 0 0.023494176712619101 -0.42691709154107937 0 0.034634535324808507 -0.43607448131303878 0 0.034950574568017631 -0.41403676241240689 0 0.034634535324808507 -0.43607448131303878 0 0.034950574568017631 -0.41403676241240689 0 0.052314532916267968 -0.41871559025392868 0 0.047470963113292922 -0.3968112280817625 0 0.034950574568017631 -0.41403676241240689 0 0.052314532916267968 -0.41871559025392868 0 0.047470963113292922 -0.3968112280817625 0 0.052314532916267968 -0.41871559025392868 0 0.069776917393597676 -0.4127139036847014 0 0.047470963113292922 -0.3968112280817625 0 0.052314532916267968 -0.41871559025392868 0 0.077591188542252387 -0.4292210051890486 0 0.052314532916267968 -0.41871559025392868 0 0.057158102719242883 -0.44061995242609497 0 0.034634535324808507 -0.43607448131303878 0 0.052314532916267968 -0.41871559025392868 0 0.057158102719242883 -0.44061995242609497 0 0.052314532916267968 -0.41871559025392868 0 0.057158102719242883 -0.44061995242609497 0 0.057158102719242883 -0.44061995242609497 0 0.04750675649744291 -0.46207316919627622 0 0.039973982255808248 -0.45020640863610811 0 0.057158102719242883 -0.44061995242609497 0 0.061221219305642449 -0.45899482486038162 0 0.057158102719242883 -0.44061995242609497 0 0.039973982255808248 -0.45020640863610811 0 0.057158102719242883 -0.44061995242609497 0 0.061221219305642449 -0.45899482486038162 0 0.04750675649744291 -0.46207316919627622 0 0.061221219305642449 -0.45899482486038162 0 0.04750675649744291 -0.46207316919627622 0 0.059916563069415313 -0.47921447207936269 0 0.035363657814723719 -0.46529226929857642 0 0.039973982255808248 -0.45020640863610811 0 0.02057871261398745 -0.457382987542026 0 0.04750675649744291 -0.46207316919627622 0 0.035363657814723719 -0.46529226929857642 0 0.039973982255808248 -0.45020640863610811 0 0.04750675649744291 -0.46207316919627622 0 0.035363657814723719 -0.46529226929857642 0 0.041938020640733611 -0.47744334202430588 0 0.034634535324808507 -0.43607448131303878 0 0.039973982255808248 -0.45020640863610811 0 0.02057871261398745 -0.457382987542026 0 0.034634535324808507 -0.43607448131303878 0 0.057158102719242883 -0.44061995242609497 0 0.039973982255808248 -0.45020640863610811 0 0.034634535324808507 -0.43607448131303878 0 0.02057871261398745 -0.457382987542026 0 0.034634535324808507 -0.43607448131303878 0 0.017421448147059732 -0.44022817887255178 0 0.02057871261398745 -0.457382987542026 0 0.017421448147059732 -0.44022817887255178 0 0.0059697679477151763 -0.45108080644805099 0 0.02057871261398745 -0.457382987542026 0 0.0025665329022295309 -0.43021143016787788 0 0.017421448147059732 -0.44022817887255178 0 0.0059697679477151763 -0.45108080644805099 0 0.02057871261398745 -0.457382987542026 0 0.0065228899031663876 -0.47869149377101322 0 0.0059697679477151763 -0.45108080644805099 0 0.02057871261398745 -0.457382987542026 0 0.0065228899031663876 -0.47869149377101322 0 0.035363657814723719 -0.46529226929857642 0 0.02057871261398745 -0.457382987542026 0 0.02682081706564635 -0.479355439094166 0 0.02057871261398745 -0.457382987542026 0 0.02682081706564635 -0.479355439094166 0 0.0065228899031663876 -0.47869149377101322 0 -0.0075329328076548787 -0.50000000000000044 0 0.0065228899031663876 -0.47869149377101322 0 0.016937469151505069 -0.5 0 0.02682081706564635 -0.479355439094166 0 0.0065228899031663876 -0.47869149377101322 0 0.016937469151505069 -0.5 0 0.02682081706564635 -0.479355439094166 0 0.016937469151505069 -0.5 0 0.041407871110665129 -0.5 0 0.02682081706564635 -0.479355439094166 0 0.041407871110665129 -0.5 0 0.041938020640733611 -0.47744334202430588 0 0.035363657814723719 -0.46529226929857642 0 0.02682081706564635 -0.479355439094166 0 0.041938020640733611 -0.47744334202430588 0 0.04750675649744291 -0.46207316919627622 0 0.041938020640733611 -0.47744334202430588 0 0.059916563069415313 -0.47921447207936269 0 0.041407871110665129 -0.5 0 0.041938020640733611 -0.47744334202430588 0 0.059916563069415313 -0.47921447207936269 0 0.065878273069825188 -0.5 0 0.041407871110665129 -0.5 0 0.059916563069415313 -0.47921447207936269 0 0.085876673567610667 -0.29641722257308772 0 0.076246810564665271 -0.2846099236175057 0 0.082769177768920746 -0.270840199722858 0 0.085876673567610667 -0.29641722257308772 0 0.082769177768920746 -0.270840199722858 0 0.1038193944232694 -0.28175972452422732 0 0.085876673567610667 -0.29641722257308772 0 0.082769177768920746 -0.270840199722858 0 0.085876673567610667 -0.29641722257308772 0 0.08703272417229832 -0.30593238675917961 0 0.085876673567610667 -0.29641722257308772 0 0.08703272417229832 -0.30593238675917961 0 0.067685132567603917 -0.30855583137596398 0 0.08703272417229832 -0.30593238675917961 0 0.087620922699834028 -0.31077370213138228 0 0.099020279989090035 -0.31365159074478072 0 0.08703272417229832 -0.30593238675917961 0 0.087620922699834028 -0.31077370213138228 0 0.08703272417229832 -0.30593238675917961 0 0.087620922699834028 -0.31077370213138228 0 0.077679214381514664 -0.31524012353454572 0 0.08703272417229832 -0.30593238675917961 0 0.067685132567603917 -0.30855583137596398 0 0.077679214381514664 -0.31524012353454572 0 0.085876673567610667 -0.29641722257308772 0 0.067685132567603917 -0.30855583137596398 0 0.062830507941338806 -0.29183137734935988 0 0.08703272417229832 -0.30593238675917961 0 0.067685132567603917 -0.30855583137596398 0 0.062830507941338806 -0.29183137734935988 0 0.076246810564665271 -0.2846099236175057 0 0.068728063649034027 -0.2748291796107345 0 0.085876673567610667 -0.29641722257308772 0 0.062830507941338806 -0.29183137734935988 0 0.076246810564665271 -0.2846099236175057 0 0.085876673567610667 -0.29641722257308772 0 0.062830507941338806 -0.29183137734935988 0 0.068728063649034027 -0.2748291796107345 0 0.066985562117626005 -0.25869814520560142 0 0.082769177768920746 -0.270840199722858 0 0.068728063649034027 -0.2748291796107345 0 0.066985562117626005 -0.25869814520560142 0 0.0546996460484796 -0.27249084816649632 0 0.076246810564665271 -0.2846099236175057 0 0.068728063649034027 -0.2748291796107345 0 0.082769177768920746 -0.270840199722858 0 0.066985562117626005 -0.25869814520560142 0 0.082769177768920746 -0.270840199722858 0 0.079661681970231046 -0.24526317687262841 0 0.082769177768920746 -0.270840199722858 0 0.079661681970231046 -0.24526317687262841 0 0.096902655002079979 -0.24603352359989519 0 0.082769177768920746 -0.270840199722858 0 0.079661681970231046 -0.24526317687262841 0 0.082769177768920746 -0.270840199722858 0 0.1088264754611096 -0.26160771100834213 0 0.1038193944232694 -0.28175972452422732 0 0.082769177768920746 -0.270840199722858 0 0.1088264754611096 -0.26160771100834213 0 0.096902655002079979 -0.24603352359989519 0 0.12940389620191431 -0.25557245137933371 0 0.1088264754611096 -0.26160771100834213 0 0.1183832189603576 -0.240215746231844 0 0.12940389620191431 -0.25557245137933371 0 0.1088264754611096 -0.26160771100834213 0 0.12170918036561899 -0.27563453964396539 0 0.1088264754611096 -0.26160771100834213 0 0.12170918036561899 -0.27563453964396539 0 0.1038193944232694 -0.28175972452422732 0 0.12170918036561899 -0.27563453964396539 0 0.11709910797085631 -0.28711087817677139 0 0.1038193944232694 -0.28175972452422732 0 0.12808359034767541 -0.28887984357415492 0 0.12170918036561899 -0.27563453964396539 0 0.11709910797085631 -0.28711087817677139 0 0.11709910797085631 -0.28711087817677139 0 0.1038193944232694 -0.28175972452422732 0 0.1147842667468615 -0.30216940496473788 0 0.12808359034767541 -0.28887984357415492 0 0.11709910797085631 -0.28711087817677139 0 0.1147842667468615 -0.30216940496473788 0 0.085876673567610667 -0.29641722257308772 0 0.1038193944232694 -0.28175972452422732 0 0.1147842667468615 -0.30216940496473788 0 0.1147842667468615 -0.30216940496473788 0 0.11415148907348251 -0.31996583757427649 0 0.099020279989090035 -0.31365159074478072 0 0.085876673567610667 -0.29641722257308772 0 0.1147842667468615 -0.30216940496473788 0 0.085876673567610667 -0.29641722257308772 0 0.08703272417229832 -0.30593238675917961 0 0.1147842667468615 -0.30216940496473788 0 0.08703272417229832 -0.30593238675917961 0 0.1147842667468615 -0.30216940496473788 0 0.08703272417229832 -0.30593238675917961 0 0.1147842667468615 -0.30216940496473788 0 0.099020279989090035 -0.31365159074478072 0 0.12934804612683529 -0.31154460324423949 0 0.1147842667468615 -0.30216940496473788 0 0.11415148907348251 -0.31996583757427649 0 0.13022680020978181 -0.31790237763831791 0 0.12934804612683529 -0.31154460324423949 0 0.11415148907348251 -0.31996583757427649 0 0.12804537332447311 -0.34454816871805372 0 0.124558309624545 -0.33165852067868062 0 0.11181918539189011 -0.3368080276313426 0 0.11415148907348251 -0.31996583757427649 0 0.124558309624545 -0.33165852067868062 0 0.11181918539189011 -0.3368080276313426 0 0.11181918539189011 -0.3368080276313426 0 0.096785756018170993 -0.3253021177047859 0 0.090857918854902769 -0.34450123364162888 0 0.11415148907348251 -0.31996583757427649 0 0.096785756018170993 -0.3253021177047859 0 0.099020279989090035 -0.31365159074478072 0 0.11415148907348251 -0.31996583757427649 0 0.11181918539189011 -0.3368080276313426 0 0.096785756018170993 -0.3253021177047859 0 0.096785756018170993 -0.3253021177047859 0 0.099020279989090035 -0.31365159074478072 0 0.093166520292453273 -0.31756046256312448 0 0.120704603114049 -0.37459450352841539 0 0.1166601978712198 -0.35484636037810402 0 0.1023790323138794 -0.36776405151446029 0 0.1106068718136437 -0.38110145197561052 0 0.120704603114049 -0.37459450352841539 0 0.1023790323138794 -0.36776405151446029 0 0.1166601978712198 -0.35484636037810402 0 0.1023790323138794 -0.36776405151446029 0 0.12804537332447311 -0.34454816871805372 0 0.11181918539189011 -0.3368080276313426 0 0.1166601978712198 -0.35484636037810402 0 0.12804537332447311 -0.34454816871805372 0 0.1166601978712198 -0.35484636037810402 0 0.11181918539189011 -0.3368080276313426 0 0.1166601978712198 -0.35484636037810402 0 0.090857918854902769 -0.34450123364162888 0 0.1166601978712198 -0.35484636037810402 0 0.090857918854902769 -0.34450123364162888 0 0.1166601978712198 -0.35484636037810402 0 0.1023790323138794 -0.36776405151446029 0 0.090857918854902769 -0.34450123364162888 0 0.088097866756541188 -0.38068174265081911 0 0.1023790323138794 -0.36776405151446029 0 0.088097866756541188 -0.38068174265081911 0 0.071816364778450589 -0.36172482182343851 0 0.088097866756541188 -0.38068174265081911 0 0.087020107426022689 -0.36513710125200588 0 0.071816364778450589 -0.36172482182343851 0 0.088097866756541188 -0.38068174265081911 0 0.1023790323138794 -0.36776405151446029 0 0.087020107426022689 -0.36513710125200588 0 0.1023790323138794 -0.36776405151446029 0 0.087020107426022689 -0.36513710125200588 0 0.090857918854902769 -0.34450123364162888 0 0.087020107426022689 -0.36513710125200588 0 0.090857918854902769 -0.34450123364162888 0 0.071816364778450589 -0.36172482182343851 0 0.071816364778450589 -0.36172482182343851 0 0.055534862800359963 -0.34276790099605781 0 0.090857918854902769 -0.34450123364162888 0 0.071816364778450589 -0.36172482182343851 0 0.065055639838585949 -0.33415610690515329 0 0.071816364778450589 -0.36172482182343851 0 0.065055639838585949 -0.33415610690515329 0 0.055534862800359963 -0.34276790099605781 0 0.088097866756541188 -0.38068174265081911 0 0.060580674955052573 -0.37772309159070178 0 0.071816364778450589 -0.36172482182343851 0 0.096785756018170993 -0.3253021177047859 0 0.079070420168061137 -0.32645135549338927 0 0.086386986498574861 -0.319069664620941 0 0.079070420168061137 -0.32645135549338927 0 0.086386986498574861 -0.319069664620941 0 0.077679214381514664 -0.31524012353454572 0 0.087620922699834028 -0.31077370213138228 0 0.086386986498574861 -0.319069664620941 0 0.077679214381514664 -0.31524012353454572 0 0.087620922699834028 -0.31077370213138228 0 0.099020279989090035 -0.31365159074478072 0 0.093166520292453273 -0.31756046256312448 0 0.087620922699834028 -0.31077370213138228 0 0.093166520292453273 -0.31756046256312448 0 0.086386986498574861 -0.319069664620941 0 0.096785756018170993 -0.3253021177047859 0 0.093166520292453273 -0.31756046256312448 0 0.086386986498574861 -0.319069664620941 0 0.096785756018170993 -0.3253021177047859 0 0.090857918854902769 -0.34450123364162888 0 0.079070420168061137 -0.32645135549338927 0 0.090857918854902769 -0.34450123364162888 0 0.079070420168061137 -0.32645135549338927 0 0.065055639838585949 -0.33415610690515329 0 0.090857918854902769 -0.34450123364162888 0 0.065055639838585949 -0.33415610690515329 0 0.079070420168061137 -0.32645135549338927 0 0.077679214381514664 -0.31524012353454572 0 0.06284688479015739 -0.31989894557841331 0 0.079070420168061137 -0.32645135549338927 0 0.065055639838585949 -0.33415610690515329 0 0.06284688479015739 -0.31989894557841331 0 0.067685132567603917 -0.30855583137596398 0 0.077679214381514664 -0.31524012353454572 0 0.06284688479015739 -0.31989894557841331 0 0.06284688479015739 -0.31989894557841331 0 0.039253360822269108 -0.32381098016867738 0 0.048337540962909743 -0.3111792759927498 0 0.065055639838585949 -0.33415610690515329 0 0.06284688479015739 -0.31989894557841331 0 0.039253360822269108 -0.32381098016867738 0 0.067685132567603917 -0.30855583137596398 0 0.06284688479015739 -0.31989894557841331 0 0.048337540962909743 -0.3111792759927498 0 0.055534862800359963 -0.34276790099605781 0 0.039253360822269108 -0.32381098016867738 0 0.065055639838585949 -0.33415610690515329 0 0.039253360822269108 -0.32381098016867738 0 0.065055639838585949 -0.33415610690515329 0 0.055534862800359963 -0.34276790099605781 0 0.039253360822269108 -0.32381098016867738 0 0.036963537805066539 -0.34018228922881871 0 0.039253360822269108 -0.32381098016867738 0 0.027217085435151282 -0.33091318140430082 0 0.055534862800359963 -0.34276790099605781 0 0.036963537805066539 -0.34018228922881871 0 0.039253360822269108 -0.32381098016867738 0 0.039253360822269108 -0.32381098016867738 0 0.02822986862683494 -0.31097607899854551 0 0.039253360822269108 -0.32381098016867738 0 0.02822986862683494 -0.31097607899854551 0 0.038592914297734322 -0.31231765447678878 0 0.039253360822269108 -0.32381098016867738 0 0.038592914297734322 -0.31231765447678878 0 0.048337540962909743 -0.3111792759927498 0 0.060580674955052573 -0.37772309159070178 0 0.071816364778450589 -0.36172482182343851 0 0.043711837717836453 -0.3579470970488422 0 0.060580674955052573 -0.37772309159070178 0 0.043711837717836453 -0.3579470970488422 0 0.042627393310317903 -0.37490686590959632 0 0.071816364778450589 -0.36172482182343851 0 0.055534862800359963 -0.34276790099605781 0 0.043711837717836453 -0.3579470970488422 0 0.055534862800359963 -0.34276790099605781 0 0.036963537805066539 -0.34018228922881871 0 0.043711837717836453 -0.3579470970488422 0 0.036963537805066539 -0.34018228922881871 0 0.043711837717836453 -0.3579470970488422 0 0.021969015281283841 -0.3458800500726063 0 0.043711837717836453 -0.3579470970488422 0 0.042627393310317903 -0.37490686590959632 0 0.024522739582713719 -0.36358639765057188 0 0.01541932378543062 -0.38039074189951072 0 0.042627393310317903 -0.37490686590959632 0 0.024522739582713719 -0.36358639765057188 0 0.043711837717836453 -0.3579470970488422 0 0.024522739582713719 -0.36358639765057188 0 0.021969015281283841 -0.3458800500726063 0 0.024522739582713719 -0.36358639765057188 0 0.021969015281283841 -0.3458800500726063 0 0.0017546008502676231 -0.35921499686869551 0 0.021969015281283841 -0.3458800500726063 0 0.0017546008502676231 -0.35921499686869551 0 0.0062711073261811443 -0.34180278176557022 0 0.01541932378543062 -0.38039074189951072 0 0.024522739582713719 -0.36358639765057188 0 0.0017546008502676231 -0.35921499686869551 0 -0.0083876326739897138 -0.38025561398471153 0 0.01541932378543062 -0.38039074189951072 0 0.0017546008502676231 -0.35921499686869551 0 0.039253360822269108 -0.32381098016867738 0 0.022012902206610441 -0.31689861675840819 0 0.027217085435151282 -0.33091318140430082 0 0.039253360822269108 -0.32381098016867738 0 0.022012902206610441 -0.31689861675840819 0 0.02822986862683494 -0.31097607899854551 0 0.039253360822269108 -0.32381098016867738 0 0.022012902206610441 -0.31689861675840819 0 0.022012902206610441 -0.31689861675840819 0 0.027217085435151282 -0.33091318140430082 0 0.01343063240988676 -0.32783769076295138 0 0.022012902206610441 -0.31689861675840819 0 0.01343063240988676 -0.32783769076295138 0 0.01420284012268307 -0.31435394003469791 0 0.022012902206610441 -0.31689861675840819 0 0.01420284012268307 -0.31435394003469791 0 0.020467310215858309 -0.30854068776398819 0 0.021969015281283841 -0.3458800500726063 0 0.027217085435151282 -0.33091318140430082 0 0.01343063240988676 -0.32783769076295138 0 0.036963537805066539 -0.34018228922881871 0 0.021969015281283841 -0.3458800500726063 0 0.027217085435151282 -0.33091318140430082 0 0.021969015281283841 -0.3458800500726063 0 0.0062711073261811443 -0.34180278176557022 0 0.01343063240988676 -0.32783769076295138 0 -0.001501907781919306 -0.32997618914196097 0 0.0062711073261811443 -0.34180278176557022 0 0.01343063240988676 -0.32783769076295138 0 -0.001501907781919306 -0.32997618914196097 0 0.01343063240988676 -0.32783769076295138 0 0.0033270364102864318 -0.31596183121665189 0 0.01343063240988676 -0.32783769076295138 0 0.01420284012268307 -0.31435394003469791 0 0.0033270364102864318 -0.31596183121665189 0 -0.003644792104612295 -0.30332558072780258 0 0.01207142224787024 -0.3015415079045618 0 0.0028597103056559152 -0.29037927018753767 0 -0.003644792104612295 -0.30332558072780258 0 0.0033270364102864318 -0.31596183121665189 0 0.01207142224787024 -0.3015415079045618 0 0.01420284012268307 -0.31435394003469791 0 0.0033270364102864318 -0.31596183121665189 0 0.01207142224787024 -0.3015415079045618 0 0.01420284012268307 -0.31435394003469791 0 0.01207142224787024 -0.3015415079045618 0 0.020467310215858309 -0.30854068776398819 0 0.01207142224787024 -0.3015415079045618 0 0.0028597103056559152 -0.29037927018753767 0 0.016738176688794879 -0.2826596869019054 0 -0.0012543012808153319 -0.27439756423725131 0 0.0028597103056559152 -0.29037927018753767 0 0.016738176688794879 -0.2826596869019054 0 0.016738176688794879 -0.2826596869019054 0 0.02581951787529288 -0.29893329512372802 0 0.039784342315066813 -0.28724553212563259 0 0.01207142224787024 -0.3015415079045618 0 0.016738176688794879 -0.2826596869019054 0 0.02581951787529288 -0.29893329512372802 0 0.016738176688794879 -0.2826596869019054 0 0.039784342315066813 -0.28724553212563259 0 0.01207142224787024 -0.3015415079045618 0 0.020467310215858309 -0.30854068776398819 0 0.02581951787529288 -0.29893329512372802 0 0.02581951787529288 -0.29893329512372802 0 0.02822986862683494 -0.31097607899854551 0 0.038550886778923578 -0.30330428274718252 0 0.020467310215858309 -0.30854068776398819 0 0.02581951787529288 -0.29893329512372802 0 0.02822986862683494 -0.31097607899854551 0 0.022012902206610441 -0.31689861675840819 0 0.020467310215858309 -0.30854068776398819 0 0.02822986862683494 -0.31097607899854551 0 0.02822986862683494 -0.31097607899854551 0 0.038592914297734322 -0.31231765447678878 0 0.038550886778923578 -0.30330428274718252 0 0.038592914297734322 -0.31231765447678878 0 0.038550886778923578 -0.30330428274718252 0 0.048337540962909743 -0.3111792759927498 0 0.038550886778923578 -0.30330428274718252 0 0.048337540962909743 -0.3111792759927498 0 0.05127690502922462 -0.29972458582882577 0 0.038550886778923578 -0.30330428274718252 0 0.039784342315066813 -0.28724553212563259 0 0.05127690502922462 -0.29972458582882577 0 0.02581951787529288 -0.29893329512372802 0 0.038550886778923578 -0.30330428274718252 0 0.039784342315066813 -0.28724553212563259 0 0.062830507941338806 -0.29183137734935988 0 0.039784342315066813 -0.28724553212563259 0 0.05127690502922462 -0.29972458582882577 0 0.062830507941338806 -0.29183137734935988 0 0.039784342315066813 -0.28724553212563259 0 0.0546996460484796 -0.27249084816649632 0 0.062830507941338806 -0.29183137734935988 0 0.039784342315066813 -0.28724553212563259 0 0.067685132567603917 -0.30855583137596398 0 0.062830507941338806 -0.29183137734935988 0 0.05127690502922462 -0.29972458582882577 0 0.067685132567603917 -0.30855583137596398 0 0.048337540962909743 -0.3111792759927498 0 0.067685132567603917 -0.30855583137596398 0 0.048337540962909743 -0.3111792759927498 0 0.05127690502922462 -0.29972458582882577 0 0.066985562117626005 -0.25869814520560142 0 0.049730159514598207 -0.25210773781052942 0 0.0546996460484796 -0.27249084816649632 0 0.049730159514598207 -0.25210773781052942 0 0.0546996460484796 -0.27249084816649632 0 0.03944252151531983 -0.26541325232050939 0 0.066985562117626005 -0.25869814520560142 0 0.049730159514598207 -0.25210773781052942 0 0.060466664346332882 -0.2401025851250255 0 0.062830507941338806 -0.29183137734935988 0 0.068728063649034027 -0.2748291796107345 0 0.0546996460484796 -0.27249084816649632 0 0.039784342315066813 -0.28724553212563259 0 0.0546996460484796 -0.27249084816649632 0 0.03944252151531983 -0.26541325232050939 0 0.039784342315066813 -0.28724553212563259 0 0.03944252151531983 -0.26541325232050939 0 0.022666286846815448 -0.266609146265115 0 0.049730159514598207 -0.25210773781052942 0 0.03944252151531983 -0.26541325232050939 0 0.029071207718700458 -0.24839253687534391 0 0.03944252151531983 -0.26541325232050939 0 0.022666286846815448 -0.266609146265115 0 0.029071207718700458 -0.24839253687534391 0 0.022666286846815448 -0.266609146265115 0 0.004897229345786373 -0.25506191711222109 0 0.029071207718700458 -0.24839253687534391 0 0.016738176688794879 -0.2826596869019054 0 0.039784342315066813 -0.28724553212563259 0 0.022666286846815448 -0.266609146265115 0 -0.0012543012808153319 -0.27439756423725131 0 0.016738176688794879 -0.2826596869019054 0 0.022666286846815448 -0.266609146265115 0 -0.0012543012808153319 -0.27439756423725131 0 0.022666286846815448 -0.266609146265115 0 -0.0012543012808153319 -0.27439756423725131 0 0.022666286846815448 -0.266609146265115 0 0.004897229345786373 -0.25506191711222109 0 -0.01247735014896041 -0.24501502556364771 0 0.004897229345786373 -0.25506191711222109 0 0.0094824717876406221 -0.23622953251737161 0 0.004897229345786373 -0.25506191711222109 0 0.0094824717876406221 -0.23622953251737161 0 0.029071207718700458 -0.24839253687534391 0 -0.0061721193154433817 -0.22939129141800901 0 0.01185975032128125 -0.21553464690504109 0 -0.0061721193154433817 -0.22939129141800901 0 0.0094824717876406221 -0.23622953251737161 0 0.01185975032128125 -0.21553464690504109 0 0.0094824717876406221 -0.23622953251737161 0 0.031442293724241621 -0.22744403947109551 0 0.0094824717876406221 -0.23622953251737161 0 0.01185975032128125 -0.21553464690504109 0 0.031442293724241621 -0.22744403947109551 0 0.0094824717876406221 -0.23622953251737161 0 0.029071207718700458 -0.24839253687534391 0 0.031442293724241621 -0.22744403947109551 0 -0.001330278071214278 -0.18489008768358481 0 0.0047167531058395417 -0.2066094322974148 0 0.01560562552712139 -0.18382757317682019 0 0.0047167531058395417 -0.2066094322974148 0 0.01560562552712139 -0.18382757317682019 0 -0.0061721193154433817 -0.22939129141800901 0 0.0047167531058395417 -0.2066094322974148 0 0.01185975032128125 -0.21553464690504109 0 0.0047167531058395417 -0.2066094322974148 0 0.01185975032128125 -0.21553464690504109 0 0.02989161995800655 -0.2016780023920742 0 0.01185975032128125 -0.21553464690504109 0 0.02989161995800655 -0.2016780023920742 0 0.01185975032128125 -0.21553464690504109 0 0.02989161995800655 -0.2016780023920742 0 0.031442293724241621 -0.22744403947109551 0 0.02989161995800655 -0.2016780023920742 0 0.032729165919694443 -0.1780188164654874 0 0.01560562552712139 -0.18382757317682019 0 0.0047167531058395417 -0.2066094322974148 0 0.02989161995800655 -0.2016780023920742 0 0.01560562552712139 -0.18382757317682019 0 0.02989161995800655 -0.2016780023920742 0 0.047718862724190958 -0.20628645874378701 0 0.047923489594731847 -0.1878213578791072 0 0.02989161995800655 -0.2016780023920742 0 0.047923489594731847 -0.1878213578791072 0 0.02989161995800655 -0.2016780023920742 0 0.047923489594731847 -0.1878213578791072 0 0.032729165919694443 -0.1780188164654874 0 0.053402115660842631 -0.21865854642481941 0 0.047718862724190958 -0.20628645874378701 0 0.031442293724241621 -0.22744403947109551 0 0.02989161995800655 -0.2016780023920742 0 0.047718862724190958 -0.20628645874378701 0 0.031442293724241621 -0.22744403947109551 0 0.053402115660842631 -0.21865854642481941 0 0.062336607717086552 -0.207970453578673 0 0.047718862724190958 -0.20628645874378701 0 0.062336607717086552 -0.207970453578673 0 0.047718862724190958 -0.20628645874378701 0 0.061762796057331412 -0.19871675719543741 0 0.047923489594731847 -0.1878213578791072 0 0.061762796057331412 -0.19871675719543741 0 0.066348932265177227 -0.189873130535366 0 0.047718862724190958 -0.20628645874378701 0 0.047923489594731847 -0.1878213578791072 0 0.061762796057331412 -0.19871675719543741 0 0.049730159514598207 -0.25210773781052942 0 0.029071207718700458 -0.24839253687534391 0 0.044822488192943162 -0.2373410891413627 0 0.029071207718700458 -0.24839253687534391 0 0.044822488192943162 -0.2373410891413627 0 0.031442293724241621 -0.22744403947109551 0 0.053402115660842631 -0.21865854642481941 0 0.044822488192943162 -0.2373410891413627 0 0.031442293724241621 -0.22744403947109551 0 0.053402115660842631 -0.21865854642481941 0 0.031442293724241621 -0.22744403947109551 0 0.053402115660842631 -0.21865854642481941 0 0.044822488192943162 -0.2373410891413627 0 0.060466664346332882 -0.2401025851250255 0 0.053402115660842631 -0.21865854642481941 0 0.060466664346332882 -0.2401025851250255 0 0.067182975518198268 -0.23000577180600959 0 0.049730159514598207 -0.25210773781052942 0 0.044822488192943162 -0.2373410891413627 0 0.060466664346332882 -0.2401025851250255 0 0.060466664346332882 -0.2401025851250255 0 0.079661681970231046 -0.24526317687262841 0 0.067182975518198268 -0.23000577180600959 0 0.066985562117626005 -0.25869814520560142 0 0.060466664346332882 -0.2401025851250255 0 0.079661681970231046 -0.24526317687262841 0 0.079661681970231046 -0.24526317687262841 0 0.087181334354309706 -0.23137228721429709 0 0.096902655002079979 -0.24603352359989519 0 0.079661681970231046 -0.24526317687262841 0 0.087181334354309706 -0.23137228721429709 0 0.076554186171541166 -0.21968615402239861 0 0.086358738243979452 -0.22075950871681549 0 0.087181334354309706 -0.23137228721429709 0 0.094637947800314925 -0.21809695798537351 0 0.086358738243979452 -0.22075950871681549 0 0.087181334354309706 -0.23137228721429709 0 0.076554186171541166 -0.21968615402239861 0 0.079661681970231046 -0.24526317687262841 0 0.075615716477597489 -0.22528026605204171 0 0.067182975518198268 -0.23000577180600959 0 0.076554186171541166 -0.21968615402239861 0 0.075615716477597489 -0.22528026605204171 0 0.076554186171541166 -0.21968615402239861 0 0.075615716477597489 -0.22528026605204171 0 0.067316931666018806 -0.22065592871851961 0 0.079661681970231046 -0.24526317687262841 0 0.076554186171541166 -0.21968615402239861 0 0.075615716477597489 -0.22528026605204171 0 0.079661681970231046 -0.24526317687262841 0 0.076554186171541166 -0.21968615402239861 0 0.075615716477597489 -0.22528026605204171 0 0.067182975518198268 -0.23000577180600959 0 0.067316931666018806 -0.22065592871851961 0 0.053402115660842631 -0.21865854642481941 0 0.067182975518198268 -0.23000577180600959 0 0.067316931666018806 -0.22065592871851961 0 0.053402115660842631 -0.21865854642481941 0 0.062336607717086552 -0.207970453578673 0 0.075361937597442225 -0.20987305337853979 0 0.053402115660842631 -0.21865854642481941 0 0.075361937597442225 -0.20987305337853979 0 0.053402115660842631 -0.21865854642481941 0 0.067316931666018806 -0.22065592871851961 0 0.075361937597442225 -0.20987305337853979 0 0.062336607717086552 -0.207970453578673 0 0.061762796057331412 -0.19871675719543741 0 0.074625141110682067 -0.2038086652671367 0 0.062336607717086552 -0.207970453578673 0 0.074625141110682067 -0.2038086652671367 0 0.075361937597442225 -0.20987305337853979 0 0.074625141110682067 -0.2038086652671367 0 0.075361937597442225 -0.20987305337853979 0 0.074625141110682067 -0.2038086652671367 0 0.075361937597442225 -0.20987305337853979 0 0.078404649300949647 -0.20865575195460109 0 0.075361937597442225 -0.20987305337853979 0 0.078404649300949647 -0.20865575195460109 0 0.076554186171541166 -0.21968615402239861 0 0.078404649300949647 -0.20865575195460109 0 0.076554186171541166 -0.21968615402239861 0 0.067316931666018806 -0.22065592871851961 0 0.075361937597442225 -0.20987305337853979 0 0.076554186171541166 -0.21968615402239861 0 0.075361937597442225 -0.20987305337853979 0 0.078404649300949647 -0.20865575195460109 0 0.076554186171541166 -0.21968615402239861 0 0.075361937597442225 -0.20987305337853979 0 0.074625141110682067 -0.2038086652671367 0 0.081058538237883254 -0.19283621923741251 0 0.078404649300949647 -0.20865575195460109 0 0.061762796057331412 -0.19871675719543741 0 0.066348932265177227 -0.189873130535366 0 0.071623742932119885 -0.19654047716855461 0 0.061762796057331412 -0.19871675719543741 0 0.074625141110682067 -0.2038086652671367 0 0.071623742932119885 -0.19654047716855461 0 0.074625141110682067 -0.2038086652671367 0 0.071623742932119885 -0.19654047716855461 0 0.081058538237883254 -0.19283621923741251 0 0.066348932265177227 -0.189873130535366 0 0.071623742932119885 -0.19654047716855461 0 0.081058538237883254 -0.19283621923741251 0 0.081058538237883254 -0.19283621923741251 0 0.078404649300949647 -0.20865575195460109 0 0.081058538237883254 -0.19283621923741251 0 0.086631045528940909 -0.19979909798076631 0 0.078404649300949647 -0.20865575195460109 0 0.086631045528940909 -0.19979909798076631 0 0.078404649300949647 -0.20865575195460109 0 0.1018135568112017 -0.19929052145564621 0 0.081058538237883254 -0.19283621923741251 0 0.086631045528940909 -0.19979909798076631 0 0.081058538237883254 -0.19283621923741251 0 0.086631045528940909 -0.19979909798076631 0 0.093607140490772761 -0.1906518527190357 0 0.081058538237883254 -0.19283621923741251 0 0.093607140490772761 -0.1906518527190357 0 0.093930905477758592 -0.1797730735699182 0 0.078404649300949647 -0.20865575195460109 0 0.087061484649752191 -0.2138826356451928 0 0.1018135568112017 -0.19929052145564621 0 0.078404649300949647 -0.20865575195460109 0 0.1018135568112017 -0.19929052145564621 0 0.086358738243979452 -0.22075950871681549 0 0.076554186171541166 -0.21968615402239861 0 0.087061484649752191 -0.2138826356451928 0 0.076554186171541166 -0.21968615402239861 0 0.078404649300949647 -0.20865575195460109 0 0.087061484649752191 -0.2138826356451928 0 0.086358738243979452 -0.22075950871681549 0 0.087061484649752191 -0.2138826356451928 0 0.094637947800314925 -0.21809695798537351 0 0.094637947800314925 -0.21809695798537351 0 0.1061206344026598 -0.21301667040100569 0 0.1018135568112017 -0.19929052145564621 0 0.087061484649752191 -0.2138826356451928 0 0.094637947800314925 -0.21809695798537351 0 0.1018135568112017 -0.19929052145564621 0 0.093607140490772761 -0.1906518527190357 0 0.1018135568112017 -0.19929052145564621 0 0.1047859471071298 -0.18734316146944799 0 0.086631045528940909 -0.19979909798076631 0 0.093607140490772761 -0.1906518527190357 0 0.1018135568112017 -0.19929052145564621 0 0.1018135568112017 -0.19929052145564621 0 0.1206196248921263 -0.21235878088508681 0 0.12522246432145431 -0.18992529095669269 0 0.1018135568112017 -0.19929052145564621 0 0.12522246432145431 -0.18992529095669269 0 0.1018135568112017 -0.19929052145564621 0 0.1047859471071298 -0.18734316146944799 0 0.12522246432145431 -0.18992529095669269 0 0.1061206344026598 -0.21301667040100569 0 0.1206196248921263 -0.21235878088508681 0 0.1038416588951292 -0.2264711788453542 0 0.1061206344026598 -0.21301667040100569 0 0.1018135568112017 -0.19929052145564621 0 0.1206196248921263 -0.21235878088508681 0 0.1206196248921263 -0.21235878088508681 0 0.1183832189603576 -0.240215746231844 0 0.1038416588951292 -0.2264711788453542 0 0.087181334354309706 -0.23137228721429709 0 0.096902655002079979 -0.24603352359989519 0 0.1038416588951292 -0.2264711788453542 0 0.1183832189603576 -0.240215746231844 0 0.096902655002079979 -0.24603352359989519 0 0.1038416588951292 -0.2264711788453542 0 0.1088264754611096 -0.26160771100834213 0 0.1183832189603576 -0.240215746231844 0 0.096902655002079979 -0.24603352359989519 0 0.087181334354309706 -0.23137228721429709 0 0.094637947800314925 -0.21809695798537351 0 0.1038416588951292 -0.2264711788453542 0 0.094637947800314925 -0.21809695798537351 0 0.1061206344026598 -0.21301667040100569 0 0.1038416588951292 -0.2264711788453542 0 0.1008165918438232 -0.14556294276315171 0 0.11372177419785021 -0.14628233794885079 0 0.09502017792231171 -0.1565517304489665 0 0.1008165918438232 -0.14556294276315171 0 0.1073050834339191 -0.1391982968843444 0 0.11372177419785021 -0.14628233794885079 0 0.1008165918438232 -0.14556294276315171 0 0.098512671982009525 -0.13765631000279879 0 0.1073050834339191 -0.1391982968843444 0 0.1008165918438232 -0.14556294276315171 0 0.09502017792231171 -0.1565517304489665 0 0.088471916040870111 -0.1486459100397706 0 0.1008165918438232 -0.14556294276315171 0 0.098512671982009525 -0.13765631000279879 0 0.088471916040870111 -0.1486459100397706 0 0.098512671982009525 -0.13765631000279879 0 0.1037911636490714 -0.12832364488577769 0 0.092178604942363823 -0.12655075544094971 0 0.098512671982009525 -0.13765631000279879 0 0.1037911636490714 -0.12832364488577769 0 0.1073050834339191 -0.1391982968843444 0 0.1073050834339191 -0.1391982968843444 0 0.1211954973049322 -0.1357543225756985 0 0.11372177419785021 -0.14628233794885079 0 0.1037911636490714 -0.12832364488577769 0 0.1211954973049322 -0.1357543225756985 0 0.1159752234893537 -0.121345294747025 0 0.1037911636490714 -0.12832364488577769 0 0.1073050834339191 -0.1391982968843444 0 0.1211954973049322 -0.1357543225756985 0 0.1211954973049322 -0.1357543225756985 0 0.11372177419785021 -0.14628233794885079 0 0.13441109175201199 -0.1435144388820056 0 0.11372177419785021 -0.14628233794885079 0 0.1235822029301028 -0.1571122961389384 0 0.09502017792231171 -0.1565517304489665 0 0.11372177419785021 -0.14628233794885079 0 0.1235822029301028 -0.1571122961389384 0 0.13441109175201199 -0.1435144388820056 0 0.1235822029301028 -0.1571122961389384 0 0.1097899468618254 -0.16641958257268019 0 0.09502017792231171 -0.1565517304489665 0 0.1235822029301028 -0.1571122961389384 0 0.1097899468618254 -0.16641958257268019 0 0.1221080864316903 -0.17195629055185199 0 0.1097899468618254 -0.16641958257268019 0 0.1221080864316903 -0.17195629055185199 0 0.1093556684344618 -0.17707506864594719 0 0.1221080864316903 -0.17195629055185199 0 0.1093556684344618 -0.17707506864594719 0 0.12522246432145431 -0.18992529095669269 0 0.1047859471071298 -0.18734316146944799 0 0.1093556684344618 -0.17707506864594719 0 0.12522246432145431 -0.18992529095669269 0 0.1047859471071298 -0.18734316146944799 0 0.1093556684344618 -0.17707506864594719 0 0.093930905477758592 -0.1797730735699182 0 0.1093556684344618 -0.17707506864594719 0 0.093930905477758592 -0.1797730735699182 0 0.098883598590560409 -0.1694025270776971 0 0.093607140490772761 -0.1906518527190357 0 0.1047859471071298 -0.18734316146944799 0 0.093930905477758592 -0.1797730735699182 0 0.1235822029301028 -0.1571122961389384 0 0.09502017792231171 -0.1565517304489665 0 0.1097899468618254 -0.16641958257268019 0 0.1093556684344618 -0.17707506864594719 0 0.098883598590560409 -0.1694025270776971 0 0.1097899468618254 -0.16641958257268019 0 0.098883598590560409 -0.1694025270776971 0 0.09502017792231171 -0.1565517304489665 0 0.084765227139376412 -0.17074106463859151 0 0.079403158156002296 -0.15928620789178469 0 0.088471916040870111 -0.1486459100397706 0 0.084765227139376412 -0.17074106463859151 0 0.088471916040870111 -0.1486459100397706 0 0.09502017792231171 -0.1565517304489665 0 0.084765227139376412 -0.17074106463859151 0 0.088471916040870111 -0.1486459100397706 0 0.098883598590560409 -0.1694025270776971 0 0.09502017792231171 -0.1565517304489665 0 0.084765227139376412 -0.17074106463859151 0 0.084765227139376412 -0.17074106463859151 0 0.079403158156002296 -0.15928620789178469 0 0.073136908767306025 -0.1684460300029994 0 0.081058538237883254 -0.19283621923741251 0 0.084765227139376412 -0.17074106463859151 0 0.081058538237883254 -0.19283621923741251 0 0.093930905477758592 -0.1797730735699182 0 0.084765227139376412 -0.17074106463859151 0 0.081058538237883254 -0.19283621923741251 0 0.084765227139376412 -0.17074106463859151 0 0.0762290083440057 -0.17649700681128591 0 0.093930905477758592 -0.1797730735699182 0 0.098883598590560409 -0.1694025270776971 0 0.084765227139376412 -0.17074106463859151 0 0.081058538237883254 -0.19283621923741251 0 0.0762290083440057 -0.17649700681128591 0 0.065955359231457122 -0.17396471336614019 0 0.081058538237883254 -0.19283621923741251 0 0.065955359231457122 -0.17396471336614019 0 0.066348932265177227 -0.189873130535366 0 0.081058538237883254 -0.19283621923741251 0 0.065955359231457122 -0.17396471336614019 0 0.0762290083440057 -0.17649700681128591 0 0.065955359231457122 -0.17396471336614019 0 0.073136908767306025 -0.1684460300029994 0 0.084765227139376412 -0.17074106463859151 0 0.0762290083440057 -0.17649700681128591 0 0.073136908767306025 -0.1684460300029994 0 0.079403158156002296 -0.15928620789178469 0 0.073136908767306025 -0.1684460300029994 0 0.069073706304307772 -0.15919554427288071 0 0.065955359231457122 -0.17396471336614019 0 0.073136908767306025 -0.1684460300029994 0 0.069073706304307772 -0.15919554427288071 0 0.065955359231457122 -0.17396471336614019 0 0.073136908767306025 -0.1684460300029994 0 0.069073706304307772 -0.15919554427288071 0 0.065247678478610224 -0.14785183643095329 0 0.075972480733172046 -0.14856653302563119 0 0.065247678478610224 -0.14785183643095329 0 0.075972480733172046 -0.14856653302563119 0 0.066984768254825175 -0.1361992959228604 0 0.079403158156002296 -0.15928620789178469 0 0.069073706304307772 -0.15919554427288071 0 0.075972480733172046 -0.14856653302563119 0 0.079403158156002296 -0.15928620789178469 0 0.075972480733172046 -0.14856653302563119 0 0.088471916040870111 -0.1486459100397706 0 0.075972480733172046 -0.14856653302563119 0 0.088471916040870111 -0.1486459100397706 0 0.078720615848885692 -0.1356515345267244 0 0.088471916040870111 -0.1486459100397706 0 0.092178604942363823 -0.12655075544094971 0 0.088471916040870111 -0.1486459100397706 0 0.092178604942363823 -0.12655075544094971 0 0.078720615848885692 -0.1356515345267244 0 0.098512671982009525 -0.13765631000279879 0 0.088471916040870111 -0.1486459100397706 0 0.092178604942363823 -0.12655075544094971 0 0.092178604942363823 -0.12655075544094971 0 0.078720615848885692 -0.1356515345267244 0 0.079991474317992139 -0.12114049053517199 0 0.078720615848885692 -0.1356515345267244 0 0.079991474317992139 -0.12114049053517199 0 0.06904493616413987 -0.1228028725476679 0 0.078720615848885692 -0.1356515345267244 0 0.066984768254825175 -0.1361992959228604 0 0.06904493616413987 -0.1228028725476679 0 0.075972480733172046 -0.14856653302563119 0 0.078720615848885692 -0.1356515345267244 0 0.066984768254825175 -0.1361992959228604 0 0.066984768254825175 -0.1361992959228604 0 0.058500031509818251 -0.1249701061291999 0 0.06904493616413987 -0.1228028725476679 0 0.054422866794325023 -0.13735289287698579 0 0.058500031509818251 -0.1249701061291999 0 0.046621385793131777 -0.1189359431199401 0 0.066984768254825175 -0.1361992959228604 0 0.054422866794325023 -0.13735289287698579 0 0.058500031509818251 -0.1249701061291999 0 0.065247678478610224 -0.14785183643095329 0 0.066984768254825175 -0.1361992959228604 0 0.054422866794325023 -0.13735289287698579 0 0.069073706304307772 -0.15919554427288071 0 0.065247678478610224 -0.14785183643095329 0 0.051669364800570813 -0.1561142841508846 0 0.065247678478610224 -0.14785183643095329 0 0.054422866794325023 -0.13735289287698579 0 0.051669364800570813 -0.1561142841508846 0 0.054422866794325023 -0.13735289287698579 0 0.051669364800570813 -0.1561142841508846 0 0.037383370369683221 -0.1382638549356299 0 0.037383370369683221 -0.1382638549356299 0 0.02649449794840324 -0.1610457140562255 0 0.051669364800570813 -0.1561142841508846 0 0.037383370369683221 -0.1382638549356299 0 0.02649449794840324 -0.1610457140562255 0 0.051669364800570813 -0.1561142841508846 0 0.037383370369683221 -0.1382638549356299 0 0.03858212408806385 -0.13575580476515919 0 0.046621385793131777 -0.1189359431199401 0 0.036430020157684088 -0.12193826920255291 0 0.037383370369683221 -0.1382638549356299 0 0.032072571268525862 -0.13162798202595979 0 0.02454013304585451 -0.14309941394784281 0 0.03858212408806385 -0.13575580476515919 0 0.046621385793131777 -0.1189359431199401 0 0.054422866794325023 -0.13735289287698579 0 0.037383370369683221 -0.1382638549356299 0 0.03858212408806385 -0.13575580476515919 0 0.054422866794325023 -0.13735289287698579 0 0.03858212408806385 -0.13575580476515919 0 0.046621385793131777 -0.1189359431199401 0 0.037383370369683221 -0.1382638549356299 0 0.03858212408806385 -0.13575580476515919 0 0.037383370369683221 -0.1382638549356299 0 0.03858212408806385 -0.13575580476515919 0 0.032072571268525862 -0.13162798202595979 0 0.03858212408806385 -0.13575580476515919 0 0.032072571268525862 -0.13162798202595979 0 0.037383370369683221 -0.1382638549356299 0 0.032072571268525862 -0.13162798202595979 0 0.03858212408806385 -0.13575580476515919 0 0.032072571268525862 -0.13162798202595979 0 0.036430020157684088 -0.12193826920255291 0 0.032072571268525862 -0.13162798202595979 0 0.02602094934811967 -0.1240664468979521 0 0.036430020157684088 -0.12193826920255291 0 0.047923489594731847 -0.1878213578791072 0 0.051669364800570813 -0.1561142841508846 0 0.032729165919694443 -0.1780188164654874 0 0.047923489594731847 -0.1878213578791072 0 0.065955359231457122 -0.17396471336614019 0 0.051669364800570813 -0.1561142841508846 0 0.047923489594731847 -0.1878213578791072 0 0.066348932265177227 -0.189873130535366 0 0.065955359231457122 -0.17396471336614019 0 0.047923489594731847 -0.1878213578791072 0 0.065955359231457122 -0.17396471336614019 0 0.065955359231457122 -0.17396471336614019 0 0.051669364800570813 -0.1561142841508846 0 0.065955359231457122 -0.17396471336614019 0 0.069073706304307772 -0.15919554427288071 0 0.051669364800570813 -0.1561142841508846 0 0.051669364800570813 -0.1561142841508846 0 0.032729165919694443 -0.1780188164654874 0 0.02649449794840324 -0.1610457140562255 0 0.032729165919694443 -0.1780188164654874 0 0.02649449794840324 -0.1610457140562255 0 0.01560562552712139 -0.18382757317682019 0 0.02649449794840324 -0.1610457140562255 0 0.01560562552712139 -0.18382757317682019 0 -0.001892497474233291 -0.16332992046528971 0 0.02649449794840324 -0.1610457140562255 0 0.01560562552712139 -0.18382757317682019 0 -0.001892497474233291 -0.16332992046528971 0 0.02649449794840324 -0.1610457140562255 0 0.010503649078263771 -0.14582263007774041 0 -0.001892497474233291 -0.16332992046528971 0 -0.001330278071214278 -0.18489008768358481 0 0.01560562552712139 -0.18382757317682019 0 0.032072571268525862 -0.13162798202595979 0 0.016250793281275142 -0.1339382676634448 0 0.01219409656666836 -0.1188476922009556 0 0.032072571268525862 -0.13162798202595979 0 0.016250793281275142 -0.1339382676634448 0 0.02454013304585451 -0.14309941394784281 0 0.032072571268525862 -0.13162798202595979 0 0.01219409656666836 -0.1188476922009556 0 0.032072571268525862 -0.13162798202595979 0 0.02602094934811967 -0.1240664468979521 0 0.02649449794840324 -0.1610457140562255 0 0.02454013304585451 -0.14309941394784281 0 0.010503649078263771 -0.14582263007774041 0 0.037383370369683221 -0.1382638549356299 0 0.02649449794840324 -0.1610457140562255 0 0.02454013304585451 -0.14309941394784281 0 0.016250793281275142 -0.1339382676634448 0 0.02454013304585451 -0.14309941394784281 0 0.010503649078263771 -0.14582263007774041 0 -0.0074400666190326962 -0.14507421674357951 0 -0.001892497474233291 -0.16332992046528971 0 0.010503649078263771 -0.14582263007774041 0 -0.0074400666190326962 -0.14507421674357951 0 0.010503649078263771 -0.14582263007774041 0 0.0019435164470631961 -0.13029362006472539 0 0.016250793281275142 -0.1339382676634448 0 0.010503649078263771 -0.14582263007774041 0 0.0019435164470631961 -0.13029362006472539 0 0.016250793281275142 -0.1339382676634448 0 0.0019435164470631961 -0.13029362006472539 0 0.01219409656666836 -0.1188476922009556 0 -0.0076843781351893757 -0.10606740237595171 0 0.01219409656666836 -0.1188476922009556 0 -0.0076843781351893757 -0.10606740237595171 0 0.0019435164470631961 -0.13029362006472539 0 0.01219409656666836 -0.1188476922009556 0 0.01219409656666836 -0.1188476922009556 0 0.029463540242567129 -0.1143845601989521 0 0.02602094934811967 -0.1240664468979521 0 0.032072571268525862 -0.13162798202595979 0 0.01219409656666836 -0.1188476922009556 0 0.02602094934811967 -0.1240664468979521 0 0.01219409656666836 -0.1188476922009556 0 0.029463540242567129 -0.1143845601989521 0 0.024790879843886501 -0.10323229444764249 0 0.029463540242567129 -0.1143845601989521 0 0.02602094934811967 -0.1240664468979521 0 0.036430020157684088 -0.12193826920255291 0 0.024790879843886501 -0.10323229444764249 0 0.0084840851135539117 -0.096376839781666168 0 0.02149858169447456 -0.087076102128302635 0 0.029463540242567129 -0.1143845601989521 0 0.024790879843886501 -0.10323229444764249 0 0.039086667157835743 -0.1069326776075714 0 0.01219409656666836 -0.1188476922009556 0 0.024790879843886501 -0.10323229444764249 0 0.0084840851135539117 -0.096376839781666168 0 -0.0076843781351893757 -0.10606740237595171 0 0.01219409656666836 -0.1188476922009556 0 0.0084840851135539117 -0.096376839781666168 0 -0.0091166406272196483 -0.083338187847176518 0 0.0084840851135539117 -0.096376839781666168 0 0.01000415777735374 -0.076972213193890318 0 0.0084840851135539117 -0.096376839781666168 0 0.01000415777735374 -0.076972213193890318 0 0.02149858169447456 -0.087076102128302635 0 -0.00087353409189452013 -0.064965971100641742 0 0.01000415777735374 -0.076972213193890318 0 0.01459458243669297 -0.049973961086027231 0 -0.00087353409189452013 -0.064965971100641742 0 -0.0091166406272196483 -0.083338187847176518 0 0.01000415777735374 -0.076972213193890318 0 0.01000415777735374 -0.076972213193890318 0 0.027639701163981081 -0.069259871000318649 0 0.02149858169447456 -0.087076102128302635 0 0.01000415777735374 -0.076972213193890318 0 0.027639701163981081 -0.069259871000318649 0 0.01459458243669297 -0.049973961086027231 0 0.024790879843886501 -0.10323229444764249 0 0.02149858169447456 -0.087076102128302635 0 0.036574084573597537 -0.089539292217995642 0 0.027639701163981081 -0.069259871000318649 0 0.02149858169447456 -0.087076102128302635 0 0.036574084573597537 -0.089539292217995642 0 0.027639701163981081 -0.069259871000318649 0 0.036574084573597537 -0.089539292217995642 0 0.045322290538583047 -0.077058547660048812 0 0.036574084573597537 -0.089539292217995642 0 0.045322290538583047 -0.077058547660048812 0 0.055709064021058137 -0.087316080670459942 0 0.027639701163981081 -0.069259871000318649 0 0.045322290538583047 -0.077058547660048812 0 0.040338292940334031 -0.064693040371974431 0 0.045322290538583047 -0.077058547660048812 0 0.040338292940334031 -0.064693040371974431 0 0.050074094693778368 -0.068410080723183622 0 0.040338292940334031 -0.064693040371974431 0 0.050074094693778368 -0.068410080723183622 0 0.04855040240594214 -0.060077829079406127 0 0.050074094693778368 -0.068410080723183622 0 0.056674159972372233 -0.076500075084454541 0 0.057015584715389082 -0.065470184657010072 0 0.050074094693778368 -0.068410080723183622 0 0.057015584715389082 -0.065470184657010072 0 0.04855040240594214 -0.060077829079406127 0 0.045322290538583047 -0.077058547660048812 0 0.050074094693778368 -0.068410080723183622 0 0.056674159972372233 -0.076500075084454541 0 0.056674159972372233 -0.076500075084454541 0 0.06219915150374096 -0.072137018259904429 0 0.057015584715389082 -0.065470184657010072 0 0.056674159972372233 -0.076500075084454541 0 0.06219915150374096 -0.072137018259904429 0 0.063433848112690427 -0.078166935504584589 0 0.06219915150374096 -0.072137018259904429 0 0.057015584715389082 -0.065470184657010072 0 0.063077776987541162 -0.066795426338412386 0 0.036574084573597537 -0.089539292217995642 0 0.055709064021058137 -0.087316080670459942 0 0.063041130878849522 -0.1001412930610054 0 0.045322290538583047 -0.077058547660048812 0 0.056674159972372233 -0.076500075084454541 0 0.055709064021058137 -0.087316080670459942 0 0.056674159972372233 -0.076500075084454541 0 0.061819515736295842 -0.083479967631610308 0 0.055709064021058137 -0.087316080670459942 0 0.056674159972372233 -0.076500075084454541 0 0.061819515736295842 -0.083479967631610308 0 0.063433848112690427 -0.078166935504584589 0 0.055709064021058137 -0.087316080670459942 0 0.063041130878849522 -0.1001412930610054 0 0.064247897048849617 -0.093143176894810983 0 0.061819515736295842 -0.083479967631610308 0 0.061894527540525018 -0.088103409757755283 0 0.055709064021058137 -0.087316080670459942 0 0.061894527540525018 -0.088103409757755283 0 0.055709064021058137 -0.087316080670459942 0 0.064247897048849617 -0.093143176894810983 0 0.055859401216578397 -0.099608031304249431 0 0.046621385793131777 -0.1189359431199401 0 0.055859401216578397 -0.099608031304249431 0 0.046621385793131777 -0.1189359431199401 0 0.039086667157835743 -0.1069326776075714 0 0.055859401216578397 -0.099608031304249431 0 0.058472434387159523 -0.10788945432398681 0 0.046621385793131777 -0.1189359431199401 0 0.036574084573597537 -0.089539292217995642 0 0.063041130878849522 -0.1001412930610054 0 0.036574084573597537 -0.089539292217995642 0 0.055859401216578397 -0.099608031304249431 0 0.063041130878849522 -0.1001412930610054 0 0.055859401216578397 -0.099608031304249431 0 0.058472434387159523 -0.10788945432398681 0 0.063041130878849522 -0.1001412930610054 0 0.058472434387159523 -0.10788945432398681 0 0.06336381326210766 -0.1081643563535976 0 0.063041130878849522 -0.1001412930610054 0 0.058472434387159523 -0.10788945432398681 0 0.061436650331951871 -0.1146726817728953 0 0.046621385793131777 -0.1189359431199401 0 0.058472434387159523 -0.10788945432398681 0 0.061436650331951871 -0.1146726817728953 0 0.06336381326210766 -0.1081643563535976 0 0.061436650331951871 -0.1146726817728953 0 0.058500031509818251 -0.1249701061291999 0 0.046621385793131777 -0.1189359431199401 0 0.046621385793131777 -0.1189359431199401 0 0.036430020157684088 -0.12193826920255291 0 0.039086667157835743 -0.1069326776075714 0 0.029463540242567129 -0.1143845601989521 0 0.036430020157684088 -0.12193826920255291 0 0.039086667157835743 -0.1069326776075714 0 0.024790879843886501 -0.10323229444764249 0 0.036574084573597537 -0.089539292217995642 0 0.039086667157835743 -0.1069326776075714 0 0.036574084573597537 -0.089539292217995642 0 0.055859401216578397 -0.099608031304249431 0 0.039086667157835743 -0.1069326776075714 0 0.025507761129184681 -3.9325552008231917e-05 0 0.031045838154386319 -0.0073919041409104894 0 0.0244450883281748 -0.01227840712319141 0 0.025507761129184681 -3.9325552008231917e-05 0 0.031045838154386319 -0.0073919041409104894 0 0.036176359702050402 -0.0066230045818757993 0 0.0244450883281748 -0.01227840712319141 0 0.034934065475176163 -0.01883815823577429 0 0.031830927926396753 -0.011601401274349679 0 0.031045838154386319 -0.0073919041409104894 0 0.0244450883281748 -0.01227840712319141 0 0.031830927926396753 -0.011601401274349679 0 0.0244450883281748 -0.01227840712319141 0 0.01247724588809431 -0.0030350477518605781 0 0.01426169395701923 -0.018035860737501991 0 0.025507761129184681 -3.9325552008231917e-05 0 0.0244450883281748 -0.01227840712319141 0 0.01247724588809431 -0.0030350477518605781 0 0.01247724588809431 -0.0030350477518605781 0 0.0020533051244099 -0.0035640895905235922 0 0.0034903030010913871 -0.01370431260535356 0 0.01247724588809431 -0.0030350477518605781 0 0.0034903030010913871 -0.01370431260535356 0 0.01426169395701923 -0.018035860737501991 0 0.0034903030010913871 -0.01370431260535356 0 0.01426169395701923 -0.018035860737501991 0 0.0083248151089817569 -0.028439918966423759 0 -0.0047114028551372249 -0.023444793805012711 0 0.0034903030010913871 -0.01370431260535356 0 0.0083248151089817569 -0.028439918966423759 0 0.01426169395701923 -0.018035860737501991 0 0.0083248151089817569 -0.028439918966423759 0 0.023155487513232709 -0.025498139781200281 0 0.0083248151089817569 -0.028439918966423759 0 0.023155487513232709 -0.025498139781200281 0 0.022963622475887069 -0.03916611519248811 0 0.0244450883281748 -0.01227840712319141 0 0.01426169395701923 -0.018035860737501991 0 0.023155487513232709 -0.025498139781200281 0 0.0244450883281748 -0.01227840712319141 0 0.023155487513232709 -0.025498139781200281 0 0.034934065475176163 -0.01883815823577429 0 0.022963622475887069 -0.03916611519248811 0 0.01459458243669297 -0.049973961086027231 0 0.037280315002940552 -0.050947451932809383 0 0.023155487513232709 -0.025498139781200281 0 0.022963622475887069 -0.03916611519248811 0 0.035908128562418443 -0.032790182840048143 0 0.0083248151089817569 -0.028439918966423759 0 0.022963622475887069 -0.03916611519248811 0 0.0045013610606372146 -0.041874211663710817 0 0.022963622475887069 -0.03916611519248811 0 0.0045013610606372146 -0.041874211663710817 0 0.01459458243669297 -0.049973961086027231 0 -0.0067430223989054742 -0.037029472840029068 0 0.0083248151089817569 -0.028439918966423759 0 0.0045013610606372146 -0.041874211663710817 0 -0.0036713122119488239 -0.051505838307399077 0 0.0045013610606372146 -0.041874211663710817 0 0.01459458243669297 -0.049973961086027231 0 -0.0036713122119488239 -0.051505838307399077 0 -0.00087353409189452013 -0.064965971100641742 0 0.01459458243669297 -0.049973961086027231 0 0.01459458243669297 -0.049973961086027231 0 0.037280315002940552 -0.050947451932809383 0 0.027639701163981081 -0.069259871000318649 0 0.01459458243669297 -0.049973961086027231 0 0.037280315002940552 -0.050947451932809383 0 0.027639701163981081 -0.069259871000318649 0 0.040338292940334031 -0.064693040371974431 0 0.037280315002940552 -0.050947451932809383 0 0.040338292940334031 -0.064693040371974431 0 0.037280315002940552 -0.050947451932809383 0 0.04855040240594214 -0.060077829079406127 0 0.037280315002940552 -0.050947451932809383 0 0.059966047569188163 -0.051920942779592298 0 0.037280315002940552 -0.050947451932809383 0 0.04855040240594214 -0.060077829079406127 0 0.059966047569188163 -0.051920942779592298 0 0.037280315002940552 -0.050947451932809383 0 0.059966047569188163 -0.051920942779592298 0 0.053938105332153638 -0.038035720100293637 0 0.057015584715389082 -0.065470184657010072 0 0.04855040240594214 -0.060077829079406127 0 0.059966047569188163 -0.051920942779592298 0 0.057015584715389082 -0.065470184657010072 0 0.059966047569188163 -0.051920942779592298 0 0.063077776987541162 -0.066795426338412386 0 0.061834588562401621 -0.052001125667599929 0 0.059966047569188163 -0.051920942779592298 0 0.053938105332153638 -0.038035720100293637 0 0.061834588562401621 -0.052001125667599929 0 0.059966047569188163 -0.051920942779592298 0 0.053938105332153638 -0.038035720100293637 0 0.063187588571840245 -0.021677562193315032 0 0.070220720803839815 -0.038044176712252312 0 0.061834588562401621 -0.052001125667599929 0 0.053938105332153638 -0.038035720100293637 0 0.070220720803839815 -0.038044176712252312 0 0.061834588562401621 -0.052001125667599929 0 0.053938105332153638 -0.038035720100293637 0 0.059966047569188163 -0.051920942779592298 0 0.053938105332153638 -0.038035720100293637 0 0.037280315002940552 -0.050947451932809383 0 0.053938105332153638 -0.038035720100293637 0 0.035908128562418443 -0.032790182840048143 0 0.022963622475887069 -0.03916611519248811 0 0.037280315002940552 -0.050947451932809383 0 0.035908128562418443 -0.032790182840048143 0 0.053938105332153638 -0.038035720100293637 0 0.035908128562418443 -0.032790182840048143 0 0.046041622101905898 -0.024070314532987198 0 0.034934065475176163 -0.01883815823577429 0 0.046041622101905898 -0.024070314532987198 0 0.036176359702050402 -0.0066230045818757993 0 0.023155487513232709 -0.025498139781200281 0 0.035908128562418443 -0.032790182840048143 0 0.034934065475176163 -0.01883815823577429 0 0.035908128562418443 -0.032790182840048143 0 0.034934065475176163 -0.01883815823577429 0 0.046041622101905898 -0.024070314532987198 0 0.046041622101905898 -0.024070314532987198 0 0.051769816291431868 -0.01144185603028847 0 0.063187588571840245 -0.021677562193315032 0 0.053938105332153638 -0.038035720100293637 0 0.046041622101905898 -0.024070314532987198 0 0.063187588571840245 -0.021677562193315032 0 0.053938105332153638 -0.038035720100293637 0 0.046041622101905898 -0.024070314532987198 0 0.051769816291431868 -0.01144185603028847 0 0.059276928473780563 -0.0047535448490748601 0 0.063187588571840245 -0.021677562193315032 0 0.046041622101905898 -0.024070314532987198 0 0.051769816291431868 -0.01144185603028847 0 0.044420483403985737 -0.0085814742416501066 0 0.051769816291431868 -0.01144185603028847 0 0.059276928473780563 -0.0047535448490748601 0 0.04645430989909901 -1.613668335595649e-05 0 0.051769816291431868 -0.01144185603028847 0 0.04645430989909901 -1.613668335595649e-05 0 0.044420483403985737 -0.0085814742416501066 0 0.046041622101905898 -0.024070314532987198 0 0.044420483403985737 -0.0085814742416501066 0 0.036176359702050402 -0.0066230045818757993 0 0.041350579113596221 -0.0020444724256523839 0 0.044420483403985737 -0.0085814742416501066 0 0.036176359702050402 -0.0066230045818757993 0 0.046041622101905898 -0.024070314532987198 0 0.036176359702050402 -0.0066230045818757993 0 0.04645430989909901 -1.613668335595649e-05 0 0.041350579113596221 -0.0020444724256523839 0 0.044420483403985737 -0.0085814742416501066 0 0.034934065475176163 -0.01883815823577429 0 0.031830927926396753 -0.011601401274349679 0 0.036176359702050402 -0.0066230045818757993 0 0.031045838154386319 -0.0073919041409104894 0 0.031830927926396753 -0.011601401274349679 0 0.036176359702050402 -0.0066230045818757993 0 0.037709944493799719 0.0060407715107446431 0 0.041350579113596221 -0.0020444724256523839 0 0.036176359702050402 -0.0066230045818757993 0 0.086010307971740543 0.00071677050076128382 0 0.093557738085998682 -0.010501972018846509 0 0.076813693218161269 -0.0090328786886699087 0 0.093557738085998682 -0.010501972018846509 0 0.076813693218161269 -0.0090328786886699087 0 0.086042181227205333 -0.02391022404430929 0 0.072281768693336412 0.0060864293127131314 0 0.086010307971740543 0.00071677050076128382 0 0.076813693218161269 -0.0090328786886699087 0 0.072281768693336412 0.0060864293127131314 0 0.059276928473780563 -0.0047535448490748601 0 0.076813693218161269 -0.0090328786886699087 0 0.059276928473780563 -0.0047535448490748601 0 0.076813693218161269 -0.0090328786886699087 0 0.063187588571840245 -0.021677562193315032 0 0.063187588571840245 -0.021677562193315032 0 0.086042181227205333 -0.02391022404430929 0 0.070220720803839815 -0.038044176712252312 0 0.076813693218161269 -0.0090328786886699087 0 0.063187588571840245 -0.021677562193315032 0 0.086042181227205333 -0.02391022404430929 0 0.086042181227205333 -0.02391022404430929 0 0.08507902928741766 -0.040865278803032208 0 0.070220720803839815 -0.038044176712252312 0 0.08507902928741766 -0.040865278803032208 0 0.092926180080030854 -0.053335328989705409 0 0.098825680004796024 -0.03636843694024175 0 0.086042181227205333 -0.02391022404430929 0 0.08507902928741766 -0.040865278803032208 0 0.098825680004796024 -0.03636843694024175 0 0.08507902928741766 -0.040865278803032208 0 0.070220720803839815 -0.038044176712252312 0 0.077380384321216231 -0.052668227328652277 0 0.061834588562401621 -0.052001125667599929 0 0.071718829513996413 -0.059868971352410073 0 0.07240713878880202 -0.070699316683422039 0 0.059966047569188163 -0.051920942779592298 0 0.070345566730072695 -0.072681305941976193 0 0.061834588562401621 -0.052001125667599929 0 0.07240713878880202 -0.070699316683422039 0 0.061834588562401621 -0.052001125667599929 0 0.059966047569188163 -0.051920942779592298 0 0.070345566730072695 -0.072681305941976193 0 0.061834588562401621 -0.052001125667599929 0 0.077380384321216231 -0.052668227328652277 0 0.061834588562401621 -0.052001125667599929 0 0.070220720803839815 -0.038044176712252312 0 0.077380384321216231 -0.052668227328652277 0 0.061834588562401621 -0.052001125667599929 0 0.077380384321216231 -0.052668227328652277 0 0.071718829513996413 -0.059868971352410073 0 0.077380384321216231 -0.052668227328652277 0 0.071718829513996413 -0.059868971352410073 0 0.075804414916969209 -0.063376483325659413 0 0.077380384321216231 -0.052668227328652277 0 0.075804414916969209 -0.063376483325659413 0 0.082425099435246701 -0.063761028223287608 0 0.077380384321216231 -0.052668227328652277 0 0.092926180080030854 -0.053335328989705409 0 0.082425099435246701 -0.063761028223287608 0 0.077380384321216231 -0.052668227328652277 0 0.092926180080030854 -0.053335328989705409 0 0.08507902928741766 -0.040865278803032208 0 0.077380384321216231 -0.052668227328652277 0 0.092926180080030854 -0.053335328989705409 0 0.092926180080030854 -0.053335328989705409 0 0.082425099435246701 -0.063761028223287608 0 0.092500075313219285 -0.06721416924900718 0 0.092926180080030854 -0.053335328989705409 0 0.10571772759604429 -0.061723185370914188 0 0.092500075313219285 -0.06721416924900718 0 0.092926180080030854 -0.053335328989705409 0 0.10583741565674711 -0.048048590612641898 0 0.10571772759604429 -0.061723185370914188 0 0.10571772759604429 -0.061723185370914188 0 0.11715802303004071 -0.05163044021515191 0 0.12043044916632149 -0.06573806300681749 0 0.11715802303004071 -0.05163044021515191 0 0.12043044916632149 -0.06573806300681749 0 0.13237159819940941 -0.048875022492876632 0 0.10583741565674711 -0.048048590612641898 0 0.10571772759604429 -0.061723185370914188 0 0.11715802303004071 -0.05163044021515191 0 0.10583741565674711 -0.048048590612641898 0 0.11715802303004071 -0.05163044021515191 0 0.11677180367102449 -0.037153402249599107 0 0.11715802303004071 -0.05163044021515191 0 0.11677180367102449 -0.037153402249599107 0 0.13237159819940941 -0.048875022492876632 0 0.10583741565674711 -0.048048590612641898 0 0.11677180367102449 -0.037153402249599107 0 0.098825680004796024 -0.03636843694024175 0 0.092926180080030854 -0.053335328989705409 0 0.10583741565674711 -0.048048590612641898 0 0.098825680004796024 -0.03636843694024175 0 0.093557738085998682 -0.010501972018846509 0 0.086042181227205333 -0.02391022404430929 0 0.10767325099935721 -0.01710172559018807 0 0.11677180367102449 -0.037153402249599107 0 0.098825680004796024 -0.03636843694024175 0 0.10767325099935721 -0.01710172559018807 0 0.086042181227205333 -0.02391022404430929 0 0.098825680004796024 -0.03636843694024175 0 0.10767325099935721 -0.01710172559018807 0 0.11677180367102449 -0.037153402249599107 0 0.12761982789154261 -0.020646173749350551 0 0.13036850388104371 -0.034191324019290863 0 0.11677180367102449 -0.037153402249599107 0 0.10767325099935721 -0.01710172559018807 0 0.12761982789154261 -0.020646173749350551 0 0.10352184061992439 0.0057450324166591158 0 0.10767325099935721 -0.01710172559018807 0 0.1254404225205851 -0.00079170880474917042 0 0.10767325099935721 -0.01710172559018807 0 0.1254404225205851 -0.00079170880474917042 0 0.12761982789154261 -0.020646173749350551 0 0.10352184061992439 0.0057450324166591158 0 0.093557738085998682 -0.010501972018846509 0 0.10767325099935721 -0.01710172559018807 0 0.086010307971740543 0.00071677050076128382 0 0.10352184061992439 0.0057450324166591158 0 0.093557738085998682 -0.010501972018846509 0 0.088016165324428089 -0.095902137377613744 0 0.089508177184101645 -0.1107432939040152 0 0.065152710547966911 -0.097446388317207505 0 0.088016165324428089 -0.095902137377613744 0 0.089508177184101645 -0.1107432939040152 0 0.101122203955459 -0.1013007388556528 0 0.089508177184101645 -0.1107432939040152 0 0.079991474317992139 -0.12114049053517199 0 0.070505037450469737 -0.10995399625650309 0 0.092178604942363823 -0.12655075544094971 0 0.089508177184101645 -0.1107432939040152 0 0.079991474317992139 -0.12114049053517199 0 0.079991474317992139 -0.12114049053517199 0 0.070505037450469737 -0.10995399625650309 0 0.06904493616413987 -0.1228028725476679 0 0.061436650331951871 -0.1146726817728953 0 0.058500031509818251 -0.1249701061291999 0 0.06904493616413987 -0.1228028725476679 0 0.061436650331951871 -0.1146726817728953 0 0.070505037450469737 -0.10995399625650309 0 0.06336381326210766 -0.1081643563535976 0 0.061436650331951871 -0.1146726817728953 0 0.070505037450469737 -0.10995399625650309 0 0.06904493616413987 -0.1228028725476679 0 0.088016165324428089 -0.095902137377613744 0 0.065152710547966911 -0.097446388317207505 0 0.073105947779944613 -0.093415974925987522 0 0.088016165324428089 -0.095902137377613744 0 0.065152710547966911 -0.097446388317207505 0 0.089508177184101645 -0.1107432939040152 0 0.063041130878849522 -0.1001412930610054 0 0.089508177184101645 -0.1107432939040152 0 0.070505037450469737 -0.10995399625650309 0 0.063041130878849522 -0.1001412930610054 0 0.089508177184101645 -0.1107432939040152 0 0.063041130878849522 -0.1001412930610054 0 0.065152710547966911 -0.097446388317207505 0 0.070505037450469737 -0.10995399625650309 0 0.06336381326210766 -0.1081643563535976 0 0.063041130878849522 -0.1001412930610054 0 0.067736821751054749 -0.093955851040037633 0 0.065152710547966911 -0.097446388317207505 0 0.073105947779944613 -0.093415974925987522 0 0.067736821751054749 -0.093955851040037633 0 0.065152710547966911 -0.097446388317207505 0 0.064247897048849617 -0.093143176894810983 0 0.063041130878849522 -0.1001412930610054 0 0.065152710547966911 -0.097446388317207505 0 0.064247897048849617 -0.093143176894810983 0 0.07240713878880202 -0.070699316683422039 0 0.082979689015202765 -0.089397507699243942 0 0.073809033481456995 -0.077861974809928985 0 0.07240713878880202 -0.070699316683422039 0 0.082979689015202765 -0.089397507699243942 0 0.064247897048849617 -0.093143176894810983 0 0.068440731627457882 -0.091817864022144507 0 0.066391132837479647 -0.087904733605014551 0 0.067736821751054749 -0.093955851040037633 0 0.064247897048849617 -0.093143176894810983 0 0.068440731627457882 -0.091817864022144507 0 0.067736821751054749 -0.093955851040037633 0 0.068440731627457882 -0.091817864022144507 0 0.073105947779944613 -0.093415974925987522 0 0.068440731627457882 -0.091817864022144507 0 0.066391132837479647 -0.087904733605014551 0 0.071852202947666421 -0.089477655729674088 0 0.066391132837479647 -0.087904733605014551 0 0.070558485452269032 -0.085652923868599642 0 0.071852202947666421 -0.089477655729674088 0 0.061894527540525018 -0.088103409757755283 0 0.064247897048849617 -0.093143176894810983 0 0.066391132837479647 -0.087904733605014551 0 0.061819515736295842 -0.083479967631610308 0 0.061894527540525018 -0.088103409757755283 0 0.066391132837479647 -0.087904733605014551 0 0.061819515736295842 -0.083479967631610308 0 0.066391132837479647 -0.087904733605014551 0 0.066814361933649605 -0.08288857116739301 0 0.061819515736295842 -0.083479967631610308 0 0.063433848112690427 -0.078166935504584589 0 0.066814361933649605 -0.08288857116739301 0 0.063433848112690427 -0.078166935504584589 0 0.069083214156523201 -0.079197059031910919 0 0.066814361933649605 -0.08288857116739301 0 0.069083214156523201 -0.079197059031910919 0 0.066814361933649605 -0.08288857116739301 0 0.069992510294224042 -0.082847360859522906 0 0.066391132837479647 -0.087904733605014551 0 0.066814361933649605 -0.08288857116739301 0 0.070558485452269032 -0.085652923868599642 0 0.066814361933649605 -0.08288857116739301 0 0.069992510294224042 -0.082847360859522906 0 0.070558485452269032 -0.085652923868599642 0 0.073538622833168144 -0.080613557711478684 0 0.073809033481456995 -0.077861974809928985 0 0.082979689015202765 -0.089397507699243942 0 0.073513979634454357 -0.083650889370188025 0 0.073538622833168144 -0.080613557711478684 0 0.082979689015202765 -0.089397507699243942 0 0.069992510294224042 -0.082847360859522906 0 0.070558485452269032 -0.085652923868599642 0 0.073513979634454357 -0.083650889370188025 0 0.070558485452269032 -0.085652923868599642 0 0.073513979634454357 -0.083650889370188025 0 0.075384775945230922 -0.087456089656129235 0 0.069083214156523201 -0.079197059031910919 0 0.069992510294224042 -0.082847360859522906 0 0.073513979634454357 -0.083650889370188025 0 0.069083214156523201 -0.079197059031910919 0 0.073513979634454357 -0.083650889370188025 0 0.073538622833168144 -0.080613557711478684 0 0.069083214156523201 -0.079197059031910919 0 0.073538622833168144 -0.080613557711478684 0 0.069774150040039354 -0.075918186013524028 0 0.073538622833168144 -0.080613557711478684 0 0.069774150040039354 -0.075918186013524028 0 0.073809033481456995 -0.077861974809928985 0 0.073513979634454357 -0.083650889370188025 0 0.075384775945230922 -0.087456089656129235 0 0.082979689015202765 -0.089397507699243942 0 0.075384775945230922 -0.087456089656129235 0 0.078097895487386798 -0.091056542525974338 0 0.071852202947666421 -0.089477655729674088 0 0.078097895487386798 -0.091056542525974338 0 0.073105947779944613 -0.093415974925987522 0 0.071852202947666421 -0.089477655729674088 0 0.068440731627457882 -0.091817864022144507 0 0.073105947779944613 -0.093415974925987522 0 0.071852202947666421 -0.089477655729674088 0 0.070558485452269032 -0.085652923868599642 0 0.075384775945230922 -0.087456089656129235 0 0.071852202947666421 -0.089477655729674088 0 0.061834588562401621 -0.052001125667599929 0 0.07240713878880202 -0.070699316683422039 0 0.070345566730072695 -0.072681305941976193 0 0.059966047569188163 -0.051920942779592298 0 0.063077776987541162 -0.066795426338412386 0 0.070345566730072695 -0.072681305941976193 0 0.06219915150374096 -0.072137018259904429 0 0.063077776987541162 -0.066795426338412386 0 0.065862534419315222 -0.071767680053578822 0 0.065862534419315222 -0.071767680053578822 0 0.066419441598094681 -0.075228180435433528 0 0.070345566730072695 -0.072681305941976193 0 0.063077776987541162 -0.066795426338412386 0 0.065862534419315222 -0.071767680053578822 0 0.070345566730072695 -0.072681305941976193 0 0.06219915150374096 -0.072137018259904429 0 0.065862534419315222 -0.071767680053578822 0 0.066419441598094681 -0.075228180435433528 0 0.06219915150374096 -0.072137018259904429 0 0.063433848112690427 -0.078166935504584589 0 0.066419441598094681 -0.075228180435433528 0 0.063433848112690427 -0.078166935504584589 0 0.069083214156523201 -0.079197059031910919 0 0.066419441598094681 -0.075228180435433528 0 0.066419441598094681 -0.075228180435433528 0 0.069774150040039354 -0.075918186013524028 0 0.070345566730072695 -0.072681305941976193 0 0.069083214156523201 -0.079197059031910919 0 0.066419441598094681 -0.075228180435433528 0 0.069774150040039354 -0.075918186013524028 0 0.069774150040039354 -0.075918186013524028 0 0.073809033481456995 -0.077861974809928985 0 0.070345566730072695 -0.072681305941976193 0 0.077542228536589819 -0.071881533520831348 0 0.07240713878880202 -0.070699316683422039 0 0.077163518322079933 -0.06835874032557554 0 0.077542228536589819 -0.071881533520831348 0 0.07240713878880202 -0.070699316683422039 0 0.079601640599454265 -0.077238047549389122 0 0.073809033481456995 -0.077861974809928985 0 0.07240713878880202 -0.070699316683422039 0 0.070345566730072695 -0.072681305941976193 0 0.071718829513996413 -0.059868971352410073 0 0.07240713878880202 -0.070699316683422039 0 0.075804414916969209 -0.063376483325659413 0 0.07240713878880202 -0.070699316683422039 0 0.077163518322079933 -0.06835874032557554 0 0.075804414916969209 -0.063376483325659413 0 0.077163518322079933 -0.06835874032557554 0 0.075804414916969209 -0.063376483325659413 0 0.082425099435246701 -0.063761028223287608 0 0.077163518322079933 -0.06835874032557554 0 0.082425099435246701 -0.063761028223287608 0 0.080996616436023086 -0.071230029524938704 0 0.082425099435246701 -0.063761028223287608 0 0.080996616436023086 -0.071230029524938704 0 0.086736416158838328 -0.070806403915341834 0 0.080996616436023086 -0.071230029524938704 0 0.085546444259255283 -0.076310136409100338 0 0.086736416158838328 -0.070806403915341834 0 0.077542228536589819 -0.071881533520831348 0 0.080996616436023086 -0.071230029524938704 0 0.079601640599454265 -0.077238047549389122 0 0.077542228536589819 -0.071881533520831348 0 0.077163518322079933 -0.06835874032557554 0 0.080996616436023086 -0.071230029524938704 0 0.080996616436023086 -0.071230029524938704 0 0.079601640599454265 -0.077238047549389122 0 0.085546444259255283 -0.076310136409100338 0 0.092213845350447299 -0.075516656170375257 0 0.086736416158838328 -0.070806403915341834 0 0.092500075313219285 -0.06721416924900718 0 0.085546444259255283 -0.076310136409100338 0 0.092213845350447299 -0.075516656170375257 0 0.086736416158838328 -0.070806403915341834 0 0.082425099435246701 -0.063761028223287608 0 0.086736416158838328 -0.070806403915341834 0 0.092500075313219285 -0.06721416924900718 0 0.07240713878880202 -0.070699316683422039 0 0.079601640599454265 -0.077238047549389122 0 0.082979689015202765 -0.089397507699243942 0 0.088016165324428089 -0.095902137377613744 0 0.078097895487386798 -0.091056542525974338 0 0.082979689015202765 -0.089397507699243942 0 0.088016165324428089 -0.095902137377613744 0 0.078097895487386798 -0.091056542525974338 0 0.073105947779944613 -0.093415974925987522 0 0.075384775945230922 -0.087456089656129235 0 0.078097895487386798 -0.091056542525974338 0 0.082979689015202765 -0.089397507699243942 0 0.079601640599454265 -0.077238047549389122 0 0.082979689015202765 -0.089397507699243942 0 0.084679870568027726 -0.081657988827484637 0 0.079601640599454265 -0.077238047549389122 0 0.085546444259255283 -0.076310136409100338 0 0.084679870568027726 -0.081657988827484637 0 0.092213845350447299 -0.075516656170375257 0 0.090591708398198634 -0.083686263652205162 0 0.097299426741187314 -0.081120650897104227 0 0.082979689015202765 -0.089397507699243942 0 0.084679870568027726 -0.081657988827484637 0 0.090591708398198634 -0.083686263652205162 0 0.085546444259255283 -0.076310136409100338 0 0.092213845350447299 -0.075516656170375257 0 0.090591708398198634 -0.083686263652205162 0 0.085546444259255283 -0.076310136409100338 0 0.084679870568027726 -0.081657988827484637 0 0.090591708398198634 -0.083686263652205162 0 0.088016165324428089 -0.095902137377613744 0 0.090141558349516288 -0.089292209777439457 0 0.09897867066023569 -0.088182930380694996 0 0.090591708398198634 -0.083686263652205162 0 0.090141558349516288 -0.089292209777439457 0 0.09897867066023569 -0.088182930380694996 0 0.082979689015202765 -0.089397507699243942 0 0.090591708398198634 -0.083686263652205162 0 0.090141558349516288 -0.089292209777439457 0 0.088016165324428089 -0.095902137377613744 0 0.082979689015202765 -0.089397507699243942 0 0.090141558349516288 -0.089292209777439457 0 0.088016165324428089 -0.095902137377613744 0 0.09897867066023569 -0.088182930380694996 0 0.1108796201008893 -0.094357886438020011 0 0.090591708398198634 -0.083686263652205162 0 0.09897867066023569 -0.088182930380694996 0 0.097299426741187314 -0.081120650897104227 0 0.097299426741187314 -0.081120650897104227 0 0.1028319193052918 -0.082824927784197241 0 0.10165700526400789 -0.07484849811356023 0 0.09897867066023569 -0.088182930380694996 0 0.097299426741187314 -0.081120650897104227 0 0.1028319193052918 -0.082824927784197241 0 0.1028319193052918 -0.082824927784197241 0 0.10165700526400789 -0.07484849811356023 0 0.1095213702472544 -0.082419845676399789 0 0.1028319193052918 -0.082824927784197241 0 0.1067031236137736 -0.087552713853226938 0 0.1095213702472544 -0.082419845676399789 0 0.1067031236137736 -0.087552713853226938 0 0.1109847496579279 -0.089037278803489273 0 0.1095213702472544 -0.082419845676399789 0 0.09897867066023569 -0.088182930380694996 0 0.1067031236137736 -0.087552713853226938 0 0.1108796201008893 -0.094357886438020011 0 0.09897867066023569 -0.088182930380694996 0 0.1028319193052918 -0.082824927784197241 0 0.1067031236137736 -0.087552713853226938 0 0.10571772759604429 -0.061723185370914188 0 0.092500075313219285 -0.06721416924900718 0 0.10165700526400789 -0.07484849811356023 0 0.092213845350447299 -0.075516656170375257 0 0.097299426741187314 -0.081120650897104227 0 0.10165700526400789 -0.07484849811356023 0 0.092213845350447299 -0.075516656170375257 0 0.092500075313219285 -0.06721416924900718 0 0.10165700526400789 -0.07484849811356023 0 0.10165700526400789 -0.07484849811356023 0 0.11062111271104309 -0.0712311277607168 0 0.1095213702472544 -0.082419845676399789 0 0.10571772759604429 -0.061723185370914188 0 0.10165700526400789 -0.07484849811356023 0 0.11062111271104309 -0.0712311277607168 0 0.10571772759604429 -0.061723185370914188 0 0.11062111271104309 -0.0712311277607168 0 0.12043044916632149 -0.06573806300681749 0 0.11062111271104309 -0.0712311277607168 0 0.11780404908591011 -0.077354117464549302 0 0.12043044916632149 -0.06573806300681749 0 0.11062111271104309 -0.0712311277607168 0 0.11780404908591011 -0.077354117464549302 0 0.1095213702472544 -0.082419845676399789 0 0.11780404908591011 -0.077354117464549302 0 0.12043044916632149 -0.06573806300681749 0 0.1274704349097962 -0.074934028053341886 0 0.1108796201008893 -0.094357886438020011 0 0.13374307487735049 -0.092813635498426264 0 0.1229128100332109 -0.088080118356571452 0 0.1108796201008893 -0.094357886438020011 0 0.13374307487735049 -0.092813635498426264 0 0.1157516284505572 -0.087309370591916638 0 0.1229128100332109 -0.088080118356571452 0 0.1108796201008893 -0.094357886438020011 0 0.1157516284505572 -0.087309370591916638 0 0.1109847496579279 -0.089037278803489273 0 0.1108796201008893 -0.094357886438020011 0 0.1067031236137736 -0.087552713853226938 0 0.1109847496579279 -0.089037278803489273 0 0.1108796201008893 -0.094357886438020011 0 0.1157516284505572 -0.087309370591916638 0 0.1109847496579279 -0.089037278803489273 0 0.1095213702472544 -0.082419845676399789 0 0.11780404908591011 -0.077354117464549302 0 0.1157516284505572 -0.087309370591916638 0 0.1095213702472544 -0.082419845676399789 0 0.11780404908591011 -0.077354117464549302 0 0.1157516284505572 -0.087309370591916638 0 0.12302929903048861 -0.082492269698103263 0 0.11780404908591011 -0.077354117464549302 0 0.12302929903048861 -0.082492269698103263 0 0.1274704349097962 -0.074934028053341886 0 0.1157516284505572 -0.087309370591916638 0 0.12302929903048861 -0.082492269698103263 0 0.1229128100332109 -0.088080118356571452 0 0.116035566523048 -0.095729603308066111 0 0.1108796201008893 -0.094357886438020011 0 0.13374307487735049 -0.092813635498426264 0 0.1190050916624253 -0.10511717815396961 0 0.116035566523048 -0.095729603308066111 0 0.12895086764493119 -0.10549401056783091 0 0.1190050916624253 -0.10511717815396961 0 0.1106477075093394 -0.1056054146804967 0 0.1121842814120232 -0.099829811209454777 0 0.1106477075093394 -0.1056054146804967 0 0.1121842814120232 -0.099829811209454777 0 0.1087084532444277 -0.1002734627959061 0 0.1190050916624253 -0.10511717815396961 0 0.116035566523048 -0.095729603308066111 0 0.1121842814120232 -0.099829811209454777 0 0.1121842814120232 -0.099829811209454777 0 0.1108796201008893 -0.094357886438020011 0 0.1087084532444277 -0.1002734627959061 0 0.116035566523048 -0.095729603308066111 0 0.1121842814120232 -0.099829811209454777 0 0.1108796201008893 -0.094357886438020011 0 0.089508177184101645 -0.1107432939040152 0 0.1106477075093394 -0.1056054146804967 0 0.101122203955459 -0.1013007388556528 0 0.088016165324428089 -0.095902137377613744 0 0.1108796201008893 -0.094357886438020011 0 0.1108796201008893 -0.094357886438020011 0 0.1087084532444277 -0.1002734627959061 0 0.101122203955459 -0.1013007388556528 0 0.088016165324428089 -0.095902137377613744 0 0.1108796201008893 -0.094357886438020011 0 0.101122203955459 -0.1013007388556528 0 0.1106477075093394 -0.1056054146804967 0 0.1087084532444277 -0.1002734627959061 0 0.101122203955459 -0.1013007388556528 0 0.1037911636490714 -0.12832364488577769 0 0.092178604942363823 -0.12655075544094971 0 0.089508177184101645 -0.1107432939040152 0 0.1037911636490714 -0.12832364488577769 0 0.089508177184101645 -0.1107432939040152 0 0.1159752234893537 -0.121345294747025 0 0.089508177184101645 -0.1107432939040152 0 0.1106477075093394 -0.1056054146804967 0 0.1159752234893537 -0.121345294747025 0 0.089508177184101645 -0.1107432939040152 0 0.1159752234893537 -0.121345294747025 0 0.1190050916624253 -0.10511717815396961 0 0.1106477075093394 -0.1056054146804967 0 0.1159752234893537 -0.121345294747025 0 0.1190050916624253 -0.10511717815396961 0 0.1159752234893537 -0.121345294747025 0 0.12895086764493119 -0.10549401056783091 0 0.1159752234893537 -0.121345294747025 0 0.1338933617791514 -0.1185748764965863 0 0.14244226979460589 -0.13194729559003479 0 0.1482050861877148 -0.1155129050814544 0 0.12895086764493119 -0.10549401056783091 0 0.1159752234893537 -0.121345294747025 0 0.1338933617791514 -0.1185748764965863 0 0.12895086764493119 -0.10549401056783091 0 0.1338933617791514 -0.1185748764965863 0 0.1482050861877148 -0.1155129050814544 0 0.12895086764493119 -0.10549401056783091 0 0.1338933617791514 -0.1185748764965863 0 0.1482050861877148 -0.1155129050814544 0 0.14244226979460589 -0.13194729559003479 0 0.1482050861877148 -0.1155129050814544 0 0.15462107935201391 -0.1056839279923823 0 0.1602616214296633 -0.1110239201573659 0 0.15534996612432489 -0.099247288534615896 0 0.14230411060593781 -0.093813256267489695 0 0.16857265468882751 -0.091896909226913265 0 0.15534996612432489 -0.099247288534615896 0 0.15462107935201391 -0.1056839279923823 0 0.1475736577885155 -0.1032012252775051 0 0.1482050861877148 -0.1155129050814544 0 0.15462107935201391 -0.1056839279923823 0 0.1475736577885155 -0.1032012252775051 0 0.1482050861877148 -0.1155129050814544 0 0.1475736577885155 -0.1032012252775051 0 0.13731377468622749 -0.1020939050212044 0 0.1475736577885155 -0.1032012252775051 0 0.14230411060593781 -0.093813256267489695 0 0.13731377468622749 -0.1020939050212044 0 0.15534996612432489 -0.099247288534615896 0 0.1475736577885155 -0.1032012252775051 0 0.14230411060593781 -0.093813256267489695 0 0.116035566523048 -0.095729603308066111 0 0.14230411060593781 -0.093813256267489695 0 0.116035566523048 -0.095729603308066111 0 0.13731377468622749 -0.1020939050212044 0 0.12895086764493119 -0.10549401056783091 0 0.1482050861877148 -0.1155129050814544 0 0.13731377468622749 -0.1020939050212044 0 0.12895086764493119 -0.10549401056783091 0 0.116035566523048 -0.095729603308066111 0 0.14230411060593781 -0.093813256267489695 0 0.13374307487735049 -0.092813635498426264 0 0.116035566523048 -0.095729603308066111 0 0.14230411060593781 -0.093813256267489695 0 0.13731377468622749 -0.1020939050212044 0 0.1229128100332109 -0.088080118356571452 0 0.13116042770676881 -0.083427429556391139 0 0.13374307487735049 -0.092813635498426264 0 0.13116042770676881 -0.083427429556391139 0 0.1274704349097962 -0.074934028053341886 0 0.1383038510924271 -0.076650433113048616 0 0.12302929903048861 -0.082492269698103263 0 0.13116042770676881 -0.083427429556391139 0 0.1274704349097962 -0.074934028053341886 0 0.12302929903048861 -0.082492269698103263 0 0.1229128100332109 -0.088080118356571452 0 0.13116042770676881 -0.083427429556391139 0 0.13701983615259861 -0.084738482347061453 0 0.1383038510924271 -0.076650433113048616 0 0.14487199093384781 -0.086062431220379793 0 0.13116042770676881 -0.083427429556391139 0 0.13701983615259861 -0.084738482347061453 0 0.1383038510924271 -0.076650433113048616 0 0.13116042770676881 -0.083427429556391139 0 0.13701983615259861 -0.084738482347061453 0 0.13374307487735049 -0.092813635498426264 0 0.13701983615259861 -0.084738482347061453 0 0.13374307487735049 -0.092813635498426264 0 0.14487199093384781 -0.086062431220379793 0 0.12043044916632149 -0.06573806300681749 0 0.1274704349097962 -0.074934028053341886 0 0.13654006723413961 -0.063950798493131206 0 0.1274704349097962 -0.074934028053341886 0 0.1383038510924271 -0.076650433113048616 0 0.13654006723413961 -0.063950798493131206 0 0.1383038510924271 -0.076650433113048616 0 0.13654006723413961 -0.063950798493131206 0 0.14395324854923019 -0.070188424442285416 0 0.14395324854923019 -0.070188424442285416 0 0.15107664245720451 -0.075756062866196822 0 0.14912871252423779 -0.063469786562360603 0 0.13654006723413961 -0.063950798493131206 0 0.14395324854923019 -0.070188424442285416 0 0.14912871252423779 -0.063469786562360603 0 0.1383038510924271 -0.076650433113048616 0 0.14395324854923019 -0.070188424442285416 0 0.15107664245720451 -0.075756062866196822 0 0.15107664245720451 -0.075756062866196822 0 0.14912871252423779 -0.063469786562360603 0 0.15895749590809269 -0.068725907280445656 0 0.13374307487735049 -0.092813635498426264 0 0.15660652965381161 -0.091269384558832517 0 0.14230411060593781 -0.093813256267489695 0 0.16857265468882751 -0.091896909226913265 0 0.14230411060593781 -0.093813256267489695 0 0.13374307487735049 -0.092813635498426264 0 0.15660652965381161 -0.091269384558832517 0 0.14230411060593781 -0.093813256267489695 0 0.15660652965381161 -0.091269384558832517 0 0.16857265468882751 -0.091896909226913265 0 0.13374307487735049 -0.092813635498426264 0 0.14487199093384781 -0.086062431220379793 0 0.15660652965381161 -0.091269384558832517 0 0.1383038510924271 -0.076650433113048616 0 0.15107664245720451 -0.075756062866196822 0 0.14487199093384781 -0.086062431220379793 0 0.15107664245720451 -0.075756062866196822 0 0.14487199093384781 -0.086062431220379793 0 0.15364090647384479 -0.083012209523893293 0 0.15107664245720451 -0.075756062866196822 0 0.15364090647384479 -0.083012209523893293 0 0.16200846285051521 -0.07896095945016407 0 0.14487199093384781 -0.086062431220379793 0 0.15364090647384479 -0.083012209523893293 0 0.15660652965381161 -0.091269384558832517 0 0.15364090647384479 -0.083012209523893293 0 0.15660652965381161 -0.091269384558832517 0 0.16200846285051521 -0.07896095945016407 0 0.15660652965381161 -0.091269384558832517 0 0.16200846285051521 -0.07896095945016407 0 0.167028533659314 -0.085119986636415942 0 0.16200846285051521 -0.07896095945016407 0 0.167028533659314 -0.085119986636415942 0 0.17303572838489031 -0.077636193900093992 0 0.167028533659314 -0.085119986636415942 0 0.17303572838489031 -0.077636193900093992 0 0.17491929271852541 -0.085836486046075813 0 0.167028533659314 -0.085119986636415942 0 0.16857265468882751 -0.091896909226913265 0 0.17491929271852541 -0.085836486046075813 0 0.15660652965381161 -0.091269384558832517 0 0.167028533659314 -0.085119986636415942 0 0.16857265468882751 -0.091896909226913265 0 0.15895749590809269 -0.068725907280445656 0 0.16927259070747119 -0.068580141211107018 0 0.16330107100103511 -0.056862586312399779 0 0.14912871252423779 -0.063469786562360603 0 0.15895749590809269 -0.068725907280445656 0 0.16330107100103511 -0.056862586312399779 0 0.16200846285051521 -0.07896095945016407 0 0.15895749590809269 -0.068725907280445656 0 0.16927259070747119 -0.068580141211107018 0 0.15107664245720451 -0.075756062866196822 0 0.16200846285051521 -0.07896095945016407 0 0.15895749590809269 -0.068725907280445656 0 0.16200846285051521 -0.07896095945016407 0 0.16927259070747119 -0.068580141211107018 0 0.17303572838489031 -0.077636193900093992 0 0.16927259070747119 -0.068580141211107018 0 0.17154557359594311 -0.059945527227092912 0 0.17929803724390039 -0.062208603016083247 0 0.16927259070747119 -0.068580141211107018 0 0.17846515694984971 -0.07183203378431309 0 0.17929803724390039 -0.062208603016083247 0 0.16927259070747119 -0.068580141211107018 0 0.17303572838489031 -0.077636193900093992 0 0.17846515694984971 -0.07183203378431309 0 0.17303572838489031 -0.077636193900093992 0 0.17846515694984971 -0.07183203378431309 0 0.18359142904682191 -0.07886099451835539 0 0.17846515694984971 -0.07183203378431309 0 0.18712799936616439 -0.071874236275925776 0 0.18359142904682191 -0.07886099451835539 0 0.18712799936616439 -0.071874236275925776 0 0.17929803724390039 -0.062208603016083247 0 0.189053776615525 -0.062928804780023079 0 0.17846515694984971 -0.07183203378431309 0 0.18712799936616439 -0.071874236275925776 0 0.17929803724390039 -0.062208603016083247 0 0.17491929271852541 -0.085836486046075813 0 0.18359142904682191 -0.07886099451835539 0 0.19800039987763859 -0.086900474786286847 0 0.17491929271852541 -0.085836486046075813 0 0.19800039987763859 -0.086900474786286847 0 0.16857265468882751 -0.091896909226913265 0 0.1893346286470276 -0.097985030362757214 0 0.19484119877171741 -0.089980562186336849 0 0.16857265468882751 -0.091896909226913265 0 0.17491929271852541 -0.085836486046075813 0 0.19484119877171741 -0.089980562186336849 0 0.16857265468882751 -0.091896909226913265 0 0.19484119877171741 -0.089980562186336849 0 0.17303572838489031 -0.077636193900093992 0 0.17491929271852541 -0.085836486046075813 0 0.18359142904682191 -0.07886099451835539 0 0.16857265468882751 -0.091896909226913265 0 0.1839798039734209 -0.1032518225946312 0 0.1893346286470276 -0.097985030362757214 0 0.16857265468882751 -0.091896909226913265 0 0.17242984538444389 -0.1032726189676875 0 0.1839798039734209 -0.1032518225946312 0 0.17242984538444389 -0.1032726189676875 0 0.1839798039734209 -0.1032518225946312 0 0.17593021557328761 -0.11406417882430719 0 0.1839798039734209 -0.1032518225946312 0 0.17593021557328761 -0.11406417882430719 0 0.19159880971691159 -0.11710443749124951 0 0.18175852216491961 -0.12260781872524409 0 0.17593021557328761 -0.11406417882430719 0 0.19159880971691159 -0.11710443749124951 0 0.17593021557328761 -0.11406417882430719 0 0.19159880971691159 -0.11710443749124951 0 0.18175852216491961 -0.12260781872524409 0 0.19159880971691159 -0.11710443749124951 0 0.18713470596521489 -0.13396035869891279 0 0.18175852216491961 -0.12260781872524409 0 0.17593021557328761 -0.11406417882430719 0 0.16745930473049839 -0.1255317995950779 0 0.1482050861877148 -0.1155129050814544 0 0.1602616214296633 -0.1110239201573659 0 0.16745930473049839 -0.1255317995950779 0 0.17593021557328761 -0.11406417882430719 0 0.1602616214296633 -0.1110239201573659 0 0.1482050861877148 -0.1155129050814544 0 0.15675399420316929 -0.12888532417490289 0 0.16745930473049839 -0.1255317995950779 0 0.17242984538444389 -0.1032726189676875 0 0.17593021557328761 -0.11406417882430719 0 0.1602616214296633 -0.1110239201573659 0 0.17593021557328761 -0.11406417882430719 0 0.1602616214296633 -0.1110239201573659 0 0.16745930473049839 -0.1255317995950779 0 0.1482050861877148 -0.1155129050814544 0 0.16745930473049839 -0.1255317995950779 0 0.15462107935201391 -0.1056839279923823 0 0.1602616214296633 -0.1110239201573659 0 0.16415939352865741 -0.1010568092033434 0 0.15534996612432489 -0.099247288534615896 0 0.15462107935201391 -0.1056839279923823 0 0.16415939352865741 -0.1010568092033434 0 0.15534996612432489 -0.099247288534615896 0 0.16857265468882751 -0.091896909226913265 0 0.16415939352865741 -0.1010568092033434 0 0.16857265468882751 -0.091896909226913265 0 0.17242984538444389 -0.1032726189676875 0 0.16415939352865741 -0.1010568092033434 0 0.17242984538444389 -0.1032726189676875 0 0.1602616214296633 -0.1110239201573659 0 0.16415939352865741 -0.1010568092033434 0 0.14735900442124569 -0.0073284500261575703 0 0.1254404225205851 -0.00079170880474917042 0 0.12761982789154261 -0.020646173749350551 0 0.14735900442124569 -0.0073284500261575703 0 0.1254404225205851 -0.00079170880474917042 0 0.12761982789154261 -0.020646173749350551 0 0.1447107857621982 -0.03009069758533716 0 0.13036850388104371 -0.034191324019290863 0 0.14735900442124569 -0.0073284500261575703 0 0.12761982789154261 -0.020646173749350551 0 0.1447107857621982 -0.03009069758533716 0 0.14735900442124569 -0.0073284500261575703 0 0.1447107857621982 -0.03009069758533716 0 0.16002147361945651 -0.02622184181520355 0 0.14735900442124569 -0.0073284500261575703 0 0.1447107857621982 -0.03009069758533716 0 0.1447107857621982 -0.03009069758533716 0 0.13237159819940941 -0.048875022492876632 0 0.14703276331988771 -0.050783062395276378 0 0.1447107857621982 -0.03009069758533716 0 0.15614434519830611 -0.041449482925552922 0 0.14703276331988771 -0.050783062395276378 0 0.1447107857621982 -0.03009069758533716 0 0.15614434519830611 -0.041449482925552922 0 0.16002147361945651 -0.02622184181520355 0 0.1447107857621982 -0.03009069758533716 0 0.13036850388104371 -0.034191324019290863 0 0.13237159819940941 -0.048875022492876632 0 0.11677180367102449 -0.037153402249599107 0 0.13036850388104371 -0.034191324019290863 0 0.13237159819940941 -0.048875022492876632 0 0.12043044916632149 -0.06573806300681749 0 0.13654006723413961 -0.063950798493131206 0 0.13237159819940941 -0.048875022492876632 0 0.13654006723413961 -0.063950798493131206 0 0.13237159819940941 -0.048875022492876632 0 0.14703276331988771 -0.050783062395276378 0 0.15614434519830611 -0.041449482925552922 0 0.14703276331988771 -0.050783062395276378 0 0.16330107100103511 -0.056862586312399779 0 0.13654006723413961 -0.063950798493131206 0 0.14912871252423779 -0.063469786562360603 0 0.14703276331988771 -0.050783062395276378 0 0.14912871252423779 -0.063469786562360603 0 0.14703276331988771 -0.050783062395276378 0 0.16330107100103511 -0.056862586312399779 0 0.16330107100103511 -0.056862586312399779 0 0.17431059543136579 -0.052130778368781591 0 0.1675893719914005 -0.041957731173892662 0 0.16927259070747119 -0.068580141211107018 0 0.16330107100103511 -0.056862586312399779 0 0.17154557359594311 -0.059945527227092912 0 0.16330107100103511 -0.056862586312399779 0 0.17154557359594311 -0.059945527227092912 0 0.17431059543136579 -0.052130778368781591 0 0.17154557359594311 -0.059945527227092912 0 0.17929803724390039 -0.062208603016083247 0 0.17431059543136579 -0.052130778368781591 0 0.17929803724390039 -0.062208603016083247 0 0.18537941455452131 -0.050274308305565847 0 0.17431059543136579 -0.052130778368781591 0 0.17929803724390039 -0.062208603016083247 0 0.18537941455452131 -0.050274308305565847 0 0.189053776615525 -0.062928804780023079 0 0.18537941455452131 -0.050274308305565847 0 0.17431059543136579 -0.052130778368781591 0 0.17857178726138229 -0.040587591100548798 0 0.17431059543136579 -0.052130778368781591 0 0.17857178726138229 -0.040587591100548798 0 0.1675893719914005 -0.041957731173892662 0 0.18537941455452131 -0.050274308305565847 0 0.17857178726138229 -0.040587591100548798 0 0.18860647694932589 -0.038283287173989808 0 0.17857178726138229 -0.040587591100548798 0 0.18283643054208901 -0.029952400431465329 0 0.18860647694932589 -0.038283287173989808 0 0.17857178726138229 -0.040587591100548798 0 0.1727851949054823 -0.032045498266056703 0 0.1675893719914005 -0.041957731173892662 0 0.17857178726138229 -0.040587591100548798 0 0.1727851949054823 -0.032045498266056703 0 0.18283643054208901 -0.029952400431465329 0 0.15614434519830611 -0.041449482925552922 0 0.1675893719914005 -0.041957731173892662 0 0.16002147361945651 -0.02622184181520355 0 0.1727851949054823 -0.032045498266056703 0 0.1675893719914005 -0.041957731173892662 0 0.16002147361945651 -0.02622184181520355 0 0.15614434519830611 -0.041449482925552922 0 0.16330107100103511 -0.056862586312399779 0 0.1675893719914005 -0.041957731173892662 0 0.14735900442124569 -0.0073284500261575703 0 0.16002147361945651 -0.02622184181520355 0 0.1674275135058774 -0.01331344719341325 0 0.16002147361945651 -0.02622184181520355 0 0.17439776571738949 -0.023341654822990849 0 0.1674275135058774 -0.01331344719341325 0 0.1727851949054823 -0.032045498266056703 0 0.16002147361945651 -0.02622184181520355 0 0.17439776571738949 -0.023341654822990849 0 0.17439776571738949 -0.023341654822990849 0 0.1674275135058774 -0.01331344719341325 0 0.18749602259050899 -0.019298444360669059 0 0.1674275135058774 -0.01331344719341325 0 0.18749602259050899 -0.019298444360669059 0 0.1727851949054823 -0.032045498266056703 0 0.18283643054208901 -0.029952400431465329 0 0.17439776571738949 -0.023341654822990849 0 0.18283643054208901 -0.029952400431465329 0 0.17439776571738949 -0.023341654822990849 0 0.18749602259050899 -0.019298444360669059 0 0.1843157041504021 0.011591590718820091 0 0.17992292375763491 -0.0089771304981551281 0 0.19037457064739469 -0.003131342530463065 0 0.17992292375763491 -0.0089771304981551281 0 0.1674275135058774 -0.01331344719341325 0 0.18749602259050899 -0.019298444360669059 0 0.17992292375763491 -0.0089771304981551281 0 0.19037457064739469 -0.003131342530463065 0 0.18749602259050899 -0.019298444360669059 0 0.14735900442124569 -0.0073284500261575703 0 0.1674275135058774 -0.01331344719341325 0 0.1630782888581857 0.00056261540017649994 0 0.17992292375763491 -0.0089771304981551281 0 0.1674275135058774 -0.01331344719341325 0 0.1630782888581857 0.00056261540017649994 0 0.14735900442124569 -0.0073284500261575703 0 0.1674275135058774 -0.01331344719341325 0 0.20078399270961561 0.001942991030654654 0 0.200098776796162 -0.013836583510278611 0 0.21275969425549771 -0.02495488512588389 0 0.20078399270961561 0.001942991030654654 0 0.21275969425549771 -0.02495488512588389 0 0.20078399270961561 0.001942991030654654 0 0.21409924034945749 -0.0060743143852574127 0 0.21275969425549771 -0.02495488512588389 0 0.21096271055982529 0.0040393848013609551 0 0.20078399270961561 0.001942991030654654 0 0.21409924034945749 -0.0060743143852574127 0 0.1933824195178438 0.0098909924898191032 0 0.20078399270961561 0.001942991030654654 0 0.200098776796162 -0.013836583510278611 0 0.1933824195178438 0.0098909924898191032 0 0.200098776796162 -0.013836583510278611 0 0.1933824195178438 0.0098909924898191032 0 0.200098776796162 -0.013836583510278611 0 0.19037457064739469 -0.003131342530463065 0 0.200098776796162 -0.013836583510278611 0 0.19037457064739469 -0.003131342530463065 0 0.18749602259050899 -0.019298444360669059 0 0.200098776796162 -0.013836583510278611 0 0.19402435940712309 -0.03044629784716444 0 0.20681513407448021 -0.037564159510376442 0 0.200098776796162 -0.013836583510278611 0 0.18749602259050899 -0.019298444360669059 0 0.19402435940712309 -0.03044629784716444 0 0.18283643054208901 -0.029952400431465329 0 0.18749602259050899 -0.019298444360669059 0 0.19402435940712309 -0.03044629784716444 0 0.200098776796162 -0.013836583510278611 0 0.21275969425549771 -0.02495488512588389 0 0.20681513407448021 -0.037564159510376442 0 0.21409924034945749 -0.0060743143852574127 0 0.21275969425549771 -0.02495488512588389 0 0.2250452757776463 -0.018635707289046469 0 0.200098776796162 -0.013836583510278611 0 0.20681513407448021 -0.037564159510376442 0 0.21275969425549771 -0.02495488512588389 0 0.20681513407448021 -0.037564159510376442 0 0.2247353958013793 -0.051852761282422687 0 0.19402435940712309 -0.03044629784716444 0 0.20681513407448021 -0.037564159510376442 0 0.19585406970340399 -0.044429351368288253 0 0.20681513407448021 -0.037564159510376442 0 0.19585406970340399 -0.044429351368288253 0 0.2021506617482369 -0.055897415291969538 0 0.18283643054208901 -0.029952400431465329 0 0.19402435940712309 -0.03044629784716444 0 0.18860647694932589 -0.038283287173989808 0 0.19402435940712309 -0.03044629784716444 0 0.18860647694932589 -0.038283287173989808 0 0.19585406970340399 -0.044429351368288253 0 0.18537941455452131 -0.050274308305565847 0 0.18860647694932589 -0.038283287173989808 0 0.19585406970340399 -0.044429351368288253 0 0.19585406970340399 -0.044429351368288253 0 0.19314167388099271 -0.054742324546795652 0 0.2021506617482369 -0.055897415291969538 0 0.18537941455452131 -0.050274308305565847 0 0.19585406970340399 -0.044429351368288253 0 0.19314167388099271 -0.054742324546795652 0 0.19314167388099271 -0.054742324546795652 0 0.189053776615525 -0.062928804780023079 0 0.19598875833563151 -0.068898343388980099 0 0.18537941455452131 -0.050274308305565847 0 0.19314167388099271 -0.054742324546795652 0 0.189053776615525 -0.062928804780023079 0 0.19314167388099271 -0.054742324546795652 0 0.2021506617482369 -0.055897415291969538 0 0.19598875833563151 -0.068898343388980099 0 0.20681513407448021 -0.037564159510376442 0 0.21353149135279911 -0.061291735510473948 0 0.2247353958013793 -0.051852761282422687 0 0.2021506617482369 -0.055897415291969538 0 0.21353149135279911 -0.061291735510473948 0 0.20531104723432769 -0.068217228362858151 0 0.20681513407448021 -0.037564159510376442 0 0.2021506617482369 -0.055897415291969538 0 0.21353149135279911 -0.061291735510473948 0 0.20681513407448021 -0.037564159510376442 0 0.21353149135279911 -0.061291735510473948 0 0.2247353958013793 -0.051852761282422687 0 0.24094608035933429 -0.05444375069217551 0 0.23298110748460341 -0.070372939898107195 0 0.2247353958013793 -0.051852761282422687 0 0.23298110748460341 -0.070372939898107195 0 0.21353149135279911 -0.061291735510473948 0 0.2247353958013793 -0.051852761282422687 0 0.23298110748460341 -0.070372939898107195 0 0.21353149135279911 -0.061291735510473948 0 0.2247353958013793 -0.051852761282422687 0 0.2247353958013793 -0.051852761282422687 0 0.24094608035933429 -0.05444375069217551 0 0.24329488954303111 -0.036216910055988621 0 0.25217464700224312 -0.062567623772278841 0 0.24094608035933429 -0.05444375069217551 0 0.23298110748460341 -0.070372939898107195 0 0.25217464700224312 -0.062567623772278841 0 0.25348378498021429 -0.048782810029235811 0 0.24094608035933429 -0.05444375069217551 0 0.25348378498021429 -0.048782810029235811 0 0.24094608035933429 -0.05444375069217551 0 0.24329488954303111 -0.036216910055988621 0 0.2247353958013793 -0.051852761282422687 0 0.24329488954303111 -0.036216910055988621 0 0.2247353958013793 -0.051852761282422687 0 0.24329488954303111 -0.036216910055988621 0 0.2289030837673727 -0.030881005021900651 0 0.21275969425549771 -0.02495488512588389 0 0.2247353958013793 -0.051852761282422687 0 0.2289030837673727 -0.030881005021900651 0 0.21275969425549771 -0.02495488512588389 0 0.2247353958013793 -0.051852761282422687 0 0.21275969425549771 -0.02495488512588389 0 0.2250452757776463 -0.018635707289046469 0 0.2289030837673727 -0.030881005021900651 0 0.2250452757776463 -0.018635707289046469 0 0.2289030837673727 -0.030881005021900651 0 0.23956371216752739 -0.01995962047037831 0 0.26185438328468308 -0.02058105882955464 0 0.24329488954303111 -0.036216910055988621 0 0.23956371216752739 -0.01995962047037831 0 0.26185438328468308 -0.02058105882955464 0 0.23956371216752739 -0.01995962047037831 0 0.24717904482605901 -0.0064480234920759024 0 0.24329488954303111 -0.036216910055988621 0 0.2289030837673727 -0.030881005021900651 0 0.23956371216752739 -0.01995962047037831 0 0.23956371216752739 -0.01995962047037831 0 0.24717904482605901 -0.0064480234920759024 0 0.23390186677123639 -0.0059744306611674404 0 0.23762971025308061 0.0058859760052125216 0 0.24717904482605901 -0.0064480234920759024 0 0.23390186677123639 -0.0059744306611674404 0 0.22009159083186849 0.0092852219404509564 0 0.2250452757776463 -0.018635707289046469 0 0.22009159083186849 0.0092852219404509564 0 0.21409924034945749 -0.0060743143852574127 0 0.2250452757776463 -0.018635707289046469 0 0.22009159083186849 0.0092852219404509564 0 0.2250452757776463 -0.018635707289046469 0 0.23390186677123639 -0.0059744306611674404 0 0.2250452757776463 -0.018635707289046469 0 0.23956371216752739 -0.01995962047037831 0 0.23390186677123639 -0.0059744306611674404 0 0.2111817121233473 -0.1035105885987838 0 0.19800211002486609 -0.092926342298256775 0 0.22193670652715661 -0.088003886359300981 0 0.2111817121233473 -0.1035105885987838 0 0.2125244438628841 -0.1211647469223545 0 0.2263162097569435 -0.1064576439045206 0 0.2111817121233473 -0.1035105885987838 0 0.2125244438628841 -0.1211647469223545 0 0.19795605411743489 -0.1089399947230321 0 0.2125244438628841 -0.1211647469223545 0 0.19795605411743489 -0.1089399947230321 0 0.2125244438628841 -0.1211647469223545 0 0.19159880971691159 -0.11710443749124951 0 0.20214123110929569 -0.12704541870322189 0 0.2125244438628841 -0.1211647469223545 0 0.19159880971691159 -0.11710443749124951 0 0.19795605411743489 -0.1089399947230321 0 0.2125244438628841 -0.1211647469223545 0 0.19159880971691159 -0.11710443749124951 0 0.2111817121233473 -0.1035105885987838 0 0.19795605411743489 -0.1089399947230321 0 0.19800211002486609 -0.092926342298256775 0 0.19159880971691159 -0.11710443749124951 0 0.19795605411743489 -0.1089399947230321 0 0.19800211002486609 -0.092926342298256775 0 0.19159880971691159 -0.11710443749124951 0 0.1893346286470276 -0.097985030362757214 0 0.19800211002486609 -0.092926342298256775 0 0.1839798039734209 -0.1032518225946312 0 0.19159880971691159 -0.11710443749124951 0 0.1893346286470276 -0.097985030362757214 0 0.19159880971691159 -0.11710443749124951 0 0.19800211002486609 -0.092926342298256775 0 0.1893346286470276 -0.097985030362757214 0 0.19484119877171741 -0.089980562186336849 0 0.19800211002486609 -0.092926342298256775 0 0.17491929271852541 -0.085836486046075813 0 0.19484119877171741 -0.089980562186336849 0 0.19800039987763859 -0.086900474786286847 0 0.18359142904682191 -0.07886099451835539 0 0.1921875369584789 -0.078631864535090509 0 0.19800039987763859 -0.086900474786286847 0 0.1921875369584789 -0.078631864535090509 0 0.19800039987763859 -0.086900474786286847 0 0.1999406121151619 -0.076731371853258026 0 0.19800039987763859 -0.086900474786286847 0 0.1999406121151619 -0.076731371853258026 0 0.20831634883920791 -0.077590699140642178 0 0.18712799936616439 -0.071874236275925776 0 0.189053776615525 -0.062928804780023079 0 0.19598875833563151 -0.068898343388980099 0 0.18712799936616439 -0.071874236275925776 0 0.1938112266938592 -0.074033954013313599 0 0.19598875833563151 -0.068898343388980099 0 0.18712799936616439 -0.071874236275925776 0 0.18359142904682191 -0.07886099451835539 0 0.1921875369584789 -0.078631864535090509 0 0.18712799936616439 -0.071874236275925776 0 0.1921875369584789 -0.078631864535090509 0 0.1938112266938592 -0.074033954013313599 0 0.1938112266938592 -0.074033954013313599 0 0.1999406121151619 -0.076731371853258026 0 0.19598875833563151 -0.068898343388980099 0 0.1999406121151619 -0.076731371853258026 0 0.19598875833563151 -0.068898343388980099 0 0.20531104723432769 -0.068217228362858151 0 0.1921875369584789 -0.078631864535090509 0 0.1938112266938592 -0.074033954013313599 0 0.1999406121151619 -0.076731371853258026 0 0.2021506617482369 -0.055897415291969538 0 0.19598875833563151 -0.068898343388980099 0 0.20531104723432769 -0.068217228362858151 0 0.21353149135279911 -0.061291735510473948 0 0.20531104723432769 -0.068217228362858151 0 0.20831634883920791 -0.077590699140642178 0 0.21353149135279911 -0.061291735510473948 0 0.22193670652715661 -0.088003886359300981 0 0.21353149135279911 -0.061291735510473948 0 0.20831634883920791 -0.077590699140642178 0 0.22193670652715661 -0.088003886359300981 0 0.21353149135279911 -0.061291735510473948 0 0.20531104723432769 -0.068217228362858151 0 0.1999406121151619 -0.076731371853258026 0 0.20531104723432769 -0.068217228362858151 0 0.20831634883920791 -0.077590699140642178 0 0.19800039987763859 -0.086900474786286847 0 0.20831634883920791 -0.077590699140642178 0 0.22193670652715661 -0.088003886359300981 0 0.19800039987763859 -0.086900474786286847 0 0.22193670652715661 -0.088003886359300981 0 0.19484119877171741 -0.089980562186336849 0 0.19800039987763859 -0.086900474786286847 0 0.22193670652715661 -0.088003886359300981 0 0.19484119877171741 -0.089980562186336849 0 0.19800211002486609 -0.092926342298256775 0 0.22193670652715661 -0.088003886359300981 0 0.19484119877171741 -0.089980562186336849 0 0.22193670652715661 -0.088003886359300981 0 0.22193670652715661 -0.088003886359300981 0 0.2412268191678282 -0.088893118513791503 0 0.22975319777643469 -0.096215847358947948 0 0.22193670652715661 -0.088003886359300981 0 0.2412268191678282 -0.088893118513791503 0 0.22490934827255091 -0.078936550824231344 0 0.23298110748460341 -0.070372939898107195 0 0.2350159289614423 -0.087049728826783315 0 0.22193670652715661 -0.088003886359300981 0 0.2412268191678282 -0.088893118513791503 0 0.2350159289614423 -0.087049728826783315 0 0.22193670652715661 -0.088003886359300981 0 0.22490934827255091 -0.078936550824231344 0 0.2350159289614423 -0.087049728826783315 0 0.22193670652715661 -0.088003886359300981 0 0.2350159289614423 -0.087049728826783315 0 0.21353149135279911 -0.061291735510473948 0 0.22193670652715661 -0.088003886359300981 0 0.22490934827255091 -0.078936550824231344 0 0.21353149135279911 -0.061291735510473948 0 0.22490934827255091 -0.078936550824231344 0 0.23298110748460341 -0.070372939898107195 0 0.25464150959547199 -0.07782915254287362 0 0.25217464700224312 -0.062567623772278841 0 0.23298110748460341 -0.070372939898107195 0 0.23298110748460341 -0.070372939898107195 0 0.2412268191678282 -0.088893118513791503 0 0.25464150959547199 -0.07782915254287362 0 0.23298110748460341 -0.070372939898107195 0 0.2412268191678282 -0.088893118513791503 0 0.23298110748460341 -0.070372939898107195 0 0.2412268191678282 -0.088893118513791503 0 0.2350159289614423 -0.087049728826783315 0 0.2412268191678282 -0.088893118513791503 0 0.22975319777643469 -0.096215847358947948 0 0.23817651057563821 -0.1096603728713718 0 0.25264708782957512 -0.114543471519108 0 0.2412268191678282 -0.088893118513791503 0 0.23817651057563821 -0.1096603728713718 0 0.25264708782957512 -0.114543471519108 0 0.2412268191678282 -0.088893118513791503 0 0.22193670652715661 -0.088003886359300981 0 0.2263162097569435 -0.1064576439045206 0 0.2111817121233473 -0.1035105885987838 0 0.22193670652715661 -0.088003886359300981 0 0.2263162097569435 -0.1064576439045206 0 0.22193670652715661 -0.088003886359300981 0 0.22975319777643469 -0.096215847358947948 0 0.2263162097569435 -0.1064576439045206 0 0.22975319777643469 -0.096215847358947948 0 0.2263162097569435 -0.1064576439045206 0 0.23817651057563821 -0.1096603728713718 0 0.2125244438628841 -0.1211647469223545 0 0.2263162097569435 -0.1064576439045206 0 0.23152267665927989 -0.1248510726632857 0 0.2263162097569435 -0.1064576439045206 0 0.23152267665927989 -0.1248510726632857 0 0.2263162097569435 -0.1064576439045206 0 0.23152267665927989 -0.1248510726632857 0 0.23817651057563821 -0.1096603728713718 0 0.2125244438628841 -0.1211647469223545 0 0.23152267665927989 -0.1248510726632857 0 0.23152267665927989 -0.1248510726632857 0 0.23817651057563821 -0.1096603728713718 0 0.2467260942977996 -0.12795807055091399 0 0.25264708782957512 -0.114543471519108 0 0.23817651057563821 -0.1096603728713718 0 0.2467260942977996 -0.12795807055091399 0 0.25264708782957512 -0.114543471519108 0 0.2467260942977996 -0.12795807055091399 0 0.23152267665927989 -0.1248510726632857 0 0.2467260942977996 -0.12795807055091399 0 0.23607245753675091 -0.1409245581972545 0 0.2467260942977996 -0.12795807055091399 0 0.2411781625611682 -0.1405274610262357 0 0.2467260942977996 -0.12795807055091399 0 0.2411781625611682 -0.1405274610262357 0 0.23607245753675091 -0.1409245581972545 0 0.23152267665927989 -0.1248510726632857 0 0.2467260942977996 -0.12795807055091399 0 0.25435914142031613 -0.15626943727654569 0 0.2411781625611682 -0.1405274610262357 0 0.23967032023165391 -0.1439436276113 0 0.25435914142031613 -0.15626943727654569 0 0.23967032023165391 -0.1439436276113 0 0.25435914142031613 -0.15626943727654569 0 0.23967032023165391 -0.1439436276113 0 0.23906435649961569 -0.1514943517749702 0 0.25435914142031613 -0.15626943727654569 0 0.23906435649961569 -0.1514943517749702 0 0.23607245753675091 -0.1409245581972545 0 0.23799891616510371 -0.1477303595596797 0 0.23074743600781639 -0.1488977800242747 0 0.2411781625611682 -0.1405274610262357 0 0.23607245753675091 -0.1409245581972545 0 0.2411781625611682 -0.1405274610262357 0 0.23967032023165391 -0.1439436276113 0 0.23607245753675091 -0.1409245581972545 0 0.2411781625611682 -0.1405274610262357 0 0.23967032023165391 -0.1439436276113 0 0.23967032023165391 -0.1439436276113 0 0.23607245753675091 -0.1409245581972545 0 0.23967032023165391 -0.1439436276113 0 0.23607245753675091 -0.1409245581972545 0 0.23799891616510371 -0.1477303595596797 0 0.23607245753675091 -0.1409245581972545 0 0.23799891616510371 -0.1477303595596797 0 0.23967032023165391 -0.1439436276113 0 0.23799891616510371 -0.1477303595596797 0 0.23906435649961569 -0.1514943517749702 0 0.23967032023165391 -0.1439436276113 0 0.23799891616510371 -0.1477303595596797 0 0.23799891616510371 -0.1477303595596797 0 0.23906435649961569 -0.1514943517749702 0 0.23906435649961569 -0.1514943517749702 0 0.2366677988494266 -0.1507461380702059 0 0.23496958170404719 -0.15459361771225411 0 0.23799891616510371 -0.1477303595596797 0 0.23906435649961569 -0.1514943517749702 0 0.2366677988494266 -0.1507461380702059 0 0.23799891616510371 -0.1477303595596797 0 0.2366677988494266 -0.1507461380702059 0 0.23074743600781639 -0.1488977800242747 0 0.23799891616510371 -0.1477303595596797 0 0.2366677988494266 -0.1507461380702059 0 0.23906435649961569 -0.1514943517749702 0 0.2366677988494266 -0.1507461380702059 0 0.2366677988494266 -0.1507461380702059 0 0.23496958170404719 -0.15459361771225411 0 0.23074743600781639 -0.1488977800242747 0 0.21271810432829141 -0.15104823119991739 0 0.22604038913608651 -0.1599465605378316 0 0.23074743600781639 -0.1488977800242747 0 0.20699971202285061 -0.14148365729656889 0 0.23607245753675091 -0.1409245581972545 0 0.23074743600781639 -0.1488977800242747 0 0.20699971202285061 -0.14148365729656889 0 0.23607245753675091 -0.1409245581972545 0 0.20699971202285061 -0.14148365729656889 0 0.23074743600781639 -0.1488977800242747 0 0.22604038913608651 -0.1599465605378316 0 0.23496958170404719 -0.15459361771225411 0 0.23074743600781639 -0.1488977800242747 0 0.22604038913608651 -0.1599465605378316 0 0.2366677988494266 -0.1507461380702059 0 0.23496958170404719 -0.15459361771225411 0 0.23074743600781639 -0.1488977800242747 0 0.2366677988494266 -0.1507461380702059 0 0.23074743600781639 -0.1488977800242747 0 0.21271810432829141 -0.15104823119991739 0 0.22604038913608651 -0.1599465605378316 0 0.2125244438628841 -0.1211647469223545 0 0.23152267665927989 -0.1248510726632857 0 0.2241518381552304 -0.1309216257834617 0 0.23607245753675091 -0.1409245581972545 0 0.2241518381552304 -0.1309216257834617 0 0.20699971202285061 -0.14148365729656889 0 0.23152267665927989 -0.1248510726632857 0 0.23607245753675091 -0.1409245581972545 0 0.2241518381552304 -0.1309216257834617 0 0.23152267665927989 -0.1248510726632857 0 0.23607245753675091 -0.1409245581972545 0 0.23607245753675091 -0.1409245581972545 0 0.2241518381552304 -0.1309216257834617 0 0.2125244438628841 -0.1211647469223545 0 0.2241518381552304 -0.1309216257834617 0 0.2125244438628841 -0.1211647469223545 0 0.2241518381552304 -0.1309216257834617 0 0.20794356964575519 -0.13067866983295459 0 0.2241518381552304 -0.1309216257834617 0 0.20794356964575519 -0.13067866983295459 0 0.20699971202285061 -0.14148365729656889 0 0.2125244438628841 -0.1211647469223545 0 0.20794356964575519 -0.13067866983295459 0 0.20214123110929569 -0.12704541870322189 0 0.20794356964575519 -0.13067866983295459 0 0.20214123110929569 -0.12704541870322189 0 0.20233916053486961 -0.13539985682690561 0 0.20794356964575519 -0.13067866983295459 0 0.20699971202285061 -0.14148365729656889 0 0.20233916053486961 -0.13539985682690561 0 0.20699971202285061 -0.14148365729656889 0 0.20233916053486961 -0.13539985682690561 0 0.2025028284716581 -0.14007971447822079 0 0.1993958195204952 -0.14214990186200491 0 0.2011568849946864 -0.1433261671048715 0 0.20947292795052641 -0.15879800972262961 0 0.23074743600781639 -0.1488977800242747 0 0.21271810432829141 -0.15104823119991739 0 0.20699971202285061 -0.14148365729656889 0 0.21271810432829141 -0.15104823119991739 0 0.20947292795052641 -0.15879800972262961 0 0.2117511074454918 -0.15884272186261339 0 0.21271810432829141 -0.15104823119991739 0 0.2011568849946864 -0.1433261671048715 0 0.20947292795052641 -0.15879800972262961 0 0.21271810432829141 -0.15104823119991739 0 0.2011568849946864 -0.1433261671048715 0 0.21271810432829141 -0.15104823119991739 0 0.20699971202285061 -0.14148365729656889 0 0.2011568849946864 -0.1433261671048715 0 0.20699971202285061 -0.14148365729656889 0 0.1993958195204952 -0.14214990186200491 0 0.20699971202285061 -0.14148365729656889 0 0.2025028284716581 -0.14007971447822079 0 0.1993958195204952 -0.14214990186200491 0 0.1833301510083038 -0.14832590263582679 0 0.18497908663626569 -0.1420997191581676 0 0.20699971202285061 -0.14148365729656889 0 0.1993958195204952 -0.14214990186200491 0 0.2025028284716581 -0.14007971447822079 0 0.20947292795052641 -0.15879800972262961 0 0.1833301510083038 -0.14832590263582679 0 0.18070625294568479 -0.15823342751888289 0 0.1993958195204952 -0.14214990186200491 0 0.20947292795052641 -0.15879800972262961 0 0.1833301510083038 -0.14832590263582679 0 0.20947292795052641 -0.15879800972262961 0 0.1833301510083038 -0.14832590263582679 0 0.20699971202285061 -0.14148365729656889 0 0.1993958195204952 -0.14214990186200491 0 0.2011568849946864 -0.1433261671048715 0 0.1993958195204952 -0.14214990186200491 0 0.2011568849946864 -0.1433261671048715 0 0.1993958195204952 -0.14214990186200491 0 0.18497908663626569 -0.1420997191581676 0 0.19159880971691159 -0.11710443749124951 0 0.18713470596521489 -0.13396035869891279 0 0.1993958195204952 -0.14214990186200491 0 0.1867135232732812 -0.1355506941087028 0 0.19159880971691159 -0.11710443749124951 0 0.1963001717860576 -0.1308793824426456 0 0.18713470596521489 -0.13396035869891279 0 0.1993958195204952 -0.14214990186200491 0 0.1867135232732812 -0.1355506941087028 0 0.18497908663626569 -0.1420997191581676 0 0.1993958195204952 -0.14214990186200491 0 0.1867135232732812 -0.1355506941087028 0 0.18713470596521489 -0.13396035869891279 0 0.1993958195204952 -0.14214990186200491 0 0.18713470596521489 -0.13396035869891279 0 0.1993958195204952 -0.14214990186200491 0 0.1963001717860576 -0.1308793824426456 0 0.18713470596521489 -0.13396035869891279 0 0.20214123110929569 -0.12704541870322189 0 0.1963001717860576 -0.1308793824426456 0 0.20233916053486961 -0.13539985682690561 0 0.19159880971691159 -0.11710443749124951 0 0.20214123110929569 -0.12704541870322189 0 0.1963001717860576 -0.1308793824426456 0 0.1993958195204952 -0.14214990186200491 0 0.1963001717860576 -0.1308793824426456 0 0.20233916053486961 -0.13539985682690561 0 0.1993958195204952 -0.14214990186200491 0 0.20233916053486961 -0.13539985682690561 0 0.2025028284716581 -0.14007971447822079 0 0.1935630327947577 -0.18583646656009301 0 0.19555346854035649 -0.1668411164229586 0 0.1864923287916268 -0.17317250488562869 0 0.1935630327947577 -0.18583646656009301 0 0.19555346854035649 -0.1668411164229586 0 0.21763040050757049 -0.17968720069079841 0 0.19555346854035649 -0.1668411164229586 0 0.20947292795052641 -0.15879800972262961 0 0.18070625294568479 -0.15823342751888289 0 0.20947292795052641 -0.15879800972262961 0 0.18070625294568479 -0.15823342751888289 0 0.19555346854035649 -0.1668411164229586 0 0.18070625294568479 -0.15823342751888289 0 0.1864923287916268 -0.17317250488562869 0 0.20947292795052641 -0.15879800972262961 0 0.21763040050757049 -0.17968720069079841 0 0.22404322042839911 -0.16463448468669639 0 0.19555346854035649 -0.1668411164229586 0 0.20947292795052641 -0.15879800972262961 0 0.21763040050757049 -0.17968720069079841 0 0.20947292795052641 -0.15879800972262961 0 0.2117511074454918 -0.15884272186261339 0 0.20947292795052641 -0.15879800972262961 0 0.2117511074454918 -0.15884272186261339 0 0.22404322042839911 -0.16463448468669639 0 0.21271810432829141 -0.15104823119991739 0 0.2117511074454918 -0.15884272186261339 0 0.21878870049993851 -0.15928236747514629 0 0.20947292795052641 -0.15879800972262961 0 0.22404322042839911 -0.16463448468669639 0 0.2117511074454918 -0.15884272186261339 0 0.21878870049993851 -0.15928236747514629 0 0.22404322042839911 -0.16463448468669639 0 0.19555346854035649 -0.1668411164229586 0 0.21763040050757049 -0.17968720069079841 0 0.21763040050757049 -0.17968720069079841 0 0.23697652913799841 -0.19094429017279721 0 0.21763040050757049 -0.17968720069079841 0 0.23172260893668531 -0.17772112422880951 0 0.23697652913799841 -0.19094429017279721 0 0.21763040050757049 -0.17968720069079841 0 0.22404322042839911 -0.16463448468669639 0 0.21763040050757049 -0.17968720069079841 0 0.23172260893668531 -0.17772112422880951 0 0.22404322042839911 -0.16463448468669639 0 0.23172260893668531 -0.17772112422880951 0 0.22404322042839911 -0.16463448468669639 0 0.2449111852717957 -0.17299364113770191 0 0.22604038913608651 -0.1599465605378316 0 0.22404322042839911 -0.16463448468669639 0 0.2449111852717957 -0.17299364113770191 0 0.21271810432829141 -0.15104823119991739 0 0.22604038913608651 -0.1599465605378316 0 0.21878870049993851 -0.15928236747514629 0 0.22604038913608651 -0.1599465605378316 0 0.22404322042839911 -0.16463448468669639 0 0.22604038913608651 -0.1599465605378316 0 0.21878870049993851 -0.15928236747514629 0 0.22404322042839911 -0.16463448468669639 0 0.22604038913608651 -0.1599465605378316 0 0.2449111852717957 -0.17299364113770191 0 0.23906435649961569 -0.1514943517749702 0 0.2495830616654052 -0.16438751129136239 0 0.2449111852717957 -0.17299364113770191 0 0.22404322042839911 -0.16463448468669639 0 0.2449111852717957 -0.17299364113770191 0 0.23906435649961569 -0.1514943517749702 0 0.2449111852717957 -0.17299364113770191 0 0.23906435649961569 -0.1514943517749702 0 0.23496958170404719 -0.15459361771225411 0 0.2449111852717957 -0.17299364113770191 0 0.23496958170404719 -0.15459361771225411 0 0.22604038913608651 -0.1599465605378316 0 0.2449111852717957 -0.17299364113770191 0 0.2495830616654052 -0.16438751129136239 0 0.2449111852717957 -0.17299364113770191 0 0.24656720439992599 -0.17365699873302959 0 0.25435914142031613 -0.15626943727654569 0 0.23906435649961569 -0.1514943517749702 0 0.2495830616654052 -0.16438751129136239 0 0.25144642967774222 -0.19523779337555 0 0.24656720439992599 -0.17365699873302959 0 0.25144642967774222 -0.19523779337555 0 0.2413315194577306 -0.18425118333265589 0 0.24656720439992599 -0.17365699873302959 0 0.23172260893668531 -0.17772112422880951 0 0.2413315194577306 -0.18425118333265589 0 0.23697652913799841 -0.19094429017279721 0 0.23172260893668531 -0.17772112422880951 0 0.2449111852717957 -0.17299364113770191 0 0.24656720439992599 -0.17365699873302959 0 0.23172260893668531 -0.17772112422880951 0 0.2413315194577306 -0.18425118333265589 0 0.24656720439992599 -0.17365699873302959 0 0.2449111852717957 -0.17299364113770191 0 0.24656720439992599 -0.17365699873302959 0 0.25632265776842611 -0.20220137965479629 0 0.25144642967774222 -0.19523779337555 0 0.23697652913799841 -0.19094429017279721 0 0.25632265776842611 -0.20220137965479629 0 0.23697652913799841 -0.19094429017279721 0 0.25632265776842611 -0.20220137965479629 0 0.23697652913799841 -0.19094429017279721 0 0.24176743701184181 -0.20496317654336829 0 0.23697652913799841 -0.19094429017279721 0 0.24176743701184181 -0.20496317654336829 0 0.22828034430915081 -0.2110934541680487 0 0.25144642967774222 -0.19523779337555 0 0.2413315194577306 -0.18425118333265589 0 0.23697652913799841 -0.19094429017279721 0 0.25300289250444852 -0.21311160727847051 0 0.24176743701184181 -0.20496317654336829 0 0.24662459634762179 -0.22443897333996951 0 0.22828034430915081 -0.2110934541680487 0 0.24662459634762179 -0.22443897333996951 0 0.24176743701184181 -0.20496317654336829 0 0.22828034430915081 -0.2110934541680487 0 0.24662459634762179 -0.22443897333996951 0 0.22828034430915081 -0.2110934541680487 0 0.20993609227068011 -0.19774793499612739 0 0.22828034430915081 -0.2110934541680487 0 0.22307684164900179 -0.19323298578872561 0 0.20993609227068011 -0.19774793499612739 0 0.23697652913799841 -0.19094429017279721 0 0.22828034430915081 -0.2110934541680487 0 0.22307684164900179 -0.19323298578872561 0 0.21763040050757049 -0.17968720069079841 0 0.23697652913799841 -0.19094429017279721 0 0.22307684164900179 -0.19323298578872561 0 0.26012032717505429 -0.24027480478673791 0 0.23485810088638359 -0.24579051096395491 0 0.24662459634762179 -0.22443897333996951 0 0.26012032717505429 -0.24027480478673791 0 0.23485810088638359 -0.24579051096395491 0 0.22828034430915081 -0.2110934541680487 0 0.24662459634762179 -0.22443897333996951 0 0.21848436146583211 -0.23140693757589009 0 0.23485810088638359 -0.24579051096395491 0 0.24662459634762179 -0.22443897333996951 0 0.21848436146583211 -0.23140693757589009 0 0.20959587459771289 -0.25130621714117202 0 0.23485810088638359 -0.24579051096395491 0 0.21848436146583211 -0.23140693757589009 0 0.20959587459771289 -0.25130621714117202 0 0.23485810088638359 -0.24579051096395491 0 0.20959587459771289 -0.25130621714117202 0 0.21848436146583211 -0.23140693757589009 0 0.19269578104939261 -0.23821585891110461 0 0.22828034430915081 -0.2110934541680487 0 0.21848436146583211 -0.23140693757589009 0 0.20131593666003639 -0.217981896953616 0 0.21848436146583211 -0.23140693757589009 0 0.19269578104939261 -0.23821585891110461 0 0.20131593666003639 -0.217981896953616 0 0.19269578104939261 -0.23821585891110461 0 0.20131593666003639 -0.217981896953616 0 0.18366060959534899 -0.21713467172802561 0 0.19269578104939261 -0.23821585891110461 0 0.20131593666003639 -0.217981896953616 0 0.20959587459771289 -0.25130621714117202 0 0.18433364830904231 -0.25682192331838899 0 0.19269578104939261 -0.23821585891110461 0 0.21763040050757049 -0.17968720069079841 0 0.22307684164900179 -0.19323298578872561 0 0.20993609227068011 -0.19774793499612739 0 0.21763040050757049 -0.17968720069079841 0 0.20993609227068011 -0.19774793499612739 0 0.1935630327947577 -0.18583646656009301 0 0.21763040050757049 -0.17968720069079841 0 0.20993609227068011 -0.19774793499612739 0 0.22828034430915081 -0.2110934541680487 0 0.20993609227068011 -0.19774793499612739 0 0.20131593666003639 -0.217981896953616 0 0.20993609227068011 -0.19774793499612739 0 0.20131593666003639 -0.217981896953616 0 0.20993609227068011 -0.19774793499612739 0 0.20131593666003639 -0.217981896953616 0 0.18958879948555099 -0.20173355941159521 0 0.20131593666003639 -0.217981896953616 0 0.18958879948555099 -0.20173355941159521 0 0.18366060959534899 -0.21713467172802561 0 0.1935630327947577 -0.18583646656009301 0 0.20993609227068011 -0.19774793499612739 0 0.18958879948555099 -0.20173355941159521 0 0.1935630327947577 -0.18583646656009301 0 0.20993609227068011 -0.19774793499612739 0 0.1935630327947577 -0.18583646656009301 0 0.18958879948555099 -0.20173355941159521 0 0.18046844422539879 -0.1855752963197608 0 0.18958879948555099 -0.20173355941159521 0 0.16848138820641459 -0.20080057215703309 0 0.18046844422539879 -0.1855752963197608 0 0.16848138820641459 -0.20080057215703309 0 0.18046844422539879 -0.1855752963197608 0 0.16796001693125001 -0.18376641593408169 0 0.18958879948555099 -0.20173355941159521 0 0.18366060959534899 -0.21713467172802561 0 0.16848138820641459 -0.20080057215703309 0 0.18366060959534899 -0.21713467172802561 0 0.16848138820641459 -0.20080057215703309 0 0.16622114257535059 -0.22694147120677899 0 0.16848138820641459 -0.20080057215703309 0 0.16622114257535059 -0.22694147120677899 0 0.14450886211976369 -0.20708188810317479 0 0.16848138820641459 -0.20080057215703309 0 0.1486313718317068 -0.1805600604577392 0 0.16796001693125001 -0.18376641593408169 0 0.19269578104939261 -0.23821585891110461 0 0.16622114257535059 -0.22694147120677899 0 0.16663567319535791 -0.24743712982111701 0 0.18433364830904231 -0.25682192331838899 0 0.19269578104939261 -0.23821585891110461 0 0.16663567319535791 -0.24743712982111701 0 0.19269578104939261 -0.23821585891110461 0 0.18366060959534899 -0.21713467172802561 0 0.16622114257535059 -0.22694147120677899 0 0.16622114257535059 -0.22694147120677899 0 0.16663567319535791 -0.24743712982111701 0 0.1378771808915295 -0.23190515295571781 0 0.14960020784205499 -0.25919099465099238 0 0.1378771808915295 -0.23190515295571781 0 0.14960020784205499 -0.25919099465099238 0 0.16663567319535791 -0.24743712982111701 0 0.1378771808915295 -0.23190515295571781 0 0.16622114257535059 -0.22694147120677899 0 0.1378771808915295 -0.23190515295571781 0 0.14450886211976369 -0.20708188810317479 0 0.1206196248921263 -0.21235878088508681 0 0.1183832189603576 -0.240215746231844 0 0.1378771808915295 -0.23190515295571781 0 0.12940389620191431 -0.25557245137933371 0 0.1183832189603576 -0.240215746231844 0 0.1378771808915295 -0.23190515295571781 0 0.12940389620191431 -0.25557245137933371 0 0.14960020784205499 -0.25919099465099238 0 0.1378771808915295 -0.23190515295571781 0 0.16848138820641459 -0.20080057215703309 0 0.14450886211976369 -0.20708188810317479 0 0.1486313718317068 -0.1805600604577392 0 0.1206196248921263 -0.21235878088508681 0 0.14450886211976369 -0.20708188810317479 0 0.12522246432145431 -0.18992529095669269 0 0.1206196248921263 -0.21235878088508681 0 0.1378771808915295 -0.23190515295571781 0 0.14450886211976369 -0.20708188810317479 0 0.14450886211976369 -0.20708188810317479 0 0.12522246432145431 -0.18992529095669269 0 0.1486313718317068 -0.1805600604577392 0 0.1221080864316903 -0.17195629055185199 0 0.12522246432145431 -0.18992529095669269 0 0.13794162746266181 -0.168725834662316 0 0.12522246432145431 -0.18992529095669269 0 0.1486313718317068 -0.1805600604577392 0 0.13794162746266181 -0.168725834662316 0 0.12522246432145431 -0.18992529095669269 0 0.1486313718317068 -0.1805600604577392 0 0.1486313718317068 -0.1805600604577392 0 0.15268937664355539 -0.16953839672693771 0 0.13794162746266181 -0.168725834662316 0 0.15214422793789381 -0.15767286182891019 0 0.15268937664355539 -0.16953839672693771 0 0.13794162746266181 -0.168725834662316 0 0.1235822029301028 -0.1571122961389384 0 0.15214422793789381 -0.15767286182891019 0 0.1235822029301028 -0.1571122961389384 0 0.1221080864316903 -0.17195629055185199 0 0.13794162746266181 -0.168725834662316 0 0.1235822029301028 -0.1571122961389384 0 0.15214422793789381 -0.15767286182891019 0 0.13794162746266181 -0.168725834662316 0 0.1235822029301028 -0.1571122961389384 0 0.13441109175201199 -0.1435144388820056 0 0.14044943163648621 -0.1503328661268433 0 0.1235822029301028 -0.1571122961389384 0 0.15214422793789381 -0.15767286182891019 0 0.14044943163648621 -0.1503328661268433 0 0.1159752234893537 -0.121345294747025 0 0.14244226979460589 -0.13194729559003479 0 0.1211954973049322 -0.1357543225756985 0 0.1159752234893537 -0.121345294747025 0 0.14244226979460589 -0.13194729559003479 0 0.1211954973049322 -0.1357543225756985 0 0.13441109175201199 -0.1435144388820056 0 0.14244226979460589 -0.13194729559003479 0 0.1482050861877148 -0.1155129050814544 0 0.14244226979460589 -0.13194729559003479 0 0.15675399420316929 -0.12888532417490289 0 0.13441109175201199 -0.1435144388820056 0 0.14244226979460589 -0.13194729559003479 0 0.15166020392593599 -0.14303186765751891 0 0.14244226979460589 -0.13194729559003479 0 0.16890931609986021 -0.1425492964330389 0 0.14244226979460589 -0.13194729559003479 0 0.16890931609986021 -0.1425492964330389 0 0.15675399420316929 -0.12888532417490289 0 0.14244226979460589 -0.13194729559003479 0 0.15166020392593599 -0.14303186765751891 0 0.16890931609986021 -0.1425492964330389 0 0.13441109175201199 -0.1435144388820056 0 0.14044943163648621 -0.1503328661268433 0 0.15166020392593599 -0.14303186765751891 0 0.13441109175201199 -0.1435144388820056 0 0.15166020392593599 -0.14303186765751891 0 0.15214422793789381 -0.15767286182891019 0 0.14044943163648621 -0.1503328661268433 0 0.15166020392593599 -0.14303186765751891 0 0.15214422793789381 -0.15767286182891019 0 0.15166020392593599 -0.14303186765751891 0 0.1616397962290084 -0.14859230620982081 0 0.15166020392593599 -0.14303186765751891 0 0.1616397962290084 -0.14859230620982081 0 0.16890931609986021 -0.1425492964330389 0 0.15166020392593599 -0.14303186765751891 0 0.16890931609986021 -0.1425492964330389 0 0.15214422793789381 -0.15767286182891019 0 0.1616397962290084 -0.14859230620982081 0 0.16934594884414969 -0.15107475892529709 0 0.15214422793789381 -0.15767286182891019 0 0.16934594884414969 -0.15107475892529709 0 0.18070625294568479 -0.15823342751888289 0 0.1616397962290084 -0.14859230620982081 0 0.16890931609986021 -0.1425492964330389 0 0.16934594884414969 -0.15107475892529709 0 0.16890931609986021 -0.1425492964330389 0 0.16745930473049839 -0.1255317995950779 0 0.1759128665085036 -0.13526486158825421 0 0.16890931609986021 -0.1425492964330389 0 0.15675399420316929 -0.12888532417490289 0 0.16745930473049839 -0.1255317995950779 0 0.16745930473049839 -0.1255317995950779 0 0.1867135232732812 -0.1355506941087028 0 0.16745930473049839 -0.1255317995950779 0 0.1759128665085036 -0.13526486158825421 0 0.1867135232732812 -0.1355506941087028 0 0.16745930473049839 -0.1255317995950779 0 0.1867135232732812 -0.1355506941087028 0 0.18200039186704151 -0.1305310056690861 0 0.18175852216491961 -0.12260781872524409 0 0.16745930473049839 -0.1255317995950779 0 0.18200039186704151 -0.1305310056690861 0 0.16890931609986021 -0.1425492964330389 0 0.1759128665085036 -0.13526486158825421 0 0.1800443132565798 -0.1379518860288195 0 0.1759128665085036 -0.13526486158825421 0 0.1800443132565798 -0.1379518860288195 0 0.1867135232732812 -0.1355506941087028 0 0.1800443132565798 -0.1379518860288195 0 0.1867135232732812 -0.1355506941087028 0 0.18497908663626569 -0.1420997191581676 0 0.1867135232732812 -0.1355506941087028 0 0.18497908663626569 -0.1420997191581676 0 0.1867135232732812 -0.1355506941087028 0 0.18713470596521489 -0.13396035869891279 0 0.18200039186704151 -0.1305310056690861 0 0.1867135232732812 -0.1355506941087028 0 0.18713470596521489 -0.13396035869891279 0 0.18175852216491961 -0.12260781872524409 0 0.18713470596521489 -0.13396035869891279 0 0.18200039186704151 -0.1305310056690861 0 0.18713470596521489 -0.13396035869891279 0 0.18200039186704151 -0.1305310056690861 0 0.16890931609986021 -0.1425492964330389 0 0.1833301510083038 -0.14832590263582679 0 0.18497908663626569 -0.1420997191581676 0 0.16890931609986021 -0.1425492964330389 0 0.1800443132565798 -0.1379518860288195 0 0.18497908663626569 -0.1420997191581676 0 0.16890931609986021 -0.1425492964330389 0 0.18497908663626569 -0.1420997191581676 0 0.16934594884414969 -0.15107475892529709 0 0.1833301510083038 -0.14832590263582679 0 0.18070625294568479 -0.15823342751888289 0 0.16890931609986021 -0.1425492964330389 0 0.16934594884414969 -0.15107475892529709 0 0.1833301510083038 -0.14832590263582679 0 0.16890931609986021 -0.1425492964330389 0 0.1833301510083038 -0.14832590263582679 0 0.1833301510083038 -0.14832590263582679 0 0.18497908663626569 -0.1420997191581676 0 0.1833301510083038 -0.14832590263582679 0 0.18070625294568479 -0.15823342751888289 0 0.18070625294568479 -0.15823342751888289 0 0.17806852968388459 -0.16819315469853061 0 0.18070625294568479 -0.15823342751888289 0 0.1720402793419594 -0.17119482995878571 0 0.17806852968388459 -0.16819315469853061 0 0.18070625294568479 -0.15823342751888289 0 0.17806852968388459 -0.16819315469853061 0 0.1864923287916268 -0.17317250488562869 0 0.17806852968388459 -0.16819315469853061 0 0.1864923287916268 -0.17317250488562869 0 0.17700591979482391 -0.17638044035935749 0 0.1864923287916268 -0.17317250488562869 0 0.18046844422539879 -0.1855752963197608 0 0.17700591979482391 -0.17638044035935749 0 0.1935630327947577 -0.18583646656009301 0 0.1864923287916268 -0.17317250488562869 0 0.18046844422539879 -0.1855752963197608 0 0.18046844422539879 -0.1855752963197608 0 0.17700591979482391 -0.17638044035935749 0 0.16796001693125001 -0.18376641593408169 0 0.1720402793419594 -0.17119482995878571 0 0.17700591979482391 -0.17638044035935749 0 0.16796001693125001 -0.18376641593408169 0 0.1720402793419594 -0.17119482995878571 0 0.17806852968388459 -0.16819315469853061 0 0.17700591979482391 -0.17638044035935749 0 0.1486313718317068 -0.1805600604577392 0 0.1720402793419594 -0.17119482995878571 0 0.16796001693125001 -0.18376641593408169 0 0.1486313718317068 -0.1805600604577392 0 0.15268937664355539 -0.16953839672693771 0 0.1720402793419594 -0.17119482995878571 0 0.1486313718317068 -0.1805600604577392 0 0.1720402793419594 -0.17119482995878571 0 0.15214422793789381 -0.15767286182891019 0 0.18070625294568479 -0.15823342751888289 0 0.15214422793789381 -0.15767286182891019 0 0.15268937664355539 -0.16953839672693771 0 0.1720402793419594 -0.17119482995878571 0 0.15214422793789381 -0.15767286182891019 0 0.18070625294568479 -0.15823342751888289 0 0.1720402793419594 -0.17119482995878571 0 
</DataArray>
</Points>
<Cells>
<DataArray type="UInt32" Name="connectivity" format="ascii">
0 1 2 3 4 5 6 7 8 9 10 11 12 13 14 15 16 17 18 19 20 21 22 23 24 25 26 27 28 29 30 31 32 33 34 35 36 37 38 39 40 41 42 43 44 45 46 47 48 49 50 51 52 53 54 55 56 57 58 59 60 61 62 63 64 65 66 67 68 69 70 71 72 73 74 75 76 77 78 79 80 81 82 83 84 85 86 87 88 89 90 91 92 93 94 95 96 97 98 99 100 101 102 103 104 105 106 107 108 109 110 111 112 113 114 115 116 117 118 119 120 121 122 123 124 125 126 127 128 129 130 131 132 133 134 135 136 137 138 139 140 141 142 143 144 145 146 147 148 149 150 151 152 153 154 155 156 157 158 159 160 161 162 163 164 165 166 167 168 169 170 171 172 173 174 175 176 177 178 179 180 181 182 183 184 185 186 187 188 189 190 191 192 193 194 195 196 197 198 199 200 201 202 203 204 205 206 207 208 209 210 211 212 213 214 215 216 217 218 219 220 221 222 223 224 225 226 227 228 229 230 231 232 233 234 235 236 237 238 239 240 241 242 243 244 245 246 247 248 249 250 251 252 253 254 255 256 257 258 259 260 261 262 263 264 265 266 267 268 269 270 271 272 273 274 275 276 277 278 279 280 281 282 283 284 285 286 287 288 289 290 291 292 293 294 295 296 297 298 299 300 301 302 303 304 305 306 307 308 309 310 311 312 313 314 315 316 317 318 319 320 321 322 323 324 325 326 327 328 329 330 331 332 333 334 335 336 337 338 339 340 341 342 343 344 345 346 347 348 349 350 351 352 353 354 355 356 357 358 359 360 361 362 363 364 365 366 367 368 369 370 371 372 373 374 375 376 377 378 379 380 381 382 383 384 385 386 387 388 389 390 391 392 393 394 395 396 397 398 399 400 401 402 403 404 405 406 407 408 409 410 411 412 413 414 415 416 417 418 419 420 421 422 423 424 425 426 427 428 429 430 431 432 433 434 435 436 437 438 439 440 441 442 443 444 445 446 447 448 449 450 451 452 453 454 455 456 457 458 459 460 461 462 463 464 465 466 467 468 469 470 471 472 473 474 475 476 477 478 479 480 481 482 483 484 485 486 487 488 489 490 491 492 493 494 495 496 497 498 499 500 501 502 503 504 505 506 507 508 509 510 511 512 513 514 515 516 517 518 519 520 521 522 523 524 525 526 527 528 529 530 531 532 533 534 535 536 537 538 539 540 541 542 543 544 545 546 547 548 549 550 551 552 553 554 555 556 557 558 559 560 561 562 563 564 565 566 567 568 569 570 571 572 573 574 575 576 577 578 579 580 581 582 583 584 585 586 587 588 589 590 591 592 593 594 595 596 597 598 599 600 601 602 603 604 605 606 607 608 609 610 611 612 613 614 615 616 617 618 619 620 621 622 623 624 625 626 627 628 629 630 631 632 633 634 635 636 637 638 639 640 641 642 643 644 645 646 647 648 649 650 651 652 653 654 655 656 657 658 659 660 661 662 663 664 665 666 667 668 669 670 671 672 673 674 675 676 677 678 679 680 681 682 683 684 685 686 687 688 689 690 691 692 693 694 695 696 697 698 699 700 701 702 703 704 705 706 707 708 709 710 711 712 713 714 715 716 717 718 719 720 721 722 723 724 725 726 727 728 729 730 731 732 733 734 735 736 737 738 739 740 741 742 743 744 745 746 747 748 749 750 751 752 753 754 755 756 757 758 759 760 761 762 763 764 765 766 767 768 769 770 771 772 773 774 775 776 777 778 779 780 781 782 783 784 785 786 787 788 789 790 791 792 793 794 795 796 797 798 799 800 801 802 803 804 805 806 807 808 809 810 811 812 813 814 815 816 817 818 819 820 821 822 823 824 825 826 827 828 829 830 831 832 833 834 835 836 837 838 839 840 841 842 843 844 845 846 847 848 849 850 851 852 853 854 855 856 857 858 859 860 861 862 863 864 865 866 867 868 869 870 871 872 873 874 875 876 877 878 879 880 881 882 883 884 885 886 887 888 889 890 891 892 893 894 895 896 897 898 899 900 901 902 903 904 905 906 907 908 909 910 911 912 913 914 915 916 917 918 919 920 921 922 923 924 925 926 927 928 929 930 931 932 933 934 935 936 937 938 939 940 941 942 943 944 945 946 947 948 949 950 951 952 953 954 955 956 957 958 959 960 961 962 963 964 965 966 967 968 969 970 971 972 973 974 975 976 977 978 979 980 981 982 983 984 985 986 987 988 989 990 991 992 993 994 995 996 997 998 999 1000 1001 1002 1003 1004 1005 1006 1007 1008 1009 1010 1011 1012 1013 1014 1015 1016 1017 1018 1019 1020 1021 1022 1023 1024 1025 1026 1027 1028 1029 1030 1031 1032 1033 1034 1035 1036 1037 1038 1039 1040 1041 1042 1043 1044 1045 1046 1047 1048 1049 1050 1051 1052 1053 1054 1055 1056 1057 1058 1059 1060 1061 1062 1063 1064 1065 1066 1067 1068 1069 1070 1071 1072 1073 1074 1075 1076 1077 1078 1079 1080 1081 1082 1083 1084 1085 1086 1087 1088 1089 1090 1091 1092 1093 1094 1095 1096 1097 1098 1099 1100 1101 1102 1103 1104 1105 1106 1107 1108 1109 1110 1111 1112 1113 1114 1115 1116 1117 1118 1119 1120 1121 1122 1123 1124 1125 1126 1127 1128 1129 1130 1131 1132 1133 1134 1135 1136 1137 1138 1139 1140 1141 1142 1143 1144 1145 1146 1147 1148 1149 1150 1151 1152 1153 1154 1155 1156 1157 1158 1159 1160 1161 1162 1163 1164 1165 1166 1167 1168 1169 1170 1171 1172 1173 1174 1175 1176 1177 1178 1179 1180 1181 1182 1183 1184 1185 1186 1187 1188 1189 1190 1191 1192 1193 1194 1195 1196 1197 1198 1199 1200 1201 1202 1203 1204 1205 1206 1207 1208 1209 1210 1211 1212 1213 1214 1215 1216 1217 1218 1219 1220 1221 1222 1223 1224 1225 1226 1227 1228 1229 1230 1231 1232 1233 1234 1235 1236 1237 1238 1239 1240 1241 1242 1243 1244 1245 1246 1247 1248 1249 1250 1251 1252 1253 1254 1255 1256 1257 1258 1259 1260 1261 1262 1263 1264 1265 1266 1267 1268 1269 1270 1271 1272 1273 1274 1275 1276 1277 1278 1279 1280 1281 1282 1283 1284 1285 1286 1287 1288 1289 1290 1291 1292 1293 1294 1295 1296 1297 1298 1299 1300 1301 1302 1303 1304 1305 1306 1307 1308 1309 1310 1311 1312 1313 1314 1315 1316 1317 1318 1319 1320 1321 1322 1323 1324 1325 1326 1327 1328 1329 1330 1331 1332 1333 1334 1335 1336 1337 1338 1339 1340 1341 1342 1343 1344 1345 1346 1347 1348 1349 1350 1351 1352 1353 1354 1355 1356 1357 1358 1359 1360 1361 1362 1363 1364 1365 1366 1367 1368 1369 1370 1371 1372 1373 1374 1375 1376 1377 1378 1379 1380 1381 1382 1383 1384 1385 1386 1387 1388 1389 1390 1391 1392 1393 1394 1395 1396 1397 1398 1399 1400 1401 1402 1403 1404 1405 1406 1407 1408 1409 1410 1411 1412 1413 1414 1415 1416 1417 1418 1419 1420 1421 1422 1423 1424 1425 1426 1427 1428 1429 1430 1431 1432 1433 1434 1435 1436 1437 1438 1439 1440 1441 1442 1443 1444 1445 1446 1447 1448 1449 1450 1451 1452 1453 1454 1455 1456 1457 1458 1459 1460 1461 1462 1463 1464 1465 1466 1467 1468 1469 1470 1471 1472 1473 1474 1475 1476 1477 1478 1479 1480 1481 1482 1483 1484 1485 1486 1487 1488 1489 1490 1491 1492 1493 1494 1495 1496 1497 1498 1499 1500 1501 1502 1503 1504 1505 1506 1507 1508 1509 1510 1511 1512 1513 1514 1515 1516 1517 1518 1519 1520 1521 1522 1523 1524 1525 1526 1527 1528 1529 1530 1531 1532 1533 1534 1535 1536 1537 1538 1539 1540 1541 1542 1543 1544 1545 1546 1547 1548 1549 1550 1551 1552 1553 1554 1555 1556 1557 1558 1559 1560 1561 1562 1563 1564 1565 1566 1567 1568 1569 1570 1571 1572 1573 1574 1575 1576 1577 1578 1579 1580 1581 1582 1583 1584 1585 1586 1587 1588 1589 1590 1591 1592 1593 1594 1595 1596 1597 1598 1599 1600 1601 1602 1603 1604 1605 1606 1607 1608 1609 1610 1611 1612 1613 1614 1615 1616 1617 1618 1619 1620 1621 1622 1623 1624 1625 1626 1627 1628 1629 1630 1631 1632 1633 1634 1635 1636 1637 1638 1639 1640 1641 1642 1643 1644 1645 1646 1647 1648 1649 1650 1651 1652 1653 1654 1655 1656 1657 1658 1659 1660 1661 1662 1663 1664 1665 1666 1667 1668 1669 1670 1671 1672 1673 1674 1675 1676 1677 1678 1679 1680 1681 1682 1683 1684 1685 1686 1687 1688 1689 1690 1691 1692 1693 1694 1695 1696 1697 1698 1699 1700 1701 1702 1703 1704 1705 1706 1707 1708 1709 1710 1711 1712 1713 1714 1715 1716 1717 1718 1719 1720 1721 1722 1723 1724 1725 1726 1727 1728 1729 1730 1731 1732 1733 1734 1735 1736 1737 1738 1739 1740 1741 1742 1743 1744 1745 1746 1747 1748 1749 1750 1751 1752 1753 1754 1755 1756 1757 1758 1759 1760 1761 1762 1763 1764 1765 1766 1767 1768 1769 1770 1771 1772 1773 1774 1775 1776 1777 1778 1779 1780 1781 1782 1783 1784 1785 1786 1787 1788 1789 1790 1791 1792 1793 1794 1795 1796 1797 1798 1799 1800 1801 1802 1803 1804 1805 1806 1807 1808 1809 1810 1811 1812 1813 1814 1815 1816 1817 1818 1819 1820 1821 1822 1823 1824 1825 1826 1827 1828 1829 1830 1831 1832 1833 1834 1835 1836 1837 1838 1839 1840 1841 1842 1843 1844 1845 1846 1847 1848 1849 1850 1851 1852 1853 1854 1855 1856 1857 1858 1859 1860 1861 1862 1863 1864 1865 1866 1867 1868 1869 1870 1871 1872 1873 1874 1875 1876 1877 1878 1879 1880 1881 1882 1883 1884 1885 1886 1887 1888 1889 1890 1891 1892 1893 1894 1895 1896 1897 1898 1899 1900 1901 1902 1903 1904 1905 1906 1907 1908 1909 1910 1911 1912 1913 1914 1915 1916 1917 1918 1919 1920 1921 1922 1923 1924 1925 1926 1927 1928 1929 1930 1931 1932 1933 1934 1935 1936 1937 1938 1939 1940 1941 1942 1943 1944 1945 1946 1947 1948 1949 1950 1951 1952 1953 1954 1955 1956 1957 1958 1959 1960 1961 1962 1963 1964 1965 1966 1967 1968 1969 1970 1971 1972 1973 1974 1975 1976 1977 1978 1979 1980 1981 1982 1983 1984 1985 1986 1987 1988 1989 1990 1991 1992 1993 1994 1995 1996 1997 1998 1999 2000 2001 2002 2003 2004 2005 2006 2007 2008 2009 2010 2011 2012 2013 2014 2015 2016 2017 2018 2019 2020 2021 2022 2023 2024 2025 2026 2027 2028 2029 2030 2031 2032 2033 2034 2035 2036 2037 2038 2039 2040 2041 2042 2043 2044 2045 2046 2047 2048 2049 2050 2051 2052 2053 2054 2055 2056 2057 2058 2059 2060 2061 2062 2063 2064 2065 2066 2067 2068 2069 2070 2071 2072 2073 2074 2075 2076 2077 2078 2079 2080 2081 2082 2083 2084 2085 2086 2087 2088 2089 2090 2091 2092 2093 2094 2095 2096 2097 2098 2099 2100 2101 2102 2103 2104 2105 2106 2107 2108 2109 2110 2111 2112 2113 2114 2115 2116 2117 2118 2119 2120 2121 2122 2123 2124 2125 2126 2127 2128 2129 2130 2131 2132 2133 2134 2135 2136 2137 2138 2139 2140 2141 2142 2143 2144 2145 2146 2147 2148 2149 2150 2151 2152 2153 2154 2155 2156 2157 2158 2159 2160 2161 2162 2163 2164 2165 2166 2167 2168 2169 2170 2171 2172 2173 2174 2175 2176 2177 2178 2179 2180 2181 2182 2183 2184 2185 2186 2187 2188 2189 2190 2191 2192 2193 2194 2195 2196 2197 2198 2199 2200 2201 2202 2203 2204 2205 2206 2207 2208 2209 2210 2211 2212 2213 2214 2215 2216 2217 2218 2219 2220 2221 2222 2223 2224 2225 2226 2227 2228 2229 2230 2231 2232 2233 2234 2235 2236 2237 2238 2239 2240 2241 2242 2243 2244 2245 2246 2247 2248 2249 2250 2251 2252 2253 2254 2255 2256 2257 2258 2259 2260 2261 2262 2263 2264 2265 2266 2267 2268 2269 2270 2271 2272 2273 2274 2275 2276 2277 2278 2279 2280 2281 2282 2283 2284 2285 2286 2287 2288 2289 2290 2291 2292 2293 2294 2295 2296 2297 2298 2299 2300 2301 2302 2303 2304 2305 2306 2307 2308 2309 2310 2311 2312 2313 2314 2315 2316 2317 2318 2319 2320 2321 2322 2323 2324 2325 2326 2327 2328 2329 2330 2331 2332 2333 2334 2335 2336 2337 2338 2339 2340 2341 2342 2343 2344 2345 2346 2347 2348 2349 2350 2351 2352 2353 2354 2355 2356 2357 2358 2359 2360 2361 2362 2363 2364 2365 2366 2367 2368 2369 2370 2371 2372 2373 2374 2375 2376 2377 2378 2379 2380 2381 2382 2383 2384 2385 2386 2387 2388 2389 2390 2391 2392 2393 2394 2395 2396 2397 2398 2399 2400 2401 2402 2403 2404 2405 2406 2407 2408 2409 2410 2411 2412 2413 2414 2415 2416 2417 2418 2419 2420 2421 2422 2423 2424 2425 2426 2427 2428 2429 2430 2431 2432 2433 2434 2435 2436 2437 2438 2439 2440 2441 2442 2443 2444 2445 2446 2447 2448 2449 2450 2451 2452 2453 2454 2455 2456 2457 2458 2459 2460 2461 2462 2463 2464 2465 2466 2467 2468 2469 2470 2471 2472 2473 2474 2475 2476 2477 2478 2479 2480 2481 2482 2483 2484 2485 2486 2487 2488 2489 2490 2491 2492 2493 2494 2495 2496 2497 2498 2499 2500 2501 2502 2503 2504 2505 2506 2507 2508 2509 2510 2511 2512 2513 2514 2515 2516 2517 2518 2519 2520 2521 2522 2523 2524 2525 2526 2527 2528 2529 2530 2531 2532 2533 2534 2535 2536 2537 2538 2539 2540 2541 2542 2543 2544 2545 2546 2547 2548 2549 2550 2551 2552 2553 2554 2555 2556 2557 2558 2559 2560 2561 2562 2563 2564 2565 2566 2567 2568 2569 2570 2571 2572 2573 2574 2575 2576 2577 2578 2579 2580 2581 2582 2583 2584 2585 2586 2587 2588 2589 2590 2591 2592 2593 2594 2595 2596 2597 2598 2599 2600 2601 2602 2603 2604 2605 2606 2607 2608 2609 2610 2611 2612 2613 2614 2615 2616 2617 2618 2619 2620 2621 2622 2623 2624 2625 2626 2627 2628 2629 2630 2631 2632 2633 2634 2635 2636 2637 2638 2639 2640 2641 2642 2643 2644 2645 2646 2647 2648 2649 2650 2651 2652 2653 2654 2655 2656 2657 2658 2659 2660 2661 2662 2663 2664 2665 2666 2667 2668 2669 2670 2671 2672 2673 2674 2675 2676 2677 2678 2679 2680 2681 2682 2683 2684 2685 2686 2687 2688 2689 2690 2691 2692 2693 2694 2695 2696 2697 2698 2699 2700 2701 2702 2703 2704 2705 2706 2707 2708 2709 2710 2711 2712 2713 2714 2715 2716 2717 2718 2719 2720 2721 2722 2723 2724 2725 2726 2727 2728 2729 2730 2731 2732 2733 2734 2735 2736 2737 2738 2739 2740 2741 2742 2743 2744 2745 2746 2747 2748 2749 2750 2751 2752 2753 2754 2755 2756 2757 2758 2759 2760 2761 2762 2763 2764 2765 2766 2767 2768 2769 2770 2771 2772 2773 2774 2775 2776 2777 2778 2779 2780 2781 2782 2783 2784 2785 2786 2787 2788 2789 2790 2791 2792 2793 2794 2795 2796 2797 2798 2799 2800 2801 2802 2803 2804 2805 2806 2807 2808 2809 2810 2811 2812 2813 2814 2815 2816 2817 2818 2819 2820 2821 2822 2823 2824 2825 2826 2827 2828 2829 2830 2831 2832 2833 2834 2835 2836 2837 2838 2839 2840 2841 2842 2843 2844 2845 2846 2847 2848 2849 2850 2851 2852 2853 2854 2855 2856 2857 2858 2859 2860 2861 2862 2863 2864 2865 2866 2867 2868 2869 2870 2871 2872 2873 2874 2875 2876 2877 2878 2879 2880 2881 2882 2883 2884 2885 2886 2887 2888 2889 2890 2891 2892 2893 2894 2895 2896 2897 2898 2899 2900 2901 2902 2903 2904 2905 2906 2907 2908 2909 2910 2911 2912 2913 2914 2915 2916 2917 2918 2919 2920 2921 2922 2923 2924 2925 2926 2927 2928 2929 2930 2931 2932 2933 2934 2935 2936 2937 2938 2939 2940 2941 2942 2943 2944 2945 2946 2947 2948 2949 2950 2951 2952 2953 2954 2955 2956 2957 2958 2959 2960 2961 2962 2963 2964 2965 2966 2967 2968 2969 2970 2971 2972 2973 2974 2975 2976 2977 2978 2979 2980 2981 2982 2983 2984 2985 2986 2987 2988 2989 2990 2991 2992 2993 2994 2995 2996 2997 2998 2999 3000 3001 3002 3003 3004 3005 3006 3007 3008 3009 3010 3011 3012 3013 3014 3015 3016 3017 3018 3019 3020 3021 3022 3023 3024 3025 3026 3027 3028 3029 3030 3031 3032 3033 3034 3035 3036 3037 3038 3039 3040 3041 3042 3043 3044 3045 3046 3047 3048 3049 3050 3051 3052 3053 3054 3055 3056 3057 3058 3059 3060 3061 3062 3063 3064 3065 3066 3067 3068 3069 3070 3071 3072 3073 3074 3075 3076 3077 3078 3079 3080 3081 3082 3083 3084 3085 3086 3087 3088 3089 3090 3091 3092 3093 3094 3095 3096 3097 3098 3099 3100 3101 3102 3103 3104 3105 3106 3107 3108 3109 3110 3111 3112 3113 3114 3115 3116 3117 3118 3119 3120 3121 3122 3123 3124 3125 3126 3127 3128 3129 3130 3131 3132 3133 3134 3135 3136 3137 3138 3139 3140 3141 3142 3143 3144 3145 3146 3147 3148 3149 3150 3151 3152 3153 3154 3155 3156 3157 3158 3159 3160 3161 3162 3163 3164 3165 3166 3167 3168 3169 3170 3171 3172 3173 3174 3175 3176 3177 3178 3179 3180 3181 3182 3183 3184 3185 3186 3187 3188 3189 3190 3191 3192 3193 3194 3195 3196 3197 3198 3199 3200 3201 3202 3203 3204 3205 3206 3207 3208 3209 3210 3211 3212 3213 3214 3215 3216 3217 3218 3219 3220 3221 3222 3223 3224 3225 3226 3227 3228 3229 3230 3231 3232 3233 3234 3235 3236 3237 3238 3239 3240 3241 3242 3243 3244 3245 3246 3247 3248 3249 3250 3251 3252 3253 3254 3255 3256 3257 3258 3259 3260 3261 3262 3263 3264 3265 3266 3267 3268 3269 3270 3271 3272 3273 3274 3275 3276 3277 3278 3279 3280 3281 3282 3283 3284 3285 3286 3287 3288 3289 3290 3291 3292 3293 3294 3295 3296 3297 3298 3299 3300 3301 3302 3303 3304 3305 3306 3307 3308 3309 3310 3311 3312 3313 3314 3315 3316 3317 3318 3319 3320 3321 3322 3323 3324 3325 3326 3327 3328 3329 3330 3331 3332 3333 3334 3335 3336 3337 3338 3339 3340 3341 3342 3343 3344 3345 3346 3347 3348 3349 3350 3351 3352 3353 3354 3355 3356 3357 3358 3359 3360 3361 3362 3363 3364 3365 3366 3367 3368 3369 3370 3371 3372 3373 3374 3375 3376 3377 3378 3379 3380 3381 3382 3383 3384 3385 3386 3387 3388 3389 3390 3391 3392 3393 3394 3395 3396 3397 3398 3399 3400 3401 3402 3403 3404 3405 3406 3407 3408 3409 3410 3411 3412 3413 3414 3415 3416 3417 3418 3419 3420 3421 3422 3423 3424 3425 3426 3427 3428 3429 3430 3431 3432 3433 3434 3435 3436 3437 3438 3439 3440 3441 3442 3443 3444 3445 3446 3447 3448 3449 3450 3451 3452 3453 3454 3455 3456 3457 3458 3459 3460 3461 3462 3463 3464 3465 3466 3467 3468 3469 3470 3471 3472 3473 3474 3475 3476 3477 3478 3479 3480 3481 3482 3483 3484 3485 3486 3487 3488 3489 3490 3491 3492 3493 3494 3495 3496 3497 3498 3499 3500 3501 3502 3503 3504 3505 3506 3507 3508 3509 3510 3511 3512 3513 3514 3515 3516 3517 3518 3519 3520 3521 3522 3523 3524 3525 3526 3527 3528 3529 3530 3531 3532 3533 3534 3535 3536 3537 3538 3539 3540 3541 3542 3543 3544 3545 3546 3547 3548 3549 3550 3551 3552 3553 3554 3555 3556 3557 3558 3559 3560 3561 3562 3563 3564 3565 3566 3567 3568 3569 3570 3571 3572 3573 3574 3575 3576 3577 3578 3579 3580 3581 3582 3583 3584 3585 3586 3587 3588 3589 3590 3591 3592 3593 3594 3595 3596 3597 3598 3599 3600 3601 3602 3603 3604 3605 3606 3607 3608 3609 3610 3611 3612 3613 3614 3615 3616 3617 3618 3619 3620 3621 3622 3623 3624 3625 3626 3627 3628 3629 3630 3631 3632 3633 3634 3635 3636 3637 3638 3639 3640 3641 3642 3643 3644 3645 3646 3647 3648 3649 3650 3651 3652 3653 3654 3655 3656 3657 3658 3659 3660 3661 3662 3663 3664 3665 3666 3667 3668 3669 3670 3671 3672 3673 3674 3675 3676 3677 3678 3679 3680 3681 3682 3683 3684 3685 3686 3687 3688 3689 3690 3691 3692 3693 3694 3695 3696 3697 3698 3699 3700 3701 3702 3703 3704 3705 3706 3707 3708 3709 3710 3711 3712 3713 3714 3715 3716 3717 3718 3719 3720 3721 3722 3723 3724 3725 3726 3727 3728 3729 3730 3731 3732 3733 3734 3735 3736 3737 3738 3739 3740 3741 3742 3743 3744 3745 3746 3747 3748 3749 3750 3751 3752 3753 3754 3755 3756 3757 3758 3759 3760 3761 3762 3763 3764 3765 3766 3767 3768 3769 3770 3771 3772 3773 3774 3775 3776 3777 3778 3779 3780 3781 3782 3783 3784 3785 3786 3787 3788 3789 3790 3791 3792 3793 3794 3795 3796 3797 3798 3799 3800 3801 3802 3803 3804 3805 3806 3807 3808 3809 3810 3811 3812 3813 3814 3815 3816 3817 3818 3819 3820 3821 3822 3823 3824 3825 3826 3827 3828 3829 3830 3831 3832 3833 3834 3835 3836 3837 3838 3839 3840 3841 3842 3843 3844 3845 3846 3847 3848 3849 3850 3851 3852 3853 3854 3855 3856 3857 3858 3859 3860 3861 3862 3863 3864 3865 3866 3867 3868 3869 3870 3871 3872 3873 3874 3875 3876 3877 3878 3879 3880 3881 3882 3883 3884 3885 3886 3887 3888 3889 3890 3891 3892 3893 3894 3895 3896 3897 3898 3899 3900 3901 3902 3903 3904 3905 3906 3907 3908 3909 3910 3911 3912 3913 3914 3915 3916 3917 3918 3919 3920 3921 3922 3923 3924 3925 3926 3927 3928 3929 3930 3931 3932 3933 3934 3935 3936 3937 3938 3939 3940 3941 3942 3943 3944 3945 3946 3947 3948 3949 3950 3951 3952 3953 3954 3955 3956 3957 3958 3959 3960 3961 3962 3963 3964 3965 3966 3967 3968 3969 3970 3971 3972 3973 3974 3975 3976 3977 3978 3979 3980 3981 3982 3983 3984 3985 3986 3987 3988 3989 3990 3991 3992 3993 3994 3995 3996 3997 3998 3999 4000 4001 4002 4003 4004 4005 4006 4007 4008 4009 4010 4011 4012 4013 4014 4015 4016 4017 4018 4019 4020 4021 4022 4023 4024 4025 4026 4027 4028 4029 4030 4031 4032 4033 4034 4035 4036 4037 4038 4039 4040 4041 4042 4043 4044 4045 4046 4047 4048 4049 4050 4051 4052 4053 4054 4055 4056 4057 4058 4059 4060 4061 4062 4063 4064 4065 4066 4067 4068 4069 4070 4071 4072 4073 4074 4075 4076 4077 4078 4079 4080 4081 4082 4083 4084 4085 4086 4087 4088 4089 4090 4091 4092 4093 4094 4095 4096 4097 4098 4099 4100 4101 4102 4103 4104 4105 4106 4107 4108 4109 4110 4111 4112 4113 4114 4115 4116 4117 4118 4119 4120 4121 4122 4123 4124 4125 4126 4127 4128 4129 4130 4131 4132 4133 4134 4135 4136 4137 4138 4139 4140 4141 4142 4143 4144 4145 4146 4147 4148 4149 4150 4151 4152 4153 4154 4155 4156 4157 4158 4159 4160 4161 4162 4163 4164 4165 4166 4167 4168 4169 4170 4171 4172 4173 4174 4175 4176 4177 4178 4179 4180 4181 4182 4183 4184 4185 4186 4187 4188 4189 4190 4191 4192 4193 4194 4195 4196 4197 4198 4199 4200 4201 4202 4203 4204 4205 4206 4207 4208 4209 4210 4211 4212 4213 4214 4215 4216 4217 4218 4219 4220 4221 4222 4223 4224 4225 4226 4227 4228 4229 4230 4231 4232 4233 4234 4235 4236 4237 4238 4239 4240 4241 4242 4243 4244 4245 4246 4247 4248 4249 4250 4251 4252 4253 4254 4255 4256 4257 4258 4259 4260 4261 4262 4263 4264 4265 4266 4267 4268 4269 4270 4271 4272 4273 4274 4275 4276 4277 4278 4279 4280 4281 4282 4283 4284 4285 4286 4287 4288 4289 4290 4291 4292 4293 4294 4295 4296 4297 4298 4299 4300 4301 4302 4303 4304 4305 4306 4307 4308 4309 4310 4311 4312 4313 4314 4315 4316 4317 4318 4319 4320 4321 4322 4323 4324 4325 4326 4327 4328 4329 4330 4331 4332 4333 4334 4335 4336 4337 4338 4339 4340 4341 4342 4343 4344 4345 4346 4347 4348 4349 4350 4351 4352 4353 4354 4355 4356 4357 4358 4359 4360 4361 4362 4363 4364 4365 4366 4367 4368 4369 4370 4371 4372 4373 4374 4375 4376 4377 4378 4379 4380 4381 4382 4383 4384 4385 4386 4387 4388 4389 4390 4391 4392 4393 4394 4395 4396 4397 4398 4399 4400 4401 4402 4403 4404 4405 4406 4407 4408 4409 4410 4411 4412 4413 4414 4415 4416 4417 4418 4419 4420 4421 4422 4423 4424 4425 4426 4427 4428 4429 4430 4431 4432 4433 4434 4435 4436 4437 4438 4439 4440 4441 4442 4443 4444 4445 4446 4447 4448 4449 4450 4451 4452 4453 4454 4455 4456 4457 4458 4459 4460 4461 4462 4463 4464 4465 4466 4467 4468 4469 4470 4471 4472 4473 4474 4475 4476 4477 4478 4479 4480 4481 4482 4483 4484 4485 4486 4487 4488 4489 4490 4491 4492 4493 4494 4495 4496 4497 4498 4499 4500 4501 4502 4503 4504 4505 4506 4507 4508 4509 4510 4511 4512 4513 4514 4515 4516 4517 4518 4519 4520 4521 4522 4523 4524 4525 4526 4527 4528 4529 4530 4531 4532 4533 4534 4535 4536 4537 4538 4539 4540 4541 4542 4543 4544 4545 4546 4547 4548 4549 4550 4551 4552 4553 4554 4555 4556 4557 4558 4559 4560 4561 4562 4563 4564 4565 4566 4567 4568 4569 4570 4571 4572 4573 4574 4575 4576 4577 4578 4579 4580 4581 4582 4583 4584 4585 4586 4587 4588 4589 4590 4591 4592 4593 4594 4595 4596 4597 4598 4599 4600 4601 4602 4603 4604 4605 4606 4607 4608 4609 4610 4611 4612 4613 4614 4615 4616 4617 4618 4619 4620 4621 4622 4623 4624 4625 4626 4627 4628 4629 4630 4631 4632 4633 4634 4635 4636 4637 4638 4639 4640 4641 4642 4643 4644 4645 4646 4647 4648 4649 4650 4651 4652 4653 4654 4655 4656 4657 4658 4659 4660 4661 4662 4663 4664 4665 4666 4667 4668 4669 4670 4671 4672 4673 4674 4675 4676 4677 4678 4679 4680 4681 4682 4683 4684 4685 4686 4687 4688 4689 4690 4691 4692 4693 4694 4695 4696 4697 4698 4699 4700 4701 4702 4703 4704 4705 4706 4707 4708 4709 4710 4711 4712 4713 4714 4715 4716 4717 4718 4719 4720 4721 4722 4723 4724 4725 4726 4727 4728 4729 4730 4731 4732 4733 4734 4735 4736 4737 4738 4739 4740 4741 4742 4743 4744 4745 4746 4747 4748 4749 4750 4751 4752 4753 4754 4755 4756 4757 4758 4759 4760 4761 4762 4763 4764 4765 4766 4767 4768 4769 4770 4771 4772 4773 4774 4775 4776 4777 4778 4779 4780 4781 4782 4783 4784 4785 4786 4787 4788 4789 4790 4791 4792 4793 4794 4795 4796 4797 4798 4799 4800 4801 4802 4803 4804 4805 4806 4807 4808 4809 4810 4811 4812 4813 4814 4815 4816 4817 4818 4819 4820 4821 4822 4823 4824 4825 4826 4827 4828 4829 4830 4831 4832 4833 4834 4835 4836 4837 4838 4839 4840 4841 4842 4843 4844 4845 4846 4847 4848 4849 4850 4851 4852 4853 4854 4855 4856 4857 4858 4859 4860 4861 4862 4863 4864 4865 4866 4867 4868 4869 4870 4871 4872 4873 4874 4875 4876 4877 4878 4879 4880 4881 4882 4883 4884 4885 4886 4887 4888 4889 4890 4891 4892 4893 4894 4895 4896 4897 4898 4899 4900 4901 4902 4903 4904 4905 4906 4907 4908 4909 4910 4911 4912 4913 4914 4915 4916 4917 4918 4919 4920 4921 4922 4923 4924 4925 4926 4927 4928 4929 4930 4931 4932 4933 4934 4935 4936 4937 4938 4939 4940 4941 4942 4943 4944 4945 4946 4947 4948 4949 4950 4951 4952 4953 4954 4955 4956 4957 4958 4959 4960 4961 4962 4963 4964 4965 4966 4967 4968 4969 4970 4971 4972 4973 4974 4975 4976 4977 4978 4979 4980 4981 4982 4983 4984 4985 4986 4987 4988 4989 4990 4991 4992 4993 4994 4995 4996 4997 4998 4999 5000 5001 5002 5003 5004 5005 5006 5007 5008 5009 5010 5011 5012 5013 5014 5015 5016 5017 5018 5019 5020 5021 5022 5023 5024 5025 5026 5027 5028 5029 5030 5031 5032 5033 5034 5035 5036 5037 5038 5039 5040 5041 5042 5043 5044 5045 5046 5047 5048 5049 5050 5051 5052 5053 5054 5055 5056 5057 5058 5059 5060 5061 5062 5063 5064 5065 5066 5067 5068 5069 5070 5071 5072 5073 5074 5075 5076 5077 5078 5079 5080 5081 5082 5083 5084 5085 5086 5087 5088 5089 5090 5091 5092 5093 5094 5095 5096 5097 5098 5099 5100 5101 5102 5103 5104 5105 5106 5107 5108 5109 5110 5111 5112 5113 5114 5115 5116 5117 5118 5119 5120 5121 5122 5123 5124 5125 5126 5127 5128 5129 5130 5131 5132 5133 5134 5135 5136 5137 5138 5139 5140 5141 5142 5143 5144 5145 5146 5147 5148 5149 5150 5151 5152 5153 5154 5155 5156 5157 5158 5159 5160 5161 5162 5163 5164 5165 5166 5167 5168 5169 5170 5171 5172 5173 5174 5175 5176 5177 5178 5179 5180 5181 5182 5183 5184 5185 5186 5187 5188 5189 5190 5191 5192 5193 5194 5195 5196 5197 5198 5199 5200 5201 5202 5203 5204 5205 5206 5207 5208 5209 5210 5211 5212 5213 5214 5215 5216 5217 5218 5219 5220 5221 5222 5223 5224 5225 5226 5227 5228 5229 5230 5231 5232 5233 5234 5235 5236 5237 5238 5239 5240 5241 5242 5243 5244 5245 5246 5247 5248 5249 5250 5251 5252 5253 5254 5255 5256 5257 5258 5259 5260 5261 5262 5263 5264 5265 5266 5267 5268 5269 5270 5271 5272 5273 5274 5275 5276 5277 5278 5279 5280 5281 5282 5283 5284 5285 5286 5287 5288 5289 5290 5291 5292 5293 5294 5295 5296 5297 5298 5299 5300 5301 5302 5303 5304 5305 5306 5307 5308 5309 5310 5311 5312 5313 5314 5315 5316 5317 5318 5319 5320 5321 5322 5323 5324 5325 5326 5327 5328 5329 5330 5331 5332 5333 5334 5335 5336 5337 5338 5339 5340 5341 5342 5343 5344 5345 5346 5347 5348 5349 5350 5351 5352 5353 5354 5355 5356 5357 5358 5359 5360 5361 5362 5363 5364 5365 5366 5367 5368 5369 5370 5371 5372 5373 5374 5375 5376 5377 5378 5379 5380 5381 5382 5383 5384 5385 5386 5387 5388 5389 5390 5391 5392 5393 5394 5395 5396 5397 5398 5399 5400 5401 5402 5403 5404 5405 5406 5407 5408 5409 5410 5411 5412 5413 5414 5415 5416 5417 5418 5419 5420 5421 5422 5423 5424 5425 5426 5427 5428 5429 5430 5431 5432 5433 5434 5435 5436 5437 5438 5439 5440 5441 5442 5443 5444 5445 5446 5447 5448 5449 5450 5451 5452 5453 5454 5455 5456 5457 5458 5459 5460 5461 5462 5463 5464 5465 5466 5467 5468 5469 5470 5471 5472 5473 5474 5475 5476 5477 5478 5479 5480 5481 5482 5483 5484 5485 5486 5487 5488 5489 5490 5491 5492 5493 5494 5495 5496 5497 5498 5499 5500 5501 5502 5503 5504 5505 5506 5507 5508 5509 5510 5511 5512 5513 5514 5515 5516 5517 5518 5519 5520 5521 5522 5523 5524 5525 5526 5527 5528 5529 5530 5531 5532 5533 5534 5535 5536 5537 5538 5539 5540 5541 5542 5543 5544 5545 5546 5547 5548 5549 5550 5551 5552 5553 5554 5555 5556 5557 5558 5559 5560 5561 5562 5563 5564 5565 5566 5567 5568 5569 5570 5571 5572 5573 5574 5575 5576 5577 5578 5579 5580 5581 5582 5583 5584 5585 5586 5587 5588 5589 5590 5591 5592 5593 5594 5595 5596 5597 5598 5599 5600 5601 5602 5603 5604 5605 5606 5607 5608 5609 5610 5611 5612 5613 5614 5615 5616 5617 5618 5619 5620 5621 5622 5623 5624 5625 5626 5627 5628 5629 5630 5631 5632 5633 5634 5635 5636 5637 5638 5639 5640 5641 5642 5643 5644 5645 5646 5647 5648 5649 5650 5651 5652 5653 5654 5655 5656 5657 5658 5659 5660 5661 5662 5663 5664 5665 5666 5667 5668 5669 5670 5671 5672 5673 5674 5675 5676 5677 5678 5679 5680 5681 5682 5683 5684 5685 5686 5687 5688 5689 5690 5691 5692 5693 5694 5695 5696 5697 5698 5699 5700 5701 5702 5703 5704 5705 5706 5707 5708 5709 5710 5711 5712 5713 5714 5715 5716 5717 5718 5719 5720 5721 5722 5723 5724 5725 5726 5727 5728 5729 5730 5731 5732 5733 5734 5735 5736 5737 5738 5739 5740 5741 5742 5743 5744 5745 5746 5747 5748 5749 5750 5751 5752 5753 5754 5755 5756 5757 5758 5759 5760 5761 5762 5763 5764 5765 5766 5767 5768 5769 5770 5771 5772 5773 5774 5775 5776 5777 5778 5779 5780 5781 5782 5783 5784 5785 5786 5787 5788 5789 5790 5791 5792 5793 5794 5795 5796 5797 5798 5799 5800 5801 5802 5803 5804 5805 5806 5807 5808 5809 5810 5811 5812 5813 5814 5815 5816 5817 5818 5819 5820 5821 5822 5823 5824 5825 5826 5827 5828 5829 5830 5831 5832 5833 5834 5835 5836 5837 5838 5839 5840 5841 5842 5843 5844 5845 5846 5847 5848 5849 5850 5851 5852 5853 5854 5855 5856 5857 5858 5859 5860 5861 5862 5863 5864 5865 5866 5867 5868 5869 5870 5871 5872 5873 5874 5875 5876 5877 5878 5879 5880 5881 5882 5883 5884 5885 5886 5887 5888 5889 5890 5891 5892 5893 5894 5895 5896 5897 5898 5899 5900 5901 5902 5903 5904 5905 5906 5907 5908 5909 5910 5911 5912 5913 5914 5915 5916 5917 5918 5919 5920 5921 5922 5923 5924 5925 5926 5927 5928 5929 5930 5931 5932 5933 5934 5935 5936 5937 5938 5939 5940 5941 5942 5943 5944 5945 5946 5947 5948 5949 5950 5951 5952 5953 5954 5955 5956 5957 5958 5959 5960 5961 5962 5963 5964 5965 5966 5967 5968 5969 5970 5971 5972 5973 5974 5975 5976 5977 5978 5979 5980 5981 5982 5983 5984 5985 5986 5987 5988 5989 5990 5991 5992 5993 5994 5995 5996 5997 5998 5999 6000 6001 6002 6003 6004 6005 6006 6007 6008 6009 6010 6011 6012 6013 6014 6015 6016 6017 6018 6019 6020 6021 6022 6023 6024 6025 6026 6027 6028 6029 6030 6031 6032 6033 6034 6035 6036 6037 6038 6039 6040 6041 6042 6043 6044 6045 6046 6047 6048 6049 6050 6051 6052 6053 6054 6055 6056 6057 6058 6059 6060 6061 6062 6063 6064 6065 6066 6067 6068 6069 6070 6071 6072 6073 6074 6075 6076 6077 6078 6079 6080 6081 6082 6083 6084 6085 6086 6087 6088 6089 6090 6091 6092 6093 6094 6095 6096 6097 6098 6099 6100 6101 6102 6103 6104 6105 6106 6107 6108 6109 6110 6111 6112 6113 6114 6115 6116 6117 6118 6119 6120 6121 6122 6123 6124 6125 6126 6127 6128 6129 6130 6131 6132 6133 6134 6135 6136 6137 6138 6139 6140 6141 6142 6143 6144 6145 6146 6147 6148 6149 6150 6151 6152 6153 6154 6155 6156 6157 6158 6159 6160 6161 6162 6163 6164 6165 6166 6167 6168 6169 6170 6171 6172 6173 6174 6175 6176 6177 6178 6179 6180 6181 6182 6183 6184 6185 6186 6187 6188 6189 6190 6191 6192 6193 6194 6195 6196 6197 6198 6199 6200 6201 6202 6203 6204 6205 6206 6207 6208 6209 6210 6211 6212 6213 6214 6215 6216 6217 6218 6219 6220 6221 6222 6223 6224 6225 6226 6227 6228 6229 6230 6231 6232 6233 6234 6235 6236 6237 6238 6239 6240 6241 6242 6243 6244 6245 6246 6247 6248 6249 6250 6251 6252 6253 6254 6255 6256 6257 6258 6259 6260 6261 6262 6263 6264 6265 6266 6267 6268 6269 6270 6271 6272 6273 6274 6275 6276 6277 6278 6279 6280 6281 6282 6283 6284 6285 6286 6287 6288 6289 6290 6291 6292 6293 6294 6295 6296 6297 6298 6299 6300 6301 6302 6303 6304 6305 6306 6307 6308 6309 6310 6311 6312 6313 6314 6315 6316 6317 6318 6319 6320 6321 6322 6323 6324 6325 6326 6327 6328 6329 6330 6331 6332 6333 6334 6335 6336 6337 6338 6339 6340 6341 6342 6343 6344 6345 6346 6347 6348 6349 6350 6351 6352 6353 6354 6355 6356 6357 6358 6359 6360 6361 6362 6363 6364 6365 6366 6367 6368 6369 6370 6371 6372 6373 6374 6375 6376 6377 6378 6379 6380 6381 6382 6383 6384 6385 6386 6387 6388 6389 6390 6391 6392 6393 6394 6395 6396 6397 6398 6399 6400 6401 6402 6403 6404 6405 6406 6407 6408 6409 6410 6411 6412 6413 6414 6415 6416 6417 6418 6419 6420 6421 6422 6423 6424 6425 6426 6427 6428 6429 6430 6431 6432 6433 6434 6435 6436 6437 6438 6439 6440 6441 6442 6443 6444 6445 6446 6447 6448 6449 6450 6451 6452 6453 6454 6455 6456 6457 6458 6459 6460 6461 6462 6463 6464 6465 6466 6467 6468 6469 6470 6471 6472 6473 6474 6475 6476 6477 6478 6479 6480 6481 6482 6483 6484 6485 6486 6487 6488 6489 6490 6491 6492 6493 6494 6495 6496 6497 6498 6499 6500 6501 6502 6503 6504 6505 6506 6507 6508 6509 6510 6511 6512 6513 6514 6515 6516 6517 6518 6519 6520 6521 6522 6523 6524 6525 6526 6527 6528 6529 6530 6531 6532 6533 6534 6535 6536 6537 6538 6539 6540 6541 6542 6543 6544 6545 6546 6547 6548 6549 6550 6551 6552 6553 6554 6555 6556 6557 6558 6559 6560 6561 6562 6563 6564 6565 6566 6567 6568 6569 6570 6571 6572 6573 6574 6575 6576 6577 6578 6579 6580 6581 6582 6583 6584 6585 6586 6587 6588 6589 6590 6591 6592 6593 6594 6595 6596 6597 6598 6599 6600 6601 6602 6603 6604 6605 6606 6607 6608 6609 6610 6611 6612 6613 6614 6615 6616 6617 6618 6619 6620 6621 6622 6623 6624 6625 6626 6627 6628 6629 6630 6631 6632 6633 6634 6635 6636 6637 6638 6639 6640 6641 6642 6643 6644 6645 6646 6647 6648 6649 6650 6651 6652 6653 6654 6655 6656 6657 6658 6659 6660 6661 6662 6663 6664 6665 6666 6667 6668 6669 6670 6671 6672 6673 6674 6675 6676 6677 6678 6679 6680 6681 6682 6683 6684 6685 6686 6687 6688 6689 6690 6691 6692 6693 6694 6695 6696 6697 6698 6699 6700 6701 6702 6703 6704 6705 6706 6707 6708 6709 6710 6711 6712 6713 6714 6715 6716 6717 6718 6719 6720 6721 6722 6723 6724 6725 6726 6727 6728 6729 6730 6731 6732 6733 6734 6735 6736 6737 6738 6739 6740 6741 6742 6743 6744 6745 6746 6747 6748 6749 6750 6751 6752 6753 6754 6755 6756 6757 6758 6759 6760 6761 6762 6763 6764 6765 6766 6767 6768 6769 6770 6771 6772 6773 6774 6775 6776 6777 6778 6779 6780 6781 6782 6783 6784 6785 6786 6787 6788 6789 6790 6791 6792 6793 6794 6795 6796 6797 6798 6799 6800 6801 6802 6803 6804 6805 6806 6807 6808 6809 6810 6811 6812 6813 6814 6815 6816 6817 6818 6819 6820 6821 6822 6823 6824 6825 6826 6827 6828 6829 6830 6831 6832 6833 6834 6835 6836 6837 6838 6839 6840 6841 6842 6843 6844 6845 6846 6847 6848 6849 6850 6851 6852 6853 6854 6855 6856 6857 6858 6859 6860 6861 6862 6863 6864 6865 6866 6867 6868 6869 6870 6871 6872 6873 6874 6875 6876 6877 6878 6879 6880 6881 6882 6883 6884 6885 6886 6887 6888 6889 6890 6891 6892 6893 6894 6895 6896 6897 6898 6899 6900 6901 6902 6903 6904 6905 6906 6907 6908 6909 6910 6911 6912 6913 6914 6915 6916 6917 6918 6919 6920 6921 6922 6923 6924 6925 6926 6927 6928 6929 6930 6931 6932 6933 6934 6935 6936 6937 6938 6939 6940 6941 6942 6943 6944 6945 6946 6947 6948 6949 6950 6951 6952 6953 6954 6955 6956 6957 6958 6959 6960 6961 6962 6963 6964 6965 6966 6967 6968 6969 6970 6971 6972 6973 6974 6975 6976 6977 6978 6979 6980 6981 6982 6983 6984 6985 6986 6987 6988 6989 6990 6991 6992 6993 6994 6995 6996 6997 6998 6999 7000 7001 7002 7003 7004 7005 7006 7007 7008 7009 7010 7011 7012 7013 7014 7015 7016 7017 7018 7019 7020 7021 7022 7023 7024 7025 7026 7027 7028 7029 7030 7031 7032 7033 7034 7035 7036 7037 7038 7039 7040 7041 7042 7043 7044 7045 7046 7047 7048 7049 7050 7051 7052 7053 7054 7055 7056 7057 7058 7059 7060 7061 7062 7063 7064 7065 7066 7067 7068 7069 7070 7071 7072 7073 7074 7075 7076 7077 7078 7079 7080 7081 7082 7083 7084 7085 7086 7087 7088 7089 7090 7091 7092 7093 7094 7095 7096 7097 7098 7099 7100 7101 7102 7103 7104 7105 7106 7107 7108 7109 7110 7111 7112 7113 7114 7115 7116 7117 7118 7119 7120 7121 7122 7123 7124 7125 7126 7127 7128 7129 7130 7131 7132 7133 7134 7135 7136 7137 7138 7139 7140 7141 7142 7143 7144 7145 7146 7147 7148 7149 7150 7151 7152 7153 7154 7155 7156 7157 7158 7159 7160 7161 7162 7163 7164 7165 7166 7167 7168 7169 7170 7171 7172 7173 7174 7175 7176 7177 7178 7179 7180 7181 7182 7183 7184 7185 7186 7187 7188 7189 7190 7191 7192 7193 7194 7195 7196 7197 7198 7199 7200 7201 7202 7203 7204 7205 7206 7207 7208 7209 7210 7211 7212 7213 7214 7215 7216 7217 7218 7219 7220 7221 7222 7223 7224 7225 7226 7227 7228 7229 7230 7231 7232 7233 7234 7235 7236 7237 7238 7239 7240 7241 7242 7243 7244 7245 7246 7247 7248 7249 7250 7251 7252 7253 7254 7255 7256 7257 7258 7259 7260 7261 7262 7263 7264 7265 7266 7267 7268 7269 7270 7271 7272 7273 7274 7275 7276 7277 7278 7279 7280 7281 7282 7283 7284 7285 7286 7287 7288 7289 7290 7291 7292 7293 7294 7295 7296 7297 7298 7299 7300 7301 7302 7303 7304 7305 7306 7307 7308 7309 7310 7311 7312 7313 7314 7315 7316 7317 7318 7319 7320 7321 7322 7323 7324 7325 7326 7327 7328 7329 7330 7331 7332 7333 7334 7335 7336 7337 7338 7339 7340 7341 7342 7343 7344 7345 7346 7347 7348 7349 7350 7351 7352 7353 7354 7355 7356 7357 7358 7359 7360 7361 7362 7363 7364 7365 7366 7367 7368 7369 7370 7371 7372 7373 7374 7375 7376 7377 7378 7379 7380 7381 7382 7383 7384 7385 7386 7387 7388 7389 7390 7391 7392 7393 7394 7395 7396 7397 7398 7399 7400 7401 7402 7403 7404 7405 7406 7407 7408 7409 7410 7411 7412 7413 7414 7415 7416 7417 7418 7419 7420 7421 7422 7423 7424 7425 7426 7427 7428 7429 7430 7431 7432 7433 7434 7435 7436 7437 7438 7439 7440 7441 7442 7443 7444 7445 7446 7447 7448 7449 7450 7451 7452 7453 7454 7455 7456 7457 7458 7459 7460 7461 7462 7463 7464 7465 7466 7467 7468 7469 7470 7471 7472 7473 7474 7475 7476 7477 7478 7479 7480 7481 7482 7483 7484 7485 7486 7487 7488 7489 7490 7491 7492 7493 7494 7495 7496 7497 7498 7499 7500 7501 7502 7503 7504 7505 7506 7507 7508 7509 7510 7511 7512 7513 7514 7515 7516 7517 7518 7519 7520 7521 7522 7523 7524 7525 7526 7527 7528 7529 7530 7531 7532 7533 7534 7535 7536 7537 7538 7539 7540 7541 7542 7543 7544 7545 7546 7547 7548 7549 7550 7551 7552 7553 7554 7555 7556 7557 7558 7559 7560 7561 7562 7563 7564 7565 7566 7567 7568 7569 7570 7571 7572 7573 7574 7575 7576 7577 7578 7579 7580 7581 7582 7583 7584 7585 7586 7587 7588 7589 7590 7591 7592 7593 7594 7595 7596 7597 7598 7599 7600 7601 7602 7603 7604 7605 7606 7607 7608 7609 7610 7611 7612 7613 7614 7615 7616 7617 7618 7619 7620 7621 7622 7623 7624 7625 7626 7627 7628 7629 7630 7631 7632 7633 7634 7635 7636 7637 7638 7639 7640 7641 7642 7643 7644 7645 7646 7647 7648 7649 7650 7651 7652 7653 7654 7655 7656 7657 7658 7659 7660 7661 7662 7663 7664 7665 7666 7667 7668 7669 7670 7671 7672 7673 7674 7675 7676 7677 7678 7679 7680 7681 7682 7683 7684 7685 7686 7687 7688 7689 7690 7691 7692 7693 7694 7695 7696 7697 7698 7699 7700 7701 7702 7703 7704 7705 7706 7707 7708 7709 7710 7711 7712 7713 7714 7715 7716 7717 7718 7719 7720 7721 7722 7723 7724 7725 7726 7727 7728 7729 7730 7731 7732 7733 7734 7735 7736 7737 7738 7739 7740 7741 7742 7743 7744 7745 7746 7747 7748 7749 7750 7751 7752 7753 7754 7755 7756 7757 7758 7759 7760 7761 7762 7763 7764 7765 7766 7767 7768 7769 7770 7771 7772 7773 7774 7775 7776 7777 7778 7779 7780 7781 7782 7783 7784 7785 7786 7787 7788 7789 7790 7791 7792 7793 7794 7795 7796 7797 7798 7799 7800 7801 7802 7803 7804 7805 7806 7807 7808 7809 7810 7811 7812 7813 7814 7815 7816 7817 7818 7819 7820 7821 7822 7823 7824 7825 7826 7827 7828 7829 7830 7831 7832 7833 7834 7835 7836 7837 7838 7839 7840 7841 7842 7843 7844 7845 7846 7847 7848 7849 7850 7851 7852 7853 7854 7855 7856 7857 7858 7859 7860 7861 7862 7863 7864 7865 7866 7867 7868 7869 7870 7871 7872 7873 7874 7875 7876 7877 7878 7879 7880 7881 7882 7883 7884 7885 7886 7887 7888 7889 7890 7891 7892 7893 7894 7895 7896 7897 7898 7899 7900 7901 7902 7903 7904 7905 7906 7907 7908 7909 7910 7911 7912 7913 7914 7915 7916 7917 7918 7919 7920 7921 7922 7923 7924 7925 7926 7927 7928 7929 7930 7931 7932 7933 7934 7935 7936 7937 7938 7939 7940 7941 7942 7943 7944 7945 7946 7947 7948 7949 7950 7951 7952 7953 7954 7955 7956 7957 7958 7959 7960 7961 7962 7963 7964 7965 7966 7967 7968 7969 7970 7971 7972 7973 7974 7975 7976 7977 7978 7979 7980 7981 7982 7983 7984 7985 7986 7987 7988 7989 7990 7991 7992 7993 7994 7995 7996 7997 7998 7999 8000 8001 8002 8003 8004 8005 8006 8007 8008 8009 8010 8011 8012 8013 8014 8015 8016 8017 8018 8019 8020 8021 8022 8023 8024 8025 8026 8027 8028 8029 8030 8031 8032 8033 8034 8035 8036 8037 8038 8039 8040 8041 8042 8043 8044 8045 8046 8047 8048 8049 8050 8051 8052 8053 8054 8055 8056 8057 8058 8059 8060 8061 8062 8063 8064 8065 8066 8067 8068 8069 8070 8071 8072 8073 8074 8075 8076 8077 8078 8079 8080 8081 8082 8083 8084 8085 8086 8087 8088 8089 8090 8091 8092 8093 8094 8095 8096 8097 8098 8099 8100 8101 8102 8103 8104 8105 8106 8107 8108 8109 8110 8111 8112 8113 8114 8115 8116 8117 8118 8119 8120 8121 8122 8123 8124 8125 8126 8127 8128 8129 8130 8131 8132 8133 8134 8135 8136 8137 8138 8139 8140 8141 8142 8143 8144 8145 8146 8147 8148 8149 8150 8151 8152 8153 8154 8155 8156 8157 8158 8159 8160 8161 8162 8163 8164 8165 8166 8167 8168 8169 8170 8171 8172 8173 8174 8175 8176 8177 8178 8179 8180 8181 8182 8183 8184 8185 8186 8187 8188 8189 8190 8191 8192 8193 8194 8195 8196 8197 8198 8199 8200 8201 8202 8203 8204 8205 8206 8207 8208 8209 8210 8211 8212 8213 8214 8215 8216 8217 8218 8219 8220 8221 8222 8223 8224 8225 8226 8227 8228 8229 8230 8231 8232 8233 8234 8235 8236 8237 8238 8239 8240 8241 8242 8243 8244 8245 8246 8247 8248 8249 8250 8251 8252 8253 8254 8255 8256 8257 8258 8259 8260 8261 8262 8263 8264 8265 8266 8267 8268 8269 8270 8271 8272 8273 8274 8275 8276 8277 8278 8279 8280 8281 8282 8283 8284 8285 8286 8287 8288 8289 8290 8291 8292 8293 8294 8295 8296 8297 8298 8299 8300 8301 8302 8303 8304 8305 8306 8307 8308 8309 8310 8311 8312 8313 8314 8315 8316 8317 8318 8319 8320 8321 8322 8323 8324 8325 8326 8327 8328 8329 8330 8331 8332 8333 8334 8335 8336 8337 8338 8339 8340 8341 8342 8343 8344 8345 8346 8347 8348 8349 8350 8351 8352 8353 8354 8355 8356 8357 8358 8359 8360 8361 8362 8363 8364 8365 8366 8367 8368 8369 8370 8371 8372 8373 8374 8375 8376 8377 8378 8379 8380 8381 8382 8383 8384 8385 8386 8387 8388 8389 8390 8391 8392 8393 8394 8395 8396 8397 8398 8399 8400 8401 8402 8403 8404 8405 8406 8407 8408 8409 8410 8411 8412 8413 8414 8415 8416 8417 8418 8419 8420 8421 8422 8423 8424 8425 8426 8427 8428 8429 8430 8431 8432 8433 8434 8435 8436 8437 8438 8439 8440 8441 8442 8443 8444 8445 8446 8447 8448 8449 8450 8451 8452 8453 8454 8455 8456 8457 8458 8459 8460 8461 8462 8463 8464 8465 8466 8467 8468 8469 8470 8471 8472 8473 8474 8475 8476 8477 8478 8479 8480 8481 8482 8483 8484 8485 8486 8487 8488 8489 8490 8491 8492 8493 8494 8495 8496 8497 8498 8499 8500 8501 8502 8503 8504 8505 8506 8507 8508 8509 8510 8511 8512 8513 8514 8515 8516 8517 8518 8519 8520 8521 8522 8523 8524 8525 8526 8527 8528 8529 8530 8531 8532 8533 8534 8535 8536 8537 8538 8539 8540 8541 8542 8543 8544 8545 8546 8547 8548 8549 8550 8551 8552 8553 8554 8555 8556 8557 8558 8559 8560 8561 8562 8563 8564 8565 8566 8567 8568 8569 8570 8571 8572 8573 8574 8575 8576 8577 8578 8579 8580 8581 8582 8583 8584 8585 8586 8587 8588 8589 8590 8591 8592 8593 8594 8595 8596 8597 8598 8599 8600 8601 8602 8603 8604 8605 8606 8607 8608 8609 8610 8611 8612 8613 8614 8615 8616 8617 8618 8619 8620 8621 8622 8623 8624 8625 8626 8627 8628 8629 8630 8631 8632 8633 8634 8635 8636 8637 8638 8639 8640 8641 8642 8643 8644 8645 8646 8647 8648 8649 8650 8651 8652 8653 8654 8655 8656 8657 8658 8659 8660 8661 8662 8663 8664 8665 8666 8667 8668 8669 8670 8671 8672 8673 8674 8675 8676 8677 8678 8679 8680 8681 8682 8683 8684 8685 8686 8687 8688 8689 8690 8691 8692 8693 8694 8695 8696 8697 8698 8699 8700 8701 8702 8703 8704 8705 8706 8707 8708 8709 8710 8711 8712 8713 8714 8715 8716 8717 8718 8719 8720 8721 8722 8723 8724 8725 8726 8727 8728 8729 8730 8731 8732 8733 8734 8735 8736 8737 8738 8739 8740 8741 8742 8743 8744 8745 8746 8747 8748 8749 8750 8751 8752 8753 8754 8755 8756 8757 8758 8759 8760 8761 8762 8763 8764 8765 8766 8767 8768 8769 8770 8771 8772 8773 8774 8775 8776 8777 8778 8779 8780 8781 8782 8783 8784 8785 8786 8787 8788 8789 8790 8791 8792 8793 8794 8795 8796 8797 8798 8799 8800 8801 8802 8803 8804 8805 8806 8807 8808 8809 8810 8811 8812 8813 8814 8815 8816 8817 8818 8819 8820 8821 8822 8823 8824 8825 8826 8827 8828 8829 8830 8831 8832 8833 8834 8835 8836 8837 8838 8839 8840 8841 8842 8843 8844 8845 8846 8847 8848 8849 8850 8851 8852 8853 8854 8855 8856 8857 8858 8859 8860 8861 8862 8863 8864 8865 8866 8867 8868 8869 8870 8871 8872 8873 8874 8875 8876 8877 8878 8879 8880 8881 8882 8883 8884 8885 8886 8887 8888 8889 8890 8891 8892 8893 8894 8895 8896 8897 8898 8899 8900 8901 8902 8903 8904 8905 8906 8907 8908 8909 8910 8911 8912 8913 8914 8915 8916 8917 8918 8919 8920 8921 8922 8923 8924 8925 8926 8927 8928 8929 8930 8931 8932 8933 8934 8935 8936 8937 8938 8939 8940 8941 8942 8943 8944 8945 8946 8947 8948 8949 8950 8951 8952 8953 8954 8955 8956 8957 8958 8959 8960 8961 8962 8963 8964 8965 8966 8967 8968 8969 8970 8971 8972 8973 8974 8975 8976 8977 8978 8979 8980 8981 8982 8983 8984 8985 8986 8987 8988 8989 8990 8991 8992 8993 8994 8995 8996 8997 8998 8999 9000 9001 9002 9003 9004 9005 9006 9007 9008 9009 9010 9011 9012 9013 9014 9015 9016 9017 9018 9019 9020 9021 9022 9023 9024 9025 9026 9027 9028 9029 9030 9031 9032 9033 9034 9035 9036 9037 9038 9039 9040 9041 9042 9043 9044 9045 9046 9047 9048 9049 9050 9051 9052 9053 9054 9055 9056 9057 9058 9059 9060 9061 9062 9063 9064 9065 9066 9067 9068 9069 9070 9071 9072 9073 9074 9075 9076 9077 9078 9079 9080 9081 9082 9083 9084 9085 9086 9087 9088 9089 9090 9091 9092 9093 9094 9095 9096 9097 9098 9099 9100 9101 9102 9103 9104 9105 9106 9107 9108 9109 9110 9111 9112 9113 9114 9115 9116 9117 9118 9119 9120 9121 9122 9123 9124 9125 9126 9127 9128 9129 9130 9131 9132 9133 9134 9135 9136 9137 9138 9139 9140 9141 9142 9143 9144 9145 9146 9147 9148 9149 9150 9151 9152 9153 9154 9155 9156 9157 9158 9159 9160 9161 9162 9163 9164 9165 9166 9167 9168 9169 9170 9171 9172 9173 9174 9175 9176 9177 9178 9179 9180 9181 9182 9183 9184 9185 9186 9187 9188 9189 9190 9191 9192 9193 9194 9195 9196 9197 9198 9199 9200 9201 9202 9203 9204 9205 9206 9207 9208 9209 9210 9211 9212 9213 9214 9215 9216 9217 9218 9219 9220 9221 9222 9223 9224 9225 9226 9227 9228 9229 9230 9231 9232 9233 9234 9235 9236 9237 9238 9239 9240 9241 9242 9243 9244 9245 9246 9247 9248 9249 9250 9251 9252 9253 9254 9255 9256 9257 9258 9259 9260 9261 9262 9263 9264 9265 9266 9267 9268 9269 9270 9271 9272 9273 9274 9275 9276 9277 9278 9279 9280 9281 9282 9283 9284 9285 9286 9287 9288 9289 9290 9291 9292 9293 9294 9295 9296 9297 9298 9299 9300 9301 9302 9303 9304 9305 9306 9307 9308 9309 9310 9311 9312 9313 9314 9315 9316 9317 9318 9319 9320 9321 9322 9323 9324 9325 9326 9327 9328 9329 9330 9331 9332 9333 9334 9335 9336 9337 9338 9339 9340 9341 9342 9343 9344 9345 9346 9347 9348 9349 9350 9351 9352 9353 9354 9355 9356 9357 9358 9359 9360 9361 9362 9363 9364 9365 9366 9367 9368 9369 9370 9371 9372 9373 9374 9375 9376 9377 9378 9379 9380 9381 9382 9383 9384 9385 9386 9387 9388 9389 9390 9391 9392 9393 9394 9395 9396 9397 9398 9399 9400 9401 9402 9403 9404 9405 9406 9407 9408 9409 9410 9411 9412 9413 9414 9415 9416 9417 9418 9419 9420 9421 9422 9423 9424 9425 9426 9427 9428 9429 9430 9431 9432 9433 9434 9435 9436 9437 9438 9439 9440 9441 9442 9443 9444 9445 9446 9447 9448 9449 9450 9451 9452 9453 9454 9455 9456 9457 9458 9459 9460 9461 9462 9463 9464 9465 9466 9467 9468 9469 9470 9471 9472 9473 9474 9475 9476 9477 9478 9479 9480 9481 9482 9483 9484 9485 9486 9487 9488 9489 9490 9491 9492 9493 9494 9495 9496 9497 9498 9499 9500 9501 9502 9503 9504 9505 9506 9507 9508 9509 9510 9511 9512 9513 9514 9515 9516 9517 9518 9519 9520 9521 9522 9523 9524 9525 9526 9527 9528 9529 9530 9531 9532 9533 9534 9535 9536 9537 9538 9539 9540 9541 9542 9543 9544 9545 9546 9547 9548 9549 9550 9551 9552 9553 9554 9555 9556 9557 9558 9559 9560 9561 9562 9563 9564 9565 9566 9567 9568 9569 9570 9571 9572 9573 9574 9575 9576 9577 9578 9579 9580 9581 9582 9583 9584 9585 9586 9587 9588 9589 9590 9591 9592 9593 9594 9595 9596 9597 9598 9599 9600 9601 9602 9603 9604 9605 9606 9607 9608 9609 9610 9611 9612 9613 9614 9615 9616 9617 9618 9619 9620 9621 9622 9623 9624 9625 9626 9627 9628 9629 9630 9631 9632 9633 9634 9635 9636 9637 9638 9639 9640 9641 9642 9643 9644 9645 9646 9647 9648 9649 9650 9651 9652 9653 9654 9655 9656 9657 9658 9659 9660 9661 9662 9663 9664 9665 9666 9667 9668 9669 9670 9671 9672 9673 9674 9675 9676 9677 9678 9679 9680 9681 9682 9683 9684 9685 9686 9687 9688 9689 9690 9691 9692 9693 9694 9695 9696 9697 9698 9699 9700 9701 9702 9703 9704 9705 9706 9707 9708 9709 9710 9711 9712 9713 9714 9715 9716 9717 9718 9719 9720 9721 9722 9723 9724 9725 9726 9727 9728 9729 9730 9731 9732 9733 9734 9735 9736 9737 9738 9739 9740 9741 9742 9743 9744 9745 9746 9747 9748 9749 9750 9751 9752 9753 9754 9755 9756 9757 9758 9759 9760 9761 9762 9763 9764 9765 9766 9767 9768 9769 9770 9771 9772 9773 9774 9775 9776 9777 9778 9779 9780 9781 9782 9783 9784 9785 9786 9787 9788 9789 9790 9791 9792 9793 9794 9795 9796 9797 9798 9799 9800 9801 9802 9803 9804 9805 9806 9807 9808 9809 9810 9811 9812 9813 9814 9815 9816 9817 9818 9819 9820 9821 9822 9823 9824 9825 9826 9827 9828 9829 9830 9831 9832 9833 9834 9835 9836 9837 9838 9839 9840 9841 9842 9843 9844 9845 9846 9847 9848 9849 9850 9851 9852 9853 9854 9855 9856 9857 9858 9859 9860 9861 9862 9863 9864 9865 9866 9867 9868 9869 9870 9871 9872 9873 9874 9875 9876 9877 9878 9879 9880 9881 9882 9883 9884 9885 9886 9887 9888 9889 9890 9891 9892 9893 9894 9895 9896 9897 9898 9899 9900 9901 9902 9903 9904 9905 9906 9907 9908 9909 9910 9911 9912 9913 9914 9915 9916 9917 9918 9919 9920 9921 9922 9923 9924 9925 9926 9927 9928 9929 9930 9931 9932 9933 9934 9935 9936 9937 9938 9939 9940 9941 9942 9943 9944 9945 9946 9947 9948 9949 9950 9951 9952 9953 9954 9955 9956 9957 9958 9959 9960 9961 9962 9963 9964 9965 9966 9967 9968 9969 9970 9971 9972 9973 9974 9975 9976 9977 9978 9979 9980 9981 9982 9983 9984 9985 9986 9987 9988 9989 9990 9991 9992 9993 9994 9995 9996 9997 9998 9999 10000 10001 10002 10003 10004 10005 10006 10007 10008 10009 10010 10011 10012 10013 10014 10015 10016 10017 10018 10019 10020 10021 10022 10023 10024 10025 10026 10027 10028 10029 10030 10031 10032 10033 10034 10035 10036 10037 10038 10039 10040 10041 10042 10043 10044 10045 10046 10047 10048 10049 10050 10051 10052 10053 10054 10055 10056 10057 10058 10059 10060 10061 10062 10063 10064 10065 10066 10067 10068 10069 10070 10071 10072 10073 10074 10075 10076 10077 10078 10079 10080 10081 10082 10083 10084 10085 10086 10087 10088 10089 10090 10091 10092 10093 10094 10095 10096 10097 10098 10099 10100 10101 10102 10103 10104 10105 10106 10107 10108 10109 10110 10111 10112 10113 10114 10115 10116 10117 10118 10119 10120 10121 10122 10123 10124 10125 10126 10127 10128 10129 10130 10131 10132 10133 10134 10135 10136 10137 10138 10139 10140 10141 10142 10143 10144 10145 10146 10147 10148 10149 10150 10151 10152 10153 10154 10155 10156 10157 10158 10159 10160 10161 10162 10163 10164 10165 10166 10167 10168 10169 10170 10171 10172 10173 10174 10175 10176 10177 10178 10179 10180 10181 10182 10183 10184 10185 10186 10187 10188 10189 10190 10191 10192 10193 10194 10195 10196 10197 10198 10199 10200 10201 10202 10203 10204 10205 10206 10207 10208 10209 10210 10211 10212 10213 10214 10215 10216 10217 10218 10219 10220 10221 10222 10223 10224 10225 10226 10227 10228 10229 10230 10231 10232 10233 10234 10235 10236 10237 10238 10239 10240 10241 10242 10243 10244 10245 10246 10247 10248 10249 10250 10251 10252 10253 10254 10255 10256 10257 10258 10259 10260 10261 10262 10263 10264 10265 10266 10267 10268 10269 10270 10271 10272 10273 10274 10275 10276 10277 10278 10279 10280 10281 10282 10283 10284 10285 10286 10287 10288 10289 10290 10291 10292 10293 10294 10295 10296 10297 10298 10299 10300 10301 10302 10303 10304 10305 10306 10307 10308 10309 10310 10311 10312 10313 10314 10315 10316 10317 10318 10319 10320 10321 10322 10323 10324 10325 10326 10327 10328 10329 10330 10331 10332 10333 10334 10335 10336 10337 10338 10339 10340 10341 10342 10343 10344 10345 10346 10347 10348 10349 10350 10351 10352 10353 10354 10355 10356 10357 10358 10359 10360 10361 10362 10363 10364 10365 10366 10367 10368 10369 10370 10371 10372 10373 10374 10375 10376 10377 10378 10379 10380 10381 10382 10383 10384 10385 10386 10387 10388 10389 10390 10391 10392 10393 10394 10395 10396 10397 10398 10399 10400 10401 10402 10403 10404 10405 10406 10407 10408 10409 10410 10411 10412 10413 10414 10415 10416 10417 10418 10419 10420 10421 10422 10423 10424 10425 10426 10427 10428 10429 10430 10431 10432 10433 10434 10435 10436 10437 10438 10439 10440 10441 10442 10443 10444 10445 10446 10447 10448 10449 10450 10451 10452 10453 10454 10455 10456 10457 10458 10459 10460 10461 10462 10463 10464 10465 10466 10467 10468 10469 10470 10471 10472 10473 10474 10475 10476 10477 10478 10479 10480 10481 10482 10483 10484 10485 10486 10487 10488 10489 10490 10491 10492 10493 10494 10495 10496 10497 10498 10499 10500 10501 10502 10503 10504 10505 10506 10507 10508 10509 10510 10511 10512 10513 10514 10515 10516 10517 10518 10519 10520 10521 10522 10523 10524 10525 10526 10527 10528 10529 10530 10531 10532 10533 10534 10535 10536 10537 10538 10539 10540 10541 10542 10543 10544 10545 10546 10547 10548 10549 10550 10551 10552 10553 10554 10555 10556 10557 10558 10559 10560 10561 10562 10563 10564 10565 10566 10567 10568 10569 10570 10571 10572 10573 10574 10575 10576 10577 10578 10579 10580 10581 10582 10583 10584 10585 10586 10587 10588 10589 10590 10591 10592 10593 10594 10595 10596 10597 10598 10599 10600 10601 10602 10603 10604 10605 10606 10607 10608 10609 10610 10611 10612 10613 10614 10615 10616 10617 10618 10619 10620 10621 10622 10623 10624 10625 10626 10627 10628 10629 10630 10631 10632 10633 10634 10635 10636 10637 10638 10639 10640 10641 10642 10643 10644 10645 10646 10647 10648 10649 10650 10651 10652 10653 10654 10655 10656 10657 10658 10659 10660 10661 10662 10663 10664 10665 10666 10667 10668 10669 10670 10671 10672 10673 10674 10675 10676 10677 10678 10679 10680 10681 10682 10683 10684 10685 10686 10687 10688 10689 10690 10691 10692 10693 10694 10695 10696 10697 10698 10699 10700 10701 10702 10703 10704 10705 10706 10707 10708 10709 10710 10711 10712 10713 10714 10715 10716 10717 10718 10719 10720 10721 10722 10723 10724 10725 10726 10727 10728 10729 10730 10731 10732 10733 10734 10735 10736 10737 10738 10739 10740 10741 10742 10743 10744 10745 10746 10747 10748 10749 10750 10751 10752 10753 10754 10755 10756 10757 10758 10759 10760 10761 10762 10763 10764 10765 10766 10767 10768 10769 10770 10771 10772 10773 10774 10775 10776 10777 10778 10779 10780 10781 10782 10783 10784 10785 10786 10787 10788 10789 10790 10791 10792 10793 10794 10795 10796 10797 10798 10799 10800 10801 10802 10803 10804 10805 10806 10807 10808 10809 10810 10811 10812 10813 10814 10815 10816 10817 10818 10819 10820 10821 10822 10823 10824 10825 10826 10827 10828 10829 10830 10831 10832 10833 10834 10835 10836 10837 10838 10839 10840 10841 10842 10843 10844 10845 10846 10847 10848 10849 10850 10851 10852 10853 10854 10855 10856 10857 10858 10859 10860 10861 10862 10863 10864 10865 10866 10867 10868 10869 10870 10871 10872 10873 10874 10875 10876 10877 10878 10879 10880 10881 10882 10883 10884 10885 10886 10887 10888 10889 10890 10891 10892 10893 10894 10895 10896 10897 10898 10899 10900 10901 10902 10903 10904 10905 10906 10907 10908 10909 10910 10911 10912 10913 10914 10915 10916 10917 10918 10919 10920 10921 10922 10923 10924 10925 10926 10927 10928 10929 10930 10931 10932 10933 10934 10935 10936 10937 10938 10939 10940 10941 10942 10943 10944 10945 10946 10947 10948 10949 10950 10951 10952 10953 10954 10955 10956 10957 10958 10959 10960 10961 10962 10963 10964 10965 10966 10967 10968 10969 10970 10971 10972 10973 10974 10975 10976 10977 10978 10979 10980 10981 10982 10983 10984 10985 10986 10987 10988 10989 10990 10991 10992 10993 10994 10995 10996 10997 10998 10999 11000 11001 11002 11003 11004 11005 11006 11007 11008 11009 11010 11011 11012 11013 11014 11015 11016 11017 11018 11019 11020 11021 11022 11023 11024 11025 11026 11027 11028 11029 11030 11031 11032 11033 11034 11035 11036 11037 11038 11039 11040 11041 11042 11043 11044 11045 11046 11047 11048 11049 11050 11051 11052 11053 11054 11055 11056 11057 11058 11059 11060 11061 11062 11063 11064 11065 11066 11067 11068 11069 11070 11071 11072 11073 11074 11075 11076 11077 11078 11079 11080 11081 11082 11083 11084 11085 11086 11087 11088 11089 11090 11091 11092 11093 11094 11095 11096 11097 11098 11099 11100 11101 11102 11103 11104 11105 11106 11107 11108 11109 11110 11111 11112 11113 11114 11115 11116 11117 11118 11119 11120 11121 11122 11123 11124 11125 11126 11127 11128 11129 11130 11131 11132 11133 11134 11135 11136 11137 11138 11139 11140 11141 11142 11143 11144 11145 11146 11147 11148 11149 11150 11151 11152 11153 11154 11155 11156 11157 11158 11159 11160 11161 11162 11163 11164 11165 11166 11167 11168 11169 11170 11171 11172 11173 11174 11175 11176 11177 11178 11179 11180 11181 11182 11183 11184 11185 11186 11187 11188 11189 11190 11191 11192 11193 11194 11195 11196 11197 11198 11199 11200 11201 11202 11203 11204 11205 11206 11207 11208 11209 11210 11211 11212 11213 11214 11215 11216 11217 11218 11219 11220 11221 11222 11223 11224 11225 11226 11227 11228 11229 11230 11231 11232 11233 11234 11235 11236 11237 11238 11239 11240 11241 11242 11243 11244 11245 11246 11247 11248 11249 11250 11251 11252 11253 11254 11255 11256 11257 11258 11259 11260 11261 11262 11263 11264 11265 11266 11267 11268 11269 11270 11271 11272 11273 11274 11275 11276 11277 11278 11279 11280 11281 11282 11283 11284 11285 11286 11287 11288 11289 11290 11291 11292 11293 11294 11295 11296 11297 11298 11299 11300 11301 11302 11303 11304 11305 11306 11307 11308 11309 11310 11311 11312 11313 11314 11315 11316 11317 11318 11319 11320 11321 11322 11323 11324 11325 11326 11327 11328 11329 11330 11331 11332 11333 11334 11335 11336 11337 11338 11339 11340 11341 11342 11343 11344 11345 11346 11347 11348 11349 11350 11351 11352 11353 11354 11355 11356 11357 11358 11359 11360 11361 11362 11363 11364 11365 11366 11367 11368 11369 11370 11371 11372 11373 11374 11375 11376 11377 11378 11379 11380 11381 11382 11383 11384 11385 11386 11387 11388 11389 11390 11391 11392 11393 11394 11395 11396 11397 11398 11399 11400 11401 11402 11403 11404 11405 11406 11407 11408 11409 11410 11411 11412 11413 11414 11415 11416 11417 11418 11419 11420 11421 11422 11423 11424 11425 11426 11427 11428 11429 11430 11431 11432 11433 11434 11435 11436 11437 11438 11439 11440 11441 11442 11443 11444 11445 11446 11447 11448 11449 11450 11451 11452 11453 11454 11455 11456 11457 11458 11459 11460 11461 11462 11463 11464 11465 11466 11467 11468 11469 11470 11471 11472 11473 11474 11475 11476 11477 11478 11479 11480 11481 11482 11483 11484 11485 11486 11487 11488 11489 11490 11491 11492 11493 11494 11495 11496 11497 11498 11499 11500 11501 11502 11503 11504 11505 11506 11507 11508 11509 11510 11511 11512 11513 11514 11515 11516 11517 11518 11519 11520 11521 11522 11523 11524 11525 11526 11527 11528 11529 11530 11531 11532 11533 11534 11535 11536 11537 11538 11539 11540 11541 11542 11543 11544 11545 11546 11547 11548 11549 11550 11551 11552 11553 11554 11555 11556 11557 11558 11559 11560 11561 11562 11563 11564 11565 11566 11567 11568 11569 11570 11571 11572 11573 11574 11575 11576 11577 11578 11579 11580 11581 11582 11583 11584 11585 11586 11587 11588 11589 11590 11591 11592 11593 11594 11595 11596 11597 11598 11599 11600 11601 11602 11603 11604 11605 11606 11607 11608 11609 11610 11611 11612 11613 11614 11615 11616 11617 11618 11619 11620 11621 11622 11623 11624 11625 11626 11627 11628 11629 11630 11631 11632 11633 11634 11635 11636 11637 11638 11639 11640 11641 11642 11643 11644 11645 11646 11647 11648 11649 11650 11651 11652 11653 11654 11655 11656 11657 11658 11659 11660 11661 11662 11663 11664 11665 11666 11667 11668 11669 11670 11671 11672 11673 11674 11675 11676 11677 11678 11679 11680 11681 11682 11683 11684 11685 11686 11687 11688 11689 11690 11691 11692 11693 11694 11695 11696 11697 11698 11699 11700 11701 11702 11703 11704 11705 11706 11707 11708 11709 11710 11711 11712 11713 11714 11715 11716 11717 11718 11719 11720 11721 11722 11723 11724 11725 11726 11727 11728 11729 11730 11731 11732 11733 11734 11735 11736 11737 11738 11739 11740 11741 11742 11743 11744 11745 11746 11747 11748 11749 11750 11751 11752 11753 11754 11755 11756 11757 11758 11759 11760 11761 11762 11763 11764 11765 11766 11767 11768 11769 11770 11771 11772 11773 11774 11775 11776 11777 11778 11779 11780 11781 11782 11783 11784 11785 11786 11787 11788 11789 11790 11791 11792 11793 11794 11795 11796 11797 11798 11799 11800 11801 11802 11803 11804 11805 11806 11807 11808 11809 11810 11811 11812 11813 11814 11815 11816 11817 11818 11819 11820 11821 11822 11823 11824 11825 11826 11827 11828 11829 11830 11831 11832 11833 11834 11835 11836 11837 11838 11839 11840 11841 11842 11843 11844 11845 11846 11847 11848 11849 11850 11851 11852 11853 11854 11855 11856 11857 11858 11859 11860 11861 11862 11863 11864 11865 11866 11867 11868 11869 11870 11871 11872 11873 11874 11875 11876 11877 11878 11879 11880 11881 11882 11883 11884 11885 11886 11887 11888 11889 11890 11891 11892 11893 11894 11895 11896 11897 11898 11899 11900 11901 11902 11903 11904 11905 11906 11907 11908 11909 11910 11911 11912 11913 11914 11915 11916 11917 11918 11919 11920 11921 11922 11923 11924 11925 11926 11927 11928 11929 11930 11931 11932 11933 11934 11935 11936 11937 11938 11939 11940 11941 11942 11943 11944 11945 11946 11947 11948 11949 11950 11951 11952 11953 11954 11955 11956 11957 11958 11959 11960 11961 11962 11963 11964 11965 11966 11967 11968 11969 11970 11971 11972 11973 11974 11975 11976 11977 11978 11979 11980 11981 11982 11983 11984 11985 11986 11987 11988 11989 11990 11991 11992 11993 11994 11995 11996 11997 11998 11999 12000 12001 12002 12003 12004 12005 12006 12007 12008 12009 12010 12011 12012 12013 12014 12015 12016 12017 12018 12019 12020 12021 12022 12023 12024 12025 12026 12027 12028 12029 12030 12031 12032 12033 12034 12035 12036 12037 12038 12039 12040 12041 12042 12043 12044 12045 12046 12047 12048 12049 12050 12051 12052 12053 12054 12055 12056 12057 12058 12059 12060 12061 12062 12063 12064 12065 12066 12067 12068 12069 12070 12071 12072 12073 12074 12075 12076 12077 12078 12079 12080 12081 12082 12083 12084 12085 12086 12087 12088 12089 12090 12091 12092 12093 12094 12095 12096 12097 12098 12099 12100 12101 12102 12103 12104 12105 12106 12107 12108 12109 12110 12111 12112 12113 12114 12115 12116 12117 12118 12119 12120 12121 12122 12123 12124 12125 12126 12127 12128 12129 12130 12131 12132 12133 12134 12135 12136 12137 12138 12139 12140 12141 12142 12143 12144 12145 12146 12147 12148 12149 12150 12151 12152 12153 12154 12155 12156 12157 12158 12159 12160 12161 12162 12163 12164 12165 12166 12167 12168 12169 12170 12171 12172 12173 12174 12175 12176 12177 12178 12179 12180 12181 12182 12183 12184 12185 12186 12187 12188 12189 12190 12191 12192 12193 12194 12195 12196 12197 12198 12199 12200 12201 12202 12203 12204 12205 12206 12207 12208 12209 12210 12211 12212 12213 12214 12215 12216 12217 12218 12219 12220 12221 12222 12223 12224 12225 12226 12227 12228 12229 12230 12231 12232 12233 12234 12235 12236 12237 12238 12239 12240 12241 12242 12243 12244 12245 12246 12247 12248 12249 12250 12251 12252 12253 12254 12255 12256 12257 12258 12259 12260 12261 12262 12263 12264 12265 12266 12267 12268 12269 12270 12271 12272 12273 12274 12275 12276 12277 12278 12279 12280 12281 12282 12283 12284 12285 12286 12287 12288 12289 12290 12291 12292 12293 12294 12295 12296 12297 12298 12299 12300 12301 12302 12303 12304 12305 12306 12307 12308 12309 12310 12311 12312 12313 12314 12315 12316 12317 12318 12319 12320 12321 12322 12323 12324 12325 12326 12327 12328 12329 12330 12331 12332 12333 12334 12335 12336 12337 12338 12339 12340 12341 12342 12343 12344 12345 12346 12347 12348 12349 12350 12351 12352 12353 12354 12355 12356 12357 12358 12359 12360 12361 12362 12363 12364 12365 12366 12367 12368 12369 12370 12371 12372 12373 12374 12375 12376 12377 12378 12379 12380 12381 12382 12383 12384 12385 12386 12387 12388 12389 12390 12391 12392 12393 12394 12395 12396 12397 12398 12399 12400 12401 12402 12403 12404 12405 12406 12407 12408 12409 12410 12411 12412 12413 12414 12415 12416 12417 12418 12419 12420 12421 12422 12423 12424 12425 12426 12427 12428 12429 12430 12431 12432 12433 12434 12435 12436 12437 12438 12439 12440 12441 12442 12443 12444 12445 12446 12447 12448 12449 12450 12451 12452 12453 12454 12455 12456 12457 12458 12459 12460 12461 12462 12463 12464 12465 12466 12467 12468 12469 12470 12471 12472 12473 12474 12475 12476 12477 12478 12479 12480 12481 12482 12483 12484 12485 12486 12487 12488 12489 12490 12491 12492 12493 12494 12495 12496 12497 12498 12499 12500 12501 12502 12503 12504 12505 12506 12507 12508 12509 12510 12511 12512 12513 12514 12515 12516 12517 12518 12519 12520 12521 12522 12523 12524 12525 12526 12527 12528 12529 12530 12531 12532 12533 12534 12535 12536 12537 12538 12539 12540 12541 12542 12543 12544 12545 12546 12547 12548 12549 12550 12551 12552 12553 12554 12555 12556 12557 12558 12559 12560 12561 12562 12563 12564 12565 12566 12567 12568 12569 12570 12571 12572 12573 12574 12575 12576 12577 12578 12579 12580 12581 12582 12583 12584 12585 12586 12587 12588 12589 12590 12591 12592 12593 12594 12595 12596 12597 12598 12599 12600 12601 12602 12603 12604 12605 12606 12607 12608 12609 12610 12611 12612 12613 12614 12615 12616 12617 12618 12619 12620 12621 12622 12623 12624 12625 12626 12627 12628 12629 12630 12631 12632 12633 12634 12635 12636 12637 12638 12639 12640 12641 12642 12643 12644 12645 12646 12647 12648 12649 12650 12651 12652 12653 12654 12655 12656 12657 12658 12659 12660 12661 12662 12663 12664 12665 12666 12667 12668 12669 12670 12671 12672 12673 12674 12675 12676 12677 12678 12679 12680 12681 12682 12683 12684 12685 12686 12687 12688 12689 12690 12691 12692 12693 12694 12695 12696 12697 12698 12699 12700 12701 12702 12703 12704 12705 12706 12707 12708 12709 12710 12711 12712 12713 12714 12715 12716 12717 12718 12719 12720 12721 12722 12723 12724 12725 12726 12727 12728 12729 12730 12731 12732 12733 12734 12735 12736 12737 12738 12739 12740 12741 12742 12743 12744 12745 12746 12747 12748 12749 12750 12751 12752 12753 12754 12755 12756 12757 12758 12759 12760 12761 12762 12763 12764 12765 12766 12767 12768 12769 12770 12771 12772 12773 12774 12775 12776 12777 12778 12779 12780 12781 12782 12783 12784 12785 12786 12787 12788 12789 12790 12791 12792 12793 12794 12795 12796 12797 12798 12799 12800 12801 12802 12803 12804 12805 12806 12807 12808 12809 12810 12811 12812 12813 12814 12815 12816 12817 12818 12819 12820 12821 12822 12823 12824 12825 12826 12827 12828 12829 12830 12831 12832 12833 12834 12835 12836 12837 12838 12839 12840 12841 12842 12843 12844 12845 12846 12847 12848 12849 12850 12851 12852 12853 12854 12855 12856 12857 12858 12859 12860 12861 12862 12863 12864 12865 12866 12867 12868 12869 12870 12871 12872 12873 12874 12875 12876 12877 12878 12879 12880 12881 12882 12883 12884 12885 12886 12887 12888 12889 12890 12891 12892 12893 12894 12895 12896 12897 12898 12899 12900 12901 12902 12903 12904 12905 12906 12907 12908 12909 12910 12911 12912 12913 12914 12915 12916 12917 12918 12919 12920 12921 12922 12923 12924 12925 12926 12927 12928 12929 12930 12931 12932 12933 12934 12935 12936 12937 12938 12939 12940 12941 12942 12943 12944 12945 12946 12947 12948 12949 12950 12951 12952 12953 12954 12955 12956 12957 12958 12959 12960 12961 12962 12963 12964 12965 12966 12967 12968 12969 12970 12971 12972 12973 12974 12975 12976 12977 12978 12979 12980 12981 12982 12983 12984 12985 12986 12987 12988 12989 12990 12991 12992 12993 12994 12995 12996 12997 12998 12999 13000 13001 13002 13003 13004 13005 13006 13007 13008 13009 13010 13011 13012 13013 13014 13015 13016 13017 13018 13019 13020 13021 13022 13023 13024 13025 13026 13027 13028 13029 13030 13031 13032 13033 13034 13035 13036 13037 13038 13039 13040 13041 13042 13043 13044 13045 13046 13047 13048 13049 13050 13051 13052 13053 13054 13055 13056 13057 13058 13059 13060 13061 13062 13063 13064 13065 13066 13067 13068 13069 13070 13071 13072 13073 13074 13075 13076 13077 13078 13079 13080 13081 13082 13083 13084 13085 13086 13087 13088 13089 13090 13091 13092 13093 13094 13095 13096 13097 13098 13099 13100 13101 13102 13103 13104 13105 13106 13107 13108 13109 13110 13111 13112 13113 13114 13115 13116 13117 13118 13119 13120 13121 13122 13123 13124 13125 13126 13127 13128 13129 13130 13131 13132 13133 13134 13135 13136 13137 13138 13139 13140 13141 13142 13143 13144 13145 13146 13147 13148 13149 13150 13151 13152 13153 13154 13155 13156 13157 13158 13159 13160 13161 13162 13163 13164 13165 13166 13167 13168 13169 13170 13171 13172 13173 13174 13175 13176 13177 13178 13179 13180 13181 13182 13183 13184 13185 13186 13187 13188 13189 13190 13191 13192 13193 13194 13195 13196 13197 13198 13199 13200 13201 13202 13203 13204 13205 13206 13207 13208 13209 13210 13211 13212 13213 13214 13215 13216 13217 13218 13219 13220 13221 13222 13223 13224 13225 13226 13227 13228 13229 13230 13231 13232 13233 13234 13235 13236 13237 13238 13239 13240 13241 13242 13243 13244 13245 13246 13247 13248 13249 13250 13251 13252 13253 13254 13255 13256 13257 13258 13259 13260 13261 13262 13263 13264 13265 13266 13267 13268 13269 13270 13271 13272 13273 13274 13275 13276 13277 13278 13279 13280 13281 13282 13283 13284 13285 13286 13287 13288 13289 13290 13291 13292 13293 13294 13295 13296 13297 13298 13299 13300 13301 13302 13303 13304 13305 13306 13307 13308 13309 13310 13311 13312 13313 13314 13315 13316 13317 13318 13319 13320 13321 13322 13323 13324 13325 13326 13327 13328 13329 13330 13331 13332 13333 13334 13335 13336 13337 13338 13339 13340 13341 13342 13343 13344 13345 13346 13347 13348 13349 13350 13351 13352 13353 13354 13355 13356 13357 13358 13359 13360 13361 13362 13363 13364 13365 13366 13367 13368 13369 13370 13371 13372 13373 13374 13375 13376 13377 13378 13379 13380 13381 13382 13383 13384 13385 13386 13387 13388 13389 13390 13391 13392 13393 13394 13395 13396 13397 13398 13399 13400 13401 13402 13403 13404 13405 13406 13407 13408 13409 13410 13411 13412 13413 13414 13415 13416 13417 13418 13419 13420 13421 13422 13423 13424 13425 13426 13427 13428 13429 13430 13431 13432 13433 13434 13435 13436 13437 13438 13439 13440 13441 13442 13443 13444 13445 13446 13447 13448 13449 13450 13451 13452 13453 13454 13455 13456 13457 13458 13459 13460 13461 13462 13463 13464 13465 13466 13467 13468 13469 13470 13471 13472 13473 13474 13475 13476 13477 13478 13479 13480 13481 13482 13483 13484 13485 13486 13487 13488 13489 13490 13491 13492 13493 13494 13495 13496 13497 13498 13499 13500 13501 13502 13503 13504 13505 13506 13507 13508 13509 13510 13511 13512 13513 13514 13515 13516 13517 13518 13519 13520 13521 13522 13523 13524 13525 13526 13527 13528 13529 13530 13531 13532 13533 13534 13535 13536 13537 13538 13539 13540 13541 13542 13543 13544 13545 13546 13547 13548 13549 13550 13551 13552 13553 13554 13555 13556 13557 13558 13559 13560 13561 13562 13563 13564 13565 13566 13567 13568 13569 13570 13571 13572 13573 13574 13575 13576 13577 13578 13579 13580 13581 13582 13583 13584 13585 13586 13587 13588 13589 13590 13591 13592 13593 13594 13595 13596 13597 13598 13599 13600 13601 13602 13603 13604 13605 13606 13607 13608 13609 13610 13611 13612 13613 13614 13615 13616 13617 13618 13619 13620 13621 13622 13623 13624 13625 13626 13627 13628 13629 13630 13631 13632 13633 13634 13635 13636 13637 13638 13639 13640 13641 13642 13643 13644 13645 13646 13647 13648 13649 13650 13651 13652 13653 13654 13655 13656 13657 13658 13659 13660 13661 13662 13663 13664 13665 13666 13667 13668 13669 13670 13671 13672 13673 13674 13675 13676 13677 13678 13679 13680 13681 13682 13683 13684 13685 13686 13687 13688 13689 13690 13691 13692 13693 13694 13695 13696 13697 13698 13699 13700 13701 13702 13703 13704 13705 13706 13707 13708 13709 13710 13711 13712 13713 13714 13715 13716 13717 13718 13719 13720 13721 13722 13723 13724 13725 13726 13727 13728 13729 13730 13731 13732 13733 13734 13735 13736 13737 13738 13739 13740 13741 13742 13743 13744 13745 13746 13747 13748 13749 13750 13751 13752 13753 13754 13755 13756 13757 13758 13759 13760 13761 13762 13763 13764 13765 13766 13767 13768 13769 13770 13771 13772 13773 13774 13775 13776 13777 13778 13779 13780 13781 13782 13783 13784 13785 13786 13787 13788 13789 13790 13791 13792 13793 13794 13795 13796 13797 13798 13799 13800 13801 13802 13803 13804 13805 13806 13807 13808 13809 13810 13811 13812 13813 13814 13815 13816 13817 13818 13819 13820 13821 13822 13823 13824 13825 13826 13827 13828 13829 13830 13831 13832 13833 13834 13835 13836 13837 13838 13839 13840 13841 13842 13843 13844 13845 13846 13847 13848 13849 13850 13851 13852 13853 13854 13855 13856 13857 13858 13859 13860 13861 13862 13863 13864 13865 13866 13867 13868 13869 13870 13871 13872 13873 13874 13875 13876 13877 13878 13879 13880 13881 13882 13883 13884 13885 13886 13887 13888 13889 13890 13891 13892 13893 13894 13895 13896 13897 13898 13899 13900 13901 13902 13903 13904 13905 13906 13907 13908 13909 13910 13911 13912 13913 13914 13915 13916 13917 13918 13919 13920 13921 13922 13923 13924 13925 13926 13927 13928 13929 13930 13931 13932 13933 13934 13935 13936 13937 13938 13939 13940 13941 13942 13943 13944 13945 13946 13947 13948 13949 13950 13951 13952 13953 13954 13955 13956 13957 13958 13959 13960 13961 13962 13963 13964 13965 13966 13967 13968 13969 13970 13971 13972 13973 13974 13975 13976 13977 13978 13979 13980 13981 13982 13983 13984 13985 13986 13987 13988 13989 13990 13991 13992 13993 13994 13995 13996 13997 13998 13999 14000 14001 14002 14003 14004 14005 14006 14007 14008 14009 14010 14011 14012 14013 14014 14015 14016 14017 14018 14019 14020 14021 14022 14023 14024 14025 14026 14027 14028 14029 14030 14031 14032 14033 14034 14035 14036 14037 14038 14039 14040 14041 14042 14043 14044 14045 14046 14047 14048 14049 14050 14051 14052 14053 14054 14055 14056 14057 14058 14059 14060 14061 14062 14063 14064 14065 14066 14067 14068 14069 14070 14071 14072 14073 14074 14075 14076 14077 14078 14079 14080 14081 14082 14083 14084 14085 14086 14087 14088 14089 14090 14091 14092 14093 14094 14095 14096 14097 14098 14099 14100 14101 14102 14103 14104 14105 14106 14107 14108 14109 14110 14111 14112 14113 14114 14115 14116 14117 14118 14119 14120 14121 14122 14123 14124 14125 14126 14127 14128 14129 14130 14131 14132 14133 14134 14135 14136 14137 14138 14139 14140 14141 14142 14143 14144 14145 14146 14147 14148 14149 14150 14151 14152 14153 14154 14155 14156 14157 14158 14159 14160 14161 14162 14163 14164 14165 14166 14167 14168 14169 14170 14171 14172 14173 14174 14175 14176 14177 14178 14179 14180 14181 14182 14183 14184 14185 14186 14187 14188 14189 14190 14191 14192 14193 14194 14195 14196 14197 14198 14199 14200 14201 14202 14203 14204 14205 14206 14207 14208 14209 14210 14211 14212 14213 14214 14215 14216 14217 14218 14219 14220 14221 14222 14223 14224 14225 14226 14227 14228 14229 14230 14231 14232 14233 14234 14235 14236 14237 14238 14239 14240 14241 14242 14243 14244 14245 14246 14247 14248 14249 14250 14251 14252 14253 14254 14255 14256 14257 14258 14259 14260 14261 14262 14263 14264 14265 14266 14267 14268 14269 14270 14271 14272 14273 14274 14275 14276 14277 14278 14279 14280 14281 14282 14283 14284 14285 14286 14287 14288 14289 14290 14291 14292 14293 14294 14295 14296 14297 14298 14299 14300 14301 14302 14303 14304 14305 14306 14307 14308 14309 14310 14311 14312 14313 14314 14315 14316 14317 14318 14319 14320 14321 14322 14323 14324 14325 14326 14327 14328 14329 14330 14331 14332 14333 14334 14335 14336 14337 14338 14339 14340 14341 14342 14343 14344 14345 14346 14347 14348 14349 14350 14351 14352 14353 14354 14355 14356 14357 14358 14359 14360 14361 14362 14363 14364 14365 14366 14367 14368 14369 14370 14371 14372 14373 14374 14375 14376 14377 14378 14379 14380 14381 14382 14383 14384 14385 14386 14387 14388 14389 14390 14391 14392 14393 14394 14395 14396 14397 14398 14399 14400 14401 14402 14403 14404 14405 14406 14407 14408 14409 14410 14411 14412 14413 14414 14415 14416 14417 14418 14419 14420 14421 14422 14423 14424 14425 14426 14427 14428 14429 14430 14431 14432 14433 14434 14435 14436 14437 14438 14439 14440 14441 14442 14443 14444 14445 14446 14447 14448 14449 14450 14451 14452 14453 14454 14455 14456 14457 14458 14459 14460 14461 14462 14463 14464 14465 14466 14467 14468 14469 14470 14471 14472 14473 14474 14475 14476 14477 14478 14479 14480 14481 14482 14483 14484 14485 14486 14487 14488 14489 14490 14491 14492 14493 14494 14495 14496 14497 14498 14499 14500 14501 14502 14503 14504 14505 14506 14507 14508 14509 14510 14511 14512 14513 14514 14515 14516 14517 14518 14519 14520 14521 14522 14523 14524 14525 14526 14527 14528 14529 14530 14531 14532 14533 14534 14535 14536 14537 14538 14539 14540 14541 14542 14543 14544 14545 14546 14547 14548 14549 14550 14551 14552 14553 14554 14555 14556 14557 14558 14559 14560 14561 14562 14563 14564 14565 14566 14567 14568 14569 14570 14571 14572 14573 14574 14575 14576 14577 14578 14579 14580 14581 14582 14583 14584 14585 14586 14587 14588 14589 14590 14591 14592 14593 14594 14595 14596 14597 14598 14599 14600 14601 14602 14603 14604 14605 14606 14607 14608 14609 14610 14611 14612 14613 14614 14615 14616 14617 14618 14619 14620 14621 14622 14623 14624 14625 14626 14627 14628 14629 14630 14631 14632 14633 14634 14635 14636 14637 14638 14639 14640 14641 14642 14643 14644 14645 14646 14647 14648 14649 14650 14651 14652 14653 14654 14655 14656 14657 14658 14659 14660 14661 14662 14663 14664 14665 14666 14667 14668 14669 14670 14671 14672 14673 14674 14675 14676 14677 14678 14679 14680 14681 14682 14683 14684 14685 14686 14687 14688 14689 14690 14691 14692 14693 14694 14695 14696 14697 14698 14699 14700 14701 14702 14703 14704 14705 14706 14707 14708 14709 14710 14711 14712 14713 14714 14715 14716 14717 14718 14719 14720 14721 14722 14723 14724 14725 14726 14727 14728 14729 14730 14731 14732 14733 14734 14735 14736 14737 14738 14739 14740 14741 14742 14743 14744 14745 14746 14747 14748 14749 14750 14751 14752 14753 14754 14755 14756 14757 14758 14759 14760 14761 14762 14763 14764 14765 14766 14767 14768 14769 14770 14771 14772 14773 14774 14775 14776 14777 14778 14779 14780 14781 14782 14783 14784 14785 14786 14787 14788 14789 14790 14791 14792 14793 14794 14795 14796 14797 14798 14799 14800 14801 14802 14803 14804 14805 14806 14807 14808 14809 14810 14811 14812 14813 14814 14815 14816 14817 14818 14819 14820 14821 14822 14823 14824 14825 14826 14827 14828 14829 14830 14831 14832 14833 14834 14835 14836 14837 14838 14839 14840 14841 14842 14843 14844 14845 14846 14847 14848 14849 14850 14851 14852 14853 14854 14855 14856 14857 14858 14859 14860 14861 14862 14863 14864 14865 14866 14867 14868 14869 14870 14871 14872 14873 14874 14875 14876 14877 14878 14879 14880 14881 14882 14883 14884 14885 14886 14887 14888 14889 14890 14891 14892 14893 14894 14895 14896 14897 14898 14899 14900 14901 14902 14903 14904 14905 14906 14907 14908 14909 14910 14911 14912 14913 14914 14915 14916 14917 14918 14919 14920 14921 14922 14923 14924 14925 14926 14927 14928 14929 14930 14931 14932 14933 14934 14935 14936 14937 14938 14939 14940 14941 14942 14943 14944 14945 14946 14947 14948 14949 14950 14951 14952 14953 14954 14955 14956 14957 14958 14959 14960 14961 14962 14963 14964 14965 14966 14967 14968 14969 14970 14971 14972 14973 14974 14975 14976 14977 14978 14979 14980 14981 14982 14983 14984 14985 14986 14987 14988 14989 14990 14991 14992 14993 14994 14995 14996 14997 14998 14999 15000 15001 15002 15003 15004 15005 15006 15007 15008 15009 15010 15011 15012 15013 15014 15015 15016 15017 15018 15019 15020 15021 15022 15023 15024 15025 15026 15027 15028 15029 15030 15031 15032 15033 15034 15035 15036 15037 15038 15039 15040 15041 15042 15043 15044 15045 15046 15047 15048 15049 15050 15051 15052 15053 15054 15055 15056 15057 15058 15059 15060 15061 15062 15063 15064 15065 15066 15067 15068 15069 15070 15071 15072 15073 15074 15075 15076 15077 15078 15079 15080 15081 15082 15083 15084 15085 15086 15087 15088 15089 15090 15091 15092 15093 15094 15095 15096 15097 15098 15099 15100 15101 15102 15103 15104 15105 15106 15107 15108 15109 15110 15111 15112 15113 15114 15115 15116 15117 15118 15119 15120 15121 15122 15123 15124 15125 15126 15127 15128 15129 15130 15131 15132 15133 15134 15135 15136 15137 15138 15139 15140 15141 15142 15143 15144 15145 15146 15147 15148 15149 15150 15151 15152 15153 15154 15155 15156 15157 15158 15159 15160 15161 15162 15163 15164 15165 15166 15167 15168 15169 15170 15171 15172 15173 15174 15175 15176 15177 15178 15179 15180 15181 15182 15183 15184 15185 15186 15187 15188 15189 15190 15191 15192 15193 15194 15195 15196 15197 15198 15199 15200 15201 15202 15203 15204 15205 15206 15207 15208 15209 15210 15211 15212 15213 15214 15215 15216 15217 15218 15219 15220 15221 15222 15223 15224 15225 15226 15227 15228 15229 15230 15231 15232 15233 15234 15235 15236 15237 15238 15239 15240 15241 15242 15243 15244 15245 15246 15247 15248 15249 15250 15251 15252 15253 15254 15255 15256 15257 15258 15259 15260 15261 15262 15263 15264 15265 15266 15267 15268 15269 15270 15271 15272 15273 15274 15275 15276 15277 15278 15279 15280 15281 15282 15283 15284 15285 15286 15287 15288 15289 15290 15291 15292 15293 15294 15295 15296 15297 15298 15299 15300 15301 15302 15303 15304 15305 15306 15307 15308 15309 15310 15311 15312 15313 15314 15315 15316 15317 15318 15319 15320 15321 15322 15323 15324 15325 15326 15327 15328 15329 15330 15331 15332 15333 15334 15335 15336 15337 15338 15339 15340 15341 15342 15343 15344 15345 15346 15347 15348 15349 15350 15351 15352 15353 15354 15355 15356 15357 15358 15359 15360 15361 15362 15363 15364 15365 15366 15367 15368 15369 15370 15371 15372 15373 15374 15375 15376 15377 15378 15379 15380 15381 15382 15383 15384 15385 15386 15387 15388 15389 15390 15391 15392 15393 15394 15395 15396 15397 15398 15399 15400 15401 15402 15403 15404 15405 15406 15407 15408 15409 15410 15411 15412 15413 15414 15415 15416 15417 15418 15419 15420 15421 15422 15423 15424 15425 15426 15427 15428 15429 15430 15431 15432 15433 15434 15435 15436 15437 15438 15439 15440 15441 15442 15443 15444 15445 15446 15447 15448 15449 15450 15451 15452 15453 15454 15455 15456 15457 15458 15459 15460 15461 15462 15463 15464 15465 15466 15467 15468 15469 15470 15471 15472 15473 15474 15475 15476 15477 15478 15479 15480 15481 15482 15483 15484 15485 15486 15487 15488 15489 15490 15491 15492 15493 15494 15495 15496 15497 15498 15499 15500 15501 15502 15503 15504 15505 15506 15507 15508 15509 15510 15511 15512 15513 15514 15515 15516 15517 15518 15519 15520 15521 15522 15523 15524 15525 15526 15527 15528 15529 15530 15531 15532 15533 15534 15535 15536 15537 15538 15539 15540 15541 15542 15543 15544 15545 15546 15547 15548 15549 15550 15551 15552 15553 15554 15555 15556 15557 15558 15559 15560 15561 15562 15563 15564 15565 15566 15567 15568 15569 15570 15571 15572 15573 15574 15575 15576 15577 15578 15579 15580 15581 15582 15583 15584 15585 15586 15587 15588 15589 15590 15591 15592 15593 15594 15595 15596 15597 15598 15599 15600 15601 15602 15603 15604 15605 15606 15607 15608 15609 15610 15611 15612 15613 15614 15615 15616 15617 15618 15619 15620 15621 15622 15623 15624 15625 15626 15627 15628 15629 15630 15631 15632 15633 15634 15635 15636 15637 15638 15639 15640 15641 15642 15643 15644 15645 15646 15647 15648 15649 15650 15651 15652 15653 15654 15655 15656 15657 15658 15659 15660 15661 15662 15663 15664 15665 15666 15667 15668 15669 15670 15671 15672 15673 15674 15675 15676 15677 15678 15679 15680 15681 15682 15683 15684 15685 15686 15687 15688 15689 15690 15691 15692 15693 15694 15695 15696 15697 15698 15699 15700 15701 15702 15703 15704 15705 15706 15707 15708 15709 15710 15711 15712 15713 15714 15715 15716 15717 15718 15719 15720 15721 15722 15723 15724 15725 15726 15727 15728 15729 15730 15731 15732 15733 15734 15735 15736 15737 15738 15739 15740 15741 15742 15743 15744 15745 15746 15747 15748 15749 15750 15751 15752 15753 15754 15755 15756 15757 15758 15759 15760 15761 15762 15763 15764 15765 15766 15767 15768 15769 15770 15771 15772 15773 15774 15775 15776 15777 15778 15779 15780 15781 15782 15783 15784 15785 15786 15787 15788 15789 15790 15791 15792 15793 15794 15795 15796 15797 15798 15799 15800 15801 15802 15803 15804 15805 15806 15807 15808 15809 15810 15811 15812 15813 15814 15815 15816 15817 15818 15819 15820 15821 15822 15823 15824 15825 15826 15827 15828 15829 15830 15831 15832 15833 15834 15835 15836 15837 15838 15839 15840 15841 15842 15843 15844 15845 15846 15847 15848 15849 15850 15851 15852 15853 15854 15855 15856 15857 15858 15859 15860 15861 15862 15863 15864 15865 15866 15867 15868 15869 15870 15871 15872 15873 15874 15875 15876 15877 15878 15879 15880 15881 15882 15883 15884 15885 15886 15887 15888 15889 15890 15891 15892 15893 15894 15895 15896 15897 15898 15899 15900 15901 15902 15903 15904 15905 15906 15907 15908 15909 15910 15911 15912 15913 15914 15915 15916 15917 15918 15919 15920 15921 15922 15923 15924 15925 15926 15927 15928 15929 15930 15931 15932 15933 15934 15935 15936 15937 15938 15939 15940 15941 15942 15943 15944 15945 15946 15947 15948 15949 15950 15951 15952 15953 15954 15955 15956 15957 15958 15959 15960 15961 15962 15963 15964 15965 15966 15967 15968 15969 15970 15971 15972 15973 15974 15975 15976 15977 15978 15979 15980 15981 15982 15983 15984 15985 15986 15987 15988 15989 15990 15991 15992 15993 15994 15995 15996 15997 15998 15999 16000 16001 16002 16003 16004 16005 16006 16007 16008 16009 16010 16011 16012 16013 16014 16015 16016 16017 16018 16019 16020 16021 16022 16023 16024 16025 16026 16027 16028 16029 16030 16031 16032 16033 16034 16035 16036 16037 16038 16039 16040 16041 16042 16043 16044 16045 16046 16047 16048 16049 16050 16051 16052 16053 16054 16055 16056 16057 16058 16059 16060 16061 16062 16063 16064 16065 16066 16067 16068 16069 16070 16071 16072 16073 16074 16075 16076 16077 16078 16079 16080 16081 16082 16083 16084 16085 16086 16087 16088 16089 16090 16091 16092 16093 16094 16095 16096 16097 16098 16099 16100 16101 16102 16103 16104 16105 16106 16107 16108 16109 16110 16111 16112 16113 16114 16115 16116 16117 16118 16119 16120 16121 16122 16123 16124 16125 16126 16127 16128 16129 16130 16131 16132 16133 16134 16135 16136 16137 16138 16139 16140 16141 16142 16143 16144 16145 16146 16147 16148 16149 16150 16151 16152 16153 16154 16155 16156 16157 16158 16159 16160 16161 16162 16163 16164 16165 16166 16167 16168 16169 16170 16171 16172 16173 16174 16175 16176 16177 16178 16179 16180 16181 16182 16183 16184 16185 16186 16187 16188 16189 16190 16191 16192 16193 16194 16195 16196 16197 16198 16199 16200 16201 16202 16203 16204 16205 16206 16207 16208 16209 16210 16211 16212 16213 16214 16215 16216 16217 16218 16219 16220 16221 16222 16223 16224 16225 16226 16227 16228 16229 16230 16231 16232 16233 16234 16235 16236 16237 16238 16239 16240 16241 16242 16243 16244 16245 16246 16247 16248 16249 16250 16251 16252 16253 16254 16255 16256 16257 16258 16259 16260 16261 16262 16263 16264 16265 16266 16267 16268 16269 16270 16271 16272 16273 16274 16275 16276 16277 16278 16279 16280 16281 16282 16283 16284 16285 16286 16287 16288 16289 16290 16291 16292 16293 16294 16295 16296 16297 16298 16299 16300 16301 16302 16303 16304 16305 16306 16307 16308 16309 16310 16311 16312 16313 16314 16315 16316 16317 16318 16319 16320 16321 16322 16323 16324 16325 16326 16327 16328 16329 16330 16331 16332 16333 16334 16335 16336 16337 16338 16339 16340 16341 16342 16343 16344 16345 16346 16347 16348 16349 16350 16351 16352 16353 16354 16355 16356 16357 16358 16359 16360 16361 16362 16363 16364 16365 16366 16367 16368 16369 16370 16371 16372 16373 16374 16375 16376 16377 16378 16379 16380 16381 16382 16383 16384 16385 16386 16387 16388 16389 16390 16391 16392 16393 16394 16395 16396 16397 16398 16399 16400 16401 16402 16403 16404 16405 16406 16407 16408 16409 16410 16411 16412 16413 16414 16415 16416 16417 16418 16419 16420 16421 16422 16423 16424 16425 16426 16427 16428 16429 16430 16431 16432 16433 16434 16435 16436 16437 16438 16439 16440 16441 16442 16443 16444 16445 16446 16447 16448 16449 16450 16451 16452 16453 16454 16455 16456 16457 16458 16459 16460 16461 16462 16463 16464 16465 16466 16467 16468 16469 16470 16471 16472 16473 16474 16475 16476 16477 16478 16479 16480 16481 16482 16483 16484 16485 16486 16487 16488 16489 16490 16491 16492 16493 16494 16495 16496 16497 16498 16499 16500 16501 16502 16503 16504 16505 16506 16507 16508 16509 16510 16511 16512 16513 16514 16515 16516 16517 16518 16519 16520 16521 16522 16523 16524 16525 16526 16527 16528 16529 16530 16531 16532 16533 16534 16535 16536 16537 16538 16539 16540 16541 16542 16543 16544 16545 16546 16547 16548 16549 16550 16551 16552 16553 16554 16555 16556 16557 16558 16559 16560 16561 16562 16563 16564 16565 16566 16567 16568 16569 16570 16571 16572 16573 16574 16575 16576 16577 16578 16579 16580 16581 16582 16583 16584 16585 16586 16587 16588 16589 16590 16591 16592 16593 16594 16595 16596 16597 16598 16599 16600 16601 16602 16603 16604 16605 16606 16607 16608 16609 16610 16611 16612 16613 16614 16615 16616 16617 16618 16619 16620 16621 16622 16623 16624 16625 16626 16627 16628 16629 16630 16631 16632 16633 16634 16635 16636 16637 16638 16639 16640 16641 16642 16643 16644 16645 16646 16647 16648 16649 16650 16651 16652 16653 16654 16655 16656 16657 16658 16659 16660 16661 16662 16663 16664 16665 16666 16667 16668 16669 16670 16671 16672 16673 16674 16675 16676 16677 16678 16679 16680 16681 16682 16683 16684 16685 16686 16687 16688 16689 16690 16691 16692 16693 16694 16695 16696 16697 16698 16699 16700 16701 16702 16703 16704 16705 16706 16707 16708 16709 16710 16711 16712 16713 16714 16715 16716 16717 16718 16719 16720 16721 16722 16723 16724 16725 16726 16727 16728 16729 16730 16731 16732 16733 16734 16735 16736 16737 16738 16739 16740 16741 16742 16743 16744 16745 16746 16747 16748 16749 16750 16751 16752 16753 16754 16755 16756 16757 16758 16759 16760 16761 16762 16763 16764 16765 16766 16767 16768 16769 16770 16771 16772 16773 16774 16775 16776 16777 16778 16779 16780 16781 16782 16783 16784 16785 16786 16787 16788 16789 16790 16791 16792 16793 16794 16795 16796 16797 16798 16799 16800 16801 16802 16803 16804 16805 16806 16807 16808 16809 16810 16811 16812 16813 16814 16815 16816 16817 16818 16819 16820 16821 16822 16823 16824 16825 16826 16827 16828 16829 16830 16831 16832 16833 16834 16835 16836 16837 16838 16839 16840 16841 16842 16843 16844 16845 16846 16847 16848 16849 16850 16851 16852 16853 16854 16855 16856 16857 16858 16859 16860 16861 16862 16863 16864 16865 16866 16867 16868 16869 16870 16871 16872 16873 16874 16875 16876 16877 16878 16879 16880 16881 16882 16883 16884 16885 16886 16887 16888 16889 16890 16891 16892 16893 16894 16895 16896 16897 16898 16899 16900 16901 16902 16903 16904 16905 16906 16907 16908 16909 16910 16911 16912 16913 16914 16915 16916 16917 16918 16919 16920 16921 16922 16923 16924 16925 16926 16927 16928 16929 16930 16931 16932 16933 16934 16935 16936 16937 16938 16939 16940 16941 16942 16943 16944 16945 16946 16947 16948 16949 16950 16951 16952 16953 16954 16955 16956 16957 16958 16959 16960 16961 16962 16963 16964 16965 16966 16967 16968 16969 16970 16971 16972 16973 16974 16975 16976 16977 16978 16979 16980 16981 16982 16983 16984 16985 16986 16987 16988 16989 16990 16991 16992 16993 16994 16995 16996 16997 16998 16999 17000 17001 17002 17003 17004 17005 17006 17007 17008 17009 17010 17011 17012 17013 17014 17015 17016 17017 17018 17019 17020 17021 17022 17023 17024 17025 17026 17027 17028 17029 17030 17031 17032 17033 17034 17035 17036 17037 17038 17039 17040 17041 17042 17043 17044 17045 17046 17047 17048 17049 17050 17051 17052 17053 17054 17055 17056 17057 17058 17059 17060 17061 17062 17063 17064 17065 17066 17067 17068 17069 17070 17071 17072 17073 17074 17075 17076 17077 17078 17079 17080 17081 17082 17083 17084 17085 17086 17087 17088 17089 17090 17091 17092 17093 17094 17095 17096 17097 17098 17099 17100 17101 17102 17103 17104 17105 17106 17107 17108 17109 17110 17111 17112 17113 17114 17115 17116 17117 17118 17119 17120 17121 17122 17123 17124 17125 17126 17127 17128 17129 17130 17131 17132 17133 17134 17135 17136 17137 17138 17139 17140 17141 17142 17143 17144 17145 17146 17147 17148 17149 17150 17151 17152 17153 17154 17155 17156 17157 17158 17159 17160 17161 17162 17163 17164 17165 17166 17167 17168 17169 17170 17171 17172 17173 17174 17175 17176 17177 17178 17179 17180 17181 17182 17183 17184 17185 17186 17187 17188 17189 17190 17191 17192 17193 17194 17195 17196 17197 17198 17199 17200 17201 17202 17203 17204 17205 17206 17207 17208 17209 17210 17211 17212 17213 17214 17215 17216 17217 17218 17219 17220 17221 17222 17223 17224 17225 17226 17227 17228 17229 17230 17231 17232 17233 17234 17235 17236 17237 17238 17239 17240 17241 17242 17243 17244 17245 17246 17247 17248 17249 17250 17251 17252 17253 17254 17255 17256 17257 17258 17259 17260 17261 17262 17263 17264 17265 17266 17267 17268 17269 17270 17271 17272 17273 17274 17275 17276 17277 17278 17279 17280 17281 17282 17283 17284 17285 17286 17287 17288 17289 17290 17291 17292 17293 17294 17295 17296 17297 17298 17299 17300 17301 17302 17303 17304 17305 17306 17307 17308 17309 17310 17311 17312 17313 17314 17315 17316 17317 17318 17319 17320 17321 17322 17323 17324 17325 17326 17327 17328 17329 17330 17331 17332 17333 17334 17335 17336 17337 17338 17339 17340 17341 17342 17343 17344 17345 17346 17347 17348 17349 17350 17351 17352 17353 17354 17355 17356 17357 17358 17359 17360 17361 17362 17363 17364 17365 17366 17367 17368 17369 17370 17371 17372 17373 17374 17375 17376 17377 17378 17379 17380 17381 17382 17383 17384 17385 17386 17387 17388 17389 17390 17391 17392 17393 17394 17395 17396 17397 17398 17399 17400 17401 17402 17403 17404 17405 17406 17407 17408 17409 17410 17411 17412 17413 17414 17415 17416 17417 17418 17419 17420 17421 17422 17423 17424 17425 17426 17427 17428 17429 17430 17431 17432 17433 17434 17435 17436 17437 17438 17439 17440 17441 17442 17443 17444 17445 17446 17447 17448 17449 17450 17451 17452 17453 17454 17455 17456 17457 17458 17459 17460 17461 17462 17463 17464 17465 17466 17467 17468 17469 17470 17471 17472 17473 17474 17475 17476 17477 17478 17479 17480 17481 17482 17483 17484 17485 17486 17487 17488 17489 17490 17491 17492 17493 17494 17495 17496 17497 17498 17499 17500 17501 17502 17503 17504 17505 17506 17507 17508 17509 17510 17511 17512 17513 17514 17515 17516 17517 17518 17519 17520 17521 17522 17523 17524 17525 17526 17527 17528 17529 17530 17531 17532 17533 17534 17535 17536 17537 17538 17539 17540 17541 17542 17543 17544 17545 17546 17547 17548 17549 17550 17551 17552 17553 17554 17555 17556 17557 17558 17559 17560 17561 17562 17563 17564 17565 17566 17567 17568 17569 17570 17571 17572 17573 17574 17575 17576 17577 17578 17579 17580 17581 17582 17583 17584 17585 17586 17587 17588 17589 17590 17591 17592 17593 17594 17595 17596 17597 17598 17599 17600 17601 17602 17603 17604 17605 17606 17607 17608 17609 17610 17611 17612 17613 17614 17615 17616 17617 17618 17619 17620 17621 17622 17623 17624 17625 17626 17627 17628 17629 17630 17631 17632 17633 17634 17635 17636 17637 17638 17639 17640 17641 17642 17643 17644 17645 17646 17647 17648 17649 17650 17651 17652 17653 17654 17655 17656 17657 17658 17659 17660 17661 17662 17663 17664 17665 17666 17667 17668 17669 17670 17671 17672 17673 17674 17675 17676 17677 17678 17679 17680 17681 17682 17683 17684 17685 17686 17687 17688 17689 17690 17691 17692 17693 17694 17695 17696 17697 17698 17699 17700 17701 17702 17703 17704 17705 17706 17707 17708 17709 17710 17711 17712 17713 17714 17715 17716 17717 17718 17719 17720 17721 17722 17723 17724 17725 17726 17727 17728 17729 17730 17731 17732 17733 17734 17735 17736 17737 17738 17739 17740 17741 17742 17743 17744 17745 17746 17747 17748 17749 17750 17751 17752 17753 17754 17755 17756 17757 17758 17759 17760 17761 17762 17763 17764 17765 17766 17767 17768 17769 17770 17771 17772 17773 17774 17775 17776 17777 17778 17779 17780 17781 17782 17783 17784 17785 17786 17787 17788 17789 17790 17791 17792 17793 17794 17795 17796 17797 17798 17799 17800 17801 17802 17803 17804 17805 17806 17807 17808 17809 17810 17811 17812 17813 17814 17815 17816 17817 17818 17819 17820 17821 17822 17823 17824 17825 17826 17827 17828 17829 17830 17831 17832 17833 17834 17835 17836 17837 17838 17839 17840 17841 17842 17843 17844 17845 17846 17847 17848 17849 17850 17851 17852 17853 17854 17855 17856 17857 17858 17859 17860 17861 17862 17863 17864 17865 17866 17867 17868 17869 17870 17871 17872 17873 17874 17875 17876 17877 17878 17879 17880 17881 17882 17883 17884 17885 17886 17887 17888 17889 17890 17891 17892 17893 17894 17895 17896 17897 17898 17899 17900 17901 17902 17903 17904 17905 17906 17907 17908 17909 17910 17911 17912 17913 17914 17915 17916 17917 17918 17919 17920 17921 17922 17923 17924 17925 17926 17927 17928 17929 17930 17931 17932 17933 17934 17935 17936 17937 17938 17939 17940 17941 17942 17943 17944 17945 17946 17947 17948 17949 17950 17951 17952 17953 17954 17955 17956 17957 17958 17959 17960 17961 17962 17963 17964 17965 17966 17967 17968 17969 17970 17971 17972 17973 17974 17975 17976 17977 17978 17979 17980 17981 17982 17983 17984 17985 17986 17987 17988 17989 17990 17991 17992 17993 17994 17995 17996 17997 17998 17999 18000 18001 18002 18003 18004 18005 18006 18007 18008 18009 18010 18011 18012 18013 18014 18015 18016 18017 18018 18019 18020 18021 18022 18023 18024 18025 18026 18027 18028 18029 18030 18031 18032 18033 18034 18035 18036 18037 18038 18039 18040 18041 18042 18043 18044 18045 18046 18047 18048 18049 18050 18051 18052 18053 18054 18055 18056 18057 18058 18059 18060 18061 18062 18063 18064 18065 18066 18067 18068 18069 18070 18071 18072 18073 18074 18075 18076 18077 18078 18079 18080 18081 18082 18083 18084 18085 18086 18087 18088 18089 18090 18091 18092 18093 18094 18095 18096 18097 18098 18099 18100 18101 18102 18103 18104 18105 18106 18107 18108 18109 18110 18111 18112 18113 18114 18115 18116 18117 18118 18119 18120 18121 18122 18123 18124 18125 18126 18127 18128 18129 18130 18131 18132 18133 18134 18135 18136 18137 18138 18139 18140 18141 18142 18143 18144 18145 18146 18147 18148 18149 18150 18151 18152 18153 18154 18155 18156 18157 18158 18159 18160 18161 18162 18163 18164 18165 18166 18167 18168 18169 18170 18171 18172 18173 18174 18175 18176 18177 18178 18179 18180 18181 18182 18183 18184 18185 18186 18187 18188 18189 18190 18191 18192 18193 18194 18195 18196 18197 18198 18199 18200 18201 18202 18203 18204 18205 18206 18207 18208 18209 18210 18211 18212 18213 18214 18215 18216 18217 18218 18219 18220 18221 18222 18223 18224 18225 18226 18227 18228 18229 18230 18231 18232 18233 18234 18235 18236 18237 18238 18239 18240 18241 18242 18243 18244 18245 18246 18247 18248 18249 18250 18251 18252 18253 18254 18255 18256 18257 18258 18259 18260 18261 18262 18263 18264 18265 18266 18267 18268 18269 18270 18271 18272 18273 18274 18275 18276 18277 18278 18279 18280 18281 18282 18283 18284 18285 18286 18287 18288 18289 18290 18291 18292 18293 18294 18295 18296 18297 18298 18299 18300 18301 18302 18303 18304 18305 18306 18307 18308 18309 18310 18311 18312 18313 18314 18315 18316 18317 18318 18319 18320 18321 18322 18323 18324 18325 18326 18327 18328 18329 18330 18331 18332 18333 18334 18335 18336 18337 18338 18339 18340 18341 18342 18343 18344 18345 18346 18347 18348 18349 18350 18351 18352 18353 18354 18355 18356 18357 18358 18359 18360 18361 18362 18363 18364 18365 18366 18367 18368 18369 18370 18371 18372 18373 18374 18375 18376 18377 18378 18379 18380 18381 18382 18383 18384 18385 18386 18387 18388 18389 18390 18391 18392 18393 18394 18395 18396 18397 18398 18399 18400 18401 18402 18403 18404 18405 18406 18407 18408 18409 18410 18411 18412 18413 18414 18415 18416 18417 18418 18419 18420 18421 18422 18423 18424 18425 18426 18427 18428 18429 18430 18431 18432 18433 18434 18435 18436 18437 18438 18439 18440 18441 18442 18443 18444 18445 18446 18447 18448 18449 18450 18451 18452 18453 18454 18455 18456 18457 18458 18459 18460 18461 18462 18463 18464 18465 18466 18467 18468 18469 18470 18471 18472 18473 18474 18475 18476 18477 18478 18479 18480 18481 18482 18483 18484 18485 18486 18487 18488 18489 18490 18491 18492 18493 18494 18495 18496 18497 18498 18499 18500 18501 18502 18503 18504 18505 18506 18507 18508 18509 18510 18511 18512 18513 18514 18515 18516 18517 18518 18519 18520 18521 18522 18523 18524 18525 18526 18527 18528 18529 18530 18531 18532 18533 18534 18535 18536 18537 18538 18539 18540 18541 18542 18543 18544 18545 18546 18547 18548 18549 18550 18551 18552 18553 18554 18555 18556 18557 18558 18559 18560 18561 18562 18563 18564 18565 18566 18567 18568 18569 18570 18571 18572 18573 18574 18575 18576 18577 18578 18579 18580 18581 18582 18583 18584 18585 18586 18587 18588 18589 18590 18591 18592 18593 18594 18595 18596 18597 18598 18599 18600 18601 18602 18603 18604 18605 18606 18607 18608 18609 18610 18611 18612 18613 18614 18615 18616 18617 18618 18619 18620 18621 18622 18623 18624 18625 18626 18627 18628 18629 18630 18631 18632 18633 18634 18635 18636 18637 18638 18639 18640 18641 18642 18643 18644 18645 18646 18647 18648 18649 18650 18651 18652 18653 18654 18655 18656 18657 18658 18659 18660 18661 18662 18663 18664 18665 18666 18667 18668 18669 18670 18671 18672 18673 18674 18675 18676 18677 18678 18679 18680 18681 18682 18683 18684 18685 18686 18687 18688 18689 18690 18691 18692 18693 18694 18695 18696 18697 18698 18699 18700 18701 18702 18703 18704 18705 18706 18707 18708 18709 18710 18711 18712 18713 18714 18715 18716 18717 18718 18719 18720 18721 18722 18723 18724 18725 18726 18727 18728 18729 18730 18731 18732 18733 18734 18735 18736 18737 18738 18739 18740 18741 18742 18743 18744 18745 18746 18747 18748 18749 18750 18751 18752 18753 18754 18755 18756 18757 18758 18759 18760 18761 18762 18763 18764 18765 18766 18767 18768 18769 18770 18771 18772 18773 18774 18775 18776 18777 18778 18779 18780 18781 18782 18783 18784 18785 18786 18787 18788 18789 18790 18791 18792 18793 18794 18795 18796 18797 18798 18799 18800 18801 18802 18803 18804 18805 18806 18807 18808 18809 18810 18811 18812 18813 18814 18815 18816 18817 18818 18819 18820 18821 18822 18823 18824 18825 18826 18827 18828 18829 18830 18831 18832 18833 18834 18835 18836 18837 18838 18839 18840 18841 18842 18843 18844 18845 18846 18847 18848 18849 18850 18851 18852 18853 18854 18855 18856 18857 18858 18859 18860 18861 18862 18863 18864 18865 18866 18867 18868 18869 18870 18871 18872 18873 18874 18875 18876 18877 18878 18879 18880 18881 18882 18883 18884 18885 18886 18887 18888 18889 18890 18891 18892 18893 18894 18895 18896 18897 18898 18899 18900 18901 18902 18903 18904 18905 18906 18907 18908 18909 18910 18911 18912 18913 18914 18915 18916 18917 18918 18919 18920 18921 18922 18923 18924 18925 18926 18927 18928 18929 18930 18931 18932 18933 18934 18935 18936 18937 18938 18939 18940 18941 18942 18943 18944 18945 18946 18947 18948 18949 18950 18951 18952 18953 18954 18955 18956 18957 18958 18959 18960 18961 18962 18963 18964 18965 18966 18967 18968 18969 18970 18971 18972 18973 18974 18975 18976 18977 18978 18979 18980 18981 18982 18983 18984 18985 18986 18987 18988 18989 18990 18991 18992 18993 18994 18995 18996 18997 18998 18999 19000 19001 19002 19003 19004 19005 19006 19007 19008 19009 19010 19011 19012 19013 19014 19015 19016 19017 19018 19019 19020 19021 19022 19023 19024 19025 19026 19027 19028 19029 19030 19031 19032 19033 19034 19035 19036 19037 19038 19039 19040 19041 19042 19043 19044 19045 19046 19047 19048 19049 19050 19051 19052 19053 19054 19055 19056 19057 19058 19059 19060 19061 19062 19063 19064 19065 19066 19067 19068 19069 19070 19071 19072 19073 19074 19075 19076 19077 19078 19079 19080 19081 19082 19083 19084 19085 19086 19087 19088 19089 19090 19091 19092 19093 19094 19095 19096 19097 19098 19099 19100 19101 19102 19103 19104 19105 19106 19107 19108 19109 19110 19111 19112 19113 19114 19115 19116 19117 19118 19119 19120 19121 19122 19123 19124 19125 19126 19127 19128 19129 19130 19131 19132 19133 19134 19135 19136 19137 19138 19139 19140 19141 19142 19143 19144 19145 19146 19147 19148 19149 19150 19151 19152 19153 19154 19155 19156 19157 19158 19159 19160 19161 19162 19163 19164 19165 19166 19167 19168 19169 19170 19171 19172 19173 19174 19175 19176 19177 19178 19179 19180 19181 19182 19183 19184 19185 19186 19187 19188 19189 19190 19191 19192 19193 19194 19195 19196 19197 19198 19199 19200 19201 19202 19203 19204 19205 19206 19207 19208 19209 19210 19211 19212 19213 19214 19215 19216 19217 19218 19219 19220 19221 19222 19223 19224 19225 19226 19227 19228 19229 19230 19231 19232 19233 19234 19235 19236 19237 19238 19239 19240 19241 19242 19243 19244 19245 19246 19247 19248 19249 19250 19251 19252 19253 19254 19255 19256 19257 19258 19259 19260 19261 19262 19263 19264 19265 19266 19267 19268 19269 19270 19271 19272 19273 19274 19275 19276 19277 19278 19279 19280 19281 19282 19283 19284 19285 19286 19287 19288 19289 19290 19291 19292 19293 19294 19295 19296 19297 19298 19299 19300 19301 19302 19303 19304 19305 19306 19307 19308 19309 19310 19311 19312 19313 19314 19315 19316 19317 19318 19319 19320 19321 19322 19323 19324 19325 19326 19327 19328 19329 19330 19331 19332 19333 19334 19335 19336 19337 19338 19339 19340 19341 19342 19343 19344 19345 19346 19347 19348 19349 19350 19351 19352 19353 19354 19355 19356 19357 19358 19359 19360 19361 19362 19363 19364 19365 19366 19367 19368 19369 19370 19371 19372 19373 19374 19375 19376 19377 19378 19379 19380 19381 19382 19383 19384 19385 19386 19387 19388 19389 19390 19391 19392 19393 19394 19395 19396 19397 19398 19399 19400 19401 19402 19403 19404 19405 19406 19407 19408 19409 19410 19411 19412 19413 19414 19415 19416 19417 19418 19419 19420 19421 19422 19423 19424 19425 19426 19427 19428 19429 19430 19431 19432 19433 19434 19435 19436 19437 19438 19439 19440 19441 19442 19443 19444 19445 19446 19447 19448 19449 19450 19451 19452 19453 19454 19455 19456 19457 19458 19459 19460 19461 19462 19463 19464 19465 19466 19467 19468 19469 19470 19471 19472 19473 19474 19475 19476 19477 19478 19479 19480 19481 19482 19483 19484 19485 19486 19487 19488 19489 19490 19491 19492 19493 19494 19495 19496 19497 19498 19499 19500 19501 19502 19503 19504 19505 19506 19507 19508 19509 19510 19511 19512 19513 19514 19515 19516 19517 19518 19519 19520 19521 19522 19523 19524 19525 19526 19527 19528 19529 19530 19531 19532 19533 19534 19535 19536 19537 19538 19539 19540 19541 19542 19543 19544 19545 19546 19547 19548 19549 19550 19551 19552 19553 19554 19555 19556 19557 19558 19559 19560 19561 19562 19563 19564 19565 19566 19567 19568 19569 19570 19571 19572 19573 19574 19575 19576 19577 19578 19579 19580 19581 19582 19583 19584 19585 19586 19587 19588 19589 19590 19591 19592 19593 19594 19595 19596 19597 19598 19599 19600 19601 19602 19603 19604 19605 19606 19607 19608 19609 19610 19611 19612 19613 19614 19615 19616 19617 19618 19619 19620 19621 19622 19623 19624 19625 19626 19627 19628 19629 19630 19631 19632 19633 19634 19635 19636 19637 19638 19639 19640 19641 19642 19643 19644 19645 19646 19647 19648 19649 19650 19651 19652 19653 19654 19655 19656 19657 19658 19659 19660 19661 19662 19663 19664 19665 19666 19667 19668 19669 19670 19671 19672 19673 19674 19675 19676 19677 19678 19679 19680 19681 19682 19683 19684 19685 19686 19687 19688 19689 19690 19691 19692 19693 19694 19695 19696 19697 19698 19699 19700 19701 19702 19703 19704 19705 19706 19707 19708 19709 19710 19711 19712 19713 19714 19715 19716 19717 19718 19719 19720 19721 19722 19723 19724 19725 19726 19727 19728 19729 19730 19731 19732 19733 19734 19735 19736 19737 19738 19739 19740 19741 19742 19743 19744 19745 19746 19747 19748 19749 19750 19751 19752 19753 19754 19755 19756 19757 19758 19759 19760 19761 19762 19763 19764 19765 19766 19767 19768 19769 19770 19771 19772 19773 19774 19775 19776 19777 19778 19779 19780 19781 19782 19783 19784 19785 19786 19787 19788 19789 19790 19791 19792 19793 19794 19795 19796 19797 19798 19799 19800 19801 19802 19803 19804 19805 19806 19807 19808 19809 19810 19811 19812 19813 19814 19815 19816 19817 19818 19819 19820 19821 19822 19823 19824 19825 19826 19827 19828 19829 19830 19831 19832 19833 19834 19835 19836 19837 19838 19839 19840 19841 19842 19843 19844 19845 19846 19847 19848 19849 19850 19851 19852 19853 19854 19855 19856 19857 19858 19859 19860 19861 19862 19863 19864 19865 19866 19867 19868 19869 19870 19871 19872 19873 19874 19875 19876 19877 19878 19879 19880 19881 19882 19883 19884 19885 19886 19887 19888 19889 19890 19891 19892 19893 19894 19895 19896 19897 19898 19899 19900 19901 19902 19903 19904 19905 19906 19907 19908 19909 19910 19911 19912 19913 19914 19915 19916 19917 19918 19919 19920 19921 19922 19923 19924 19925 19926 19927 19928 19929 19930 19931 19932 19933 19934 19935 19936 19937 19938 19939 19940 19941 19942 19943 19944 19945 19946 19947 19948 19949 19950 19951 19952 19953 19954 19955 19956 19957 19958 19959 19960 19961 19962 19963 19964 19965 19966 19967 19968 19969 19970 19971 19972 19973 19974 19975 19976 19977 19978 19979 19980 19981 19982 19983 19984 19985 19986 19987 19988 19989 19990 19991 19992 19993 19994 19995 19996 19997 19998 19999 20000 20001 20002 20003 20004 20005 20006 20007 20008 20009 20010 20011 20012 20013 20014 20015 20016 20017 20018 20019 20020 20021 20022 20023 20024 20025 20026 20027 20028 20029 20030 20031 20032 20033 20034 20035 20036 20037 20038 20039 20040 20041 20042 20043 20044 20045 20046 20047 20048 20049 20050 20051 20052 20053 20054 20055 20056 20057 20058 20059 20060 20061 20062 20063 20064 20065 20066 20067 20068 20069 20070 20071 20072 20073 20074 20075 20076 20077 20078 20079 20080 20081 20082 20083 20084 20085 20086 20087 20088 20089 20090 20091 20092 20093 20094 20095 20096 20097 20098 20099 20100 20101 20102 20103 20104 20105 20106 20107 20108 20109 20110 20111 20112 20113 20114 20115 20116 20117 20118 20119 20120 20121 20122 20123 20124 20125 20126 20127 20128 20129 20130 20131 20132 20133 20134 20135 20136 20137 20138 20139 20140 20141 20142 20143 20144 20145 20146 20147 20148 20149 20150 20151 20152 20153 20154 20155 20156 20157 20158 20159 20160 20161 20162 20163 20164 20165 20166 20167 20168 20169 20170 20171 20172 20173 20174 20175 20176 20177 20178 20179 20180 20181 20182 20183 20184 20185 20186 20187 20188 20189 20190 20191 20192 20193 20194 20195 20196 20197 20198 20199 20200 20201 20202 20203 20204 20205 20206 20207 20208 20209 20210 20211 20212 20213 20214 20215 20216 20217 20218 20219 20220 20221 20222 20223 20224 20225 20226 20227 20228 20229 20230 20231 20232 20233 20234 20235 20236 20237 20238 20239 20240 20241 20242 20243 20244 20245 20246 20247 20248 20249 20250 20251 20252 20253 20254 20255 20256 20257 20258 20259 20260 20261 20262 20263 20264 20265 20266 20267 20268 20269 20270 20271 20272 20273 20274 20275 20276 20277 20278 20279 20280 20281 20282 20283 20284 20285 20286 20287 20288 20289 20290 20291 20292 20293 20294 20295 20296 20297 20298 20299 20300 20301 20302 20303 20304 20305 20306 20307 20308 20309 20310 20311 20312 20313 20314 20315 20316 20317 20318 20319 20320 20321 20322 20323 20324 20325 20326 20327 20328 20329 20330 20331 20332 20333 20334 20335 20336 20337 20338 20339 20340 20341 20342 20343 20344 20345 20346 20347 20348 20349 20350 20351 20352 20353 20354 20355 20356 20357 20358 20359 20360 20361 20362 20363 20364 20365 20366 20367 20368 20369 20370 20371 20372 20373 20374 20375 20376 20377 20378 20379 20380 20381 20382 20383 20384 20385 20386 20387 20388 20389 20390 20391 20392 20393 20394 20395 20396 20397 20398 20399 20400 20401 20402 20403 20404 20405 20406 20407 20408 20409 20410 20411 20412 20413 20414 20415 20416 20417 20418 20419 20420 20421 20422 20423 20424 20425 20426 20427 20428 20429 20430 20431 20432 20433 20434 20435 20436 20437 20438 20439 20440 20441 20442 20443 20444 20445 20446 20447 20448 20449 20450 20451 20452 20453 20454 20455 20456 20457 20458 20459 20460 20461 20462 20463 20464 20465 20466 20467 20468 20469 20470 20471 20472 20473 20474 20475 20476 20477 20478 20479 20480 20481 20482 20483 20484 20485 20486 20487 20488 20489 20490 20491 20492 20493 20494 20495 20496 20497 20498 20499 20500 20501 20502 20503 20504 20505 20506 20507 20508 20509 20510 20511 20512 20513 20514 20515 20516 20517 20518 20519 20520 20521 20522 20523 20524 20525 20526 20527 20528 20529 20530 20531 20532 20533 20534 20535 20536 20537 20538 20539 20540 20541 20542 20543 20544 20545 20546 20547 20548 20549 20550 20551 20552 20553 20554 20555 20556 20557 20558 20559 20560 20561 20562 20563 20564 20565 20566 20567 20568 20569 20570 20571 20572 20573 20574 20575 20576 20577 20578 20579 20580 20581 20582 20583 20584 20585 20586 20587 20588 20589 20590 20591 20592 20593 20594 20595 20596 20597 20598 20599 20600 20601 20602 20603 20604 20605 20606 20607 20608 20609 20610 20611 20612 20613 20614 20615 20616 20617 20618 20619 20620 20621 20622 20623 20624 20625 20626 20627 20628 20629 20630 20631 20632 20633 20634 20635 20636 20637 20638 20639 20640 20641 20642 20643 20644 20645 20646 20647 20648 20649 20650 20651 20652 20653 20654 20655 20656 20657 20658 20659 20660 20661 20662 20663 20664 20665 20666 20667 20668 20669 20670 20671 20672 20673 20674 20675 20676 20677 20678 20679 20680 20681 20682 20683 20684 20685 20686 20687 20688 20689 20690 20691 20692 20693 20694 20695 20696 20697 20698 20699 20700 20701 20702 20703 20704 20705 20706 20707 20708 20709 20710 20711 20712 20713 20714 20715 20716 20717 20718 20719 20720 20721 20722 20723 20724 20725 20726 20727 20728 20729 20730 20731 20732 20733 20734 20735 20736 20737 20738 20739 20740 20741 20742 20743 20744 20745 20746 20747 20748 20749 20750 20751 20752 20753 20754 20755 20756 20757 20758 20759 20760 20761 20762 20763 20764 20765 20766 20767 20768 20769 20770 20771 20772 20773 20774 20775 20776 20777 20778 20779 20780 20781 20782 20783 20784 20785 20786 20787 20788 20789 20790 20791 20792 20793 20794 20795 20796 20797 20798 20799 20800 20801 20802 20803 20804 20805 20806 20807 20808 20809 20810 20811 20812 20813 20814 20815 20816 20817 20818 20819 20820 20821 20822 20823 20824 20825 20826 20827 20828 20829 20830 20831 20832 20833 20834 20835 20836 20837 20838 20839 20840 20841 20842 20843 20844 20845 20846 20847 20848 20849 20850 20851 20852 20853 20854 20855 20856 20857 20858 20859 20860 20861 20862 20863 20864 20865 20866 20867 20868 20869 20870 20871 20872 20873 20874 20875 20876 20877 20878 20879 20880 20881 20882 20883 20884 20885 20886 20887 20888 20889 20890 20891 20892 20893 20894 20895 20896 20897 20898 20899 20900 20901 20902 20903 20904 20905 20906 20907 20908 20909 20910 20911 20912 20913 20914 20915 20916 20917 20918 20919 20920 20921 20922 20923 20924 20925 20926 20927 20928 20929 20930 20931 20932 20933 20934 20935 20936 20937 20938 20939 20940 20941 20942 20943 20944 20945 20946 20947 20948 20949 20950 20951 20952 20953 20954 20955 20956 20957 20958 20959 20960 20961 20962 20963 20964 20965 20966 20967 20968 20969 20970 20971 20972 20973 20974 20975 20976 20977 20978 20979 20980 20981 20982 20983 20984 20985 20986 20987 20988 20989 20990 20991 20992 20993 20994 20995 20996 20997 20998 20999 21000 21001 21002 21003 21004 21005 21006 21007 21008 21009 21010 21011 21012 21013 21014 21015 21016 21017 21018 21019 21020 21021 21022 21023 21024 21025 21026 21027 21028 21029 21030 21031 21032 21033 21034 21035 21036 21037 21038 21039 21040 21041 21042 21043 21044 21045 21046 21047 21048 21049 21050 21051 21052 21053 21054 21055 21056 21057 21058 21059 21060 21061 21062 21063 21064 21065 21066 21067 21068 21069 21070 21071 21072 21073 21074 21075 21076 21077 21078 21079 21080 21081 21082 21083 21084 21085 21086 21087 21088 21089 21090 21091 21092 21093 21094 21095 21096 21097 21098 21099 21100 21101 21102 21103 21104 21105 21106 21107 21108 21109 21110 21111 21112 21113 21114 21115 21116 21117 21118 21119 21120 21121 21122 21123 21124 21125 21126 21127 21128 21129 21130 21131 21132 21133 21134 21135 21136 21137 21138 21139 21140 21141 21142 21143 21144 21145 21146 21147 21148 21149 21150 21151 21152 21153 21154 21155 21156 21157 21158 21159 21160 21161 21162 21163 21164 21165 21166 21167 21168 21169 21170 21171 21172 21173 21174 21175 21176 21177 21178 21179 21180 21181 21182 21183 21184 21185 21186 21187 21188 21189 21190 21191 21192 21193 21194 21195 21196 21197 21198 21199 21200 21201 21202 21203 21204 21205 21206 21207 21208 21209 21210 21211 21212 21213 21214 21215 21216 21217 21218 21219 21220 21221 21222 21223 21224 21225 21226 21227 21228 21229 21230 21231 21232 21233 21234 21235 21236 21237 21238 21239 21240 21241 21242 21243 21244 21245 21246 21247 21248 21249 21250 21251 21252 21253 21254 21255 21256 21257 21258 21259 21260 21261 21262 21263 21264 21265 21266 21267 21268 21269 21270 21271 21272 21273 21274 21275 21276 21277 21278 21279 21280 21281 21282 21283 21284 21285 21286 21287 21288 21289 21290 21291 21292 21293 21294 21295 21296 21297 21298 21299 21300 21301 21302 21303 21304 21305 21306 21307 21308 21309 21310 21311 21312 21313 21314 21315 21316 21317 21318 21319 21320 21321 21322 21323 21324 21325 21326 21327 21328 21329 21330 21331 21332 21333 21334 21335 21336 21337 21338 21339 21340 21341 21342 21343 21344 21345 21346 21347 21348 21349 21350 21351 21352 21353 21354 21355 21356 21357 21358 21359 21360 21361 21362 21363 21364 21365 21366 21367 21368 21369 21370 21371 21372 21373 21374 21375 21376 21377 21378 21379 21380 21381 21382 21383 21384 21385 21386 21387 21388 21389 21390 21391 21392 21393 21394 21395 21396 21397 21398 21399 21400 21401 21402 21403 21404 21405 21406 21407 21408 21409 21410 21411 21412 21413 21414 21415 21416 21417 21418 21419 21420 21421 21422 21423 21424 21425 21426 21427 21428 21429 21430 21431 21432 21433 21434 21435 21436 21437 21438 21439 21440 21441 21442 21443 21444 21445 21446 21447 21448 21449 21450 21451 21452 21453 21454 21455 21456 21457 21458 21459 21460 21461 21462 21463 21464 21465 21466 21467 21468 21469 21470 21471 21472 21473 21474 21475 21476 21477 21478 21479 21480 21481 21482 21483 21484 21485 21486 21487 21488 21489 21490 21491 21492 21493 21494 21495 21496 21497 21498 21499 21500 21501 21502 21503 21504 21505 21506 21507 21508 21509 21510 21511 21512 21513 21514 21515 21516 21517 21518 21519 21520 21521 21522 21523 21524 21525 21526 21527 21528 21529 21530 21531 21532 21533 21534 21535 21536 21537 21538 21539 21540 21541 21542 21543 21544 21545 21546 21547 21548 21549 21550 21551 21552 21553 21554 21555 21556 21557 21558 21559 21560 21561 21562 21563 21564 21565 21566 21567 21568 21569 21570 21571 21572 21573 21574 21575 21576 21577 21578 21579 21580 21581 21582 21583 21584 21585 21586 21587 21588 21589 21590 21591 21592 21593 21594 21595 21596 21597 21598 21599 21600 21601 21602 21603 21604 21605 21606 21607 21608 21609 21610 21611 21612 21613 21614 21615 21616 21617 21618 21619 21620 21621 21622 21623 21624 21625 21626 21627 21628 21629 21630 21631 21632 21633 21634 21635 21636 21637 21638 21639 21640 21641 21642 21643 21644 21645 21646 21647 21648 21649 21650 21651 21652 21653 21654 21655 21656 21657 21658 21659 21660 21661 21662 21663 21664 21665 21666 21667 21668 21669 21670 21671 21672 21673 21674 21675 21676 21677 21678 21679 21680 21681 21682 21683 21684 21685 21686 21687 21688 21689 21690 21691 21692 21693 21694 21695 21696 21697 21698 21699 21700 21701 21702 21703 21704 21705 21706 21707 21708 21709 21710 21711 21712 21713 21714 21715 21716 21717 21718 21719 21720 21721 21722 21723 21724 21725 21726 21727 21728 21729 21730 21731 21732 21733 21734 21735 21736 21737 21738 21739 21740 21741 21742 21743 21744 21745 21746 21747 21748 21749 21750 21751 21752 21753 21754 21755 21756 21757 21758 21759 21760 21761 21762 21763 21764 21765 21766 21767 21768 21769 21770 21771 21772 21773 21774 21775 21776 21777 21778 21779 21780 21781 21782 21783 21784 21785 21786 21787 21788 21789 21790 21791 21792 21793 21794 21795 21796 21797 21798 21799 21800 21801 21802 21803 21804 21805 21806 21807 21808 21809 21810 21811 21812 21813 21814 21815 21816 21817 21818 21819 21820 21821 21822 21823 21824 21825 21826 21827 21828 21829 21830 21831 21832 21833 21834 21835 21836 21837 21838 21839 21840 21841 21842 21843 21844 21845 21846 21847 21848 21849 21850 21851 21852 21853 21854 21855 21856 21857 21858 21859 21860 21861 21862 21863 21864 21865 21866 21867 21868 21869 21870 21871 21872 21873 21874 21875 21876 21877 21878 21879 21880 21881 21882 21883 21884 21885 21886 21887 21888 21889 21890 21891 21892 21893 21894 21895 21896 21897 21898 21899 21900 21901 21902 21903 21904 21905 21906 21907 21908 21909 21910 21911 21912 21913 21914 21915 21916 21917 21918 21919 21920 21921 21922 21923 21924 21925 21926 21927 21928 21929 21930 21931 21932 21933 21934 21935 21936 21937 21938 21939 21940 21941 21942 21943 21944 21945 21946 21947 21948 21949 21950 21951 21952 21953 21954 21955 21956 21957 21958 21959 21960 21961 21962 21963 21964 21965 21966 21967 21968 21969 21970 21971 21972 21973 21974 21975 21976 21977 21978 21979 21980 21981 21982 21983 21984 21985 21986 21987 21988 21989 21990 21991 21992 21993 21994 21995 21996 21997 21998 21999 22000 22001 22002 22003 22004 22005 22006 22007 22008 22009 22010 22011 22012 22013 22014 22015 22016 22017 22018 22019 22020 22021 22022 22023 22024 22025 22026 22027 22028 22029 22030 22031 22032 22033 22034 22035 22036 22037 22038 22039 22040 22041 22042 22043 22044 22045 22046 22047 22048 22049 22050 22051 22052 22053 22054 22055 22056 22057 22058 22059 22060 22061 22062 22063 22064 22065 22066 22067 22068 22069 22070 22071 22072 22073 22074 22075 22076 22077 22078 22079 22080 22081 22082 22083 22084 22085 22086 22087 22088 22089 22090 22091 22092 22093 22094 22095 22096 22097 22098 22099 22100 22101 22102 22103 22104 22105 22106 22107 22108 22109 22110 22111 22112 22113 22114 22115 22116 22117 22118 22119 22120 22121 22122 22123 22124 22125 22126 22127 22128 22129 22130 22131 22132 22133 22134 22135 22136 22137 22138 22139 22140 22141 22142 22143 22144 22145 22146 22147 22148 22149 22150 22151 22152 22153 22154 22155 22156 22157 22158 22159 22160 22161 22162 22163 22164 22165 22166 22167 22168 22169 22170 22171 22172 22173 22174 22175 22176 22177 22178 22179 22180 22181 22182 22183 22184 22185 22186 22187 22188 22189 22190 22191 22192 22193 22194 22195 22196 22197 22198 22199 22200 22201 22202 22203 22204 22205 22206 22207 22208 22209 22210 22211 22212 22213 22214 22215 22216 22217 22218 22219 22220 22221 22222 22223 22224 22225 22226 22227 22228 22229 22230 22231 22232 22233 22234 22235 22236 22237 22238 22239 22240 22241 22242 22243 22244 22245 22246 22247 22248 22249 22250 22251 22252 22253 22254 22255 22256 22257 22258 22259 22260 22261 22262 22263 22264 22265 22266 22267 22268 22269 22270 22271 22272 22273 22274 22275 22276 22277 22278 22279 22280 22281 22282 22283 22284 22285 22286 22287 22288 22289 22290 22291 22292 22293 22294 22295 22296 22297 22298 22299 22300 22301 22302 22303 22304 22305 22306 22307 22308 22309 22310 22311 22312 22313 22314 22315 22316 22317 22318 22319 22320 22321 22322 22323 22324 22325 22326 22327 22328 22329 22330 22331 22332 22333 22334 22335 22336 22337 22338 22339 22340 22341 22342 22343 22344 22345 22346 22347 22348 22349 22350 22351 22352 22353 22354 22355 22356 22357 22358 22359 22360 22361 22362 22363 22364 22365 22366 22367 22368 22369 22370 22371 22372 22373 22374 22375 22376 22377 22378 22379 22380 22381 22382 22383 22384 22385 22386 22387 22388 22389 22390 22391 22392 22393 22394 22395 22396 22397 22398 22399 22400 22401 22402 22403 22404 22405 22406 22407 22408 22409 22410 22411 22412 22413 22414 22415 22416 22417 22418 22419 22420 22421 22422 22423 22424 22425 22426 22427 22428 22429 22430 22431 22432 22433 22434 22435 22436 22437 22438 22439 22440 22441 22442 22443 22444 22445 22446 22447 22448 22449 22450 22451 22452 22453 22454 22455 22456 22457 22458 22459 22460 22461 22462 22463 22464 22465 22466 22467 22468 22469 22470 22471 22472 22473 22474 22475 22476 22477 22478 22479 22480 22481 22482 22483 22484 22485 22486 22487 22488 22489 22490 22491 22492 22493 22494 22495 22496 22497 22498 22499 22500 22501 22502 22503 22504 22505 22506 22507 22508 22509 22510 22511 22512 22513 22514 22515 22516 22517 22518 22519 22520 22521 22522 22523 22524 22525 22526 22527 22528 22529 22530 22531 22532 22533 22534 22535 22536 22537 22538 22539 22540 22541 22542 22543 22544 22545 22546 22547 22548 22549 22550 22551 22552 22553 22554 22555 22556 22557 22558 22559 22560 22561 22562 22563 22564 22565 22566 22567 22568 22569 22570 22571 22572 22573 22574 22575 22576 22577 22578 22579 22580 22581 22582 22583 22584 22585 22586 22587 22588 22589 22590 22591 22592 22593 22594 22595 22596 22597 22598 22599 22600 22601 22602 22603 22604 22605 22606 22607 22608 22609 22610 22611 22612 22613 22614 22615 22616 22617 22618 22619 22620 22621 22622 22623 22624 22625 22626 22627 22628 22629 22630 22631 22632 22633 22634 22635 22636 22637 22638 22639 22640 22641 22642 22643 22644 22645 22646 22647 22648 22649 22650 22651 22652 22653 22654 22655 22656 22657 22658 22659 22660 22661 22662 22663 22664 22665 22666 22667 22668 22669 22670 22671 22672 22673 22674 22675 22676 22677 22678 22679 22680 22681 22682 22683 22684 22685 22686 22687 22688 22689 22690 22691 22692 22693 22694 22695 22696 22697 22698 22699 22700 22701 22702 22703 22704 22705 22706 22707 22708 22709 22710 22711 22712 22713 22714 22715 22716 22717 22718 22719 22720 22721 22722 22723 22724 22725 22726 22727 22728 22729 22730 22731 22732 22733 22734 22735 22736 22737 22738 22739 22740 22741 22742 22743 22744 22745 22746 22747 22748 22749 22750 22751 22752 22753 22754 22755 22756 22757 22758 22759 22760 22761 22762 22763 22764 22765 22766 22767 22768 22769 22770 22771 22772 22773 22774 22775 22776 22777 22778 22779 22780 22781 22782 22783 22784 22785 22786 22787 22788 22789 22790 22791 22792 22793 22794 22795 22796 22797 22798 22799 22800 22801 22802 22803 22804 22805 22806 22807 22808 22809 22810 22811 22812 22813 22814 22815 22816 22817 22818 22819 22820 22821 22822 22823 22824 22825 22826 22827 22828 22829 22830 22831 22832 22833 22834 22835 22836 22837 22838 22839 22840 22841 22842 22843 22844 22845 22846 22847 22848 22849 22850 22851 22852 22853 22854 22855 22856 22857 22858 22859 22860 22861 22862 22863 22864 22865 22866 22867 22868 22869 22870 22871 22872 22873 22874 22875 22876 22877 22878 22879 22880 22881 22882 22883 22884 22885 22886 22887 22888 22889 22890 22891 22892 22893 22894 22895 22896 22897 22898 22899 22900 22901 22902 22903 22904 22905 22906 22907 22908 22909 22910 22911 22912 22913 22914 22915 22916 22917 22918 22919 22920 22921 22922 22923 22924 22925 22926 22927 22928 22929 22930 22931 22932 22933 22934 22935 22936 22937 22938 22939 22940 22941 22942 22943 22944 22945 22946 22947 22948 22949 22950 22951 22952 22953 22954 22955 22956 22957 22958 22959 22960 22961 22962 22963 22964 22965 22966 22967 22968 22969 22970 22971 22972 22973 22974 22975 22976 22977 22978 22979 22980 22981 22982 22983 22984 22985 22986 22987 22988 22989 22990 22991 22992 22993 22994 22995 22996 22997 22998 22999 23000 23001 23002 23003 23004 23005 23006 23007 23008 23009 23010 23011 23012 23013 23014 23015 23016 23017 23018 23019 23020 23021 23022 23023 23024 23025 23026 23027 23028 23029 23030 23031 23032 23033 23034 23035 23036 23037 23038 23039 23040 23041 23042 23043 23044 23045 23046 23047 23048 23049 23050 23051 23052 23053 23054 23055 23056 23057 23058 23059 23060 23061 23062 23063 23064 23065 23066 23067 23068 23069 23070 23071 23072 23073 23074 23075 23076 23077 23078 23079 23080 23081 23082 23083 23084 23085 23086 23087 23088 23089 23090 23091 23092 23093 23094 23095 23096 23097 23098 23099 23100 23101 23102 23103 23104 23105 23106 23107 23108 23109 23110 23111 23112 23113 23114 23115 23116 23117 23118 23119 23120 23121 23122 23123 23124 23125 23126 23127 23128 23129 23130 23131 23132 23133 23134 23135 23136 23137 23138 23139 23140 23141 23142 23143 23144 23145 23146 23147 23148 23149 23150 23151 23152 23153 23154 23155 23156 23157 23158 23159 23160 23161 23162 23163 23164 23165 23166 23167 23168 23169 23170 23171 23172 23173 23174 23175 23176 23177 23178 23179 23180 23181 23182 23183 23184 23185 23186 23187 23188 23189 23190 23191 23192 23193 23194 23195 23196 23197 23198 23199 23200 23201 23202 23203 23204 23205 23206 23207 23208 23209 23210 23211 23212 23213 23214 23215 23216 23217 23218 23219 23220 23221 23222 23223 23224 23225 23226 23227 23228 23229 23230 23231 23232 23233 23234 23235 23236 23237 23238 23239 23240 23241 23242 23243 23244 23245 23246 23247 23248 23249 23250 23251 23252 23253 23254 23255 23256 23257 23258 23259 23260 23261 23262 23263 23264 23265 23266 23267 23268 23269 23270 23271 23272 23273 23274 23275 23276 23277 23278 23279 23280 23281 23282 23283 23284 23285 23286 23287 23288 23289 23290 23291 23292 23293 23294 23295 23296 23297 23298 23299 23300 23301 23302 23303 23304 23305 23306 23307 23308 23309 23310 23311 23312 23313 23314 23315 23316 23317 23318 23319 23320 23321 23322 23323 23324 23325 23326 23327 23328 23329 23330 23331 23332 23333 23334 23335 23336 23337 23338 23339 23340 23341 23342 23343 23344 23345 23346 23347 23348 23349 23350 23351 23352 23353 23354 23355 23356 23357 23358 23359 23360 23361 23362 23363 23364 23365 23366 23367 23368 23369 23370 23371 23372 23373 23374 23375 23376 23377 23378 23379 23380 23381 23382 23383 23384 23385 23386 23387 23388 23389 23390 23391 23392 23393 23394 23395 23396 23397 23398 23399 23400 23401 23402 23403 23404 23405 23406 23407 23408 23409 23410 23411 23412 23413 23414 23415 23416 23417 23418 23419 23420 23421 23422 23423 23424 23425 23426 23427 23428 23429 23430 23431 23432 23433 23434 23435 23436 23437 23438 23439 23440 23441 23442 23443 23444 23445 23446 23447 23448 23449 23450 23451 23452 23453 23454 23455 23456 23457 23458 23459 23460 23461 23462 23463 23464 23465 23466 23467 23468 23469 23470 23471 23472 23473 23474 23475 23476 23477 23478 23479 23480 23481 23482 23483 23484 23485 23486 23487 23488 23489 23490 23491 23492 23493 23494 23495 23496 23497 23498 23499 23500 23501 23502 23503 23504 23505 23506 23507 23508 23509 23510 23511 23512 23513 23514 23515 23516 23517 23518 23519 23520 23521 23522 23523 23524 23525 23526 23527 23528 23529 23530 23531 23532 23533 23534 23535 23536 23537 23538 23539 23540 23541 23542 23543 23544 23545 23546 23547 23548 23549 23550 23551 23552 23553 23554 23555 23556 23557 23558 23559 23560 23561 23562 23563 23564 23565 23566 23567 23568 23569 23570 23571 23572 23573 23574 23575 23576 23577 23578 23579 23580 23581 23582 23583 23584 23585 23586 23587 23588 23589 23590 23591 23592 23593 23594 23595 23596 23597 23598 23599 23600 23601 23602 23603 23604 23605 23606 23607 23608 23609 23610 23611 23612 23613 23614 23615 23616 23617 23618 23619 23620 23621 23622 23623 23624 23625 23626 23627 23628 23629 23630 23631 23632 23633 23634 23635 23636 23637 23638 23639 23640 23641 23642 23643 23644 23645 23646 23647 23648 23649 23650 23651 23652 23653 23654 23655 23656 23657 23658 23659 23660 23661 23662 23663 23664 23665 23666 23667 23668 23669 23670 23671 23672 23673 23674 23675 23676 23677 23678 23679 23680 23681 23682 23683 23684 23685 23686 23687 23688 23689 23690 23691 23692 23693 23694 23695 23696 23697 23698 23699 23700 23701 23702 23703 23704 23705 23706 23707 23708 23709 23710 23711 23712 23713 23714 23715 23716 23717 23718 23719 23720 23721 23722 23723 23724 23725 23726 23727 23728 23729 23730 23731 23732 23733 23734 23735 23736 23737 23738 23739 23740 23741 23742 23743 23744 23745 23746 23747 23748 23749 23750 23751 23752 23753 23754 23755 23756 23757 23758 23759 23760 23761 23762 23763 23764 23765 23766 23767 23768 23769 23770 23771 23772 23773 23774 23775 23776 23777 23778 23779 23780 23781 23782 23783 23784 23785 23786 23787 23788 23789 23790 23791 23792 23793 23794 23795 23796 23797 23798 23799 23800 23801 23802 23803 23804 23805 23806 23807 23808 23809 23810 23811 23812 23813 23814 23815 23816 23817 23818 23819 23820 23821 23822 23823 23824 23825 23826 23827 23828 23829 23830 23831 23832 23833 23834 23835 23836 23837 23838 23839 23840 23841 23842 23843 23844 23845 23846 23847 23848 23849 23850 23851 23852 23853 23854 23855 23856 23857 23858 23859 23860 23861 23862 23863 23864 23865 23866 23867 23868 23869 23870 23871 23872 23873 23874 23875 23876 23877 23878 23879 23880 23881 23882 23883 23884 23885 23886 23887 23888 23889 23890 23891 23892 23893 23894 23895 23896 23897 23898 23899 23900 23901 23902 23903 23904 23905 23906 23907 23908 23909 23910 23911 23912 23913 23914 23915 23916 23917 23918 23919 23920 23921 23922 23923 23924 23925 23926 23927 23928 23929 23930 23931 23932 23933 23934 23935 23936 23937 23938 23939 23940 23941 23942 23943 23944 23945 23946 23947 23948 23949 23950 23951 23952 23953 23954 23955 23956 23957 23958 23959 23960 23961 23962 23963 23964 23965 23966 23967 23968 23969 23970 23971 23972 23973 23974 23975 23976 23977 23978 23979 23980 23981 23982 23983 23984 23985 23986 23987 23988 23989 23990 23991 23992 23993 23994 23995 23996 23997 23998 23999 24000 24001 24002 24003 24004 24005 24006 24007 24008 24009 24010 24011 24012 24013 24014 24015 24016 24017 24018 24019 24020 24021 24022 24023 24024 24025 24026 24027 24028 24029 24030 24031 24032 24033 24034 24035 24036 24037 24038 24039 24040 24041 24042 24043 24044 24045 24046 24047 24048 24049 24050 24051 24052 24053 24054 24055 24056 24057 24058 24059 24060 24061 24062 24063 24064 24065 24066 24067 24068 24069 24070 24071 24072 24073 24074 24075 24076 24077 24078 24079 24080 24081 24082 24083 24084 24085 24086 24087 24088 24089 24090 24091 24092 24093 24094 24095 24096 24097 24098 24099 24100 24101 24102 24103 24104 24105 24106 24107 24108 24109 24110 24111 24112 24113 24114 24115 24116 24117 24118 24119 24120 24121 24122 24123 24124 24125 24126 24127 24128 24129 24130 24131 24132 24133 24134 24135 24136 24137 24138 24139 24140 24141 24142 24143 24144 24145 24146 24147 24148 24149 24150 24151 24152 24153 24154 24155 24156 24157 24158 24159 24160 24161 24162 24163 24164 24165 24166 24167 24168 24169 24170 24171 24172 24173 24174 24175 24176 24177 24178 24179 24180 24181 24182 24183 24184 24185 24186 24187 24188 24189 24190 24191 24192 24193 24194 24195 24196 24197 24198 24199 24200 24201 24202 24203 24204 24205 24206 24207 24208 24209 24210 24211 24212 24213 24214 24215 24216 24217 24218 24219 24220 24221 24222 24223 24224 24225 24226 24227 24228 24229 24230 24231 24232 24233 24234 24235 24236 24237 24238 24239 24240 24241 24242 24243 24244 24245 24246 24247 24248 24249 24250 24251 24252 24253 24254 24255 24256 24257 24258 24259 24260 24261 24262 24263 24264 24265 24266 24267 24268 24269 24270 24271 24272 24273 24274 24275 24276 24277 24278 24279 24280 24281 24282 24283 24284 24285 24286 24287 24288 24289 24290 24291 24292 24293 24294 24295 24296 24297 24298 24299 24300 24301 24302 24303 24304 24305 24306 24307 24308 24309 24310 24311 24312 24313 24314 24315 24316 24317 24318 24319 24320 24321 24322 24323 24324 24325 24326 24327 24328 24329 24330 24331 24332 24333 24334 24335 24336 24337 24338 24339 24340 24341 24342 24343 24344 24345 24346 24347 24348 24349 24350 24351 24352 24353 24354 24355 24356 24357 24358 24359 24360 24361 24362 24363 24364 24365 24366 24367 24368 24369 24370 24371 24372 24373 24374 24375 24376 24377 24378 24379 24380 24381 24382 24383 24384 24385 24386 24387 24388 24389 24390 24391 24392 24393 24394 24395 24396 24397 24398 24399 24400 24401 24402 24403 24404 24405 24406 24407 24408 24409 24410 24411 24412 24413 24414 24415 24416 24417 24418 24419 24420 24421 24422 24423 24424 24425 24426 24427 24428 24429 24430 24431 24432 24433 24434 24435 24436 24437 24438 24439 24440 24441 24442 24443 24444 24445 24446 24447 24448 24449 24450 24451 24452 24453 24454 24455 24456 24457 24458 24459 24460 24461 24462 24463 24464 24465 24466 24467 24468 24469 24470 24471 24472 24473 24474 24475 24476 24477 24478 24479 24480 24481 24482 24483 24484 24485 24486 24487 24488 24489 24490 24491 24492 24493 24494 24495 24496 24497 24498 24499 24500 24501 24502 24503 24504 24505 24506 24507 24508 24509 24510 24511 24512 24513 24514 24515 24516 24517 24518 24519 24520 24521 24522 24523 24524 24525 24526 24527 24528 24529 24530 24531 24532 24533 24534 24535 24536 24537 24538 24539 24540 24541 24542 24543 24544 24545 24546 24547 24548 24549 24550 24551 24552 24553 24554 24555 24556 24557 24558 24559 24560 24561 24562 24563 24564 24565 24566 24567 24568 24569 24570 24571 24572 24573 24574 24575 24576 24577 24578 24579 24580 24581 24582 24583 24584 24585 24586 24587 24588 24589 24590 24591 24592 24593 24594 24595 24596 24597 24598 24599 24600 24601 24602 24603 24604 24605 24606 24607 24608 24609 24610 24611 24612 24613 24614 24615 24616 24617 24618 24619 24620 24621 24622 24623 24624 24625 24626 24627 24628 24629 24630 24631 24632 24633 24634 24635 24636 24637 24638 24639 24640 24641 24642 24643 24644 24645 24646 24647 24648 24649 24650 24651 24652 24653 24654 24655 24656 24657 24658 24659 24660 24661 24662 24663 24664 24665 24666 24667 24668 24669 24670 24671 24672 24673 24674 24675 24676 24677 24678 24679 24680 24681 24682 24683 24684 24685 24686 24687 24688 24689 24690 24691 24692 24693 24694 24695 24696 24697 24698 24699 24700 24701 24702 24703 24704 24705 24706 24707 24708 24709 24710 24711 24712 24713 24714 24715 24716 24717 24718 24719 24720 24721 24722 24723 24724 24725 24726 24727 24728 24729 24730 24731 24732 24733 24734 24735 24736 24737 24738 24739 24740 24741 24742 24743 24744 24745 24746 24747 24748 24749 24750 24751 24752 24753 24754 24755 24756 24757 24758 24759 24760 24761 24762 24763 24764 24765 24766 24767 24768 24769 24770 24771 24772 24773 24774 24775 24776 24777 24778 24779 24780 24781 24782 24783 24784 24785 24786 24787 24788 24789 24790 24791 24792 24793 24794 24795 24796 24797 24798 24799 24800 24801 24802 24803 24804 24805 24806 24807 24808 24809 24810 24811 24812 24813 24814 24815 24816 24817 24818 24819 24820 24821 24822 24823 24824 24825 24826 24827 24828 24829 24830 24831 24832 24833 24834 24835 24836 24837 24838 24839 24840 24841 24842 24843 24844 24845 24846 24847 24848 24849 24850 24851 24852 24853 24854 24855 24856 24857 24858 24859 24860 24861 24862 24863 24864 24865 24866 24867 24868 24869 24870 24871 24872 24873 24874 24875 24876 24877 24878 24879 24880 24881 24882 24883 24884 24885 24886 24887 24888 24889 24890 24891 24892 24893 24894 24895 24896 24897 24898 24899 24900 24901 24902 24903 24904 24905 24906 24907 24908 24909 24910 24911 24912 24913 24914 24915 24916 24917 24918 24919 24920 24921 24922 24923 24924 24925 24926 24927 24928 24929 24930 24931 24932 24933 24934 24935 24936 24937 24938 24939 24940 24941 24942 24943 24944 24945 24946 24947 24948 24949 24950 24951 24952 24953 24954 24955 24956 24957 24958 24959 24960 24961 24962 24963 24964 24965 24966 24967 24968 24969 24970 24971 24972 24973 24974 24975 24976 24977 24978 24979 24980 24981 24982 24983 24984 24985 24986 24987 24988 24989 24990 24991 24992 24993 24994 24995 24996 24997 24998 24999 25000 25001 25002 25003 25004 25005 25006 25007 25008 25009 25010 25011 25012 25013 25014 25015 25016 25017 25018 25019 25020 25021 25022 25023 25024 25025 25026 25027 25028 25029 25030 25031 25032 25033 25034 25035 25036 25037 25038 25039 25040 25041 25042 25043 25044 25045 25046 25047 25048 25049 25050 25051 25052 25053 25054 25055 25056 25057 25058 25059 25060 25061 25062 25063 25064 25065 25066 25067 25068 25069 25070 25071 25072 25073 25074 25075 25076 25077 25078 25079 25080 25081 25082 25083 25084 25085 25086 25087 25088 25089 25090 25091 25092 25093 25094 25095 25096 25097 25098 25099 25100 25101 25102 25103 25104 25105 25106 25107 25108 25109 25110 25111 25112 25113 25114 25115 25116 25117 25118 25119 25120 25121 25122 25123 25124 25125 25126 25127 25128 25129 25130 25131 25132 25133 25134 25135 25136 25137 25138 25139 25140 25141 25142 25143 25144 25145 25146 25147 25148 25149 25150 25151 25152 25153 25154 25155 25156 25157 25158 25159 25160 25161 25162 25163 25164 25165 25166 25167 25168 25169 25170 25171 25172 25173 25174 25175 25176 25177 25178 25179 25180 25181 25182 25183 25184 25185 25186 25187 25188 25189 25190 25191 25192 25193 25194 25195 25196 25197 25198 25199 25200 25201 25202 25203 25204 25205 25206 25207 25208 25209 25210 25211 25212 25213 25214 25215 25216 25217 25218 25219 25220 25221 25222 25223 25224 25225 25226 25227 25228 25229 25230 25231 25232 25233 25234 25235 25236 25237 25238 25239 25240 25241 25242 25243 25244 25245 25246 25247 25248 25249 25250 25251 25252 25253 25254 25255 25256 25257 25258 25259 25260 25261 25262 25263 25264 25265 25266 25267 25268 25269 25270 25271 25272 25273 25274 25275 25276 25277 25278 25279 25280 25281 25282 25283 25284 25285 25286 25287 25288 25289 25290 25291 25292 25293 25294 25295 25296 25297 25298 25299 25300 25301 25302 25303 25304 25305 25306 25307 25308 25309 25310 25311 25312 25313 25314 25315 25316 25317 25318 25319 25320 25321 25322 25323 25324 25325 25326 25327 25328 25329 25330 25331 25332 25333 25334 25335 25336 25337 25338 25339 25340 25341 25342 25343 25344 25345 25346 25347 25348 25349 25350 25351 25352 25353 25354 25355 25356 25357 25358 25359 25360 25361 25362 25363 25364 25365 25366 25367 25368 25369 25370 25371 25372 25373 25374 25375 25376 25377 25378 25379 25380 25381 25382 25383 25384 25385 25386 25387 25388 25389 25390 25391 25392 25393 25394 25395 25396 25397 25398 25399 25400 25401 25402 25403 25404 25405 25406 25407 25408 25409 25410 25411 25412 25413 25414 25415 25416 25417 25418 25419 25420 25421 25422 25423 25424 25425 25426 25427 25428 25429 25430 25431 25432 25433 25434 25435 25436 25437 25438 25439 25440 25441 25442 25443 25444 25445 25446 25447 25448 25449 25450 25451 25452 25453 25454 25455 25456 25457 25458 25459 25460 25461 25462 25463 25464 25465 25466 25467 25468 25469 25470 25471 25472 25473 25474 25475 25476 25477 25478 25479 25480 25481 25482 25483 25484 25485 25486 25487 25488 25489 25490 25491 25492 25493 25494 25495 25496 25497 25498 25499 25500 25501 25502 25503 25504 25505 25506 25507 25508 25509 25510 25511 25512 25513 25514 25515 25516 25517 25518 25519 25520 25521 25522 25523 25524 25525 25526 25527 25528 25529 25530 25531 25532 25533 25534 25535 25536 25537 25538 25539 25540 25541 25542 25543 25544 25545 25546 25547 25548 25549 25550 25551 25552 25553 25554 25555 25556 25557 25558 25559 25560 25561 25562 25563 25564 25565 25566 25567 25568 25569 25570 25571 25572 25573 25574 25575 25576 25577 25578 25579 25580 25581 25582 25583 25584 25585 25586 25587 25588 25589 25590 25591 25592 25593 25594 25595 25596 25597 25598 25599 25600 25601 25602 25603 25604 25605 25606 25607 25608 25609 25610 25611 25612 25613 25614 25615 25616 25617 25618 25619 25620 25621 25622 25623 25624 25625 25626 25627 25628 25629 25630 25631 25632 25633 25634 25635 25636 25637 25638 25639 25640 25641 25642 25643 25644 25645 25646 25647 25648 25649 25650 25651 25652 25653 25654 25655 25656 25657 25658 25659 25660 25661 25662 25663 25664 25665 25666 25667 25668 25669 25670 25671 25672 25673 25674 25675 25676 25677 25678 25679 25680 25681 25682 25683 25684 25685 25686 25687 25688 25689 25690 25691 25692 25693 25694 25695 25696 25697 25698 25699 25700 25701 25702 25703 25704 25705 25706 25707 25708 25709 25710 25711 25712 25713 25714 25715 25716 25717 25718 25719 25720 25721 25722 25723 25724 25725 25726 25727 25728 25729 25730 25731 25732 25733 25734 25735 25736 25737 25738 25739 25740 25741 25742 25743 25744 25745 25746 25747 25748 25749 25750 25751 25752 25753 25754 25755 25756 25757 25758 25759 25760 25761 25762 25763 25764 25765 25766 25767 25768 25769 25770 25771 25772 25773 25774 25775 25776 25777 25778 25779 25780 25781 25782 25783 25784 25785 25786 25787 25788 25789 25790 25791 25792 25793 25794 25795 25796 25797 25798 25799 25800 25801 25802 25803 25804 25805 25806 25807 25808 25809 25810 25811 25812 25813 25814 25815 25816 25817 25818 25819 25820 25821 25822 25823 25824 25825 25826 25827 25828 25829 25830 25831 25832 25833 25834 25835 25836 25837 25838 25839 25840 25841 25842 25843 25844 25845 25846 25847 25848 25849 25850 25851 25852 25853 25854 25855 25856 25857 25858 25859 25860 25861 25862 25863 25864 25865 25866 25867 25868 25869 25870 25871 25872 25873 25874 25875 25876 25877 25878 25879 25880 25881 25882 25883 25884 25885 25886 25887 25888 25889 25890 25891 25892 25893 25894 25895 25896 25897 25898 25899 25900 25901 25902 25903 25904 25905 25906 25907 25908 25909 25910 25911 25912 25913 25914 25915 25916 25917 25918 25919 25920 25921 25922 25923 25924 25925 25926 25927 25928 25929 25930 25931 25932 25933 25934 25935 25936 25937 25938 25939 25940 25941 25942 25943 25944 25945 25946 25947 25948 25949 25950 25951 25952 25953 25954 25955 25956 25957 25958 25959 25960 25961 25962 25963 25964 25965 25966 25967 25968 25969 25970 25971 25972 25973 25974 25975 25976 25977 25978 25979 25980 25981 25982 25983 25984 25985 25986 25987 25988 25989 25990 25991 25992 25993 25994 25995 25996 25997 25998 25999 26000 26001 26002 26003 26004 26005 26006 26007 26008 26009 26010 26011 26012 26013 26014 26015 26016 26017 26018 26019 26020 26021 26022 26023 26024 26025 26026 26027 26028 26029 26030 26031 26032 26033 26034 26035 26036 26037 26038 26039 26040 26041 26042 26043 26044 26045 26046 26047 26048 26049 26050 26051 26052 26053 26054 26055 26056 26057 26058 26059 26060 26061 26062 26063 26064 26065 26066 26067 26068 26069 26070 26071 26072 26073 26074 26075 26076 26077 26078 26079 26080 26081 26082 26083 26084 26085 26086 26087 26088 26089 26090 26091 26092 26093 26094 26095 26096 26097 26098 26099 26100 26101 26102 26103 26104 26105 26106 26107 26108 26109 26110 26111 26112 26113 26114 26115 26116 26117 26118 26119 26120 26121 26122 26123 26124 26125 26126 26127 26128 26129 26130 26131 26132 26133 26134 26135 26136 26137 26138 26139 26140 26141 26142 26143 26144 26145 26146 26147 26148 26149 26150 26151 26152 26153 26154 26155 26156 26157 26158 26159 26160 26161 26162 26163 26164 26165 26166 26167 26168 26169 26170 26171 26172 26173 26174 26175 26176 26177 26178 26179 26180 26181 26182 26183 26184 26185 26186 26187 26188 26189 26190 26191 26192 26193 26194 26195 26196 26197 26198 26199 26200 26201 26202 26203 26204 26205 26206 26207 26208 26209 26210 26211 26212 26213 26214 26215 26216 26217 26218 26219 26220 26221 26222 26223 26224 26225 26226 26227 26228 26229 26230 26231 26232 26233 26234 26235 26236 26237 26238 26239 26240 26241 26242 26243 26244 26245 26246 26247 26248 26249 26250 26251 26252 26253 26254 26255 26256 26257 26258 26259 26260 26261 26262 26263 26264 26265 26266 26267 26268 26269 26270 26271 26272 26273 26274 26275 26276 26277 26278 26279 26280 26281 26282 26283 26284 26285 26286 26287 26288 26289 26290 26291 26292 26293 26294 26295 26296 26297 26298 26299 26300 26301 26302 26303 26304 26305 26306 26307 26308 26309 26310 26311 26312 26313 26314 26315 26316 26317 26318 26319 26320 26321 26322 26323 26324 26325 26326 26327 26328 26329 26330 26331 26332 26333 26334 26335 26336 26337 26338 26339 26340 26341 26342 26343 26344 26345 26346 26347 26348 26349 26350 26351 26352 26353 26354 26355 26356 26357 26358 26359 26360 26361 26362 26363 26364 26365 26366 26367 26368 26369 26370 26371 26372 26373 26374 26375 26376 26377 26378 26379 26380 26381 26382 26383 26384 26385 26386 26387 26388 26389 26390 26391 26392 26393 26394 26395 26396 26397 26398 26399 26400 26401 26402 26403 26404 26405 26406 26407 26408 26409 26410 26411 26412 26413 26414 26415 26416 26417 26418 26419 26420 26421 26422 26423 26424 26425 26426 26427 26428 26429 26430 26431 26432 26433 26434 26435 26436 26437 26438 26439 26440 26441 26442 26443 26444 26445 26446 26447 26448 26449 26450 26451 26452 26453 26454 26455 26456 26457 26458 26459 26460 26461 26462 26463 26464 26465 26466 26467 26468 26469 26470 26471 26472 26473 26474 26475 26476 26477 26478 26479 26480 26481 26482 26483 26484 26485 26486 26487 26488 26489 26490 26491 26492 26493 26494 26495 26496 26497 26498 26499 26500 26501 26502 26503 26504 26505 26506 26507 26508 26509 26510 26511 26512 26513 26514 26515 26516 26517 26518 26519 26520 26521 26522 26523 26524 26525 26526 26527 26528 26529 26530 26531 26532 26533 26534 26535 26536 26537 26538 26539 26540 26541 26542 26543 26544 26545 26546 26547 26548 26549 26550 26551 26552 26553 26554 26555 26556 26557 26558 26559 26560 26561 26562 26563 26564 26565 26566 26567 26568 26569 26570 26571 26572 26573 26574 26575 26576 26577 26578 26579 26580 26581 26582 26583 26584 26585 26586 26587 26588 26589 26590 26591 26592 26593 26594 26595 26596 26597 26598 26599 26600 26601 26602 26603 26604 26605 26606 26607 26608 26609 26610 26611 26612 26613 26614 26615 26616 26617 26618 26619 26620 26621 26622 26623 26624 26625 26626 26627 26628 26629 26630 26631 26632 26633 26634 26635 26636 26637 26638 26639 26640 26641 26642 26643 26644 26645 26646 26647 26648 26649 26650 26651 26652 26653 26654 26655 26656 26657 26658 26659 26660 26661 26662 26663 26664 26665 26666 26667 26668 26669 26670 26671 26672 26673 26674 26675 26676 26677 26678 26679 26680 26681 26682 26683 26684 26685 26686 26687 26688 26689 26690 26691 26692 26693 26694 26695 26696 26697 26698 26699 26700 26701 26702 26703 26704 26705 26706 26707 26708 26709 26710 26711 26712 26713 26714 26715 26716 26717 26718 26719 26720 26721 26722 26723 26724 26725 26726 26727 26728 26729 26730 26731 26732 26733 26734 26735 26736 26737 26738 26739 26740 26741 26742 26743 26744 26745 26746 26747 26748 26749 26750 26751 26752 26753 26754 26755 26756 26757 26758 26759 26760 26761 26762 26763 26764 26765 26766 26767 26768 26769 26770 26771 26772 26773 26774 26775 26776 26777 26778 26779 26780 26781 26782 26783 26784 26785 26786 26787 26788 26789 26790 26791 26792 26793 26794 26795 26796 26797 26798 26799 26800 26801 26802 26803 26804 26805 26806 26807 26808 26809 26810 26811 26812 26813 26814 26815 26816 26817 26818 26819 26820 26821 26822 26823 26824 26825 26826 26827 26828 26829 26830 26831 26832 26833 26834 26835 26836 26837 26838 26839 26840 26841 26842 26843 26844 26845 26846 26847 26848 26849 26850 26851 26852 26853 26854 26855 26856 26857 26858 26859 26860 26861 26862 26863 26864 26865 26866 26867 26868 26869 26870 26871 26872 26873 26874 26875 26876 26877 26878 26879 26880 26881 26882 26883 26884 26885 26886 26887 26888 26889 26890 26891 26892 26893 26894 26895 26896 26897 26898 26899 26900 26901 26902 26903 26904 26905 26906 26907 26908 26909 26910 26911 26912 26913 26914 26915 26916 26917 26918 26919 26920 26921 26922 26923 26924 26925 26926 26927 26928 26929 26930 26931 26932 26933 26934 26935 26936 26937 26938 26939 26940 26941 26942 26943 26944 26945 26946 26947 26948 26949 26950 26951 26952 26953 26954 26955 26956 26957 26958 26959 26960 26961 26962 26963 26964 26965 26966 26967 26968 26969 26970 26971 26972 26973 26974 26975 26976 26977 26978 26979 26980 26981 26982 26983 26984 26985 26986 26987 26988 26989 26990 26991 26992 26993 26994 26995 26996 26997 26998 26999 27000 27001 27002 27003 27004 27005 27006 27007 27008 27009 27010 27011 27012 27013 27014 27015 27016 27017 27018 27019 27020 27021 27022 27023 27024 27025 27026 27027 27028 27029 27030 27031 27032 27033 27034 27035 27036 27037 27038 27039 27040 27041 27042 27043 27044 27045 27046 27047 27048 27049 27050 27051 27052 27053 27054 27055 27056 27057 27058 27059 27060 27061 27062 27063 27064 27065 27066 27067 27068 27069 27070 27071 27072 27073 27074 27075 27076 27077 27078 27079 27080 27081 27082 27083 27084 27085 27086 27087 27088 27089 27090 27091 27092 27093 27094 27095 27096 27097 27098 27099 27100 27101 27102 27103 27104 27105 27106 27107 27108 27109 27110 27111 27112 27113 27114 27115 27116 27117 27118 27119 27120 27121 27122 27123 27124 27125 27126 27127 27128 27129 27130 27131 27132 27133 27134 27135 27136 27137 27138 27139 27140 27141 27142 27143 27144 27145 27146 27147 27148 27149 27150 27151 27152 27153 27154 27155 27156 27157 27158 27159 27160 27161 27162 27163 27164 27165 27166 27167 27168 27169 27170 27171 27172 27173 27174 27175 27176 27177 27178 27179 27180 27181 27182 27183 27184 27185 27186 27187 27188 27189 27190 27191 27192 27193 27194 27195 27196 27197 27198 27199 27200 27201 27202 27203 27204 27205 27206 27207 27208 27209 27210 27211 27212 27213 27214 27215 27216 27217 27218 27219 27220 27221 27222 27223 27224 27225 27226 27227 27228 27229 27230 27231 27232 27233 27234 27235 27236 27237 27238 27239 27240 27241 27242 27243 27244 27245 27246 27247 27248 27249 27250 27251 27252 27253 27254 27255 27256 27257 27258 27259 27260 27261 27262 27263 27264 27265 27266 27267 27268 27269 27270 27271 27272 27273 27274 27275 27276 27277 27278 27279 27280 27281 27282 27283 27284 27285 27286 27287 27288 27289 27290 27291 27292 27293 27294 27295 27296 27297 27298 27299 27300 27301 27302 27303 27304 27305 27306 27307 27308 27309 27310 27311 27312 27313 27314 27315 27316 27317 27318 27319 27320 27321 27322 27323 27324 27325 27326 27327 27328 27329 27330 27331 27332 27333 27334 27335 27336 27337 27338 27339 27340 27341 27342 27343 27344 27345 27346 27347 27348 27349 27350 27351 27352 27353 27354 27355 27356 27357 27358 27359 27360 27361 27362 27363 27364 27365 27366 27367 27368 27369 27370 27371 27372 27373 27374 27375 27376 27377 27378 27379 27380 27381 27382 27383 27384 27385 27386 27387 27388 27389 27390 27391 27392 27393 27394 27395 27396 27397 27398 27399 27400 27401 27402 27403 27404 27405 27406 27407 27408 27409 27410 27411 27412 27413 27414 27415 27416 27417 27418 27419 27420 27421 27422 27423 27424 27425 27426 27427 27428 27429 27430 27431 27432 27433 27434 27435 27436 27437 27438 27439 27440 27441 27442 27443 27444 27445 27446 27447 27448 27449 27450 27451 27452 27453 27454 27455 27456 27457 27458 27459 27460 27461 27462 27463 27464 27465 27466 27467 27468 27469 27470 27471 27472 27473 27474 27475 27476 27477 27478 27479 27480 27481 27482 27483 27484 27485 27486 27487 27488 27489 27490 27491 27492 27493 27494 27495 27496 27497 27498 27499 27500 27501 27502 27503 27504 27505 27506 27507 27508 27509 27510 27511 27512 27513 27514 27515 27516 27517 27518 27519 27520 27521 27522 27523 27524 27525 27526 27527 27528 27529 27530 27531 27532 27533 27534 27535 27536 27537 27538 27539 27540 27541 27542 27543 27544 27545 27546 27547 27548 27549 27550 27551 27552 27553 27554 27555 27556 27557 27558 27559 27560 27561 27562 27563 27564 27565 27566 27567 27568 27569 27570 27571 27572 27573 27574 27575 27576 27577 27578 27579 27580 27581 27582 27583 27584 27585 27586 27587 27588 27589 27590 27591 27592 27593 27594 27595 27596 27597 27598 27599 27600 27601 27602 27603 27604 27605 27606 27607 27608 27609 27610 27611 27612 27613 27614 27615 27616 27617 27618 27619 27620 27621 27622 27623 27624 27625 27626 27627 27628 27629 27630 27631 27632 27633 27634 27635 27636 27637 27638 27639 27640 27641 27642 27643 27644 27645 27646 27647 27648 27649 27650 27651 27652 27653 27654 27655 27656 27657 27658 27659 27660 27661 27662 27663 27664 27665 27666 27667 27668 27669 27670 27671 27672 27673 27674 27675 27676 27677 27678 27679 27680 27681 27682 27683 27684 27685 27686 27687 27688 27689 27690 27691 27692 27693 27694 27695 27696 27697 27698 27699 27700 27701 27702 27703 27704 27705 27706 27707 27708 27709 27710 27711 27712 27713 27714 27715 27716 27717 27718 27719 27720 27721 27722 27723 27724 27725 27726 27727 27728 27729 27730 27731 27732 27733 27734 27735 27736 27737 27738 27739 27740 27741 27742 27743 27744 27745 27746 27747 27748 27749 27750 27751 27752 27753 27754 27755 27756 27757 27758 27759 27760 27761 27762 27763 27764 27765 27766 27767 27768 27769 27770 27771 27772 27773 27774 27775 27776 27777 27778 27779 27780 27781 27782 27783 27784 27785 27786 27787 27788 27789 27790 27791 27792 27793 27794 27795 27796 27797 27798 27799 27800 27801 27802 27803 27804 27805 27806 27807 27808 27809 27810 27811 27812 27813 27814 27815 27816 27817 27818 27819 27820 27821 27822 27823 27824 27825 27826 27827 27828 27829 27830 27831 27832 27833 27834 27835 27836 27837 27838 27839 27840 27841 27842 27843 27844 27845 27846 27847 27848 27849 27850 27851 27852 27853 27854 27855 27856 27857 27858 27859 27860 27861 27862 27863 27864 27865 27866 27867 27868 27869 27870 27871 27872 27873 27874 27875 27876 27877 27878 27879 27880 27881 27882 27883 27884 27885 27886 27887 27888 27889 27890 27891 27892 27893 27894 27895 27896 27897 27898 27899 27900 27901 27902 27903 27904 27905 27906 27907 27908 27909 27910 27911 27912 27913 27914 27915 27916 27917 27918 27919 27920 27921 27922 27923 27924 27925 27926 27927 27928 27929 27930 27931 27932 27933 27934 27935 27936 27937 27938 27939 27940 27941 27942 27943 27944 27945 27946 27947 27948 27949 27950 27951 27952 27953 27954 27955 27956 27957 27958 27959 27960 27961 27962 27963 27964 27965 27966 27967 27968 27969 27970 27971 27972 27973 27974 27975 27976 27977 27978 27979 27980 27981 27982 27983 27984 27985 27986 27987 27988 27989 27990 27991 27992 27993 27994 27995 27996 27997 27998 27999 28000 28001 28002 28003 28004 28005 28006 28007 28008 28009 28010 28011 28012 28013 28014 28015 28016 28017 28018 28019 28020 28021 28022 28023 28024 28025 28026 28027 28028 28029 28030 28031 28032 28033 28034 28035 28036 28037 28038 28039 28040 28041 28042 28043 28044 28045 28046 28047 28048 28049 28050 28051 28052 28053 28054 28055 28056 28057 28058 28059 28060 28061 28062 28063 28064 28065 28066 28067 28068 28069 28070 28071 28072 28073 28074 28075 28076 28077 28078 28079 28080 28081 28082 28083 28084 28085 28086 28087 28088 28089 28090 28091 28092 28093 28094 28095 28096 28097 28098 28099 28100 28101 28102 28103 28104 28105 28106 28107 28108 28109 28110 28111 28112 28113 28114 28115 28116 28117 28118 28119 28120 28121 28122 28123 28124 28125 28126 28127 28128 28129 28130 28131 28132 28133 28134 28135 28136 28137 28138 28139 28140 28141 28142 28143 28144 28145 28146 28147 28148 28149 28150 28151 28152 28153 28154 28155 28156 28157 28158 28159 28160 28161 28162 28163 28164 28165 28166 28167 28168 28169 28170 28171 28172 28173 28174 28175 28176 28177 28178 28179 28180 28181 28182 28183 28184 28185 28186 28187 28188 28189 28190 28191 28192 28193 28194 28195 28196 28197 28198 28199 28200 28201 28202 28203 28204 28205 28206 28207 28208 28209 28210 28211 28212 28213 28214 28215 28216 28217 28218 28219 28220 28221 28222 28223 28224 28225 28226 28227 28228 28229 28230 28231 28232 28233 28234 28235 28236 28237 28238 28239 28240 28241 28242 28243 28244 28245 28246 28247 28248 28249 28250 28251 28252 28253 28254 28255 28256 28257 28258 28259 28260 28261 28262 28263 28264 28265 28266 28267 28268 28269 28270 28271 28272 28273 28274 28275 28276 28277 28278 28279 28280 28281 28282 28283 28284 28285 28286 28287 28288 28289 28290 28291 28292 28293 28294 28295 28296 28297 28298 28299 28300 28301 28302 28303 28304 28305 28306 28307 28308 28309 28310 28311 28312 28313 28314 28315 28316 28317 28318 28319 28320 28321 28322 28323 28324 28325 28326 28327 28328 28329 28330 28331 28332 28333 28334 28335 28336 28337 28338 28339 28340 28341 28342 28343 28344 28345 28346 28347 28348 28349 28350 28351 28352 28353 28354 28355 28356 28357 28358 28359 28360 28361 28362 28363 28364 28365 28366 28367 28368 28369 28370 28371 28372 28373 28374 28375 28376 28377 28378 28379 28380 28381 28382 28383 28384 28385 28386 28387 28388 28389 28390 28391 28392 28393 28394 28395 28396 28397 28398 28399 28400 28401 28402 28403 28404 28405 28406 28407 28408 28409 28410 28411 28412 28413 28414 28415 28416 28417 28418 28419 28420 28421 28422 28423 28424 28425 28426 28427 28428 28429 28430 28431 28432 28433 28434 28435 28436 28437 28438 28439 28440 28441 28442 28443 28444 28445 28446 28447 28448 28449 28450 28451 28452 28453 28454 28455 28456 28457 28458 28459 28460 28461 28462 28463 28464 28465 28466 28467 28468 28469 28470 28471 28472 28473 28474 28475 28476 28477 28478 28479 28480 28481 28482 28483 28484 28485 28486 28487 28488 28489 28490 28491 28492 28493 28494 28495 28496 28497 28498 28499 28500 28501 28502 28503 28504 28505 28506 28507 28508 28509 28510 28511 28512 28513 28514 28515 28516 28517 28518 28519 28520 28521 28522 28523 28524 28525 28526 28527 28528 28529 28530 28531 28532 28533 28534 28535 28536 28537 28538 28539 28540 28541 28542 28543 28544 28545 28546 28547 28548 28549 28550 28551 28552 28553 28554 28555 28556 28557 28558 28559 28560 28561 28562 28563 28564 28565 28566 28567 28568 28569 28570 28571 28572 28573 28574 28575 28576 28577 28578 28579 28580 28581 28582 28583 28584 28585 28586 28587 28588 28589 28590 28591 28592 28593 28594 28595 28596 28597 28598 28599 28600 28601 28602 28603 28604 28605 28606 28607 28608 28609 28610 28611 28612 28613 28614 28615 28616 28617 28618 28619 28620 28621 28622 28623 28624 28625 28626 28627 28628 28629 28630 28631 28632 28633 28634 28635 28636 28637 28638 28639 28640 28641 28642 28643 28644 28645 28646 28647 28648 28649 28650 28651 28652 28653 28654 28655 28656 28657 28658 28659 28660 28661 28662 28663 28664 28665 28666 28667 28668 28669 28670 28671 28672 28673 28674 28675 28676 28677 28678 28679 28680 28681 28682 28683 28684 28685 28686 28687 28688 28689 28690 28691 28692 28693 28694 28695 28696 28697 28698 28699 28700 28701 28702 28703 28704 28705 28706 28707 28708 28709 28710 28711 28712 28713 28714 28715 28716 28717 28718 28719 28720 28721 28722 28723 28724 28725 28726 28727 28728 28729 28730 28731 28732 28733 28734 28735 28736 28737 28738 28739 28740 28741 28742 28743 28744 28745 28746 28747 28748 28749 28750 28751 28752 28753 28754 28755 28756 28757 28758 28759 28760 28761 28762 28763 28764 28765 28766 28767 28768 28769 28770 28771 28772 28773 28774 28775 28776 28777 28778 28779 28780 28781 28782 28783 28784 28785 28786 28787 28788 28789 28790 28791 28792 28793 28794 28795 28796 28797 28798 28799 28800 28801 28802 28803 28804 28805 28806 28807 28808 28809 28810 28811 28812 28813 28814 28815 28816 28817 28818 28819 28820 28821 28822 28823 28824 28825 28826 28827 28828 28829 28830 28831 28832 28833 28834 28835 28836 28837 28838 28839 28840 28841 28842 28843 28844 28845 28846 28847 28848 28849 28850 28851 28852 28853 28854 28855 28856 28857 28858 28859 28860 28861 28862 28863 28864 28865 28866 28867 28868 28869 28870 28871 28872 28873 28874 28875 28876 28877 28878 28879 28880 28881 28882 28883 28884 28885 28886 28887 28888 28889 28890 28891 28892 28893 28894 28895 28896 28897 28898 28899 28900 28901 28902 28903 28904 28905 28906 28907 28908 28909 28910 28911 28912 28913 28914 28915 28916 28917 28918 28919 28920 28921 28922 28923 28924 28925 28926 28927 28928 28929 28930 28931 28932 28933 28934 28935 28936 28937 28938 28939 28940 28941 28942 28943 28944 28945 28946 28947 28948 28949 28950 28951 28952 28953 28954 28955 28956 28957 28958 28959 28960 28961 28962 28963 28964 28965 28966 28967 28968 28969 28970 28971 28972 28973 28974 28975 28976 28977 28978 28979 28980 28981 28982 28983 28984 28985 28986 28987 28988 28989 28990 28991 28992 28993 28994 28995 28996 28997 28998 28999 29000 29001 29002 29003 29004 29005 29006 29007 29008 29009 29010 29011 29012 29013 29014 29015 29016 29017 29018 29019 29020 29021 29022 29023 29024 29025 29026 29027 29028 29029 29030 29031 29032 29033 29034 29035 29036 29037 29038 29039 29040 29041 29042 29043 29044 29045 29046 29047 29048 29049 29050 29051 29052 29053 29054 29055 29056 29057 29058 29059 29060 29061 29062 29063 29064 29065 29066 29067 29068 29069 29070 29071 29072 29073 29074 29075 29076 29077 29078 29079 29080 29081 29082 29083 29084 29085 29086 29087 29088 29089 29090 29091 29092 29093 29094 29095 29096 29097 29098 29099 29100 29101 29102 29103 29104 29105 29106 29107 29108 29109 29110 29111 29112 29113 29114 29115 29116 29117 29118 29119 29120 29121 29122 29123 29124 29125 29126 29127 29128 29129 29130 29131 29132 29133 29134 29135 29136 29137 29138 29139 29140 29141 29142 29143 29144 29145 29146 29147 29148 29149 29150 29151 29152 29153 29154 29155 29156 29157 29158 29159 29160 29161 29162 29163 29164 29165 29166 29167 29168 29169 29170 29171 29172 29173 29174 29175 29176 29177 29178 29179 29180 29181 29182 29183 29184 29185 29186 29187 29188 29189 29190 29191 29192 29193 29194 29195 29196 29197 29198 29199 29200 29201 29202 29203 29204 29205 29206 29207 29208 29209 29210 29211 29212 29213 29214 29215 29216 29217 29218 29219 29220 29221 29222 29223 29224 29225 29226 29227 29228 29229 29230 29231 29232 29233 29234 29235 29236 29237 29238 29239 29240 29241 29242 29243 29244 29245 29246 29247 29248 29249 29250 29251 29252 29253 29254 29255 29256 29257 29258 29259 29260 29261 29262 29263 29264 29265 29266 29267 29268 29269 29270 29271 29272 29273 29274 29275 29276 29277 29278 29279 29280 29281 29282 29283 29284 29285 29286 29287 29288 29289 29290 29291 29292 29293 29294 29295 29296 29297 29298 29299 29300 29301 29302 29303 29304 29305 29306 29307 29308 29309 29310 29311 29312 29313 29314 29315 29316 29317 29318 29319 29320 29321 29322 29323 29324 29325 29326 29327 29328 29329 29330 29331 29332 29333 29334 29335 29336 29337 29338 29339 29340 29341 29342 29343 29344 29345 29346 29347 29348 29349 29350 29351 29352 29353 29354 29355 29356 29357 29358 29359 29360 29361 29362 29363 29364 29365 29366 29367 29368 29369 29370 29371 29372 29373 29374 29375 29376 29377 29378 29379 29380 29381 29382 29383 29384 29385 29386 29387 29388 29389 29390 29391 29392 29393 29394 29395 29396 29397 29398 29399 29400 29401 29402 29403 29404 29405 29406 29407 29408 29409 29410 29411 29412 29413 29414 29415 29416 29417 29418 29419 29420 29421 29422 29423 29424 29425 29426 29427 29428 29429 29430 29431 29432 29433 29434 29435 29436 29437 29438 29439 29440 29441 29442 29443 29444 29445 29446 29447 29448 29449 29450 29451 29452 29453 29454 29455 29456 29457 29458 29459 29460 29461 29462 29463 29464 29465 29466 29467 29468 29469 29470 29471 29472 29473 29474 29475 29476 29477 29478 29479 29480 29481 29482 29483 29484 29485 29486 29487 29488 29489 29490 29491 29492 29493 29494 29495 29496 29497 29498 29499 29500 29501 29502 29503 29504 29505 29506 29507 29508 29509 29510 29511 29512 29513 29514 29515 29516 29517 29518 29519 29520 29521 29522 29523 29524 29525 29526 29527 29528 29529 29530 29531 29532 29533 29534 29535 29536 29537 29538 29539 29540 29541 29542 29543 29544 29545 29546 29547 29548 29549 29550 29551 29552 29553 29554 29555 29556 29557 29558 29559 29560 29561 29562 29563 29564 29565 29566 29567 29568 29569 29570 29571 29572 29573 29574 29575 29576 29577 29578 29579 29580 29581 29582 29583 29584 29585 29586 29587 29588 29589 29590 29591 29592 29593 29594 29595 29596 29597 29598 29599 29600 29601 29602 29603 29604 29605 29606 29607 29608 29609 29610 29611 29612 29613 29614 29615 29616 29617 29618 29619 29620 29621 29622 29623 29624 29625 29626 29627 29628 29629 29630 29631 29632 29633 29634 29635 29636 29637 29638 29639 29640 29641 29642 29643 29644 29645 29646 29647 29648 29649 29650 29651 29652 29653 29654 29655 29656 29657 29658 29659 29660 29661 29662 29663 29664 29665 29666 29667 29668 29669 29670 29671 29672 29673 29674 29675 29676 29677 29678 29679 29680 29681 29682 29683 29684 29685 29686 29687 29688 29689 29690 29691 29692 29693 29694 29695 29696 29697 29698 29699 29700 29701 29702 29703 29704 29705 29706 29707 29708 29709 29710 29711 29712 29713 29714 29715 29716 29717 29718 29719 29720 29721 29722 29723 29724 29725 29726 29727 29728 29729 29730 29731 29732 29733 29734 29735 29736 29737 29738 29739 29740 29741 29742 29743 29744 29745 29746 29747 29748 29749 29750 29751 29752 29753 29754 29755 29756 29757 29758 29759 29760 29761 29762 29763 29764 29765 29766 29767 29768 29769 29770 29771 29772 29773 29774 29775 29776 29777 29778 29779 29780 29781 29782 29783 29784 29785 29786 29787 29788 29789 29790 29791 29792 29793 29794 29795 29796 29797 29798 29799 29800 29801 29802 29803 29804 29805 29806 29807 29808 29809 29810 29811 29812 29813 29814 29815 29816 29817 29818 29819 29820 29821 29822 29823 29824 29825 29826 29827 29828 29829 29830 29831 29832 29833 29834 29835 29836 29837 29838 29839 29840 29841 29842 29843 29844 29845 29846 29847 29848 29849 29850 29851 29852 29853 29854 29855 29856 29857 29858 29859 29860 29861 29862 29863 29864 29865 29866 29867 29868 29869 29870 29871 29872 29873 29874 29875 29876 29877 29878 29879 29880 29881 29882 29883 29884 29885 29886 29887 29888 29889 29890 29891 29892 29893 29894 29895 29896 29897 29898 29899 29900 29901 29902 29903 29904 29905 29906 29907 29908 29909 29910 29911 29912 29913 29914 29915 29916 29917 29918 29919 29920 29921 29922 29923 29924 29925 29926 29927 29928 29929 29930 29931 29932 29933 29934 29935 29936 29937 29938 29939 29940 29941 29942 29943 29944 29945 29946 29947 29948 29949 29950 29951 29952 29953 29954 29955 29956 29957 29958 29959 29960 29961 29962 29963 29964 29965 29966 29967 29968 29969 29970 29971 29972 29973 29974 29975 29976 29977 29978 29979 29980 29981 29982 29983 29984 29985 29986 29987 29988 29989 29990 29991 29992 29993 29994 29995 29996 29997 29998 29999 30000 30001 30002 30003 30004 30005 30006 30007 30008 30009 30010 30011 30012 30013 30014 30015 30016 30017 30018 30019 30020 30021 30022 30023 30024 30025 30026 30027 30028 30029 30030 30031 30032 30033 30034 30035 30036 30037 30038 30039 30040 30041 30042 30043 30044 30045 30046 30047 30048 30049 30050 30051 30052 30053 30054 30055 30056 30057 30058 30059 30060 30061 30062 30063 30064 30065 30066 30067 30068 30069 30070 30071 30072 30073 30074 30075 30076 30077 30078 30079 30080 30081 30082 30083 30084 30085 30086 30087 30088 30089 30090 30091 30092 30093 30094 30095 30096 30097 30098 30099 30100 30101 30102 30103 30104 30105 30106 30107 30108 30109 30110 30111 30112 30113 30114 30115 30116 30117 30118 30119 30120 30121 30122 30123 30124 30125 30126 30127 30128 30129 30130 30131 30132 30133 30134 30135 30136 30137 30138 30139 30140 30141 30142 30143 30144 30145 30146 30147 30148 30149 30150 30151 30152 30153 30154 30155 30156 30157 30158 30159 30160 30161 30162 30163 30164 30165 30166 30167 30168 30169 30170 30171 30172 30173 30174 30175 30176 30177 30178 30179 30180 30181 30182 30183 30184 30185 30186 30187 30188 30189 30190 30191 30192 30193 30194 30195 30196 30197 30198 30199 30200 30201 30202 30203 30204 30205 30206 30207 30208 30209 30210 30211 30212 30213 30214 30215 30216 30217 30218 30219 30220 30221 30222 30223 30224 30225 30226 30227 30228 30229 30230 30231 30232 30233 30234 30235 30236 30237 30238 30239 30240 30241 30242 30243 30244 30245 30246 30247 30248 30249 30250 30251 30252 30253 30254 30255 30256 30257 30258 30259 30260 30261 30262 30263 30264 30265 30266 30267 30268 30269 30270 30271 30272 30273 30274 30275 30276 30277 30278 30279 30280 30281 30282 30283 30284 30285 30286 30287 30288 30289 30290 30291 30292 30293 30294 30295 30296 30297 30298 30299 30300 30301 30302 30303 30304 30305 30306 30307 30308 30309 30310 30311 30312 30313 30314 30315 30316 30317 30318 30319 30320 30321 30322 30323 30324 30325 30326 30327 30328 30329 30330 30331 30332 30333 30334 30335 30336 30337 30338 30339 30340 30341 30342 30343 30344 30345 30346 30347 30348 30349 30350 30351 30352 30353 30354 30355 30356 30357 30358 30359 30360 30361 30362 30363 30364 30365 30366 30367 30368 30369 30370 30371 30372 30373 30374 30375 30376 30377 30378 30379 30380 30381 30382 30383 30384 30385 30386 30387 30388 30389 30390 30391 30392 30393 30394 30395 30396 30397 30398 30399 30400 30401 30402 30403 30404 30405 30406 30407 30408 30409 30410 30411 30412 30413 30414 30415 30416 30417 30418 30419 30420 30421 30422 30423 30424 30425 30426 30427 30428 30429 30430 30431 30432 30433 30434 30435 30436 30437 30438 30439 30440 30441 30442 30443 30444 30445 30446 30447 30448 30449 30450 30451 30452 30453 30454 30455 30456 30457 30458 30459 30460 30461 30462 30463 30464 30465 30466 30467 30468 30469 30470 30471 30472 30473 30474 30475 30476 30477 30478 30479 30480 30481 30482 30483 30484 30485 30486 30487 30488 30489 30490 30491 30492 30493 30494 30495 30496 30497 30498 30499 30500 30501 30502 30503 30504 30505 30506 30507 30508 30509 30510 30511 30512 30513 30514 30515 30516 30517 30518 30519 30520 30521 30522 30523 30524 30525 30526 30527 30528 30529 30530 30531 30532 30533 30534 30535 30536 30537 30538 30539 30540 30541 30542 30543 30544 30545 30546 30547 30548 30549 30550 30551 30552 30553 30554 30555 30556 30557 30558 30559 30560 30561 30562 30563 30564 30565 30566 30567 30568 30569 30570 30571 30572 30573 30574 30575 30576 30577 30578 30579 30580 30581 30582 30583 30584 30585 30586 30587 30588 30589 30590 30591 30592 30593 30594 30595 30596 30597 30598 30599 30600 30601 30602 30603 30604 30605 30606 30607 30608 30609 30610 30611 30612 30613 30614 30615 30616 30617 30618 30619 30620 30621 30622 30623 30624 30625 30626 30627 30628 30629 30630 30631 30632 30633 30634 30635 30636 30637 30638 30639 30640 30641 30642 30643 30644 30645 30646 30647 30648 30649 30650 30651 30652 30653 30654 30655 30656 30657 30658 30659 30660 30661 30662 30663 30664 30665 30666 30667 30668 30669 30670 30671 30672 30673 30674 30675 30676 30677 30678 30679 30680 30681 30682 30683 30684 30685 30686 30687 30688 30689 30690 30691 30692 30693 30694 30695 30696 30697 30698 30699 30700 30701 30702 30703 30704 30705 30706 30707 30708 30709 30710 30711 30712 30713 30714 30715 30716 30717 30718 30719 30720 30721 30722 30723 30724 30725 30726 30727 30728 30729 30730 30731 30732 30733 30734 30735 30736 30737 30738 30739 30740 30741 30742 30743 30744 30745 30746 30747 30748 30749 30750 30751 30752 30753 30754 30755 30756 30757 30758 30759 30760 30761 30762 30763 30764 30765 30766 30767 30768 30769 30770 30771 30772 30773 30774 30775 30776 30777 30778 30779 30780 30781 30782 30783 30784 30785 30786 30787 30788 30789 30790 30791 30792 30793 30794 30795 30796 30797 30798 30799 30800 30801 30802 30803 30804 30805 30806 30807 30808 30809 30810 30811 30812 30813 30814 30815 30816 30817 30818 30819 30820 30821 30822 30823 30824 30825 30826 30827 30828 30829 30830 30831 30832 30833 30834 30835 30836 30837 30838 30839 30840 30841 30842 30843 30844 30845 30846 30847 30848 30849 30850 30851 30852 30853 30854 30855 30856 30857 30858 30859 30860 30861 30862 30863 30864 30865 30866 30867 30868 30869 30870 30871 30872 30873 30874 30875 30876 30877 30878 30879 30880 30881 30882 30883 30884 30885 30886 30887 30888 30889 30890 30891 30892 30893 30894 30895 30896 30897 30898 30899 30900 30901 30902 30903 30904 30905 30906 30907 30908 30909 30910 30911 30912 30913 30914 30915 30916 30917 30918 30919 30920 30921 30922 30923 30924 30925 30926 30927 30928 30929 30930 30931 30932 30933 30934 30935 30936 30937 30938 30939 30940 30941 30942 30943 30944 30945 30946 30947 30948 30949 30950 30951 30952 30953 30954 30955 30956 30957 30958 30959 30960 30961 30962 30963 30964 30965 30966 30967 30968 30969 30970 30971 30972 30973 30974 30975 30976 30977 30978 30979 30980 30981 30982 30983 30984 30985 30986 30987 30988 30989 30990 30991 30992 30993 30994 30995 30996 30997 30998 30999 31000 31001 31002 31003 31004 31005 31006 31007 31008 31009 31010 31011 31012 31013 31014 31015 31016 31017 31018 31019 31020 31021 31022 31023 31024 31025 31026 31027 31028 31029 31030 31031 31032 31033 31034 31035 31036 31037 31038 31039 31040 31041 31042 31043 31044 31045 31046 31047 31048 31049 31050 31051 31052 31053 31054 31055 31056 31057 31058 31059 31060 31061 31062 31063 31064 31065 31066 31067 31068 31069 31070 31071 31072 31073 31074 31075 31076 31077 31078 31079 31080 31081 31082 31083 31084 31085 31086 31087 31088 31089 31090 31091 31092 31093 31094 31095 31096 31097 31098 31099 31100 31101 31102 31103 31104 31105 31106 31107 31108 31109 31110 31111 31112 31113 31114 31115 31116 31117 31118 31119 31120 31121 31122 31123 31124 31125 31126 31127 31128 31129 31130 31131 31132 31133 31134 31135 31136 31137 31138 31139 31140 31141 31142 31143 31144 31145 31146 31147 31148 31149 31150 31151 31152 31153 31154 31155 31156 31157 31158 31159 31160 31161 31162 31163 31164 31165 31166 31167 31168 31169 31170 31171 31172 31173 31174 31175 31176 31177 31178 31179 31180 31181 31182 31183 31184 31185 31186 31187 31188 31189 31190 31191 31192 31193 31194 31195 31196 31197 31198 31199 31200 31201 31202 31203 31204 31205 31206 31207 31208 31209 31210 31211 31212 31213 31214 31215 31216 31217 31218 31219 31220 31221 31222 31223 31224 31225 31226 31227 31228 31229 31230 31231 31232 31233 31234 31235 31236 31237 31238 31239 31240 31241 31242 31243 31244 31245 31246 31247 31248 31249 31250 31251 31252 31253 31254 31255 31256 31257 31258 31259 31260 31261 31262 31263 31264 31265 31266 31267 31268 31269 31270 31271 31272 31273 31274 31275 31276 31277 31278 31279 31280 31281 31282 31283 31284 31285 31286 31287 31288 31289 31290 31291 31292 31293 31294 31295 31296 31297 31298 31299 31300 31301 31302 31303 31304 31305 31306 31307 31308 31309 31310 31311 31312 31313 31314 31315 31316 31317 31318 31319 31320 31321 31322 31323 31324 31325 31326 31327 31328 31329 31330 31331 31332 31333 31334 31335 31336 31337 31338 31339 31340 31341 31342 31343 31344 31345 31346 31347 31348 31349 31350 31351 31352 31353 31354 31355 31356 31357 31358 31359 31360 31361 31362 31363 31364 31365 31366 31367 31368 31369 31370 31371 31372 31373 31374 31375 31376 31377 31378 31379 31380 31381 31382 31383 31384 31385 31386 31387 31388 31389 31390 31391 31392 31393 31394 31395 31396 31397 31398 31399 31400 31401 31402 31403 31404 31405 31406 31407 31408 31409 31410 31411 31412 31413 31414 31415 31416 31417 31418 31419 31420 31421 31422 31423 31424 31425 31426 31427 31428 31429 31430 31431 31432 31433 31434 31435 31436 31437 31438 31439 31440 31441 31442 31443 31444 31445 31446 31447 31448 31449 31450 31451 31452 31453 31454 31455 31456 31457 31458 31459 31460 31461 31462 31463 31464 31465 31466 31467 31468 31469 31470 31471 31472 31473 31474 31475 31476 31477 31478 31479 31480 31481 31482 31483 31484 31485 31486 31487 31488 31489 31490 31491 31492 31493 31494 31495 31496 31497 31498 31499 31500 31501 31502 31503 31504 31505 31506 31507 31508 31509 31510 31511 31512 31513 31514 31515 31516 31517 31518 31519 31520 31521 31522 31523 31524 31525 31526 31527 31528 31529 31530 31531 31532 31533 31534 31535 31536 31537 31538 31539 31540 31541 31542 31543 31544 31545 31546 31547 31548 31549 31550 31551 31552 31553 31554 31555 31556 31557 31558 31559 31560 31561 31562 31563 31564 31565 31566 31567 31568 31569 31570 31571 31572 31573 31574 31575 31576 31577 31578 31579 31580 31581 31582 31583 31584 31585 31586 31587 31588 31589 31590 31591 31592 31593 31594 31595 31596 31597 31598 31599 31600 
</DataArray>
<DataArray type="UInt32" Name="offsets" format="ascii">
3 6 9 12 15 17 20 23 26 29 31 34 37 40 43 46 49 52 55 57 60 63 66 69 72 75 78 80 83 86 89 92 94 97 100 103 106 108 111 114 116 119 122 125 127 130 133 135 138 140 143 146 149 152 155 158 160 163 166 168 170 173 176 179 182 185 188 191 194 197 200 203 205 208 210 213 216 219 222 225 228 231 234 237 240 243 246 249 252 255 258 261 264 267 270 273 276 279 282 285 288 291 294 297 300 303 306 309 312 315 318 321 324 327 330 333 336 339 342 345 348 351 354 357 360 363 365 367 370 373 376 379 382 385 388 390 392 395 398 401 404 407 410 413 416 419 422 425 428 430 433 436 438 441 443 446 449 452 455 458 461 464 467 470 473 476 479 482 485 488 491 494 497 500 503 506 509 512 515 518 521 524 527 530 532 535 538 541 544 546 549 552 555 558 561 564 566 569 572 575 577 580 583 585 588 591 594 597 600 603 606 609 611 614 617 619 622 624 627 629 632 635 638 640 643 646 649 652 655 658 661 664 667 669 672 675 677 680 683 685 688 691 694 697 700 703 706 709 712 715 717 720 723 726 729 732 735 738 741 744 747 750 753 756 759 762 764 767 770 772 774 777 780 783 785 787 790 793 796 799 802 805 808 811 814 817 819 822 825 828 830 833 836 839 842 845 848 851 854 857 860 863 866 869 872 875 877 880 883 886 888 891 894 897 900 903 906 909 912 915 918 921 924 927 930 933 935 938 941 944 947 949 952 955 958 961 964 967 970 973 976 979 982 985 988 991 994 997 1000 1003 1006 1009 1012 1015 1018 1021 1024 1027 1030 1033 1035 1037 1040 1043 1046 1049 1052 1055 1058 1061 1064 1067 1070 1073 1075 1078 1080 1082 1085 1087 1090 1092 1095 1098 1101 1104 1107 1110 1113 1116 1118 1121 1124 1127 1130 1133 1136 1139 1142 1144 1146 1148 1151 1154 1157 1160 1163 1165 1168 1171 1174 1176 1179 1181 1184 1187 1190 1193 1196 1199 1202 1205 1208 1211 1213 1216 1219 1222 1225 1228 1231 1234 1237 1239 1242 1245 1247 1250 1252 1255 1258 1261 1263 1266 1269 1272 1275 1278 1281 1284 1287 1290 1292 1295 1298 1301 1304 1307 1310 1312 1315 1318 1321 1324 1327 1330 1333 1336 1339 1341 1344 1347 1350 1353 1356 1359 1362 1365 1368 1371 1373 1376 1379 1382 1385 1388 1391 1394 1397 1400 1403 1405 1408 1411 1414 1417 1420 1423 1426 1429 1432 1435 1438 1441 1444 1447 1450 1453 1456 1459 1462 1465 1468 1471 1474 1477 1480 1482 1485 1487 1489 1492 1494 1496 1498 1501 1504 1507 1510 1513 1515 1518 1521 1524 1526 1529 1531 1534 1537 1540 1543 1546 1549 1552 1554 1556 1559 1562 1565 1567 1570 1573 1576 1578 1581 1584 1587 1590 1592 1595 1598 1601 1603 1606 1609 1612 1614 1617 1619 1622 1625 1628 1631 1633 1635 1638 1641 1644 1647 1649 1652 1655 1657 1660 1662 1665 1667 1670 1673 1676 1679 1682 1685 1687 1689 1692 1695 1698 1701 1704 1707 1710 1713 1716 1719 1722 1725 1727 1730 1733 1736 1739 1742 1745 1748 1751 1753 1756 1759 1762 1765 1768 1771 1774 1777 1780 1783 1786 1789 1792 1795 1798 1801 1804 1807 1810 1813 1816 1818 1821 1824 1826 1828 1831 1834 1837 1840 1842 1845 1848 1850 1853 1856 1859 1862 1865 1867 1870 1873 1876 1879 1882 1885 1888 1891 1894 1897 1900 1903 1906 1909 1912 1915 1918 1921 1923 1926 1929 1932 1935 1938 1941 1944 1946 1949 1952 1955 1958 1961 1964 1967 1969 1972 1974 1976 1978 1981 1984 1987 1990 1993 1996 1999 2002 2004 2007 2009 2012 2015 2018 2021 2024 2027 2030 2033 2035 2038 2041 2044 2047 2050 2052 2055 2058 2061 2064 2067 2069 2071 2074 2076 2079 2082 2085 2088 2091 2093 2096 2099 2102 2104 2107 2110 2112 2115 2117 2120 2123 2126 2129 2131 2134 2137 2139 2142 2144 2147 2150 2153 2156 2159 2162 2165 2167 2170 2173 2176 2179 2182 2185 2188 2190 2193 2196 2199 2202 2204 2207 2210 2213 2216 2219 2222 2225 2228 2231 2234 2237 2240 2243 2245 2247 2250 2253 2255 2258 2261 2264 2267 2270 2273 2276 2279 2282 2285 2287 2290 2293 2296 2298 2301 2304 2307 2310 2313 2316 2319 2322 2325 2328 2331 2334 2337 2340 2343 2346 2349 2352 2355 2358 2360 2363 2366 2369 2372 2375 2378 2381 2384 2387 2390 2393 2396 2399 2402 2405 2408 2411 2414 2417 2420 2423 2426 2429 2432 2435 2438 2441 2444 2447 2450 2453 2456 2459 2461 2464 2467 2470 2473 2476 2479 2482 2485 2488 2491 2494 2497 2500 2503 2506 2509 2512 2515 2518 2521 2524 2526 2529 2532 2534 2537 2539 2542 2545 2548 2551 2553 2556 2559 2562 2564 2567 2570 2573 2576 2579 2582 2585 2588 2591 2594 2597 2600 2603 2606 2609 2612 2615 2618 2621 2624 2627 2630 2633 2636 2639 2642 2645 2648 2651 2654 2657 2660 2663 2666 2669 2672 2675 2678 2681 2684 2687 2690 2693 2696 2699 2702 2705 2708 2711 2714 2717 2720 2723 2726 2729 2732 2735 2738 2740 2743 2746 2749 2752 2755 2758 2761 2764 2766 2769 2772 2775 2778 2781 2784 2787 2790 2793 2795 2798 2801 2804 2807 2810 2813 2816 2819 2821 2824 2827 2829 2832 2835 2838 2841 2844 2846 2849 2852 2854 2857 2860 2862 2865 2867 2870 2873 2876 2879 2882 2885 2888 2891 2894 2896 2899 2902 2904 2907 2909 2912 2915 2918 2921 2924 2927 2930 2933 2935 2938 2941 2944 2947 2949 2952 2955 2958 2961 2964 2967 2970 2972 2975 2978 2981 2984 2987 2990 2993 2995 2998 3001 3003 3006 3008 3011 3013 3016 3018 3021 3023 3025 3028 3031 3034 3036 3039 3042 3045 3047 3049 3051 3054 3057 3060 3063 3066 3069 3071 3073 3076 3079 3082 3085 3088 3091 3094 3097 3100 3103 3106 3108 3111 3114 3117 3120 3123 3126 3129 3131 3134 3137 3139 3142 3144 3147 3150 3153 3155 3158 3161 3164 3166 3169 3172 3175 3178 3181 3184 3187 3189 3192 3195 3198 3201 3204 3207 3210 3213 3216 3219 3222 3225 3228 3231 3234 3237 3240 3243 3246 3249 3252 3254 3257 3260 3263 3266 3269 3272 3275 3277 3280 3283 3286 3289 3291 3293 3295 3298 3301 3304 3307 3309 3312 3315 3318 3321 3324 3327 3330 3333 3336 3339 3342 3345 3348 3351 3354 3357 3360 3363 3366 3369 3372 3375 3378 3380 3383 3386 3388 3391 3394 3397 3400 3403 3406 3409 3412 3415 3418 3421 3424 3427 3430 3433 3436 3439 3442 3445 3448 3451 3453 3455 3458 3461 3464 3467 3470 3473 3476 3478 3481 3484 3487 3489 3492 3495 3498 3501 3504 3507 3510 3513 3516 3519 3522 3524 3527 3530 3533 3536 3539 3542 3545 3548 3551 3553 3556 3559 3562 3565 3568 3571 3574 3577 3579 3582 3585 3588 3591 3594 3597 3600 3603 3606 3609 3612 3615 3618 3621 3624 3627 3630 3633 3636 3639 3642 3645 3647 3650 3653 3656 3659 3661 3664 3667 3670 3673 3676 3679 3682 3685 3687 3690 3693 3696 3699 3702 3705 3708 3711 3714 3717 3720 3723 3725 3728 3731 3734 3736 3739 3742 3745 3748 3751 3754 3757 3760 3763 3766 3768 3771 3774 3777 3780 3783 3786 3789 3792 3794 3797 3800 3803 3806 3809 3812 3815 3818 3821 3824 3827 3830 3833 3836 3839 3841 3844 3846 3849 3851 3854 3857 3859 3862 3865 3868 3871 3874 3877 3880 3883 3886 3889 3892 3895 3898 3901 3904 3907 3910 3913 3916 3919 3922 3925 3928 3930 3933 3936 3939 3941 3944 3947 3950 3953 3956 3958 3961 3964 3967 3969 3972 3975 3978 3981 3983 3986 3989 3992 3995 3998 4001 4004 4006 4008 4010 4013 4015 4018 4021 4023 4026 4029 4032 4035 4038 4041 4044 4047 4049 4052 4055 4058 4061 4063 4066 4069 4072 4075 4078 4081 4083 4086 4089 4092 4095 4097 4100 4103 4106 4109 4112 4114 4117 4120 4123 4126 4129 4131 4134 4137 4140 4143 4145 4147 4150 4153 4156 4158 4161 4163 4166 4168 4171 4174 4177 4180 4183 4185 4188 4190 4193 4196 4199 4202 4205 4207 4210 4212 4215 4218 4221 4224 4227 4230 4233 4236 4239 4242 4245 4248 4251 4254 4257 4260 4262 4265 4267 4270 4273 4276 4279 4282 4285 4288 4291 4294 4297 4300 4303 4306 4309 4312 4315 4318 4321 4324 4326 4328 4331 4334 4336 4339 4342 4345 4348 4350 4353 4356 4358 4361 4364 4367 4369 4372 4375 4378 4380 4383 4385 4388 4391 4394 4396 4399 4402 4405 4408 4411 4414 4417 4420 4422 4425 4428 4431 4434 4437 4439 4441 4444 4447 4449 4452 4455 4458 4460 4463 4466 4469 4472 4474 4477 4480 4483 4486 4489 4492 4495 4498 4500 4503 4506 4509 4512 4515 4518 4521 4523 4526 4529 4532 4535 4538 4541 4544 4547 4550 4553 4556 4559 4562 4565 4568 4571 4574 4577 4580 4583 4586 4589 4592 4595 4598 4601 4604 4606 4609 4612 4615 4618 4621 4624 4627 4630 4633 4636 4639 4642 4645 4648 4651 4654 4657 4660 4663 4666 4669 4672 4674 4677 4680 4683 4686 4689 4692 4695 4698 4701 4704 4707 4710 4713 4716 4719 4722 4725 4728 4731 4734 4737 4740 4743 4746 4749 4752 4755 4758 4761 4764 4767 4770 4773 4776 4779 4782 4785 4788 4791 4794 4796 4799 4802 4805 4808 4811 4814 4817 4820 4823 4826 4829 4832 4834 4836 4839 4842 4845 4848 4851 4854 4857 4859 4862 4865 4868 4871 4874 4877 4880 4883 4886 4889 4892 4894 4897 4900 4902 4905 4908 4911 4914 4917 4920 4923 4926 4928 4931 4934 4937 4940 4943 4946 4949 4952 4955 4958 4961 4964 4966 4969 4972 4975 4978 4981 4984 4987 4990 4992 4995 4998 5001 5004 5007 5009 5012 5015 5018 5021 5024 5026 5028 5031 5034 5037 5040 5042 5045 5047 5050 5052 5055 5058 5061 5063 5066 5068 5070 5073 5076 5079 5082 5085 5088 5091 5094 5097 5100 5102 5105 5108 5110 5112 5115 5118 5120 5122 5124 5127 5130 5133 5136 5139 5142 5145 5147 5150 5153 5156 5159 5162 5165 5167 5170 5173 5176 5179 5182 5185 5188 5191 5194 5197 5199 5201 5204 5207 5210 5213 5216 5219 5222 5225 5228 5231 5233 5235 5238 5241 5244 5247 5250 5253 5256 5259 5262 5264 5267 5270 5273 5276 5279 5281 5284 5287 5290 5292 5295 5298 5301 5304 5307 5310 5313 5315 5318 5321 5324 5327 5330 5333 5336 5338 5341 5344 5347 5349 5352 5355 5358 5361 5364 5367 5370 5373 5376 5378 5381 5384 5387 5390 5393 5396 5398 5401 5404 5407 5410 5412 5415 5418 5421 5424 5426 5428 5431 5434 5437 5440 5442 5445 5448 5451 5453 5456 5458 5461 5464 5467 5469 5472 5475 5478 5481 5483 5486 5489 5492 5495 5497 5499 5502 5504 5507 5510 5513 5516 5519 5522 5525 5528 5531 5534 5537 5540 5543 5546 5549 5552 5555 5558 5561 5564 5567 5570 5573 5576 5578 5580 5583 5586 5589 5592 5595 5598 5601 5604 5607 5610 5613 5616 5619 5622 5625 5628 5631 5634 5637 5639 5642 5645 5647 5650 5653 5655 5658 5660 5663 5666 5668 5671 5674 5677 5680 5683 5685 5687 5690 5693 5696 5699 5702 5704 5706 5709 5711 5713 5716 5719 5722 5724 5726 5729 5732 5735 5738 5741 5744 5747 5750 5753 5755 5758 5760 5763 5766 5769 5771 5774 5777 5780 5783 5786 5788 5791 5794 5797 5799 5801 5804 5807 5809 5812 5814 5817 5820 5822 5825 5828 5831 5833 5836 5838 5841 5844 5847 5850 5852 5855 5858 5861 5864 5866 5869 5872 5875 5878 5880 5882 5885 5888 5890 5893 5896 5899 5902 5905 5908 5910 5913 5916 5918 5921 5924 5927 5929 5932 5935 5938 5940 5942 5945 5948 5951 5954 5957 5960 5962 5965 5968 5971 5974 5976 5979 5982 5985 5988 5991 5994 5996 5999 6001 6003 6006 6009 6011 6014 6017 6020 6023 6026 6029 6032 6035 6038 6040 6043 6046 6048 6051 6054 6057 6059 6062 6064 6067 6070 6073 6076 6079 6082 6085 6087 6089 6092 6095 6098 6100 6103 6106 6109 6112 6115 6118 6121 6124 6127 6129 6132 6135 6138 6141 6144 6147 6150 6153 6155 6158 6161 6164 6167 6170 6173 6176 6179 6182 6185 6188 6191 6194 6197 6199 6202 6205 6208 6210 6213 6216 6219 6222 6224 6227 6230 6232 6235 6238 6241 6244 6247 6250 6253 6256 6259 6262 6265 6268 6271 6274 6277 6280 6282 6285 6288 6291 6294 6297 6300 6303 6306 6309 6312 6315 6318 6321 6324 6327 6330 6333 6336 6338 6341 6344 6347 6349 6352 6355 6358 6361 6364 6367 6369 6371 6373 6376 6379 6382 6385 6388 6391 6394 6397 6400 6403 6406 6409 6412 6414 6417 6420 6423 6426 6429 6431 6434 6437 6440 6443 6446 6448 6451 6454 6457 6460 6463 6465 6468 6471 6474 6477 6480 6482 6485 6488 6491 6494 6497 6500 6502 6505 6507 6510 6513 6516 6519 6521 6524 6526 6529 6532 6535 6538 6541 6544 6546 6549 6551 6554 6557 6560 6562 6565 6567 6570 6573 6575 6578 6581 6584 6587 6590 6593 6596 6599 6602 6605 6607 6609 6612 6614 6617 6620 6622 6625 6627 6630 6633 6636 6638 6641 6643 6646 6649 6651 6654 6656 6658 6661 6664 6667 6669 6672 6674 6677 6680 6683 6686 6688 6690 6693 6696 6699 6701 6704 6707 6710 6713 6716 6718 6721 6723 6726 6729 6732 6735 6738 6741 6743 6746 6749 6752 6755 6757 6760 6763 6766 6769 6772 6775 6778 6781 6784 6787 6790 6793 6796 6799 6801 6804 6807 6810 6813 6816 6819 6822 6825 6828 6830 6833 6836 6839 6842 6845 6847 6850 6853 6856 6859 6862 6864 6867 6870 6872 6875 6878 6881 6884 6887 6890 6892 6895 6898 6901 6904 6906 6909 6912 6915 6918 6921 6924 6926 6929 6931 6934 6937 6939 6942 6945 6947 6950 6953 6956 6959 6961 6964 6967 6970 6973 6976 6979 6982 6985 6988 6991 6994 6996 6999 7002 7005 7008 7011 7014 7017 7019 7022 7025 7028 7030 7032 7035 7038 7041 7043 7046 7049 7051 7053 7056 7059 7062 7065 7067 7069 7072 7075 7077 7080 7082 7085 7088 7091 7094 7096 7099 7101 7104 7107 7110 7113 7116 7119 7122 7125 7128 7131 7133 7136 7139 7142 7145 7148 7151 7153 7156 7159 7162 7164 7167 7170 7173 7176 7179 7181 7184 7187 7190 7193 7195 7198 7201 7204 7207 7209 7212 7215 7218 7220 7223 7226 7229 7232 7235 7238 7241 7244 7246 7249 7252 7254 7257 7260 7262 7265 7267 7270 7273 7276 7279 7282 7285 7288 7291 7294 7297 7300 7303 7306 7308 7311 7314 7316 7319 7321 7324 7327 7330 7333 7336 7339 7342 7345 7348 7351 7354 7357 7360 7362 7365 7368 7371 7374 7377 7380 7383 7386 7389 7392 7395 7398 7401 7404 7407 7409 7412 7415 7418 7420 7422 7425 7428 7430 7433 7436 7438 7441 7444 7447 7450 7453 7456 7459 7462 7465 7467 7470 7473 7476 7479 7482 7485 7488 7491 7494 7497 7500 7503 7506 7509 7512 7514 7517 7520 7522 7525 7528 7531 7534 7536 7539 7541 7543 7545 7548 7551 7554 7556 7559 7562 7565 7568 7570 7573 7576 7578 7581 7583 7586 7588 7590 7593 7596 7599 7602 7605 7608 7611 7614 7617 7620 7623 7626 7629 7632 7635 7638 7641 7644 7647 7650 7653 7656 7658 7661 7664 7667 7670 7672 7675 7678 7681 7684 7687 7690 7693 7696 7699 7702 7705 7708 7710 7713 7716 7719 7722 7725 7728 7731 7734 7737 7740 7742 7745 7748 7751 7754 7757 7760 7763 7766 7769 7772 7775 7778 7781 7783 7786 7789 7791 7794 7797 7800 7803 7806 7809 7812 7814 7816 7819 7822 7824 7827 7830 7833 7836 7838 7841 7844 7846 7849 7852 7855 7858 7861 7864 7867 7870 7873 7876 7879 7882 7885 7888 7890 7893 7896 7899 7902 7905 7908 7911 7914 7916 7919 7922 7925 7928 7931 7934 7937 7940 7943 7946 7949 7952 7955 7958 7961 7964 7966 7969 7972 7974 7976 7979 7982 7985 7987 7990 7993 7996 7998 8001 8004 8006 8009 8012 8014 8016 8019 8022 8025 8028 8030 8033 8036 8039 8041 8044 8047 8050 8053 8055 8058 8061 8064 8067 8069 8072 8074 8077 8079 8082 8085 8088 8091 8094 8097 8099 8102 8105 8108 8110 8113 8116 8119 8121 8124 8127 8129 8132 8134 8137 8140 8143 8145 8148 8150 8152 8155 8158 8161 8164 8166 8169 8172 8175 8177 8180 8183 8186 8189 8192 8195 8198 8201 8204 8207 8210 8213 8216 8219 8222 8225 8228 8231 8233 8236 8239 8242 8245 8248 8251 8254 8256 8259 8261 8263 8265 8268 8271 8274 8277 8279 8281 8283 8286 8289 8292 8295 8298 8301 8304 8307 8310 8313 8316 8319 8322 8325 8327 8330 8333 8336 8338 8341 8344 8346 8349 8352 8355 8358 8361 8364 8366 8369 8372 8375 8378 8381 8384 8387 8390 8392 8394 8397 8400 8403 8406 8409 8411 8413 8416 8418 8420 8423 8426 8428 8431 8433 8436 8439 8442 8445 8448 8451 8454 8457 8460 8463 8465 8467 8470 8473 8476 8479 8482 8485 8488 8491 8494 8496 8498 8501 8504 8507 8509 8512 8515 8518 8521 8524 8527 8530 8533 8536 8539 8542 8545 8548 8551 8554 8557 8560 8563 8566 8569 8572 8575 8578 8581 8584 8587 8590 8592 8595 8598 8601 8603 8606 8608 8611 8614 8617 8620 8623 8625 8628 8630 8633 8636 8639 8642 8645 8647 8650 8652 8654 8656 8659 8662 8665 8668 8671 8674 8677 8680 8683 8686 8689 8692 8695 8698 8700 8703 8706 8709 8712 8714 8717 8720 8723 8726 8729 8732 8735 8738 8741 8744 8747 8749 8752 8755 8758 8761 8764 8767 8770 8773 8776 8779 8782 8785 8788 8791 8794 8797 8800 8803 8806 8809 8812 8815 8818 8821 8824 8827 8830 8833 8836 8839 8842 8845 8848 8851 8854 8856 8859 8862 8865 8868 8871 8874 8877 8880 8883 8886 8889 8892 8895 8898 8901 8904 8906 8909 8912 8915 8917 8920 8923 8926 8929 8932 8935 8937 8940 8943 8946 8949 8952 8955 8958 8961 8963 8966 8969 8972 8975 8978 8981 8984 8987 8990 8993 8996 8999 9002 9004 9007 9010 9013 9016 9019 9022 9025 9028 9031 9034 9036 9039 9042 9045 9047 9050 9053 9055 9058 9061 9064 9067 9070 9073 9076 9079 9082 9085 9088 9090 9093 9096 9099 9102 9105 9107 9110 9113 9116 9119 9122 9124 9126 9129 9131 9133 9136 9139 9142 9145 9148 9151 9154 9157 9160 9163 9166 9169 9171 9174 9177 9180 9183 9186 9188 9191 9194 9197 9200 9203 9206 9209 9211 9213 9216 9219 9221 9224 9227 9229 9232 9234 9237 9239 9242 9245 9248 9251 9254 9257 9259 9261 9264 9267 9269 9272 9275 9278 9280 9283 9286 9289 9292 9295 9298 9301 9304 9307 9309 9312 9315 9318 9320 9323 9326 9328 9331 9334 9337 9339 9342 9345 9348 9351 9354 9357 9360 9363 9365 9368 9371 9374 9377 9380 9383 9386 9389 9392 9395 9398 9401 9404 9407 9410 9413 9416 9419 9422 9425 9427 9430 9433 9436 9439 9441 9444 9447 9450 9453 9456 9459 9462 9465 9468 9471 9474 9477 9480 9483 9486 9488 9491 9494 9497 9500 9503 9506 9509 9512 9515 9518 9521 9524 9527 9530 9532 9535 9538 9541 9544 9547 9549 9552 9554 9556 9559 9562 9565 9567 9570 9573 9576 9579 9582 9585 9588 9591 9594 9597 9600 9603 9606 9609 9611 9614 9617 9620 9623 9626 9629 9632 9635 9638 9641 9644 9647 9650 9653 9656 9659 9662 9665 9667 9670 9673 9676 9679 9682 9685 9687 9690 9693 9696 9699 9702 9705 9707 9710 9713 9716 9719 9722 9725 9728 9731 9734 9737 9740 9743 9746 9749 9752 9755 9758 9761 9764 9767 9770 9773 9776 9779 9782 9785 9788 9791 9794 9797 9800 9803 9806 9809 9812 9815 9818 9821 9824 9827 9830 9833 9836 9839 9842 9845 9848 9851 9854 9856 9859 9862 9865 9868 9871 9874 9877 9880 9883 9886 9889 9892 9895 9898 9901 9904 9907 9910 9912 9915 9918 9920 9923 9926 9928 9931 9934 9936 9939 9942 9945 9948 9951 9954 9957 9960 9963 9966 9969 9972 9975 9978 9981 9984 9987 9990 9993 9996 9999 10002 10005 10008 10011 10014 10017 10020 10023 10026 10029 10032 10035 10038 10041 10044 10046 10049 10052 10055 10058 10061 10064 10067 10070 10073 10076 10079 10082 10085 10088 10090 10093 10096 10099 10102 10105 10108 10111 10114 10117 10120 10123 10126 10129 10132 10135 10138 10141 10144 10147 10150 10153 10156 10159 10162 10165 10167 10170 10173 10176 10179 10182 10185 10187 10190 10193 10196 10199 10202 10205 10208 10211 10213 10216 10218 10221 10224 10227 10230 10233 10236 10239 10242 10244 10247 10249 10252 10255 10258 10261 10263 10265 10268 10271 10274 10277 10279 10282 10285 10288 10291 10293 10296 10298 10301 10304 10307 10310 10312 10315 10317 10320 10323 10326 10329 10331 10334 10337 10340 10343 10346 10348 10351 10353 10355 10358 10361 10363 10366 10369 10372 10375 10377 10380 10383 10385 10388 10390 10393 10396 10399 10402 10405 10408 10411 10414 10417 10420 10423 10426 10429 10432 10435 10438 10441 10444 10447 10450 10453 10455 10458 10461 10464 10467 10470 10473 10476 10479 10482 10485 10488 10491 10494 10497 10500 10502 10505 10508 10510 10513 10516 10519 10522 10525 10528 10531 10534 10537 10540 10543 10546 10549 10551 10554 10557 10560 10563 10566 10569 10572 10575 10578 10581 10584 10587 10590 10593 10596 10599 10602 10604 10607 10610 10613 10616 10619 10622 10625 10628 10631 10634 10637 10640 10643 10645 10648 10651 10653 10656 10659 10662 10665 10668 10671 10674 10677 10679 10682 10685 10688 10691 10694 10696 10699 10702 10704 10707 10709 10712 10715 10718 10721 10724 10727 10730 10733 10736 10738 10741 10744 10746 10749 10752 10755 10757 10759 10762 10765 10768 10771 10773 10776 10779 10782 10784 10787 10790 10793 10796 10799 10802 10805 10808 10811 10814 10817 10820 10823 10826 10829 10832 10835 10838 10840 10843 10846 10849 10852 10855 10858 10861 10863 10866 10869 10872 10875 10878 10881 10884 10887 10890 10893 10895 10898 10901 10904 10907 10910 10913 10916 10919 10922 10925 10928 10931 10933 10936 10939 10942 10945 10948 10950 10953 10956 10959 10961 10964 10967 10970 10973 10976 10979 10982 10985 10988 10990 10993 10996 10999 11002 11004 11007 11010 11012 11015 11018 11021 11024 11027 11030 11033 11036 11039 11041 11044 11046 11049 11052 11055 11058 11061 11064 11067 11070 11073 11076 11078 11081 11083 11086 11089 11092 11095 11098 11101 11104 11106 11109 11112 11115 11118 11120 11123 11126 11129 11132 11135 11138 11141 11144 11147 11150 11153 11155 11158 11161 11164 11167 11170 11173 11176 11178 11181 11184 11186 11188 11191 11194 11196 11199 11202 11204 11207 11210 11213 11216 11219 11222 11225 11228 11231 11234 11237 11240 11243 11246 11248 11251 11254 11257 11260 11263 11265 11267 11269 11272 11275 11278 11281 11284 11287 11289 11292 11295 11298 11300 11303 11306 11308 11311 11314 11317 11320 11323 11326 11329 11332 11335 11338 11341 11344 11347 11350 11353 11356 11359 11362 11365 11368 11371 11374 11377 11380 11383 11386 11389 11392 11395 11398 11401 11404 11407 11410 11412 11415 11418 11421 11424 11427 11430 11433 11436 11439 11442 11445 11448 11451 11454 11457 11460 11463 11466 11469 11472 11475 11478 11481 11484 11487 11490 11493 11496 11499 11502 11505 11508 11510 11513 11516 11519 11522 11525 11528 11531 11534 11537 11540 11542 11545 11548 11551 11553 11556 11559 11561 11564 11567 11570 11573 11576 11579 11582 11585 11588 11591 11594 11597 11600 11603 11605 11608 11611 11614 11617 11620 11623 11626 11629 11631 11634 11637 11640 11643 11646 11648 11651 11654 11657 11660 11663 11666 11669 11672 11674 11677 11680 11683 11686 11689 11692 11695 11697 11700 11703 11706 11709 11712 11715 11718 11721 11724 11727 11730 11733 11736 11738 11741 11744 11747 11750 11753 11756 11759 11762 11765 11768 11771 11774 11777 11780 11783 11786 11789 11792 11795 11798 11801 11804 11807 11810 11813 11816 11819 11822 11825 11828 11831 11834 11837 11840 11843 11846 11849 11852 11855 11858 11861 11864 11867 11870 11873 11876 11879 11882 11885 11888 11891 11894 11897 11900 11903 11906 11909 11911 11914 11917 11920 11923 11926 11929 11932 11934 11937 11940 11943 11946 11949 11951 11953 11956 11959 11962 11965 11968 11971 11974 11977 11980 11983 11986 11989 11992 11995 11998 12001 12004 12007 12009 12011 12014 12016 12019 12022 12025 12027 12030 12033 12036 12039 12042 12044 12046 12049 12052 12055 12057 12060 12062 12065 12068 12070 12073 12075 12078 12081 12084 12086 12089 12092 12094 12096 12099 12101 12104 12107 12109 12112 12115 12118 12121 12123 12126 12128 12131 12134 12137 12140 12143 12145 12148 12151 12154 12157 12160 12163 12166 12169 12172 12175 12178 12180 12183 12185 12188 12190 12193 12196 12199 12202 12205 12208 12211 12214 12217 12220 12223 12226 12229 12232 12235 12238 12241 12244 12247 12250 12253 12256 12258 12260 12263 12266 12269 12271 12274 12277 12279 12282 12285 12287 12290 12293 12296 12299 12302 12305 12308 12311 12314 12317 12320 12323 12326 12329 12331 12334 12337 12340 12343 12346 12349 12352 12355 12358 12361 12364 12367 12370 12373 12376 12379 12382 12385 12388 12391 12394 12397 12400 12403 12406 12409 12412 12415 12418 12421 12424 12427 12430 12433 12436 12439 12442 12445 12448 12451 12454 12457 12459 12462 12465 12467 12470 12473 12476 12479 12482 12485 12487 12490 12492 12495 12498 12501 12503 12506 12508 12511 12514 12517 12520 12523 12526 12529 12532 12534 12536 12539 12542 12545 12548 12551 12554 12556 12559 12561 12564 12567 12569 12572 12574 12577 12580 12583 12586 12588 12590 12593 12596 12599 12602 12605 12608 12610 12613 12616 12619 12622 12625 12628 12631 12634 12636 12639 12642 12645 12648 12651 12654 12657 12660 12663 12666 12669 12672 12675 12677 12680 12683 12686 12688 12691 12694 12697 12700 12702 12704 12707 12710 12713 12716 12718 12721 12723 12726 12729 12731 12734 12737 12739 12742 12744 12747 12750 12753 12756 12758 12761 12764 12767 12769 12772 12775 12778 12781 12784 12787 12790 12792 12795 12798 12801 12804 12807 12810 12813 12816 12818 12821 12824 12826 12828 12831 12834 12837 12840 12842 12845 12848 12851 12854 12857 12860 12863 12866 12869 12872 12875 12878 12880 12883 12886 12889 12892 12895 12898 12901 12904 12907 12910 12913 12916 12919 12922 12925 12928 12931 12934 12937 12940 12943 12946 12949 12952 12955 12958 12961 12964 12967 12970 12973 12976 12979 12982 12985 12987 12990 12993 12996 12998 13001 13003 13006 13009 13012 13015 13018 13021 13024 13027 13030 13033 13036 13039 13042 13045 13048 13051 13054 13056 13059 13062 13065 13068 13071 13074 13076 13079 13082 13085 13088 13091 13093 13096 13099 13102 13105 13107 13110 13113 13116 13119 13122 13125 13128 13130 13133 13136 13139 13142 13144 13147 13149 13152 13155 13158 13160 13163 13166 13168 13171 13174 13177 13179 13181 13183 13186 13189 13192 13195 13198 13201 13203 13206 13209 13212 13215 13218 13221 13224 13227 13229 13232 13235 13238 13241 13244 13246 13249 13252 13254 13257 13259 13262 13265 13268 13271 13274 13277 13279 13282 13285 13288 13291 13294 13297 13300 13302 13305 13308 13310 13313 13316 13318 13321 13324 13327 13330 13333 13336 13339 13342 13345 13348 13351 13354 13357 13360 13363 13366 13369 13372 13375 13378 13381 13384 13387 13390 13393 13396 13399 13402 13405 13408 13411 13414 13417 13419 13422 13425 13428 13431 13433 13436 13439 13442 13445 13448 13451 13453 13456 13459 13462 13465 13467 13470 13473 13476 13479 13482 13485 13487 13490 13493 13496 13498 13501 13504 13507 13510 13513 13516 13519 13522 13525 13528 13531 13534 13537 13539 13542 13545 13548 13551 13554 13557 13560 13563 13566 13569 13572 13575 13578 13581 13583 13586 13589 13592 13594 13597 13600 13603 13606 13609 13611 13613 13616 13619 13622 13625 13628 13631 13634 13637 13639 13642 13645 13647 13650 13653 13655 13658 13661 13664 13667 13669 13672 13675 13678 13680 13682 13685 13688 13691 13694 13697 13700 13702 13705 13707 13710 13713 13716 13719 13722 13725 13728 13731 13734 13737 13740 13743 13746 13748 13751 13754 13757 13760 13763 13766 13769 13772 13774 13777 13779 13782 13785 13788 13791 13793 13796 13798 13801 13804 13807 13810 13813 13816 13819 13821 13824 13826 13829 13832 13834 13837 13840 13843 13846 13848 13851 13854 13857 13860 13863 13866 13869 13872 13875 13878 13881 13884 13887 13890 13893 13896 13899 13902 13905 13908 13911 13914 13917 13920 13923 13926 13929 13932 13935 13938 13941 13944 13947 13950 13953 13956 13959 13962 13965 13968 13971 13974 13977 13980 13983 13986 13988 13991 13994 13997 14000 14003 14006 14009 14012 14015 14018 14021 14024 14027 14030 14033 14036 14038 14041 14044 14046 14049 14052 14054 14056 14059 14062 14065 14067 14070 14073 14076 14079 14082 14085 14088 14091 14094 14097 14100 14103 14106 14109 14111 14113 14116 14118 14120 14123 14125 14127 14130 14133 14136 14139 14142 14145 14148 14150 14153 14156 14159 14161 14164 14167 14170 14172 14174 14177 14180 14182 14185 14187 14189 14192 14195 14197 14199 14202 14205 14207 14210 14213 14216 14219 14222 14225 14228 14231 14233 14236 14239 14241 14244 14246 14249 14251 14254 14257 14260 14263 14266 14269 14272 14275 14278 14281 14284 14287 14289 14292 14295 14298 14301 14304 14307 14310 14313 14316 14319 14322 14324 14327 14330 14333 14336 14339 14342 14345 14347 14349 14352 14355 14357 14360 14363 14366 14369 14372 14374 14377 14380 14383 14386 14389 14392 14395 14398 14401 14404 14407 14410 14413 14416 14419 14422 14425 14428 14431 14433 14436 14439 14442 14445 14448 14451 14454 14457 14460 14463 14465 14468 14471 14474 14477 14480 14483 14486 14489 14492 14495 14498 14501 14504 14506 14509 14512 14515 14518 14520 14522 14525 14528 14531 14534 14537 14540 14543 14546 14549 14552 14555 14558 14561 14563 14566 14569 14572 14574 14577 14580 14583 14586 14589 14592 14595 14598 14601 14604 14607 14610 14613 14616 14619 14622 14625 14628 14631 14634 14637 14640 14643 14646 14649 14652 14655 14658 14661 14664 14667 14670 14673 14676 14678 14681 14684 14686 14689 14692 14695 14698 14701 14704 14707 14710 14713 14716 14719 14722 14725 14728 14731 14734 14737 14740 14743 14746 14749 14752 14754 14757 14760 14763 14766 14769 14772 14775 14778 14781 14784 14787 14790 14793 14796 14799 14802 14805 14807 14810 14813 14816 14819 14822 14825 14828 14831 14834 14836 14839 14842 14845 14848 14851 14854 14857 14860 14863 14866 14868 14871 14874 14877 14879 14882 14884 14887 14890 14893 14896 14898 14901 14904 14907 14910 14913 14916 14919 14922 14924 14927 14930 14933 14936 14939 14942 14944 14947 14950 14953 14956 14959 14962 14965 14967 14970 14973 14976 14979 14981 14984 14987 14990 14993 14996 14999 15001 15004 15007 15010 15012 15015 15018 15020 15023 15026 15028 15031 15034 15037 15040 15043 15046 15049 15052 15055 15058 15061 15064 15066 15069 15072 15075 15078 15081 15083 15086 15089 15092 15095 15098 15101 15104 15107 15110 15113 15116 15119 15122 15125 15128 15131 15134 15137 15140 15143 15146 15149 15152 15155 15158 15161 15163 15166 15169 15172 15175 15177 15180 15183 15186 15189 15192 15195 15198 15201 15204 15207 15210 15213 15216 15219 15222 15225 15228 15231 15234 15237 15240 15243 15246 15249 15252 15255 15258 15261 15264 15267 15270 15273 15276 15279 15282 15285 15288 15291 15294 15297 15300 15303 15306 15309 15312 15315 15318 15321 15324 15327 15330 15333 15336 15339 15342 15345 15348 15351 15354 15357 15360 15363 15366 15369 15372 15375 15378 15381 15384 15387 15390 15393 15395 15398 15401 15404 15407 15410 15413 15416 15419 15422 15425 15428 15431 15434 15437 15440 15443 15446 15449 15452 15455 15458 15461 15464 15467 15470 15473 15476 15479 15482 15485 15488 15491 15494 15497 15500 15503 15506 15509 15512 15515 15518 15521 15524 15527 15530 15533 15536 15539 15542 15545 15548 15551 15554 15557 15560 15563 15566 15569 15572 15575 15577 15580 15582 15585 15588 15591 15593 15596 15599 15601 15604 15607 15610 15613 15616 15619 15622 15625 15628 15631 15634 15637 15639 15642 15645 15648 15651 15654 15657 15660 15663 15666 15669 15672 15675 15678 15681 15683 15686 15689 15692 15695 15698 15701 15704 15707 15710 15713 15716 15719 15722 15725 15728 15731 15734 15737 15740 15743 15746 15749 15752 15755 15758 15761 15763 15766 15769 15772 15775 15778 15781 15784 15787 15790 15793 15796 15799 15802 15805 15808 15811 15814 15817 15820 15823 15826 15829 15832 15835 15838 15841 15844 15847 15850 15853 15856 15859 15862 15865 15868 15871 15874 15877 15880 15883 15886 15889 15891 15894 15897 15900 15902 15905 15908 15911 15914 15917 15919 15922 15925 15928 15930 15933 15936 15939 15942 15945 15948 15951 15954 15957 15960 15963 15966 15969 15972 15975 15978 15980 15983 15986 15989 15992 15995 15998 16001 16004 16007 16010 16013 16016 16019 16022 16025 16028 16031 16033 16036 16039 16042 16045 16048 16051 16054 16056 16059 16061 16064 16067 16070 16073 16076 16079 16082 16085 16088 16091 16094 16097 16100 16103 16106 16109 16112 16115 16118 16121 16124 16127 16130 16133 16136 16139 16141 16143 16146 16149 16152 16155 16158 16161 16164 16166 16169 16172 16175 16178 16181 16184 16187 16190 16193 16196 16199 16202 16204 16207 16210 16213 16216 16219 16222 16225 16228 16231 16234 16237 16239 16242 16244 16247 16250 16253 16256 16258 16260 16263 16266 16269 16272 16275 16278 16281 16284 16286 16289 16292 16295 16297 16300 16302 16305 16308 16311 16314 16317 16320 16323 16326 16329 16332 16335 16338 16340 16343 16346 16349 16351 16354 16357 16359 16361 16364 16367 16369 16372 16375 16378 16381 16384 16387 16390 16393 16396 16399 16402 16405 16407 16410 16413 16416 16419 16421 16424 16427 16429 16431 16434 16437 16440 16443 16446 16449 16452 16455 16458 16461 16464 16467 16469 16472 16475 16477 16480 16483 16486 16489 16491 16494 16497 16499 16502 16505 16507 16509 16512 16514 16517 16520 16523 16526 16529 16532 16535 16537 16540 16543 16546 16549 16552 16555 16558 16561 16564 16567 16570 16573 16575 16578 16580 16583 16586 16589 16592 16595 16598 16601 16604 16607 16610 16612 16615 16618 16621 16624 16627 16630 16632 16635 16638 16641 16644 16647 16650 16653 16656 16659 16661 16663 16666 16669 16672 16675 16678 16681 16684 16686 16689 16692 16695 16697 16700 16702 16705 16708 16711 16714 16717 16720 16723 16726 16729 16732 16735 16738 16740 16743 16746 16748 16751 16754 16757 16760 16763 16765 16768 16771 16774 16777 16780 16782 16785 16788 16791 16794 16796 16799 16802 16804 16807 16810 16813 16815 16818 16820 16823 16826 16829 16831 16834 16837 16840 16843 16846 16849 16852 16855 16858 16860 16863 16866 16868 16870 16873 16876 16879 16882 16884 16887 16890 16893 16896 16899 16902 16905 16908 16910 16913 16916 16919 16922 16925 16927 16930 16933 16936 16939 16941 16944 16947 16950 16953 16956 16959 16962 16965 16968 16971 16973 16976 16979 16982 16985 16988 16991 16994 16997 17000 17003 17006 17009 17012 17015 17018 17021 17024 17026 17029 17032 17035 17038 17041 17044 17047 17049 17052 17055 17058 17061 17064 17067 17070 17073 17076 17079 17082 17085 17088 17091 17094 17097 17099 17102 17105 17108 17111 17113 17116 17118 17121 17124 17127 17130 17133 17136 17139 17142 17145 17148 17151 17154 17156 17159 17162 17165 17167 17170 17173 17175 17178 17181 17184 17187 17190 17193 17195 17198 17201 17203 17206 17209 17212 17214 17217 17220 17223 17226 17229 17232 17235 17238 17241 17243 17246 17249 17252 17255 17258 17261 17264 17267 17269 17272 17275 17278 17281 17284 17287 17290 17292 17295 17298 17301 17304 17307 17310 17313 17316 17319 17322 17325 17328 17331 17334 17337 17340 17343 17346 17349 17352 17355 17358 17361 17364 17366 17369 17372 17375 17378 17381 17384 17387 17390 17393 17396 17399 17402 17405 17408 17411 17414 17417 17419 17422 17425 17428 17431 17433 17436 17439 17442 17445 17448 17450 17453 17456 17459 17462 17464 17467 17470 17472 17475 17478 17480 17482 17485 17488 17491 17494 17496 17499 17502 17505 17507 17510 17512 17515 17517 17520 17522 17525 17528 17530 17532 17535 17537 17540 17542 17545 17548 17551 17554 17556 17559 17562 17565 17568 17571 17574 17577 17580 17583 17586 17589 17592 17595 17598 17601 17604 17607 17610 17613 17616 17619 17621 17624 17627 17630 17633 17635 17638 17641 17643 17646 17649 17652 17655 17658 17661 17664 17667 17670 17673 17676 17678 17681 17684 17687 17689 17692 17695 17698 17701 17704 17706 17709 17712 17715 17718 17721 17723 17726 17729 17732 17735 17737 17740 17743 17745 17748 17751 17754 17757 17760 17763 17766 17768 17771 17774 17776 17779 17781 17784 17787 17789 17792 17795 17798 17801 17804 17807 17810 17813 17816 17819 17822 17825 17827 17830 17832 17835 17838 17841 17843 17846 17848 17851 17853 17856 17859 17861 17864 17867 17870 17873 17876 17878 17881 17884 17887 17890 17893 17896 17899 17902 17905 17908 17911 17914 17917 17919 17922 17925 17928 17931 17934 17937 17940 17943 17946 17949 17952 17954 17957 17960 17963 17966 17969 17972 17975 17978 17981 17983 17986 17989 17992 17995 17998 18001 18004 18007 18010 18013 18016 18019 18022 18025 18028 18031 18034 18037 18040 18043 18046 18049 18052 18055 18058 18061 18064 18067 18070 18073 18076 18079 18081 18084 18087 18090 18093 18096 18099 18102 18105 18108 18111 18114 18116 18119 18122 18125 18128 18130 18133 18136 18138 18141 18144 18147 18150 18153 18156 18159 18162 18164 18167 18170 18172 18175 18178 18181 18183 18186 18189 18192 18195 18198 18201 18204 18207 18210 18213 18216 18219 18222 18224 18227 18230 18232 18235 18237 18240 18243 18246 18249 18252 18254 18257 18260 18263 18266 18268 18271 18274 18276 18279 18282 18285 18288 18291 18294 18297 18300 18303 18306 18309 18312 18314 18317 18320 18322 18325 18328 18331 18334 18337 18340 18343 18346 18349 18352 18354 18356 18359 18362 18365 18368 18371 18373 18376 18379 18382 18385 18388 18391 18394 18397 18400 18403 18406 18409 18412 18415 18418 18421 18424 18427 18429 18432 18435 18437 18440 18443 18446 18449 18451 18454 18457 18459 18461 18464 18467 18470 18473 18476 18479 18482 18484 18487 18490 18493 18496 18499 18502 18505 18508 18511 18514 18517 18520 18523 18526 18529 18532 18535 18538 18541 18544 18547 18550 18553 18556 18559 18562 18565 18568 18571 18574 18577 18580 18583 18585 18588 18591 18594 18597 18600 18603 18606 18609 18611 18613 18616 18619 18622 18624 18627 18630 18633 18636 18639 18642 18645 18648 18651 18654 18657 18659 18662 18665 18668 18671 18674 18677 18680 18683 18686 18688 18691 18694 18697 18700 18703 18705 18708 18711 18714 18717 18720 18723 18726 18729 18732 18735 18738 18741 18744 18747 18750 18753 18756 18759 18762 18765 18768 18771 18774 18777 18780 18783 18786 18789 18792 18795 18798 18801 18804 18807 18809 18812 18815 18817 18820 18823 18826 18829 18832 18835 18838 18841 18844 18847 18850 18853 18856 18859 18862 18865 18868 18871 18874 18877 18879 18882 18885 18888 18891 18894 18897 18900 18903 18906 18909 18912 18915 18917 18920 18923 18926 18929 18932 18935 18938 18941 18944 18947 18949 18951 18954 18957 18960 18963 18966 18969 18972 18975 18978 18980 18983 18986 18989 18992 18995 18998 19001 19003 19005 19008 19011 19014 19017 19020 19022 19025 19027 19030 19033 19036 19039 19041 19044 19047 19049 19052 19055 19057 19060 19063 19066 19069 19072 19075 19078 19081 19084 19087 19090 19093 19095 19098 19101 19104 19107 19110 19113 19116 19119 19122 19125 19127 19130 19132 19135 19138 19141 19144 19146 19149 19152 19155 19158 19160 19163 19166 19169 19171 19174 19177 19180 19183 19185 19188 19191 19194 19196 19199 19202 19205 19207 19210 19213 19216 19218 19221 19224 19226 19229 19232 19234 19237 19240 19243 19246 19249 19252 19255 19258 19261 19263 19266 19269 19272 19275 19278 19281 19284 19286 19289 19292 19295 19298 19301 19304 19307 19310 19313 19315 19318 19321 19324 19327 19330 19332 19335 19338 19341 19344 19347 19349 19352 19354 19357 19360 19363 19365 19368 19371 19374 19376 19379 19382 19385 19388 19390 19393 19396 19399 19402 19405 19408 19410 19413 19416 19418 19421 19424 19426 19429 19432 19435 19438 19441 19444 19447 19450 19452 19455 19458 19461 19464 19467 19469 19472 19475 19478 19481 19484 19487 19490 19493 19496 19498 19501 19504 19507 19510 19513 19516 19519 19522 19525 19528 19531 19534 19536 19539 19542 19545 19548 19551 19554 19557 19560 19563 19566 19569 19571 19574 19577 19580 19583 19586 19589 19592 19595 19598 19601 19603 19606 19609 19612 19615 19618 19620 19623 19626 19629 19632 19635 19638 19641 19644 19647 19650 19652 19655 19658 19661 19664 19667 19670 19673 19676 19679 19682 19685 19688 19690 19693 19696 19699 19701 19704 19707 19710 19713 19716 19719 19722 19725 19728 19731 19734 19737 19740 19742 19745 19748 19751 19754 19756 19759 19761 19764 19767 19770 19773 19776 19779 19781 19784 19786 19789 19792 19794 19797 19800 19803 19806 19808 19810 19813 19816 19818 19821 19824 19827 19830 19833 19835 19838 19841 19844 19847 19850 19852 19855 19857 19860 19863 19866 19868 19871 19873 19876 19879 19882 19885 19887 19890 19892 19894 19897 19900 19903 19906 19909 19912 19914 19917 19920 19923 19926 19929 19932 19935 19938 19941 19943 19946 19949 19952 19955 19958 19961 19964 19966 19969 19972 19974 19977 19980 19983 19986 19989 19992 19995 19997 20000 20003 20006 20009 20012 20015 20018 20020 20023 20026 20029 20032 20035 20038 20041 20044 20047 20049 20052 20055 20058 20060 20063 20066 20069 20072 20075 20078 20080 20082 20085 20087 20090 20092 20095 20097 20100 20103 20106 20109 20112 20115 20118 20120 20123 20126 20129 20131 20134 20137 20140 20143 20146 20149 20152 20155 20158 20161 20164 20167 20170 20173 20176 20179 20182 20184 20186 20188 20191 20194 20196 20199 20201 20204 20207 20209 20212 20215 20218 20221 20224 20226 20229 20232 20235 20238 20241 20244 20247 20250 20253 20256 20259 20262 20265 20268 20271 20273 20276 20279 20282 20284 20287 20290 20293 20296 20299 20302 20305 20308 20311 20314 20317 20320 20323 20326 20329 20332 20335 20338 20341 20344 20347 20350 20353 20356 20359 20361 20364 20367 20370 20373 20376 20379 20382 20385 20388 20391 20394 20397 20400 20403 20405 20408 20411 20414 20417 20420 20423 20426 20429 20432 20435 20438 20441 20444 20446 20449 20452 20455 20458 20461 20463 20466 20469 20472 20475 20478 20481 20484 20487 20490 20492 20494 20497 20500 20503 20506 20509 20511 20514 20517 20520 20523 20526 20529 20532 20535 20538 20541 20544 20547 20550 20553 20556 20559 20562 20565 20568 20571 20574 20577 20580 20583 20586 20589 20592 20595 20597 20599 20602 20605 20608 20611 20614 20617 20620 20623 20626 20629 20632 20635 20638 20641 20644 20647 20650 20653 20656 20659 20662 20665 20668 20671 20674 20677 20680 20683 20686 20689 20692 20695 20698 20701 20704 20707 20710 20713 20716 20719 20722 20725 20728 20731 20734 20737 20740 20743 20746 20749 20752 20755 20758 20760 20763 20766 20769 20772 20775 20778 20780 20783 20786 20789 20792 20795 20798 20801 20804 20807 20810 20813 20816 20819 20822 20825 20828 20831 20834 20836 20839 20841 20844 20847 20850 20852 20855 20858 20861 20864 20867 20870 20872 20875 20878 20881 20883 20886 20889 20892 20895 20897 20900 20903 20905 20907 20910 20913 20916 20919 20922 20924 20927 20930 20933 20936 20939 20941 20943 20946 20948 20951 20954 20957 20960 20963 20966 20969 20972 20975 20977 20980 20983 20985 20988 20991 20993 20995 20998 21001 21004 21007 21010 21013 21016 21019 21022 21025 21028 21031 21034 21037 21039 21042 21045 21048 21050 21053 21056 21059 21062 21064 21067 21070 21073 21075 21078 21081 21083 21086 21089 21091 21094 21096 21099 21102 21105 21107 21110 21113 21116 21119 21121 21124 21127 21130 21133 21135 21138 21140 21143 21146 21149 21152 21155 21157 21160 21163 21166 21169 21172 21175 21177 21180 21183 21186 21188 21191 21194 21197 21200 21203 21206 21209 21212 21215 21218 21221 21224 21227 21230 21233 21236 21239 21241 21244 21247 21250 21253 21256 21259 21262 21265 21268 21270 21273 21276 21279 21282 21285 21288 21291 21294 21297 21300 21303 21306 21309 21312 21315 21318 21320 21323 21326 21329 21332 21335 21338 21340 21343 21346 21349 21352 21355 21358 21360 21363 21366 21369 21372 21375 21377 21380 21383 21386 21389 21392 21395 21398 21401 21404 21407 21410 21413 21415 21418 21421 21424 21427 21430 21433 21435 21438 21441 21444 21447 21450 21453 21456 21459 21462 21465 21468 21471 21474 21477 21479 21482 21485 21488 21491 21494 21497 21500 21503 21506 21509 21512 21515 21518 21521 21524 21527 21530 21533 21535 21538 21541 21543 21546 21549 21552 21555 21558 21561 21564 21566 21569 21572 21575 21578 21581 21584 21587 21590 21593 21596 21599 21602 21604 21607 21609 21612 21615 21618 21621 21624 21627 21630 21633 21636 21639 21642 21645 21648 21650 21653 21656 21658 21661 21664 21667 21670 21673 21676 21679 21682 21685 21688 21691 21694 21696 21699 21702 21704 21706 21709 21712 21715 21718 21721 21724 21727 21730 21733 21736 21739 21742 21745 21748 21750 21753 21756 21759 21762 21765 21767 21770 21772 21775 21778 21781 21784 21787 21790 21792 21795 21798 21801 21803 21806 21809 21812 21815 21818 21821 21824 21826 21829 21832 21835 21838 21841 21843 21846 21849 21852 21855 21858 21861 21864 21867 21870 21873 21876 21879 21882 21885 21888 21891 21894 21897 21900 21902 21905 21908 21911 21914 21917 21919 21922 21925 21928 21931 21933 21936 21938 21941 21944 21947 21950 21953 21956 21959 21962 21965 21968 21971 21973 21976 21979 21982 21985 21987 21990 21993 21996 21998 22001 22004 22007 22010 22013 22016 22019 22022 22025 22028 22031 22034 22036 22039 22042 22045 22048 22050 22053 22056 22059 22062 22065 22068 22071 22074 22077 22080 22083 22086 22088 22091 22094 22097 22100 22103 22106 22109 22112 22115 22118 22121 22124 22127 22130 22133 22136 22138 22141 22144 22147 22150 22152 22155 22158 22161 22164 22167 22170 22173 22176 22179 22182 22185 22188 22191 22194 22197 22200 22203 22206 22209 22211 22214 22217 22220 22222 22225 22228 22231 22234 22236 22239 22242 22245 22248 22251 22253 22255 22258 22261 22264 22267 22270 22273 22276 22279 22282 22285 22288 22291 22294 22297 22300 22303 22306 22309 22312 22315 22318 22321 22324 22327 22330 22333 22336 22339 22342 22345 22348 22351 22354 22357 22360 22363 22366 22369 22372 22375 22378 22381 22384 22386 22389 22392 22394 22397 22400 22403 22406 22409 22412 22415 22418 22421 22424 22427 22430 22432 22435 22438 22441 22444 22447 22450 22453 22456 22459 22462 22465 22468 22471 22474 22477 22480 22482 22485 22488 22491 22494 22496 22499 22502 22504 22507 22510 22513 22516 22518 22521 22524 22526 22529 22532 22535 22538 22541 22544 22547 22550 22552 22555 22558 22561 22564 22567 22570 22573 22576 22579 22582 22584 22587 22590 22593 22596 22599 22602 22605 22608 22611 22613 22616 22619 22622 22625 22628 22631 22634 22637 22640 22643 22646 22649 22651 22654 22657 22660 22663 22666 22669 22672 22675 22677 22679 22682 22685 22688 22690 22693 22696 22699 22702 22704 22706 22709 22712 22715 22718 22721 22724 22727 22730 22733 22736 22739 22742 22745 22748 22751 22754 22757 22759 22762 22765 22768 22771 22774 22777 22780 22783 22786 22789 22792 22795 22798 22801 22804 22807 22810 22813 22816 22819 22822 22825 22828 22831 22834 22837 22840 22842 22845 22848 22851 22854 22857 22860 22863 22866 22869 22872 22875 22878 22881 22883 22886 22889 22892 22895 22898 22901 22904 22907 22910 22913 22916 22919 22922 22925 22928 22931 22934 22937 22940 22943 22946 22949 22952 22955 22958 22961 22964 22967 22970 22973 22976 22979 22982 22985 22988 22991 22994 22997 23000 23003 23006 23009 23012 23015 23018 23021 23024 23027 23030 23033 23036 23039 23042 23044 23046 23048 23051 23054 23057 23060 23063 23066 23068 23070 23073 23076 23079 23082 23085 23088 23091 23093 23095 23098 23101 23104 23106 23109 23111 23114 23117 23119 23122 23124 23127 23130 23132 23134 23137 23140 23142 23145 23147 23150 23152 23155 23158 23161 23164 23166 23169 23172 23175 23178 23181 23184 23187 23190 23193 23196 23199 23202 23205 23208 23211 23214 23217 23219 23222 23225 23228 23231 23234 23237 23240 23243 23246 23249 23252 23255 23257 23260 23263 23266 23268 23271 23274 23276 23279 23281 23284 23287 23290 23293 23296 23299 23302 23305 23308 23311 23314 23317 23320 23323 23326 23329 23331 23334 23337 23340 23343 23346 23349 23352 23355 23358 23361 23364 23366 23368 23371 23374 23376 23379 23382 23385 23388 23391 23394 23397 23400 23402 23405 23407 23410 23413 23416 23419 23422 23424 23427 23430 23433 23435 23438 23441 23444 23447 23450 23453 23456 23459 23461 23464 23467 23469 23471 23474 23476 23479 23482 23485 23488 23490 23493 23496 23499 23502 23504 23507 23510 23512 23515 23518 23521 23524 23527 23530 23533 23536 23539 23542 23545 23547 23550 23552 23555 23558 23561 23564 23567 23570 23572 23575 23578 23581 23584 23587 23590 23593 23596 23599 23602 23605 23608 23611 23614 23617 23620 23623 23626 23629 23632 23635 23638 23641 23644 23647 23650 23653 23656 23659 23662 23665 23668 23671 23674 23677 23680 23683 23686 23688 23691 23694 23697 23700 23703 23705 23708 23711 23714 23717 23719 23722 23725 23728 23731 23734 23737 23740 23743 23746 23749 23752 23755 23758 23761 23764 23766 23769 23772 23775 23778 23781 23784 23787 23790 23793 23795 23798 23801 23804 23807 23810 23813 23816 23819 23822 23825 23828 23830 23833 23835 23838 23841 23843 23846 23849 23852 23855 23858 23861 23864 23867 23870 23872 23875 23878 23881 23883 23886 23888 23891 23894 23897 23900 23903 23905 23908 23911 23914 23916 23919 23922 23925 23928 23931 23934 23937 23940 23943 23946 23949 23952 23954 23957 23960 23963 23966 23969 23971 23974 23977 23979 23982 23985 23988 23991 23994 23997 24000 24003 24006 24009 24012 24015 24017 24020 24023 24026 24028 24031 24033 24035 24038 24040 24042 24045 24047 24050 24053 24055 24057 24060 24062 24065 24068 24070 24073 24075 24078 24081 24084 24087 24090 24093 24095 24098 24101 24103 24106 24108 24110 24113 24115 24117 24120 24123 24125 24127 24130 24132 24134 24137 24140 24142 24145 24148 24150 24153 24156 24159 24162 24165 24168 24171 24174 24177 24180 24182 24185 24188 24191 24193 24196 24199 24202 24205 24208 24211 24213 24216 24219 24222 24225 24228 24230 24233 24235 24237 24240 24243 24246 24249 24252 24254 24257 24260 24263 24266 24269 24272 24274 24277 24280 24282 24285 24288 24291 24294 24297 24300 24303 24306 24308 24310 24313 24315 24318 24321 24323 24326 24329 24332 24335 24338 24341 24344 24346 24349 24352 24355 24358 24360 24363 24366 24368 24371 24374 24376 24379 24382 24385 24388 24391 24394 24397 24400 24403 24406 24409 24412 24415 24418 24421 24424 24426 24429 24431 24434 24436 24439 24442 24445 24447 24450 24453 24455 24457 24459 24462 24465 24468 24470 24473 24476 24479 24482 24485 24487 24490 24493 24496 24499 24502 24505 24508 24511 24514 24517 24520 24523 24526 24529 24532 24535 24537 24540 24543 24546 24549 24552 24554 24557 24560 24563 24565 24568 24571 24574 24577 24579 24582 24584 24587 24590 24593 24596 24599 24602 24605 24608 24610 24613 24616 24618 24621 24624 24627 24629 24631 24634 24636 24639 24641 24644 24647 24650 24652 24655 24658 24660 24663 24666 24669 24672 24674 24677 24680 24683 24686 24688 24690 24693 24696 24699 24701 24704 24707 24709 24712 24715 24718 24720 24723 24725 24728 24731 24734 24737 24740 24743 24745 24748 24751 24753 24756 24759 24762 24764 24767 24769 24771 24774 24777 24780 24782 24785 24787 24790 24792 24795 24798 24800 24803 24805 24808 24810 24813 24816 24819 24821 24823 24826 24828 24831 24834 24837 24840 24843 24846 24848 24851 24854 24857 24860 24862 24865 24868 24871 24874 24877 24880 24883 24886 24889 24892 24895 24898 24901 24904 24907 24910 24913 24915 24917 24920 24923 24925 24927 24930 24933 24935 24938 24940 24943 24946 24949 24952 24955 24958 24961 24964 24967 24970 24973 24975 24978 24981 24984 24987 24990 24993 24996 24999 25002 25005 25007 25010 25012 25015 25017 25020 25023 25026 25029 25032 25035 25038 25040 25043 25046 25049 25052 25055 25057 25060 25063 25066 25069 25072 25075 25077 25080 25083 25086 25089 25092 25095 25098 25100 25103 25106 25109 25112 25115 25118 25121 25124 25127 25130 25133 25136 25139 25142 25145 25148 25151 25153 25156 25159 25161 25164 25167 25170 25173 25176 25179 25182 25184 25187 25190 25193 25196 25199 25202 25205 25208 25211 25214 25217 25220 25223 25226 25229 25232 25234 25237 25240 25242 25245 25248 25250 25253 25256 25259 25262 25264 25267 25270 25273 25275 25278 25281 25283 25286 25289 25292 25294 25297 25300 25303 25306 25309 25311 25314 25316 25318 25320 25323 25326 25329 25332 25335 25338 25341 25344 25346 25349 25352 25355 25358 25361 25364 25367 25370 25373 25376 25379 25381 25384 25387 25390 25392 25395 25398 25401 25404 25407 25410 25413 25416 25419 25422 25425 25428 25430 25432 25435 25437 25439 25442 25445 25448 25451 25454 25456 25458 25461 25464 25467 25469 25472 25475 25477 25480 25482 25485 25488 25491 25494 25496 25498 25501 25503 25505 25508 25511 25514 25516 25519 25522 25525 25528 25531 25534 25536 25539 25542 25545 25548 25550 25553 25555 25558 25561 25564 25567 25570 25573 25576 25579 25582 25584 25587 25589 25591 25593 25596 25598 25601 25604 25607 25610 25612 25615 25618 25621 25623 25625 25627 25629 25631 25634 25637 25640 25643 25646 25649 25652 25654 25657 25660 25663 25666 25669 25672 25675 25678 25681 25684 25687 25690 25693 25695 25698 25701 25704 25707 25710 25713 25716 25719 25722 25725 25728 25731 25734 25737 25740 25743 25746 25749 25752 25755 25758 25760 25763 25766 25769 25772 25775 25778 25781 25784 25787 25790 25792 25795 25797 25799 25801 25804 25807 25809 25812 25815 25818 25821 25824 25827 25830 25833 25836 25839 25842 25845 25847 25849 25852 25855 25858 25861 25864 25867 25869 25872 25875 25878 25880 25883 25886 25888 25890 25893 25896 25899 25902 25905 25908 25911 25914 25917 25919 25921 25924 25927 25930 25933 25936 25939 25942 25945 25948 25951 25954 25957 25960 25962 25965 25968 25971 25974 25977 25979 25982 25985 25988 25990 25992 25995 25998 26000 26003 26006 26009 26011 26014 26017 26020 26023 26026 26029 26032 26034 26037 26040 26043 26046 26048 26051 26054 26057 26060 26062 26065 26068 26071 26073 26076 26079 26082 26085 26088 26091 26094 26096 26098 26101 26104 26107 26110 26112 26115 26118 26121 26124 26127 26130 26133 26135 26138 26141 26144 26147 26149 26152 26155 26158 26160 26163 26166 26169 26171 26174 26177 26179 26182 26185 26188 26191 26193 26196 26199 26202 26205 26208 26211 26214 26217 26220 26223 26225 26228 26231 26234 26236 26239 26242 26245 26248 26251 26254 26257 26260 26263 26266 26269 26272 26274 26277 26280 26283 26286 26289 26292 26294 26297 26299 26302 26304 26307 26310 26313 26315 26318 26321 26323 26326 26329 26332 26335 26337 26340 26343 26346 26349 26352 26355 26358 26361 26364 26366 26369 26371 26374 26377 26380 26383 26386 26388 26391 26394 26397 26399 26402 26405 26408 26411 26414 26416 26419 26421 26424 26426 26429 26432 26434 26437 26440 26443 26446 26449 26451 26454 26457 26459 26462 26465 26468 26471 26474 26476 26479 26482 26485 26488 26491 26494 26497 26500 26502 26505 26508 26511 26514 26517 26520 26523 26526 26529 26532 26535 26537 26540 26542 26545 26547 26550 26552 26555 26558 26561 26564 26566 26569 26571 26574 26577 26580 26583 26586 26589 26592 26595 26598 26601 26604 26607 26609 26612 26615 26617 26620 26623 26625 26628 26631 26634 26637 26640 26643 26646 26649 26651 26654 26656 26659 26662 26665 26668 26671 26673 26676 26678 26681 26684 26686 26689 26691 26694 26697 26700 26702 26705 26708 26711 26714 26717 26720 26723 26726 26729 26731 26734 26737 26740 26743 26746 26749 26752 26755 26758 26761 26764 26766 26769 26772 26775 26778 26781 26784 26786 26789 26791 26794 26797 26799 26802 26805 26808 26811 26814 26817 26819 26822 26825 26827 26830 26832 26835 26837 26839 26842 26845 26848 26850 26853 26855 26858 26861 26864 26866 26868 26870 26872 26875 26878 26881 26883 26886 26888 26891 26893 26896 26898 26900 26903 26906 26909 26911 26914 26917 26920 26922 26925 26928 26931 26933 26936 26938 26941 26944 26947 26949 26951 26953 26956 26959 26961 26964 26967 26970 26973 26976 26979 26982 26985 26988 26991 26994 26997 26999 27002 27005 27008 27011 27014 27016 27019 27022 27025 27028 27031 27034 27037 27040 27043 27046 27049 27052 27055 27058 27061 27064 27067 27070 27073 27076 27079 27082 27085 27088 27091 27094 27097 27100 27103 27106 27109 27112 27115 27118 27121 27124 27127 27130 27133 27136 27139 27142 27145 27148 27151 27154 27157 27160 27163 27166 27169 27172 27175 27178 27181 27184 27187 27190 27193 27196 27199 27201 27204 27207 27210 27213 27216 27219 27222 27225 27228 27231 27234 27237 27240 27242 27245 27248 27251 27254 27257 27259 27262 27265 27268 27271 27274 27277 27280 27283 27286 27289 27292 27295 27298 27301 27304 27307 27310 27313 27315 27318 27321 27324 27327 27330 27333 27336 27339 27341 27344 27346 27348 27351 27354 27357 27359 27361 27364 27367 27370 27373 27376 27379 27382 27385 27387 27389 27392 27395 27398 27400 27403 27405 27407 27410 27413 27415 27418 27421 27424 27427 27430 27433 27435 27438 27441 27444 27447 27450 27453 27455 27458 27460 27463 27465 27468 27471 27474 27477 27479 27482 27485 27487 27490 27493 27496 27499 27502 27505 27507 27510 27513 27516 27519 27521 27523 27526 27529 27532 27534 27537 27540 27543 27546 27548 27551 27554 27557 27559 27562 27564 27567 27570 27573 27575 27578 27581 27584 27587 27589 27591 27594 27597 27600 27603 27606 27609 27612 27615 27618 27621 27624 27627 27630 27632 27635 27638 27641 27644 27647 27650 27653 27656 27659 27662 27664 27666 27669 27672 27675 27678 27680 27683 27686 27689 27692 27695 27697 27700 27703 27706 27709 27712 27715 27718 27720 27723 27726 27729 27731 27734 27737 27740 27743 27746 27748 27751 27754 27757 27759 27762 27765 27768 27771 27774 27777 27780 27783 27785 27788 27790 27793 27796 27799 27802 27805 27807 27810 27813 27816 27819 27822 27825 27828 27831 27833 27835 27838 27841 27843 27845 27848 27851 27854 27856 27858 27861 27864 27866 27869 27871 27873 27876 27878 27881 27884 27887 27889 27891 27894 27896 27899 27901 27904 27907 27910 27913 27916 27919 27922 27925 27928 27931 27934 27937 27940 27943 27945 27948 27951 27954 27957 27960 27963 27965 27967 27970 27972 27975 27978 27981 27983 27986 27989 27991 27994 27996 27999 28002 28005 28008 28011 28014 28017 28020 28023 28025 28028 28031 28034 28037 28040 28043 28046 28049 28052 28055 28058 28061 28064 28067 28070 28072 28075 28078 28081 28083 28086 28089 28092 28095 28098 28101 28104 28107 28109 28112 28115 28118 28121 28123 28126 28129 28132 28135 28138 28141 28144 28147 28150 28153 28155 28158 28161 28164 28166 28168 28171 28174 28177 28179 28182 28185 28188 28191 28194 28197 28200 28203 28206 28209 28212 28215 28218 28220 28223 28226 28229 28232 28235 28238 28241 28244 28247 28250 28252 28255 28258 28261 28264 28267 28269 28272 28275 28278 28281 28284 28287 28290 28293 28296 28299 28302 28305 28307 28310 28313 28316 28318 28321 28324 28326 28329 28332 28335 28338 28341 28344 28346 28348 28351 28354 28356 28359 28362 28365 28367 28370 28373 28376 28379 28382 28385 28388 28391 28394 28397 28399 28402 28404 28407 28410 28413 28416 28419 28422 28425 28428 28430 28433 28436 28439 28442 28445 28448 28451 28454 28457 28460 28463 28466 28469 28472 28474 28477 28480 28483 28485 28488 28490 28492 28495 28498 28501 28504 28507 28510 28513 28515 28518 28521 28524 28526 28529 28532 28535 28538 28541 28544 28547 28550 28553 28556 28559 28562 28565 28567 28569 28572 28575 28577 28580 28583 28586 28588 28591 28594 28596 28599 28602 28605 28608 28611 28613 28616 28619 28622 28625 28628 28631 28634 28637 28640 28643 28646 28648 28651 28653 28656 28659 28662 28665 28668 28671 28674 28677 28680 28683 28686 28688 28691 28693 28696 28698 28701 28703 28705 28708 28711 28714 28717 28719 28722 28725 28728 28731 28734 28737 28740 28743 28746 28749 28752 28754 28757 28760 28763 28766 28769 28772 28774 28776 28779 28782 28785 28787 28790 28793 28796 28799 28802 28805 28808 28811 28814 28817 28820 28823 28826 28829 28832 28835 28837 28840 28843 28846 28849 28852 28855 28858 28861 28864 28867 28870 28873 28876 28879 28882 28885 28888 28890 28893 28896 28899 28902 28905 28908 28911 28914 28917 28920 28923 28925 28928 28930 28933 28936 28939 28942 28945 28948 28951 28954 28957 28960 28963 28966 28968 28971 28974 28977 28979 28982 28984 28987 28990 28993 28995 28998 29001 29003 29006 29009 29012 29015 29017 29020 29023 29026 29029 29032 29035 29038 29041 29044 29047 29049 29052 29055 29058 29061 29064 29067 29070 29073 29076 29079 29081 29084 29087 29089 29092 29095 29098 29100 29103 29106 29109 29111 29114 29116 29118 29121 29124 29126 29129 29132 29135 29138 29141 29143 29146 29149 29151 29154 29157 29160 29162 29165 29168 29171 29174 29177 29180 29183 29186 29188 29191 29194 29197 29200 29203 29206 29209 29212 29215 29218 29221 29224 29227 29230 29233 29236 29239 29242 29245 29248 29251 29254 29257 29260 29263 29266 29269 29272 29275 29278 29280 29283 29286 29289 29291 29294 29297 29300 29302 29305 29308 29311 29314 29316 29319 29322 29325 29328 29331 29333 29336 29339 29342 29345 29348 29350 29353 29356 29359 29362 29365 29368 29371 29374 29377 29380 29383 29386 29389 29391 29394 29396 29399 29402 29404 29407 29410 29412 29415 29417 29419 29422 29425 29428 29431 29434 29436 29438 29441 29444 29447 29449 29452 29455 29458 29461 29464 29466 29468 29471 29474 29477 29480 29483 29486 29489 29491 29494 29497 29500 29503 29506 29509 29512 29515 29518 29521 29524 29527 29530 29533 29536 29539 29542 29545 29548 29551 29554 29557 29560 29563 29566 29569 29572 29575 29578 29581 29584 29587 29590 29593 29596 29598 29601 29604 29606 29609 29612 29615 29618 29621 29624 29627 29630 29633 29636 29639 29642 29645 29648 29651 29654 29657 29660 29663 29666 29669 29672 29675 29678 29681 29684 29687 29690 29693 29696 29699 29701 29704 29707 29710 29712 29715 29718 29721 29724 29727 29729 29732 29735 29737 29739 29742 29745 29748 29751 29754 29757 29760 29763 29765 29768 29771 29774 29777 29780 29783 29785 29788 29791 29794 29797 29800 29803 29806 29809 29812 29815 29818 29821 29824 29827 29830 29833 29835 29837 29840 29842 29845 29848 29851 29854 29857 29859 29862 29865 29868 29871 29874 29877 29880 29883 29886 29889 29892 29895 29898 29901 29904 29907 29910 29913 29916 29919 29922 29925 29928 29931 29934 29937 29940 29943 29946 29948 29950 29953 29956 29959 29962 29965 29968 29970 29973 29976 29979 29982 29985 29988 29991 29994 29997 30000 30003 30006 30009 30012 30015 30018 30021 30024 30027 30030 30033 30036 30039 30042 30045 30048 30051 30054 30057 30060 30063 30066 30069 30072 30075 30078 30081 30084 30087 30090 30093 30096 30099 30102 30105 30108 30111 30114 30117 30120 30123 30126 30129 30132 30135 30138 30141 30144 30147 30150 30153 30156 30159 30162 30165 30168 30171 30174 30177 30180 30183 30186 30189 30192 30195 30198 30201 30204 30207 30210 30213 30216 30219 30222 30225 30227 30230 30233 30236 30239 30242 30245 30248 30251 30254 30257 30260 30263 30266 30269 30272 30275 30278 30280 30283 30286 30289 30292 30295 30298 30300 30303 30306 30309 30311 30314 30317 30320 30323 30326 30329 30332 30335 30338 30341 30343 30346 30349 30352 30355 30358 30361 30364 30367 30370 30373 30376 30379 30382 30385 30388 30391 30394 30397 30400 30402 30404 30407 30410 30413 30416 30419 30422 30425 30428 30431 30434 30437 30440 30443 30446 30449 30452 30455 30458 30461 30464 30467 30470 30473 30476 30479 30482 30484 30487 30490 30492 30495 30498 30501 30504 30507 30510 30512 30515 30518 30521 30523 30526 30529 30532 30534 30537 30540 30543 30546 30549 30552 30554 30557 30560 30563 30565 30568 30571 30574 30577 30580 30583 30586 30589 30592 30595 30598 30601 30604 30607 30610 30613 30616 30619 30622 30625 30628 30631 30634 30637 30640 30643 30646 30649 30652 30654 30657 30660 30663 30666 30669 30671 30674 30677 30680 30682 30685 30688 30691 30693 30696 30699 30702 30705 30708 30711 30714 30716 30719 30722 30725 30728 30731 30734 30737 30740 30743 30746 30749 30752 30755 30758 30760 30763 30765 30768 30770 30773 30776 30779 30782 30784 30787 30790 30792 30795 30798 30801 30804 30807 30810 30813 30815 30818 30821 30824 30827 30830 30833 30835 30838 30841 30843 30846 30849 30852 30855 30857 30860 30863 30866 30869 30872 30875 30878 30881 30884 30887 30890 30893 30896 30899 30901 30904 30906 30909 30912 30914 30917 30920 30922 30925 30927 30930 30933 30936 30938 30941 30944 30947 30949 30952 30955 30958 30961 30963 30965 30968 30971 30974 30977 30979 30982 30984 30987 30990 30992 30995 30997 31000 31002 31005 31007 31010 31012 31015 31017 31020 31022 31024 31027 31029 31032 31034 31036 31039 31042 31045 31047 31049 31051 31054 31056 31059 31061 31063 31066 31069 31071 31073 31076 31079 31082 31084 31086 31088 31091 31094 31097 31100 31103 31106 31109 31112 31115 31118 31120 31123 31125 31127 31130 31133 31136 31139 31141 31144 31146 31148 31150 31152 31155 31158 31161 31163 31166 31169 31172 31175 31178 31181 31184 31187 31189 31192 31195 31198 31200 31203 31206 31208 31211 31213 31215 31218 31220 31223 31226 31229 31232 31234 31237 31239 31242 31244 31246 31249 31252 31255 31258 31260 31263 31266 31269 31272 31274 31277 31279 31282 31285 31288 31291 31293 31296 31298 31301 31304 31307 31310 31312 31315 31318 31321 31323 31326 31329 31332 31335 31337 31340 31343 31345 31348 31351 31353 31356 31359 31362 31364 31367 31370 31373 31376 31379 31382 31385 31388 31391 31394 31397 31399 31402 31405 31408 31411 31414 31417 31420 31423 31426 31429 31432 31434 31437 31440 31442 31445 31448 31451 31454 31456 31459 31462 31465 31468 31470 31473 31476 31479 31481 31484 31487 31490 31492 31495 31498 31501 31504 31507 31509 31512 31515 31518 31521 31524 31527 31529 31532 31534 31537 31539 31542 31545 31547 31550 31553 31555 31557 31559 31561 31564 31567 31570 31573 31576 31579 31582 31585 31588 31591 31593 31595 31598 31601 
</DataArray>
<DataArray type="UInt32" Name="types" format="ascii">
5 5 5 5 5 3 5 5 5 5 3 5 5 5 5 5 5 5 5 3 5 5 5 5 5 5 5 3 5 5 5 5 3 5 5 5 5 3 5 5 3 5 5 5 3 5 5 3 5 3 5 5 5 5 5 5 3 5 5 3 3 5 5 5 5 5 5 5 5 5 5 5 3 5 3 5 5 5 5 5 5 5 5 5 5 5 5 5 5 5 5 5 5 5 5 5 5 5 5 5 5 5 5 5 5 5 5 5 5 5 5 5 5 5 5 5 5 5 5 5 5 5 5 5 5 5 3 3 5 5 5 5 5 5 5 3 3 5 5 5 5 5 5 5 5 5 5 5 5 3 5 5 3 5 3 5 5 5 5 5 5 5 5 5 5 5 5 5 5 5 5 5 5 5 5 5 5 5 5 5 5 5 5 5 3 5 5 5 5 3 5 5 5 5 5 5 3 5 5 5 3 5 5 3 5 5 5 5 5 5 5 5 3 5 5 3 5 3 5 3 5 5 5 3 5 5 5 5 5 5 5 5 5 3 5 5 3 5 5 3 5 5 5 5 5 5 5 5 5 5 3 5 5 5 5 5 5 5 5 5 5 5 5 5 5 5 3 5 5 3 3 5 5 5 3 3 5 5 5 5 5 5 5 5 5 5 3 5 5 5 3 5 5 5 5 5 5 5 5 5 5 5 5 5 5 5 3 5 5 5 3 5 5 5 5 5 5 5 5 5 5 5 5 5 5 5 3 5 5 5 5 3 5 5 5 5 5 5 5 5 5 5 5 5 5 5 5 5 5 5 5 5 5 5 5 5 5 5 5 5 3 3 5 5 5 5 5 5 5 5 5 5 5 5 3 5 3 3 5 3 5 3 5 5 5 5 5 5 5 5 3 5 5 5 5 5 5 5 5 3 3 3 5 5 5 5 5 3 5 5 5 3 5 3 5 5 5 5 5 5 5 5 5 5 3 5 5 5 5 5 5 5 5 3 5 5 3 5 3 5 5 5 3 5 5 5 5 5 5 5 5 5 3 5 5 5 5 5 5 3 5 5 5 5 5 5 5 5 5 3 5 5 5 5 5 5 5 5 5 5 3 5 5 5 5 5 5 5 5 5 5 3 5 5 5 5 5 5 5 5 5 5 5 5 5 5 5 5 5 5 5 5 5 5 5 5 5 3 5 3 3 5 3 3 3 5 5 5 5 5 3 5 5 5 3 5 3 5 5 5 5 5 5 5 3 3 5 5 5 3 5 5 5 3 5 5 5 5 3 5 5 5 3 5 5 5 3 5 3 5 5 5 5 3 3 5 5 5 5 3 5 5 3 5 3 5 3 5 5 5 5 5 5 3 3 5 5 5 5 5 5 5 5 5 5 5 5 3 5 5 5 5 5 5 5 5 3 5 5 5 5 5 5 5 5 5 5 5 5 5 5 5 5 5 5 5 5 5 3 5 5 3 3 5 5 5 5 3 5 5 3 5 5 5 5 5 3 5 5 5 5 5 5 5 5 5 5 5 5 5 5 5 5 5 5 3 5 5 5 5 5 5 5 3 5 5 5 5 5 5 5 3 5 3 3 3 5 5 5 5 5 5 5 5 3 5 3 5 5 5 5 5 5 5 5 3 5 5 5 5 5 3 5 5 5 5 5 3 3 5 3 5 5 5 5 5 3 5 5 5 3 5 5 3 5 3 5 5 5 5 3 5 5 3 5 3 5 5 5 5 5 5 5 3 5 5 5 5 5 5 5 3 5 5 5 5 3 5 5 5 5 5 5 5 5 5 5 5 5 5 3 3 5 5 3 5 5 5 5 5 5 5 5 5 5 3 5 5 5 3 5 5 5 5 5 5 5 5 5 5 5 5 5 5 5 5 5 5 5 5 3 5 5 5 5 5 5 5 5 5 5 5 5 5 5 5 5 5 5 5 5 5 5 5 5 5 5 5 5 5 5 5 5 5 3 5 5 5 5 5 5 5 5 5 5 5 5 5 5 5 5 5 5 5 5 5 3 5 5 3 5 3 5 5 5 5 3 5 5 5 3 5 5 5 5 5 5 5 5 5 5 5 5 5 5 5 5 5 5 5 5 5 5 5 5 5 5 5 5 5 5 5 5 5 5 5 5 5 5 5 5 5 5 5 5 5 5 5 5 5 5 5 5 5 5 5 5 5 5 3 5 5 5 5 5 5 5 5 3 5 5 5 5 5 5 5 5 5 3 5 5 5 5 5 5 5 5 3 5 5 3 5 5 5 5 5 3 5 5 3 5 5 3 5 3 5 5 5 5 5 5 5 5 5 3 5 5 3 5 3 5 5 5 5 5 5 5 5 3 5 5 5 5 3 5 5 5 5 5 5 5 3 5 5 5 5 5 5 5 3 5 5 3 5 3 5 3 5 3 5 3 3 5 5 5 3 5 5 5 3 3 3 5 5 5 5 5 5 3 3 5 5 5 5 5 5 5 5 5 5 5 3 5 5 5 5 5 5 5 3 5 5 3 5 3 5 5 5 3 5 5 5 3 5 5 5 5 5 5 5 3 5 5 5 5 5 5 5 5 5 5 5 5 5 5 5 5 5 5 5 5 5 3 5 5 5 5 5 5 5 3 5 5 5 5 3 3 3 5 5 5 5 3 5 5 5 5 5 5 5 5 5 5 5 5 5 5 5 5 5 5 5 5 5 5 5 3 5 5 3 5 5 5 5 5 5 5 5 5 5 5 5 5 5 5 5 5 5 5 5 5 3 3 5 5 5 5 5 5 5 3 5 5 5 3 5 5 5 5 5 5 5 5 5 5 5 3 5 5 5 5 5 5 5 5 5 3 5 5 5 5 5 5 5 5 3 5 5 5 5 5 5 5 5 5 5 5 5 5 5 5 5 5 5 5 5 5 5 3 5 5 5 5 3 5 5 5 5 5 5 5 5 3 5 5 5 5 5 5 5 5 5 5 5 5 3 5 5 5 3 5 5 5 5 5 5 5 5 5 5 3 5 5 5 5 5 5 5 5 3 5 5 5 5 5 5 5 5 5 5 5 5 5 5 5 3 5 3 5 3 5 5 3 5 5 5 5 5 5 5 5 5 5 5 5 5 5 5 5 5 5 5 5 5 5 5 3 5 5 5 3 5 5 5 5 5 3 5 5 5 3 5 5 5 5 3 5 5 5 5 5 5 5 3 3 3 5 3 5 5 3 5 5 5 5 5 5 5 5 3 5 5 5 5 3 5 5 5 5 5 5 3 5 5 5 5 3 5 5 5 5 5 3 5 5 5 5 5 3 5 5 5 5 3 3 5 5 5 3 5 3 5 3 5 5 5 5 5 3 5 3 5 5 5 5 5 3 5 3 5 5 5 5 5 5 5 5 5 5 5 5 5 5 5 5 3 5 3 5 5 5 5 5 5 5 5 5 5 5 5 5 5 5 5 5 5 5 3 3 5 5 3 5 5 5 5 3 5 5 3 5 5 5 3 5 5 5 3 5 3 5 5 5 3 5 5 5 5 5 5 5 5 3 5 5 5 5 5 3 3 5 5 3 5 5 5 3 5 5 5 5 3 5 5 5 5 5 5 5 5 3 5 5 5 5 5 5 5 3 5 5 5 5 5 5 5 5 5 5 5 5 5 5 5 5 5 5 5 5 5 5 5 5 5 5 5 3 5 5 5 5 5 5 5 5 5 5 5 5 5 5 5 5 5 5 5 5 5 5 3 5 5 5 5 5 5 5 5 5 5 5 5 5 5 5 5 5 5 5 5 5 5 5 5 5 5 5 5 5 5 5 5 5 5 5 5 5 5 5 5 3 5 5 5 5 5 5 5 5 5 5 5 5 3 3 5 5 5 5 5 5 5 3 5 5 5 5 5 5 5 5 5 5 5 3 5 5 3 5 5 5 5 5 5 5 5 3 5 5 5 5 5 5 5 5 5 5 5 5 3 5 5 5 5 5 5 5 5 3 5 5 5 5 5 3 5 5 5 5 5 3 3 5 5 5 5 3 5 3 5 3 5 5 5 3 5 3 3 5 5 5 5 5 5 5 5 5 5 3 5 5 3 3 5 5 3 3 3 5 5 5 5 5 5 5 3 5 5 5 5 5 5 3 5 5 5 5 5 5 5 5 5 5 3 3 5 5 5 5 5 5 5 5 5 5 3 3 5 5 5 5 5 5 5 5 5 3 5 5 5 5 5 3 5 5 5 3 5 5 5 5 5 5 5 3 5 5 5 5 5 5 5 3 5 5 5 3 5 5 5 5 5 5 5 5 5 3 5 5 5 5 5 5 3 5 5 5 5 3 5 5 5 5 3 3 5 5 5 5 3 5 5 5 3 5 3 5 5 5 3 5 5 5 5 3 5 5 5 5 3 3 5 3 5 5 5 5 5 5 5 5 5 5 5 5 5 5 5 5 5 5 5 5 5 5 5 5 3 3 5 5 5 5 5 5 5 5 5 5 5 5 5 5 5 5 5 5 5 3 5 5 3 5 5 3 5 3 5 5 3 5 5 5 5 5 3 3 5 5 5 5 5 3 3 5 3 3 5 5 5 3 3 5 5 5 5 5 5 5 5 5 3 5 3 5 5 5 3 5 5 5 5 5 3 5 5 5 3 3 5 5 3 5 3 5 5 3 5 5 5 3 5 3 5 5 5 5 3 5 5 5 5 3 5 5 5 5 3 3 5 5 3 5 5 5 5 5 5 3 5 5 3 5 5 5 3 5 5 5 3 3 5 5 5 5 5 5 3 5 5 5 5 3 5 5 5 5 5 5 3 5 3 3 5 5 3 5 5 5 5 5 5 5 5 5 3 5 5 3 5 5 5 3 5 3 5 5 5 5 5 5 5 3 3 5 5 5 3 5 5 5 5 5 5 5 5 5 3 5 5 5 5 5 5 5 5 3 5 5 5 5 5 5 5 5 5 5 5 5 5 5 3 5 5 5 3 5 5 5 5 3 5 5 3 5 5 5 5 5 5 5 5 5 5 5 5 5 5 5 5 3 5 5 5 5 5 5 5 5 5 5 5 5 5 5 5 5 5 5 3 5 5 5 3 5 5 5 5 5 5 3 3 3 5 5 5 5 5 5 5 5 5 5 5 5 5 3 5 5 5 5 5 3 5 5 5 5 5 3 5 5 5 5 5 3 5 5 5 5 5 3 5 5 5 5 5 5 3 5 3 5 5 5 5 3 5 3 5 5 5 5 5 5 3 5 3 5 5 5 3 5 3 5 5 3 5 5 5 5 5 5 5 5 5 5 3 3 5 3 5 5 3 5 3 5 5 5 3 5 3 5 5 3 5 3 3 5 5 5 3 5 3 5 5 5 5 3 3 5 5 5 3 5 5 5 5 5 3 5 3 5 5 5 5 5 5 3 5 5 5 5 3 5 5 5 5 5 5 5 5 5 5 5 5 5 5 3 5 5 5 5 5 5 5 5 5 3 5 5 5 5 5 3 5 5 5 5 5 3 5 5 3 5 5 5 5 5 5 3 5 5 5 5 3 5 5 5 5 5 5 3 5 3 5 5 3 5 5 3 5 5 5 5 3 5 5 5 5 5 5 5 5 5 5 5 3 5 5 5 5 5 5 5 3 5 5 5 3 3 5 5 5 3 5 5 3 3 5 5 5 5 3 3 5 5 3 5 3 5 5 5 5 3 5 3 5 5 5 5 5 5 5 5 5 5 3 5 5 5 5 5 5 3 5 5 5 3 5 5 5 5 5 3 5 5 5 5 3 5 5 5 5 3 5 5 5 3 5 5 5 5 5 5 5 5 3 5 5 3 5 5 3 5 3 5 5 5 5 5 5 5 5 5 5 5 5 5 3 5 5 3 5 3 5 5 5 5 5 5 5 5 5 5 5 5 5 3 5 5 5 5 5 5 5 5 5 5 5 5 5 5 5 3 5 5 5 3 3 5 5 3 5 5 3 5 5 5 5 5 5 5 5 5 3 5 5 5 5 5 5 5 5 5 5 5 5 5 5 5 3 5 5 3 5 5 5 5 3 5 3 3 3 5 5 5 3 5 5 5 5 3 5 5 3 5 3 5 3 3 5 5 5 5 5 5 5 5 5 5 5 5 5 5 5 5 5 5 5 5 5 5 3 5 5 5 5 3 5 5 5 5 5 5 5 5 5 5 5 5 3 5 5 5 5 5 5 5 5 5 5 3 5 5 5 5 5 5 5 5 5 5 5 5 5 3 5 5 3 5 5 5 5 5 5 5 3 3 5 5 3 5 5 5 5 3 5 5 3 5 5 5 5 5 5 5 5 5 5 5 5 5 5 3 5 5 5 5 5 5 5 5 3 5 5 5 5 5 5 5 5 5 5 5 5 5 5 5 5 3 5 5 3 3 5 5 5 3 5 5 5 3 5 5 3 5 5 3 3 5 5 5 5 3 5 5 5 3 5 5 5 5 3 5 5 5 5 3 5 3 5 3 5 5 5 5 5 5 3 5 5 5 3 5 5 5 3 5 5 3 5 3 5 5 5 3 5 3 3 5 5 5 5 3 5 5 5 3 5 5 5 5 5 5 5 5 5 5 5 5 5 5 5 5 5 5 3 5 5 5 5 5 5 5 3 5 3 3 3 5 5 5 5 3 3 3 5 5 5 5 5 5 5 5 5 5 5 5 5 5 3 5 5 5 3 5 5 3 5 5 5 5 5 5 3 5 5 5 5 5 5 5 5 3 3 5 5 5 5 5 3 3 5 3 3 5 5 3 5 3 5 5 5 5 5 5 5 5 5 5 3 3 5 5 5 5 5 5 5 5 5 3 3 5 5 5 3 5 5 5 5 5 5 5 5 5 5 5 5 5 5 5 5 5 5 5 5 5 5 5 5 5 5 5 3 5 5 5 3 5 3 5 5 5 5 5 3 5 3 5 5 5 5 5 3 5 3 3 3 5 5 5 5 5 5 5 5 5 5 5 5 5 5 3 5 5 5 5 3 5 5 5 5 5 5 5 5 5 5 5 3 5 5 5 5 5 5 5 5 5 5 5 5 5 5 5 5 5 5 5 5 5 5 5 5 5 5 5 5 5 5 5 5 5 5 5 3 5 5 5 5 5 5 5 5 5 5 5 5 5 5 5 5 3 5 5 5 3 5 5 5 5 5 5 3 5 5 5 5 5 5 5 5 3 5 5 5 5 5 5 5 5 5 5 5 5 5 3 5 5 5 5 5 5 5 5 5 5 3 5 5 5 3 5 5 3 5 5 5 5 5 5 5 5 5 5 5 3 5 5 5 5 5 3 5 5 5 5 5 3 3 5 3 3 5 5 5 5 5 5 5 5 5 5 5 5 3 5 5 5 5 5 3 5 5 5 5 5 5 5 3 3 5 5 3 5 5 3 5 3 5 3 5 5 5 5 5 5 3 3 5 5 3 5 5 5 3 5 5 5 5 5 5 5 5 5 3 5 5 5 3 5 5 3 5 5 5 3 5 5 5 5 5 5 5 5 3 5 5 5 5 5 5 5 5 5 5 5 5 5 5 5 5 5 5 5 5 3 5 5 5 5 3 5 5 5 5 5 5 5 5 5 5 5 5 5 5 5 3 5 5 5 5 5 5 5 5 5 5 5 5 5 5 3 5 5 5 5 5 3 5 3 3 5 5 5 3 5 5 5 5 5 5 5 5 5 5 5 5 5 5 3 5 5 5 5 5 5 5 5 5 5 5 5 5 5 5 5 5 5 3 5 5 5 5 5 5 3 5 5 5 5 5 5 3 5 5 5 5 5 5 5 5 5 5 5 5 5 5 5 5 5 5 5 5 5 5 5 5 5 5 5 5 5 5 5 5 5 5 5 5 5 5 5 5 5 5 5 5 5 5 5 5 5 3 5 5 5 5 5 5 5 5 5 5 5 5 5 5 5 5 5 5 3 5 5 3 5 5 3 5 5 3 5 5 5 5 5 5 5 5 5 5 5 5 5 5 5 5 5 5 5 5 5 5 5 5 5 5 5 5 5 5 5 5 5 5 5 5 3 5 5 5 5 5 5 5 5 5 5 5 5 5 5 3 5 5 5 5 5 5 5 5 5 5 5 5 5 5 5 5 5 5 5 5 5 5 5 5 5 3 5 5 5 5 5 5 3 5 5 5 5 5 5 5 5 3 5 3 5 5 5 5 5 5 5 5 3 5 3 5 5 5 5 3 3 5 5 5 5 3 5 5 5 5 3 5 3 5 5 5 5 3 5 3 5 5 5 5 3 5 5 5 5 5 3 5 3 3 5 5 3 5 5 5 5 3 5 5 3 5 3 5 5 5 5 5 5 5 5 5 5 5 5 5 5 5 5 5 5 5 5 5 3 5 5 5 5 5 5 5 5 5 5 5 5 5 5 5 3 5 5 3 5 5 5 5 5 5 5 5 5 5 5 5 5 3 5 5 5 5 5 5 5 5 5 5 5 5 5 5 5 5 5 3 5 5 5 5 5 5 5 5 5 5 5 5 5 3 5 5 3 5 5 5 5 5 5 5 5 3 5 5 5 5 5 3 5 5 3 5 3 5 5 5 5 5 5 5 5 5 3 5 5 3 5 5 5 3 3 5 5 5 5 3 5 5 5 3 5 5 5 5 5 5 5 5 5 5 5 5 5 5 5 5 5 5 3 5 5 5 5 5 5 5 3 5 5 5 5 5 5 5 5 5 5 3 5 5 5 5 5 5 5 5 5 5 5 5 3 5 5 5 5 5 3 5 5 5 3 5 5 5 5 5 5 5 5 5 3 5 5 5 5 3 5 5 3 5 5 5 5 5 5 5 5 5 3 5 3 5 5 5 5 5 5 5 5 5 5 3 5 3 5 5 5 5 5 5 5 3 5 5 5 5 3 5 5 5 5 5 5 5 5 5 5 5 3 5 5 5 5 5 5 5 3 5 5 3 3 5 5 3 5 5 3 5 5 5 5 5 5 5 5 5 5 5 5 5 5 3 5 5 5 5 5 3 3 3 5 5 5 5 5 5 3 5 5 5 3 5 5 3 5 5 5 5 5 5 5 5 5 5 5 5 5 5 5 5 5 5 5 5 5 5 5 5 5 5 5 5 5 5 5 5 5 5 3 5 5 5 5 5 5 5 5 5 5 5 5 5 5 5 5 5 5 5 5 5 5 5 5 5 5 5 5 5 5 5 5 3 5 5 5 5 5 5 5 5 5 5 3 5 5 5 3 5 5 3 5 5 5 5 5 5 5 5 5 5 5 5 5 5 3 5 5 5 5 5 5 5 5 3 5 5 5 5 5 3 5 5 5 5 5 5 5 5 3 5 5 5 5 5 5 5 3 5 5 5 5 5 5 5 5 5 5 5 5 5 3 5 5 5 5 5 5 5 5 5 5 5 5 5 5 5 5 5 5 5 5 5 5 5 5 5 5 5 5 5 5 5 5 5 5 5 5 5 5 5 5 5 5 5 5 5 5 5 5 5 5 5 5 5 5 5 5 5 3 5 5 5 5 5 5 5 3 5 5 5 5 5 3 3 5 5 5 5 5 5 5 5 5 5 5 5 5 5 5 5 5 5 3 3 5 3 5 5 5 3 5 5 5 5 5 3 3 5 5 5 3 5 3 5 5 3 5 3 5 5 5 3 5 5 3 3 5 3 5 5 3 5 5 5 5 3 5 3 5 5 5 5 5 3 5 5 5 5 5 5 5 5 5 5 5 3 5 3 5 3 5 5 5 5 5 5 5 5 5 5 5 5 5 5 5 5 5 5 5 5 5 5 3 3 5 5 5 3 5 5 3 5 5 3 5 5 5 5 5 5 5 5 5 5 5 5 5 5 3 5 5 5 5 5 5 5 5 5 5 5 5 5 5 5 5 5 5 5 5 5 5 5 5 5 5 5 5 5 5 5 5 5 5 5 5 5 5 5 5 5 5 3 5 5 3 5 5 5 5 5 5 3 5 3 5 5 5 3 5 3 5 5 5 5 5 5 5 5 3 3 5 5 5 5 5 5 3 5 3 5 5 3 5 3 5 5 5 5 3 3 5 5 5 5 5 5 3 5 5 5 5 5 5 5 5 3 5 5 5 5 5 5 5 5 5 5 5 5 5 3 5 5 5 3 5 5 5 5 3 3 5 5 5 5 3 5 3 5 5 3 5 5 3 5 3 5 5 5 5 3 5 5 5 3 5 5 5 5 5 5 5 3 5 5 5 5 5 5 5 5 3 5 5 3 3 5 5 5 5 3 5 5 5 5 5 5 5 5 5 5 5 5 3 5 5 5 5 5 5 5 5 5 5 5 5 5 5 5 5 5 5 5 5 5 5 5 5 5 5 5 5 5 5 5 5 5 5 5 3 5 5 5 3 5 3 5 5 5 5 5 5 5 5 5 5 5 5 5 5 5 5 5 3 5 5 5 5 5 5 3 5 5 5 5 5 3 5 5 5 5 3 5 5 5 5 5 5 5 3 5 5 5 5 3 5 3 5 5 5 3 5 5 3 5 5 5 3 3 3 5 5 5 5 5 5 3 5 5 5 5 5 5 5 5 3 5 5 5 5 5 3 5 5 3 5 3 5 5 5 5 5 5 3 5 5 5 5 5 5 5 3 5 5 3 5 5 3 5 5 5 5 5 5 5 5 5 5 5 5 5 5 5 5 5 5 5 5 5 5 5 5 5 5 5 5 5 5 5 5 5 3 5 5 5 5 3 5 5 5 5 5 5 3 5 5 5 5 3 5 5 5 5 5 5 3 5 5 5 3 5 5 5 5 5 5 5 5 5 5 5 5 5 3 5 5 5 5 5 5 5 5 5 5 5 5 5 5 3 5 5 5 3 5 5 5 5 5 3 3 5 5 5 5 5 5 5 5 3 5 5 3 5 5 3 5 5 5 5 3 5 5 5 3 3 5 5 5 5 5 5 3 5 3 5 5 5 5 5 5 5 5 5 5 5 5 5 3 5 5 5 5 5 5 5 5 3 5 3 5 5 5 5 3 5 3 5 5 5 5 5 5 5 3 5 3 5 5 3 5 5 5 5 3 5 5 5 5 5 5 5 5 5 5 5 5 5 5 5 5 5 5 5 5 5 5 5 5 5 5 5 5 5 5 5 5 5 5 5 5 5 5 5 5 5 5 5 5 5 5 3 5 5 5 5 5 5 5 5 5 5 5 5 5 5 5 5 3 5 5 3 5 5 3 3 5 5 5 3 5 5 5 5 5 5 5 5 5 5 5 5 5 5 3 3 5 3 3 5 3 3 5 5 5 5 5 5 5 3 5 5 5 3 5 5 5 3 3 5 5 3 5 3 3 5 5 3 3 5 5 3 5 5 5 5 5 5 5 5 3 5 5 3 5 3 5 3 5 5 5 5 5 5 5 5 5 5 5 5 3 5 5 5 5 5 5 5 5 5 5 5 3 5 5 5 5 5 5 5 3 3 5 5 3 5 5 5 5 5 3 5 5 5 5 5 5 5 5 5 5 5 5 5 5 5 5 5 5 5 3 5 5 5 5 5 5 5 5 5 5 3 5 5 5 5 5 5 5 5 5 5 5 5 5 3 5 5 5 5 3 3 5 5 5 5 5 5 5 5 5 5 5 5 5 3 5 5 5 3 5 5 5 5 5 5 5 5 5 5 5 5 5 5 5 5 5 5 5 5 5 5 5 5 5 5 5 5 5 5 5 5 5 5 3 5 5 3 5 5 5 5 5 5 5 5 5 5 5 5 5 5 5 5 5 5 5 5 5 5 3 5 5 5 5 5 5 5 5 5 5 5 5 5 5 5 5 5 3 5 5 5 5 5 5 5 5 5 3 5 5 5 5 5 5 5 5 5 5 3 5 5 5 3 5 3 5 5 5 5 3 5 5 5 5 5 5 5 5 3 5 5 5 5 5 5 3 5 5 5 5 5 5 5 3 5 5 5 5 3 5 5 5 5 5 5 3 5 5 5 3 5 5 3 5 5 3 5 5 5 5 5 5 5 5 5 5 5 5 3 5 5 5 5 5 3 5 5 5 5 5 5 5 5 5 5 5 5 5 5 5 5 5 5 5 5 5 5 5 5 5 5 3 5 5 5 5 3 5 5 5 5 5 5 5 5 5 5 5 5 5 5 5 5 5 5 5 5 5 5 5 5 5 5 5 5 5 5 5 5 5 5 5 5 5 5 5 5 5 5 5 5 5 5 5 5 5 5 5 5 5 5 5 5 5 5 5 5 5 5 5 5 5 5 5 5 5 5 5 5 3 5 5 5 5 5 5 5 5 5 5 5 5 5 5 5 5 5 5 5 5 5 5 5 5 5 5 5 5 5 5 5 5 5 5 5 5 5 5 5 5 5 5 5 5 5 5 5 5 5 5 5 5 5 5 5 5 5 5 5 5 3 5 3 5 5 5 3 5 5 3 5 5 5 5 5 5 5 5 5 5 5 5 3 5 5 5 5 5 5 5 5 5 5 5 5 5 5 3 5 5 5 5 5 5 5 5 5 5 5 5 5 5 5 5 5 5 5 5 5 5 5 5 5 5 3 5 5 5 5 5 5 5 5 5 5 5 5 5 5 5 5 5 5 5 5 5 5 5 5 5 5 5 5 5 5 5 5 5 5 5 5 5 5 5 5 5 5 3 5 5 5 3 5 5 5 5 5 3 5 5 5 3 5 5 5 5 5 5 5 5 5 5 5 5 5 5 5 5 3 5 5 5 5 5 5 5 5 5 5 5 5 5 5 5 5 5 3 5 5 5 5 5 5 5 3 5 3 5 5 5 5 5 5 5 5 5 5 5 5 5 5 5 5 5 5 5 5 5 5 5 5 5 5 3 3 5 5 5 5 5 5 5 3 5 5 5 5 5 5 5 5 5 5 5 5 3 5 5 5 5 5 5 5 5 5 5 5 3 5 3 5 5 5 5 3 3 5 5 5 5 5 5 5 5 3 5 5 5 3 5 3 5 5 5 5 5 5 5 5 5 5 5 5 3 5 5 5 3 5 5 3 3 5 5 3 5 5 5 5 5 5 5 5 5 5 5 5 3 5 5 5 5 3 5 5 3 3 5 5 5 5 5 5 5 5 5 5 5 5 3 5 5 3 5 5 5 5 3 5 5 3 5 5 3 3 5 3 5 5 5 5 5 5 5 3 5 5 5 5 5 5 5 5 5 5 5 5 3 5 3 5 5 5 5 5 5 5 5 5 5 3 5 5 5 5 5 5 3 5 5 5 5 5 5 5 5 5 3 3 5 5 5 5 5 5 5 3 5 5 5 3 5 3 5 5 5 5 5 5 5 5 5 5 5 5 3 5 5 3 5 5 5 5 5 3 5 5 5 5 5 3 5 5 5 5 3 5 5 3 5 5 5 3 5 3 5 5 5 3 5 5 5 5 5 5 5 5 5 3 5 5 3 3 5 5 5 5 3 5 5 5 5 5 5 5 5 3 5 5 5 5 5 3 5 5 5 5 3 5 5 5 5 5 5 5 5 5 5 3 5 5 5 5 5 5 5 5 5 5 5 5 5 5 5 5 5 3 5 5 5 5 5 5 5 3 5 5 5 5 5 5 5 5 5 5 5 5 5 5 5 5 3 5 5 5 5 3 5 3 5 5 5 5 5 5 5 5 5 5 5 5 3 5 5 5 3 5 5 3 5 5 5 5 5 5 3 5 5 3 5 5 5 3 5 5 5 5 5 5 5 5 5 3 5 5 5 5 5 5 5 5 3 5 5 5 5 5 5 5 3 5 5 5 5 5 5 5 5 5 5 5 5 5 5 5 5 5 5 5 5 5 5 5 5 3 5 5 5 5 5 5 5 5 5 5 5 5 5 5 5 5 5 3 5 5 5 5 3 5 5 5 5 5 3 5 5 5 5 3 5 5 3 5 5 3 3 5 5 5 5 3 5 5 5 3 5 3 5 3 5 3 5 5 3 3 5 3 5 3 5 5 5 5 3 5 5 5 5 5 5 5 5 5 5 5 5 5 5 5 5 5 5 5 5 5 3 5 5 5 5 3 5 5 3 5 5 5 5 5 5 5 5 5 5 5 3 5 5 5 3 5 5 5 5 5 3 5 5 5 5 5 3 5 5 5 5 3 5 5 3 5 5 5 5 5 5 5 3 5 5 3 5 3 5 5 3 5 5 5 5 5 5 5 5 5 5 5 5 3 5 3 5 5 5 3 5 3 5 3 5 5 3 5 5 5 5 5 3 5 5 5 5 5 5 5 5 5 5 5 5 5 3 5 5 5 5 5 5 5 5 5 5 5 3 5 5 5 5 5 5 5 5 5 3 5 5 5 5 5 5 5 5 5 5 5 5 5 5 5 5 5 5 5 5 5 5 5 5 5 5 5 5 5 5 5 5 3 5 5 5 5 5 5 5 5 5 5 5 3 5 5 5 5 3 5 5 3 5 5 5 5 5 5 5 5 3 5 5 3 5 5 5 3 5 5 5 5 5 5 5 5 5 5 5 5 5 3 5 5 3 5 3 5 5 5 5 5 3 5 5 5 5 3 5 5 3 5 5 5 5 5 5 5 5 5 5 5 5 3 5 5 3 5 5 5 5 5 5 5 5 5 5 3 3 5 5 5 5 5 3 5 5 5 5 5 5 5 5 5 5 5 5 5 5 5 5 5 5 3 5 5 3 5 5 5 5 3 5 5 3 3 5 5 5 5 5 5 5 3 5 5 5 5 5 5 5 5 5 5 5 5 5 5 5 5 5 5 5 5 5 5 5 5 5 5 5 5 5 5 5 5 5 3 5 5 5 5 5 5 5 5 3 3 5 5 5 3 5 5 5 5 5 5 5 5 5 5 5 3 5 5 5 5 5 5 5 5 5 3 5 5 5 5 5 3 5 5 5 5 5 5 5 5 5 5 5 5 5 5 5 5 5 5 5 5 5 5 5 5 5 5 5 5 5 5 5 5 5 5 3 5 5 3 5 5 5 5 5 5 5 5 5 5 5 5 5 5 5 5 5 5 5 5 3 5 5 5 5 5 5 5 5 5 5 5 5 3 5 5 5 5 5 5 5 5 5 5 3 3 5 5 5 5 5 5 5 5 5 3 5 5 5 5 5 5 5 3 3 5 5 5 5 5 3 5 3 5 5 5 5 3 5 5 3 5 5 3 5 5 5 5 5 5 5 5 5 5 5 5 3 5 5 5 5 5 5 5 5 5 5 3 5 3 5 5 5 5 3 5 5 5 5 3 5 5 5 3 5 5 5 5 3 5 5 5 3 5 5 5 3 5 5 5 3 5 5 3 5 5 3 5 5 5 5 5 5 5 5 5 3 5 5 5 5 5 5 5 3 5 5 5 5 5 5 5 5 5 3 5 5 5 5 5 3 5 5 5 5 5 3 5 3 5 5 5 3 5 5 5 3 5 5 5 5 3 5 5 5 5 5 5 3 5 5 3 5 5 3 5 5 5 5 5 5 5 5 3 5 5 5 5 5 3 5 5 5 5 5 5 5 5 5 3 5 5 5 5 5 5 5 5 5 5 5 5 3 5 5 5 5 5 5 5 5 5 5 5 3 5 5 5 5 5 5 5 5 5 5 3 5 5 5 5 5 3 5 5 5 5 5 5 5 5 5 5 3 5 5 5 5 5 5 5 5 5 5 5 5 3 5 5 5 3 5 5 5 5 5 5 5 5 5 5 5 5 5 3 5 5 5 5 3 5 3 5 5 5 5 5 5 3 5 3 5 5 3 5 5 5 5 3 3 5 5 3 5 5 5 5 5 3 5 5 5 5 5 3 5 3 5 5 5 3 5 3 5 5 5 5 3 5 3 3 5 5 5 5 5 5 3 5 5 5 5 5 5 5 5 5 3 5 5 5 5 5 5 5 3 5 5 3 5 5 5 5 5 5 5 3 5 5 5 5 5 5 5 3 5 5 5 5 5 5 5 5 5 3 5 5 5 3 5 5 5 5 5 5 3 3 5 3 5 3 5 3 5 5 5 5 5 5 5 3 5 5 5 3 5 5 5 5 5 5 5 5 5 5 5 5 5 5 5 5 5 3 3 3 5 5 3 5 3 5 5 3 5 5 5 5 5 3 5 5 5 5 5 5 5 5 5 5 5 5 5 5 5 3 5 5 5 3 5 5 5 5 5 5 5 5 5 5 5 5 5 5 5 5 5 5 5 5 5 5 5 5 5 3 5 5 5 5 5 5 5 5 5 5 5 5 5 5 3 5 5 5 5 5 5 5 5 5 5 5 5 5 3 5 5 5 5 5 3 5 5 5 5 5 5 5 5 5 3 3 5 5 5 5 5 3 5 5 5 5 5 5 5 5 5 5 5 5 5 5 5 5 5 5 5 5 5 5 5 5 5 5 5 5 3 3 5 5 5 5 5 5 5 5 5 5 5 5 5 5 5 5 5 5 5 5 5 5 5 5 5 5 5 5 5 5 5 5 5 5 5 5 5 5 5 5 5 5 5 5 5 5 5 5 5 5 5 5 5 3 5 5 5 5 5 5 3 5 5 5 5 5 5 5 5 5 5 5 5 5 5 5 5 5 5 3 5 3 5 5 5 3 5 5 5 5 5 5 3 5 5 5 3 5 5 5 5 3 5 5 3 3 5 5 5 5 5 3 5 5 5 5 5 3 3 5 3 5 5 5 5 5 5 5 5 5 3 5 5 3 5 5 3 3 5 5 5 5 5 5 5 5 5 5 5 5 5 5 3 5 5 5 3 5 5 5 5 3 5 5 5 3 5 5 3 5 5 3 5 3 5 5 5 3 5 5 5 5 3 5 5 5 5 3 5 3 5 5 5 5 5 3 5 5 5 5 5 5 3 5 5 5 3 5 5 5 5 5 5 5 5 5 5 5 5 5 5 5 5 5 3 5 5 5 5 5 5 5 5 5 3 5 5 5 5 5 5 5 5 5 5 5 5 5 5 5 5 3 5 5 5 5 5 5 3 5 5 5 5 5 5 3 5 5 5 5 5 3 5 5 5 5 5 5 5 5 5 5 5 5 3 5 5 5 5 5 5 3 5 5 5 5 5 5 5 5 5 5 5 5 5 5 3 5 5 5 5 5 5 5 5 5 5 5 5 5 5 5 5 5 5 3 5 5 3 5 5 5 5 5 5 5 3 5 5 5 5 5 5 5 5 5 5 5 5 3 5 3 5 5 5 5 5 5 5 5 5 5 5 5 5 3 5 5 3 5 5 5 5 5 5 5 5 5 5 5 5 3 5 5 3 3 5 5 5 5 5 5 5 5 5 5 5 5 5 5 3 5 5 5 5 5 3 5 3 5 5 5 5 5 5 3 5 5 5 3 5 5 5 5 5 5 5 3 5 5 5 5 5 3 5 5 5 5 5 5 5 5 5 5 5 5 5 5 5 5 5 5 5 3 5 5 5 5 5 3 5 5 5 5 3 5 3 5 5 5 5 5 5 5 5 5 5 5 3 5 5 5 5 3 5 5 5 3 5 5 5 5 5 5 5 5 5 5 5 5 3 5 5 5 5 3 5 5 5 5 5 5 5 5 5 5 5 5 3 5 5 5 5 5 5 5 5 5 5 5 5 5 5 5 5 3 5 5 5 5 3 5 5 5 5 5 5 5 5 5 5 5 5 5 5 5 5 5 5 5 3 5 5 5 3 5 5 5 5 3 5 5 5 5 5 3 3 5 5 5 5 5 5 5 5 5 5 5 5 5 5 5 5 5 5 5 5 5 5 5 5 5 5 5 5 5 5 5 5 5 5 5 5 5 5 5 5 5 5 5 3 5 5 3 5 5 5 5 5 5 5 5 5 5 5 5 3 5 5 5 5 5 5 5 5 5 5 5 5 5 5 5 5 3 5 5 5 5 3 5 5 3 5 5 5 5 3 5 5 3 5 5 5 5 5 5 5 5 3 5 5 5 5 5 5 5 5 5 5 3 5 5 5 5 5 5 5 5 5 3 5 5 5 5 5 5 5 5 5 5 5 5 3 5 5 5 5 5 5 5 5 3 3 5 5 5 3 5 5 5 5 3 3 5 5 5 5 5 5 5 5 5 5 5 5 5 5 5 5 5 3 5 5 5 5 5 5 5 5 5 5 5 5 5 5 5 5 5 5 5 5 5 5 5 5 5 5 5 3 5 5 5 5 5 5 5 5 5 5 5 5 5 3 5 5 5 5 5 5 5 5 5 5 5 5 5 5 5 5 5 5 5 5 5 5 5 5 5 5 5 5 5 5 5 5 5 5 5 5 5 5 5 5 5 5 5 5 5 5 5 5 5 5 5 5 5 3 3 3 5 5 5 5 5 5 3 3 5 5 5 5 5 5 5 3 3 5 5 5 3 5 3 5 5 3 5 3 5 5 3 3 5 5 3 5 3 5 3 5 5 5 5 3 5 5 5 5 5 5 5 5 5 5 5 5 5 5 5 5 5 3 5 5 5 5 5 5 5 5 5 5 5 5 3 5 5 5 3 5 5 3 5 3 5 5 5 5 5 5 5 5 5 5 5 5 5 5 5 5 3 5 5 5 5 5 5 5 5 5 5 5 3 3 5 5 3 5 5 5 5 5 5 5 5 3 5 3 5 5 5 5 5 3 5 5 5 3 5 5 5 5 5 5 5 5 3 5 5 3 3 5 3 5 5 5 5 3 5 5 5 5 3 5 5 3 5 5 5 5 5 5 5 5 5 5 5 3 5 3 5 5 5 5 5 5 3 5 5 5 5 5 5 5 5 5 5 5 5 5 5 5 5 5 5 5 5 5 5 5 5 5 5 5 5 5 5 5 5 5 5 5 5 5 5 3 5 5 5 5 5 3 5 5 5 5 3 5 5 5 5 5 5 5 5 5 5 5 5 5 5 5 3 5 5 5 5 5 5 5 5 5 3 5 5 5 5 5 5 5 5 5 5 5 3 5 3 5 5 3 5 5 5 5 5 5 5 5 5 3 5 5 5 3 5 3 5 5 5 5 5 3 5 5 5 3 5 5 5 5 5 5 5 5 5 5 5 5 3 5 5 5 5 5 3 5 5 3 5 5 5 5 5 5 5 5 5 5 5 5 3 5 5 5 3 5 3 3 5 3 3 5 3 5 5 3 3 5 3 5 5 3 5 3 5 5 5 5 5 5 3 5 5 3 5 3 3 5 3 3 5 5 3 3 5 3 3 5 5 3 5 5 3 5 5 5 5 5 5 5 5 5 5 3 5 5 5 3 5 5 5 5 5 5 3 5 5 5 5 5 3 5 3 3 5 5 5 5 5 3 5 5 5 5 5 5 3 5 5 3 5 5 5 5 5 5 5 5 3 3 5 3 5 5 3 5 5 5 5 5 5 5 3 5 5 5 5 3 5 5 3 5 5 3 5 5 5 5 5 5 5 5 5 5 5 5 5 5 5 5 3 5 3 5 3 5 5 5 3 5 5 3 3 3 5 5 5 3 5 5 5 5 5 3 5 5 5 5 5 5 5 5 5 5 5 5 5 5 5 5 3 5 5 5 5 5 3 5 5 5 3 5 5 5 5 3 5 3 5 5 5 5 5 5 5 5 3 5 5 3 5 5 5 3 3 5 3 5 3 5 5 5 3 5 5 3 5 5 5 5 3 5 5 5 5 3 3 5 5 5 3 5 5 3 5 5 5 3 5 3 5 5 5 5 5 5 3 5 5 3 5 5 5 3 5 3 3 5 5 5 3 5 3 5 3 5 5 3 5 3 5 3 5 5 5 3 3 5 3 5 5 5 5 5 5 3 5 5 5 5 3 5 5 5 5 5 5 5 5 5 5 5 5 5 5 5 5 5 3 3 5 5 3 3 5 5 3 5 3 5 5 5 5 5 5 5 5 5 5 5 3 5 5 5 5 5 5 5 5 5 5 3 5 3 5 3 5 5 5 5 5 5 5 3 5 5 5 5 5 3 5 5 5 5 5 5 3 5 5 5 5 5 5 5 3 5 5 5 5 5 5 5 5 5 5 5 5 5 5 5 5 5 3 5 5 3 5 5 5 5 5 5 5 3 5 5 5 5 5 5 5 5 5 5 5 5 5 5 5 5 3 5 5 3 5 5 3 5 5 5 5 3 5 5 5 3 5 5 3 5 5 5 3 5 5 5 5 5 3 5 3 3 3 5 5 5 5 5 5 5 5 3 5 5 5 5 5 5 5 5 5 5 5 3 5 5 5 3 5 5 5 5 5 5 5 5 5 5 5 5 3 3 5 3 3 5 5 5 5 5 3 3 5 5 5 3 5 5 3 5 3 5 5 5 5 3 3 5 3 3 5 5 5 3 5 5 5 5 5 5 3 5 5 5 5 3 5 3 5 5 5 5 5 5 5 5 5 3 5 3 3 3 5 3 5 5 5 5 3 5 5 5 3 3 3 3 3 5 5 5 5 5 5 5 3 5 5 5 5 5 5 5 5 5 5 5 5 5 3 5 5 5 5 5 5 5 5 5 5 5 5 5 5 5 5 5 5 5 5 5 3 5 5 5 5 5 5 5 5 5 5 3 5 3 3 3 5 5 3 5 5 5 5 5 5 5 5 5 5 5 5 3 3 5 5 5 5 5 5 3 5 5 5 3 5 5 3 3 5 5 5 5 5 5 5 5 5 3 3 5 5 5 5 5 5 5 5 5 5 5 5 5 3 5 5 5 5 5 3 5 5 5 3 3 5 5 3 5 5 5 3 5 5 5 5 5 5 5 3 5 5 5 5 3 5 5 5 5 3 5 5 5 3 5 5 5 5 5 5 5 3 3 5 5 5 5 3 5 5 5 5 5 5 5 3 5 5 5 5 3 5 5 5 3 5 5 5 3 5 5 3 5 5 5 5 3 5 5 5 5 5 5 5 5 5 5 3 5 5 5 3 5 5 5 5 5 5 5 5 5 5 5 5 3 5 5 5 5 5 5 3 5 3 5 3 5 5 5 3 5 5 3 5 5 5 5 3 5 5 5 5 5 5 5 5 5 3 5 3 5 5 5 5 5 3 5 5 5 3 5 5 5 5 5 3 5 3 5 3 5 5 3 5 5 5 5 5 3 5 5 3 5 5 5 5 5 3 5 5 5 5 5 5 5 5 3 5 5 5 5 5 5 5 5 5 5 5 3 5 3 5 3 5 3 5 5 5 5 3 5 3 5 5 5 5 5 5 5 5 5 5 5 5 3 5 5 3 5 5 3 5 5 5 5 5 5 5 5 3 5 3 5 5 5 5 5 3 5 3 5 5 3 5 3 5 5 5 3 5 5 5 5 5 5 5 5 5 3 5 5 5 5 5 5 5 5 5 5 5 3 5 5 5 5 5 5 3 5 3 5 5 3 5 5 5 5 5 5 3 5 5 3 5 3 5 3 3 5 5 5 3 5 3 5 5 5 3 3 3 3 5 5 5 3 5 3 5 3 5 3 3 5 5 5 3 5 5 5 3 5 5 5 3 5 3 5 5 5 3 3 3 5 5 3 5 5 5 5 5 5 5 5 5 5 5 5 3 5 5 5 5 5 3 5 5 5 5 5 5 5 5 5 5 5 5 5 5 5 5 5 5 5 5 5 5 5 5 5 5 5 5 5 5 5 5 5 5 5 5 5 5 5 5 5 5 5 5 5 5 5 5 5 5 5 5 5 5 5 5 5 5 5 5 5 3 5 5 5 5 5 5 5 5 5 5 5 5 5 3 5 5 5 5 5 3 5 5 5 5 5 5 5 5 5 5 5 5 5 5 5 5 5 5 3 5 5 5 5 5 5 5 5 3 5 3 3 5 5 5 3 3 5 5 5 5 5 5 5 5 3 3 5 5 5 3 5 3 3 5 5 3 5 5 5 5 5 5 3 5 5 5 5 5 5 3 5 3 5 3 5 5 5 5 3 5 5 3 5 5 5 5 5 5 3 5 5 5 5 3 3 5 5 5 3 5 5 5 5 3 5 5 5 3 5 3 5 5 5 3 5 5 5 5 3 3 5 5 5 5 5 5 5 5 5 5 5 5 5 3 5 5 5 5 5 5 5 5 5 5 3 3 5 5 5 5 3 5 5 5 5 5 3 5 5 5 5 5 5 5 3 5 5 5 3 5 5 5 5 5 3 5 5 5 3 5 5 5 5 5 5 5 5 3 5 3 5 5 5 5 5 3 5 5 5 5 5 5 5 5 3 3 5 5 3 3 5 5 5 3 3 5 5 3 5 3 3 5 3 5 5 5 3 3 5 3 5 3 5 5 5 5 5 5 5 5 5 5 5 5 5 5 3 5 5 5 5 5 5 3 3 5 3 5 5 5 3 5 5 3 5 3 5 5 5 5 5 5 5 5 5 3 5 5 5 5 5 5 5 5 5 5 5 5 5 5 5 3 5 5 5 3 5 5 5 5 5 5 5 5 3 5 5 5 5 3 5 5 5 5 5 5 5 5 5 5 3 5 5 5 3 3 5 5 5 3 5 5 5 5 5 5 5 5 5 5 5 5 5 3 5 5 5 5 5 5 5 5 5 5 3 5 5 5 5 5 3 5 5 5 5 5 5 5 5 5 5 5 5 3 5 5 5 3 5 5 3 5 5 5 5 5 5 3 3 5 5 3 5 5 5 3 5 5 5 5 5 5 5 5 5 5 3 5 3 5 5 5 5 5 5 5 5 3 5 5 5 5 5 5 5 5 5 5 5 5 5 5 3 5 5 5 3 5 3 3 5 5 5 5 5 5 5 3 5 5 5 3 5 5 5 5 5 5 5 5 5 5 5 5 5 3 3 5 5 3 5 5 5 3 5 5 3 5 5 5 5 5 3 5 5 5 5 5 5 5 5 5 5 5 3 5 3 5 5 5 5 5 5 5 5 5 5 5 3 5 3 5 3 5 3 3 5 5 5 5 3 5 5 5 5 5 5 5 5 5 5 5 3 5 5 5 5 5 5 3 3 5 5 5 3 5 5 5 5 5 5 5 5 5 5 5 5 5 5 5 5 3 5 5 5 5 5 5 5 5 5 5 5 5 5 5 5 5 5 3 5 5 5 5 5 5 5 5 5 5 5 3 5 3 5 5 5 5 5 5 5 5 5 5 5 5 3 5 5 5 3 5 3 5 5 5 3 5 5 3 5 5 5 5 3 5 5 5 5 5 5 5 5 5 5 3 5 5 5 5 5 5 5 5 5 5 3 5 5 3 5 5 5 3 5 5 5 3 5 3 3 5 5 3 5 5 5 5 5 3 5 5 3 5 5 5 3 5 5 5 5 5 5 5 5 3 5 5 5 5 5 5 5 5 5 5 5 5 5 5 5 5 5 5 5 5 5 5 5 5 5 5 5 5 5 5 3 5 5 5 3 5 5 5 3 5 5 5 5 3 5 5 5 5 5 3 5 5 5 5 5 3 5 5 5 5 5 5 5 5 5 5 5 5 5 3 5 3 5 5 3 5 5 3 5 3 3 5 5 5 5 5 3 3 5 5 5 3 5 5 5 5 5 3 3 5 5 5 5 5 5 5 3 5 5 5 5 5 5 5 5 5 5 5 5 5 5 5 5 5 5 5 5 5 5 5 5 5 5 5 5 5 5 5 5 5 5 5 3 5 5 3 5 5 5 5 5 5 5 5 5 5 5 5 5 5 5 5 5 5 5 5 5 5 5 5 5 5 5 5 5 5 5 3 5 5 5 3 5 5 5 5 5 3 5 5 3 3 5 5 5 5 5 5 5 5 3 5 5 5 5 5 5 3 5 5 5 5 5 5 5 5 5 5 5 5 5 5 5 5 3 3 5 3 5 5 5 5 5 3 5 5 5 5 5 5 5 5 5 5 5 5 5 5 5 5 5 5 5 5 5 5 5 5 5 5 5 5 5 3 3 5 5 5 5 5 5 3 5 5 5 5 5 5 5 5 5 5 5 5 5 5 5 5 5 5 5 5 5 5 5 5 5 5 5 5 5 5 5 5 5 5 5 5 5 5 5 5 5 5 5 5 5 5 5 5 5 5 5 5 5 5 5 5 5 5 5 5 5 5 5 5 5 5 5 5 5 5 5 5 5 5 5 5 5 5 5 5 5 5 5 5 5 3 5 5 5 5 5 5 5 5 5 5 5 5 5 5 5 5 5 3 5 5 5 5 5 5 3 5 5 5 3 5 5 5 5 5 5 5 5 5 5 3 5 5 5 5 5 5 5 5 5 5 5 5 5 5 5 5 5 5 5 3 3 5 5 5 5 5 5 5 5 5 5 5 5 5 5 5 5 5 5 5 5 5 5 5 5 5 5 3 5 5 3 5 5 5 5 5 5 3 5 5 5 3 5 5 5 3 5 5 5 5 5 5 3 5 5 5 3 5 5 5 5 5 5 5 5 5 5 5 5 5 5 5 5 5 5 5 5 5 5 5 5 5 5 5 5 5 3 5 5 5 5 5 3 5 5 5 3 5 5 5 3 5 5 5 5 5 5 5 3 5 5 5 5 5 5 5 5 5 5 5 5 5 5 3 5 3 5 3 5 5 5 5 3 5 5 3 5 5 5 5 5 5 5 3 5 5 5 5 5 5 3 5 5 3 5 5 5 5 3 5 5 5 5 5 5 5 5 5 5 5 5 5 5 3 5 3 5 5 3 5 5 3 5 3 5 5 5 3 5 5 5 3 5 5 5 5 3 3 5 5 5 5 3 5 3 5 5 3 5 3 5 3 5 3 5 3 5 3 5 3 3 5 3 5 3 3 5 5 5 3 3 3 5 3 5 3 3 5 5 3 3 5 5 5 3 3 3 5 5 5 5 5 5 5 5 5 5 3 5 3 3 5 5 5 5 3 5 3 3 3 3 5 5 5 3 5 5 5 5 5 5 5 5 3 5 5 5 3 5 5 3 5 3 3 5 3 5 5 5 5 3 5 3 5 3 3 5 5 5 5 3 5 5 5 5 3 5 3 5 5 5 5 3 5 3 5 5 5 5 3 5 5 5 3 5 5 5 5 3 5 5 3 5 5 3 5 5 5 3 5 5 5 5 5 5 5 5 5 5 5 3 5 5 5 5 5 5 5 5 5 5 5 3 5 5 3 5 5 5 5 3 5 5 5 5 3 5 5 5 3 5 5 5 3 5 5 5 5 5 3 5 5 5 5 5 5 3 5 3 5 3 5 5 3 5 5 3 3 3 3 5 5 5 5 5 5 5 5 5 5 3 3 5 5 
</DataArray>
</Cells>
<PointData Scalars="" Vectors="displacement," Tensors="">
<DataArray type="Float64" Name="displacement" NumberOfComponents="3" format="ascii">
-0.044999030113363189 -3.8027545741679246e-07 0 -0.04499913105677085 1.7403915460950304e-07 0 -0.043957083698273419 -2.3609308903180596e-05 0 -0.044999030113363189 -3.8027545741679246e-07 0 -0.042098384179870905 2.9497013319009628e-05 0 -0.04023432661284207 2.0612754600334295e-07 0 -0.044999030113363189 -3.8027545741679246e-07 0 -0.043957083698273419 -2.3609308903180596e-05 0 -0.042098384179870905 2.9497013319009628e-05 0 -0.0445660473295202 -4.5832408066723151e-05 0 -0.042869556913632631 -0.00055872592430115508 0 -0.042057100707496714 -0.00058510747168712975 0 -0.044994651371692743 1.0709902304948696e-07 0 -0.0445660473295202 -4.5832408066723151e-05 0 -0.042057100707496714 -0.00058510747168712975 0 -0.044998906735637507 9.3181390943020287e-08 0 -0.043025601108657129 -0.00019057944833872757 0 -0.044994651371692743 1.0709902304948696e-07 0 -0.0445660473295202 -4.5832408066723151e-05 0 -0.045000872756673492 -2.3574051508383448e-07 0 -0.0445660473295202 -4.5832408066723151e-05 0 -0.042869556913632631 -0.00055872592430115508 0 -0.042919814254069356 -0.0004505756765327159 0 -0.042057100707496714 -0.00058510747168712975 0 -0.041762244842023219 -0.00042512289489471112 0 -0.040494416759331985 -0.00017957644032208297 0 -0.042869556913632631 -0.00055872592430115508 0 -0.042057100707496714 -0.00058510747168712975 0 -0.041762244842023219 -0.00042512289489471112 0 -0.043025601108657129 -0.00019057944833872757 0 -0.041339570957329541 -0.00015009263721175566 0 -0.040494416759331985 -0.00017957644032208297 0 -0.04087197501430552 -0.00013591036089624276 0 -0.040005258570727148 -0.00012139820434688707 0 -0.041762244842023219 -0.00042512289489471112 0 -0.040494416759331985 -0.00017957644032208297 0 -0.04087197501430552 -0.00013591036089624276 0 -0.040005258570727148 -0.00012139820434688707 0 -0.040054892669463375 -0.00028581804332175235 0 -0.039479404537293698 -0.00026020696337816947 0 -0.04087197501430552 -0.00013591036089624276 0 -0.040005258570727148 -0.00012139820434688707 0 -0.040054892669463375 -0.00028581804332175235 0 -0.040054892669463375 -0.00028581804332175235 0 -0.039479404537293698 -0.00026020696337816947 0 -0.03957308785823753 -0.00030753579810808933 0 -0.040005258570727148 -0.00012139820434688707 0 -0.03934884021135316 -0.00019679122481685459 0 -0.039479404537293698 -0.00026020696337816947 0 -0.040494416759331985 -0.00017957644032208297 0 -0.040005258570727148 -0.00012139820434688707 0 -0.039916534553734125 -4.3372220611356113e-07 0 -0.040005258570727148 -0.00012139820434688707 0 -0.039916534553734125 -4.3372220611356113e-07 0 -0.03934884021135316 -0.00019679122481685459 0 -0.041339570957329541 -0.00015009263721175566 0 -0.040272061563891175 -6.8580495777845659e-06 0 -0.042098384179870905 2.9497013319009628e-05 0 -0.039918078869024529 1.7194348777663052e-07 0 -0.04023432661284207 2.0612754600334295e-07 0 -0.040027286626333848 -0.0001721117765227772 0 -0.039967743840772577 -0.00024270372384321091 0 -0.039841859644467646 1.4056618508800713e-06 0 -0.040027286626333848 -0.0001721117765227772 0 -0.039967743840772577 -0.00024270372384321091 0 -0.040069263531019285 -0.0001271797679079168 0 -0.039967743840772577 -0.00024270372384321091 0 -0.040054892669463375 -0.00028581804332175235 0 -0.03957308785823753 -0.00030753579810808933 0 -0.039967743840772577 -0.00024270372384321091 0 -0.040054892669463375 -0.00028581804332175235 0 -0.040157904000443397 -0.00013472869775148127 0 -0.04087197501430552 -0.00013591036089624276 0 -0.040157904000443397 -0.00013472869775148127 0 -0.040281122199622481 8.4904138438406001e-05 0 -0.04087197501430552 -0.00013591036089624276 0 -0.040054892669463375 -0.00028581804332175235 0 -0.040157904000443397 -0.00013472869775148127 0 -0.04110606217478982 -0.00028004656774748221 0 -0.041135866190226252 -0.00021084330849773804 0 -0.039967743840772577 -0.00024270372384321091 0 -0.040157904000443397 -0.00013472869775148127 0 -0.040069263531019285 -0.0001271797679079168 0 -0.040157904000443397 -0.00013472869775148127 0 -0.040069263531019285 -0.0001271797679079168 0 -0.040145173435479006 1.2898277627790912e-05 0 -0.040157904000443397 -0.00013472869775148127 0 -0.040145173435479006 1.2898277627790912e-05 0 -0.040281122199622481 8.4904138438406001e-05 0 -0.040145173435479006 1.2898277627790912e-05 0 -0.040281122199622481 8.4904138438406001e-05 0 -0.040167780185380149 7.5665724659838526e-05 0 -0.041135866190226252 -0.00021084330849773804 0 -0.042863195376461244 0.00013889930663723852 0 -0.041762244842023219 -0.00042512289489471112 0 -0.04087197501430552 -0.00013591036089624276 0 -0.042550482534932065 -0.0007581666647585645 0 -0.042869556913632631 -0.00055872592430115508 0 -0.041762244842023219 -0.00042512289489471112 0 -0.042550482534932065 -0.0007581666647585645 0 -0.042869556913632631 -0.00055872592430115508 0 -0.042550482534932065 -0.0007581666647585645 0 -0.042919814254069356 -0.0004505756765327159 0 -0.0445660473295202 -4.5832408066723151e-05 0 -0.045000872756673492 -2.3574051508383448e-07 0 -0.045113211446514909 0.00011403556349601748 0 -0.04463551229230623 -1.4591449838013876e-05 0 -0.042863195376461244 0.00013889930663723852 0 -0.042550482534932065 -0.0007581666647585645 0 -0.042919814254069356 -0.0004505756765327159 0 -0.041443398029063355 1.7920480804167362e-05 0 -0.0445660473295202 -4.5832408066723151e-05 0 -0.042919814254069356 -0.0004505756765327159 0 -0.041443398029063355 1.7920480804167362e-05 0 -0.042863195376461244 0.00013889930663723852 0 -0.04245701640155284 2.9121051417183275e-06 0 -0.040145173435479006 1.2898277627790912e-05 0 -0.040167780185380149 7.5665724659838526e-05 0 -0.040087534176037679 1.060766016050969e-05 0 -0.044983218410902331 3.9888171984430708e-06 0 -0.04499995198699596 -1.2368690894778153e-09 0 -0.044988656010691914 -1.2272005412427118e-06 0 -0.045000872756673492 -2.3574051508383448e-07 0 -0.045113211446514909 0.00011403556349601748 0 -0.044999859641248662 2.2655414434542231e-07 0 -0.042863195376461244 0.00013889930663723852 0 -0.044999536452132324 -7.7966960361733888e-07 0 -0.04499995198699596 -1.2368690894778153e-09 0 -0.044988656010691914 -1.2272005412427118e-06 0 -0.044999993032006767 -1.7331487509907064e-11 0 -0.044988656010691914 -1.2272005412427118e-06 0 -0.044999993032006767 -1.7331487509907064e-11 0 -0.044983089692342743 -3.3795137334667073e-06 0 -0.04245701640155284 2.9121051417183275e-06 0 -0.042733105994504639 -0.00033947472220121765 0 -0.044999993032006767 -1.7331487509907064e-11 0 -0.044983089692342743 -3.3795137334667073e-06 0 -0.04499997624282389 -2.1638459773789405e-09 0 -0.042733105994504639 -0.00033947472220121765 0 -0.040106548127778349 -0.00043230155827917095 0 -0.040756292349185819 -0.0013490632606581996 0 -0.041068823717106386 -0.00079466272970002254 0 -0.040571372004812624 -0.00075371247886790954 0 -0.040087534176037679 1.060766016050969e-05 0 -0.040037625870754566 -2.4436793346477648e-05 0 -0.040064552778004289 -0.00013542719028273147 0 -0.040069263531019285 -0.0001271797679079168 0 -0.040087534176037679 1.060766016050969e-05 0 -0.040064552778004289 -0.00013542719028273147 0 -0.040069263531019285 -0.0001271797679079168 0 -0.040145173435479006 1.2898277627790912e-05 0 -0.040087534176037679 1.060766016050969e-05 0 -0.044999987773565078 -3.0764298164884106e-09 0 -0.044984580481582381 -6.8409405212623786e-06 0 -0.044993728973729961 -3.5542947900980936e-06 0 -0.044999987773565078 -3.0764298164884106e-09 0 -0.0449999621210267 -1.0698741332005025e-08 0 -0.044984580481582381 -6.8409405212623786e-06 0 -0.042733105994504639 -0.00033947472220121765 0 -0.045000096955450403 -2.8076998249137766e-07 0 -0.044981169815346007 -4.3368213557318299e-06 0 -0.0449999621210267 -1.0698741332005025e-08 0 -0.044984580481582381 -6.8409405212623786e-06 0 -0.040756292349185819 -0.0013490632606581996 0 -0.041346661283777716 -0.0012557295694109196 0 -0.041068823717106386 -0.00079466272970002254 0 -0.042733105994504639 -0.00033947472220121765 0 -0.043186044893536654 -0.00065806804275708383 0 -0.043186044893536654 -0.00065806804275708383 0 -0.043503333912958166 -0.00057932442644304156 0 -0.041346661283777716 -0.0012557295694109196 0 -0.041631732687450893 -0.00074135094366838431 0 -0.042003971901059839 -0.0011722475139444495 0 -0.041346661283777716 -0.0012557295694109196 0 -0.041631732687450893 -0.00074135094366838431 0 -0.041068823717106386 -0.00079466272970002254 0 -0.041631732687450893 -0.00074135094366838431 0 -0.041068823717106386 -0.00079466272970002254 0 -0.041310286376133994 -0.0004020483273230813 0 -0.041068823717106386 -0.00079466272970002254 0 -0.040856105488374733 -0.00029066364426936359 0 -0.040571372004812624 -0.00075371247886790954 0 -0.040856105488374733 -0.00029066364426936359 0 -0.041310286376133994 -0.0004020483273230813 0 -0.041114935648762306 -0.00013909273395117246 0 -0.041068823717106386 -0.00079466272970002254 0 -0.040856105488374733 -0.00029066364426936359 0 -0.041310286376133994 -0.0004020483273230813 0 -0.041631732687450893 -0.00074135094366838431 0 -0.041310286376133994 -0.0004020483273230813 0 -0.041679423533783608 -0.00026761939220718202 0 -0.041310286376133994 -0.0004020483273230813 0 -0.041375673921336384 1.021281530823322e-05 0 -0.041114935648762306 -0.00013909273395117246 0 -0.041310286376133994 -0.0004020483273230813 0 -0.041375673921336384 1.021281530823322e-05 0 -0.041679423533783608 -0.00026761939220718202 0 -0.040027286626333848 -0.0001721117765227772 0 -0.040069263531019285 -0.0001271797679079168 0 -0.040064552778004289 -0.00013542719028273147 0 -0.040856105488374733 -0.00029066364426936359 0 -0.040571372004812624 -0.00075371247886790954 0 -0.040431886594869876 -0.00021680785615153973 0 -0.040106548127778349 -0.00043230155827917095 0 -0.040308219639706419 -0.00016076366661555726 0 -0.040027286626333848 -0.0001721117765227772 0 -0.040064552778004289 -0.00013542719028273147 0 -0.040141798979254933 -0.00011800241193743672 0 -0.040308219639706419 -0.00016076366661555726 0 -0.040241314785862965 0.00018530564901735044 0 -0.040027286626333848 -0.0001721117765227772 0 -0.040141798979254933 -0.00011800241193743672 0 -0.040260775444037659 0.00019585225303283063 0 -0.040431886594869876 -0.00021680785615153973 0 -0.040666726471433524 4.7545022265907908e-05 0 -0.040260775444037659 0.00019585225303283063 0 -0.040856105488374733 -0.00029066364426936359 0 -0.040431886594869876 -0.00021680785615153973 0 -0.040666726471433524 4.7545022265907908e-05 0 -0.040666726471433524 4.7545022265907908e-05 0 -0.040701196350598767 0.00030556022777387454 0 -0.040260775444037659 0.00019585225303283063 0 -0.040701196350598767 0.00030556022777387454 0 -0.040260775444037659 0.00019585225303283063 0 -0.04055663802286575 0.00045783379537905016 0 -0.040666726471433524 4.7545022265907908e-05 0 -0.040701196350598767 0.00030556022777387454 0 -0.040918224339666416 0.0002839794266453541 0 -0.040260775444037659 0.00019585225303283063 0 -0.040314941872819747 0.0004930537263586396 0 -0.040037074545293365 0.00036017053082564032 0 -0.040260775444037659 0.00019585225303283063 0 -0.040314941872819747 0.0004930537263586396 0 -0.04055663802286575 0.00045783379537905016 0 -0.041375673921336384 1.021281530823322e-05 0 -0.040975626227463452 9.8964190416951273e-05 0 -0.041243799730486828 0.00025455368297683332 0 -0.041375673921336384 1.021281530823322e-05 0 -0.041243799730486828 0.00025455368297683332 0 -0.041580045985103231 0.0002062806270873607 0 -0.041375673921336384 1.021281530823322e-05 0 -0.041679423533783608 -0.00026761939220718202 0 -0.041705786424574204 2.159869394276818e-05 0 -0.041375673921336384 1.021281530823322e-05 0 -0.041580045985103231 0.0002062806270873607 0 -0.041705786424574204 2.159869394276818e-05 0 -0.041375673921336384 1.021281530823322e-05 0 -0.040975626227463452 9.8964190416951273e-05 0 -0.041114935648762306 -0.00013909273395117246 0 -0.040856105488374733 -0.00029066364426936359 0 -0.040666726471433524 4.7545022265907908e-05 0 -0.040975626227463452 9.8964190416951273e-05 0 -0.040856105488374733 -0.00029066364426936359 0 -0.040975626227463452 9.8964190416951273e-05 0 -0.041114935648762306 -0.00013909273395117246 0 -0.040666726471433524 4.7545022265907908e-05 0 -0.040975626227463452 9.8964190416951273e-05 0 -0.040918224339666416 0.0002839794266453541 0 -0.040701196350598767 0.00030556022777387454 0 -0.040918224339666416 0.0002839794266453541 0 -0.040855140568355167 0.00049452562498827055 0 -0.040918224339666416 0.0002839794266453541 0 -0.041075454962623228 0.00040826515601806137 0 -0.040855140568355167 0.00049452562498827055 0 -0.040975626227463452 9.8964190416951273e-05 0 -0.040918224339666416 0.0002839794266453541 0 -0.041243799730486828 0.00025455368297683332 0 -0.040918224339666416 0.0002839794266453541 0 -0.041075454962623228 0.00040826515601806137 0 -0.041243799730486828 0.00025455368297683332 0 -0.041075454962623228 0.00040826515601806137 0 -0.041272714824365196 0.00038695043038590834 0 -0.041277851549015025 0.00049761178235145501 0 -0.041075454962623228 0.00040826515601806137 0 -0.041243799730486828 0.00025455368297683332 0 -0.041272714824365196 0.00038695043038590834 0 -0.041272714824365196 0.00038695043038590834 0 -0.041277851549015025 0.00049761178235145501 0 -0.041473821175783035 0.00037530513915966094 0 -0.041243799730486828 0.00025455368297683332 0 -0.041580045985103231 0.0002062806270873607 0 -0.041473821175783035 0.00037530513915966094 0 -0.041243799730486828 0.00025455368297683332 0 -0.041272714824365196 0.00038695043038590834 0 -0.041473821175783035 0.00037530513915966094 0 -0.041277851549015025 0.00049761178235145501 0 -0.041157842779221049 0.00062687215081411141 0 -0.04133462883958941 0.00059775600967355196 0 -0.041075454962623228 0.00040826515601806137 0 -0.041277851549015025 0.00049761178235145501 0 -0.041079546398405394 0.0005380140668731462 0 -0.041079546398405394 0.0005380140668731462 0 -0.0409657670821773 0.00064638471767088134 0 -0.041157842779221049 0.00062687215081411141 0 -0.041277851549015025 0.00049761178235145501 0 -0.041079546398405394 0.0005380140668731462 0 -0.041157842779221049 0.00062687215081411141 0 -0.041079546398405394 0.0005380140668731462 0 -0.040855140568355167 0.00049452562498827055 0 -0.0409657670821773 0.00064638471767088134 0 -0.041075454962623228 0.00040826515601806137 0 -0.041079546398405394 0.0005380140668731462 0 -0.040855140568355167 0.00049452562498827055 0 -0.040855140568355167 0.00049452562498827055 0 -0.040797164402240529 0.0006526995094739761 0 -0.0409657670821773 0.00064638471767088134 0 -0.040811908599123627 0.00077355618488477557 0 -0.0409657670821773 0.00064638471767088134 0 -0.041049743521634631 0.00074553417752260464 0 -0.040797164402240529 0.0006526995094739761 0 -0.040811908599123627 0.00077355618488477557 0 -0.0409657670821773 0.00064638471767088134 0 -0.041157842779221049 0.00062687215081411141 0 -0.041049743521634631 0.00074553417752260464 0 -0.04123906541432789 0.00071321488260105582 0 -0.0409657670821773 0.00064638471767088134 0 -0.041157842779221049 0.00062687215081411141 0 -0.041049743521634631 0.00074553417752260464 0 -0.040314941872819747 0.0004930537263586396 0 -0.040200138369237519 0.00068864309602470529 0 -0.040037074545293365 0.00036017053082564032 0 -0.040353391832132476 0.00062857815234860744 0 -0.040314941872819747 0.0004930537263586396 0 -0.040503557985024613 0.0006060265134735527 0 -0.040353391832132476 0.00062857815234860744 0 -0.040314941872819747 0.0004930537263586396 0 -0.040200138369237519 0.00068864309602470529 0 -0.040314941872819747 0.0004930537263586396 0 -0.04055663802286575 0.00045783379537905016 0 -0.040503557985024613 0.0006060265134735527 0 -0.040855140568355167 0.00049452562498827055 0 -0.04055663802286575 0.00045783379537905016 0 -0.040660877794538634 0.00058729563435197768 0 -0.040701196350598767 0.00030556022777387454 0 -0.040855140568355167 0.00049452562498827055 0 -0.04055663802286575 0.00045783379537905016 0 -0.040855140568355167 0.00049452562498827055 0 -0.040797164402240529 0.0006526995094739761 0 -0.040660877794538634 0.00058729563435197768 0 -0.04055663802286575 0.00045783379537905016 0 -0.040660877794538634 0.00058729563435197768 0 -0.040503557985024613 0.0006060265134735527 0 -0.040503557985024613 0.0006060265134735527 0 -0.040648674600727505 0.0007142462770476463 0 -0.040471113236160497 0.00071218420592351059 0 -0.040660877794538634 0.00058729563435197768 0 -0.040503557985024613 0.0006060265134735527 0 -0.040648674600727505 0.0007142462770476463 0 -0.040811908599123627 0.00077355618488477557 0 -0.040648674600727505 0.0007142462770476463 0 -0.040540658177407006 0.00087744334126076801 0 -0.040797164402240529 0.0006526995094739761 0 -0.040811908599123627 0.00077355618488477557 0 -0.040648674600727505 0.0007142462770476463 0 -0.040797164402240529 0.0006526995094739761 0 -0.040660877794538634 0.00058729563435197768 0 -0.040648674600727505 0.0007142462770476463 0 -0.040648674600727505 0.0007142462770476463 0 -0.040471113236160497 0.00071218420592351059 0 -0.040540658177407006 0.00087744334126076801 0 -0.040471113236160497 0.00071218420592351059 0 -0.040200138369237519 0.00068864309602470529 0 -0.040540658177407006 0.00087744334126076801 0 -0.038892627725019301 0.00072237896636287945 0 -0.038090317506870655 0.00028922485322518325 0 -0.038892627725019301 0.00072237896636287945 0 -0.038311372800080186 -0.00045437969071171984 0 -0.040353391832132476 0.00062857815234860744 0 -0.040503557985024613 0.0006060265134735527 0 -0.040471113236160497 0.00071218420592351059 0 -0.040353391832132476 0.00062857815234860744 0 -0.040471113236160497 0.00071218420592351059 0 -0.040200138369237519 0.00068864309602470529 0 -0.039102022334666524 2.5067109958197172e-05 0 -0.039138389981855003 0.00018627618179325485 0 -0.038846899900456089 -0.00019772585535823468 0 -0.039102022334666524 2.5067109958197172e-05 0 -0.039242469998023291 0.00014467099987095384 0 -0.039141413284886191 -5.4383226389817108e-05 0 -0.039242469998023291 0.00014467099987095384 0 -0.039138389981855003 0.00018627618179325485 0 -0.039319793933432413 0.00020296498872853964 0 -0.039102022334666524 2.5067109958197172e-05 0 -0.039242469998023291 0.00014467099987095384 0 -0.039138389981855003 0.00018627618179325485 0 -0.039310273984054601 0.00024686746413030234 0 -0.039319793933432413 0.00020296498872853964 0 -0.039467319748819341 0.00013166666084281239 0 -0.038892627725019301 0.00072237896636287945 0 -0.039801651063682268 0.00018412192486166168 0 -0.038892627725019301 0.00072237896636287945 0 -0.039061364529073633 0.00037892888867750805 0 -0.039319793933432413 0.00020296498872853964 0 -0.039398808362622093 0.00014867580874584443 0 -0.039314514466356427 0.00018244619549989604 0 -0.039242469998023291 0.00014467099987095384 0 -0.039319793933432413 0.00020296498872853964 0 -0.039314514466356427 0.00018244619549989604 0 -0.039319793933432413 0.00020296498872853964 0 -0.039398808362622093 0.00014867580874584443 0 -0.039467319748819341 0.00013166666084281239 0 -0.039368717370924046 0.00012726277021511654 0 -0.039121173094953721 0.00014684776027017033 0 -0.039505263535639136 6.1910993875026436e-05 0 -0.038143920495578493 0.00013435581202973293 0 -0.038141481349771751 7.0010624782257792e-05 0 -0.039145800503453711 -0.00032031605337749206 0 -0.039398808362622093 0.00014867580874584443 0 -0.039368717370924046 0.00012726277021511654 0 -0.039314514466356427 0.00018244619549989604 0 -0.039368717370924046 0.00012726277021511654 0 -0.039272267671561036 0.00016761192772857202 0 -0.039314514466356427 0.00018244619549989604 0 -0.039272267671561036 0.00016761192772857202 0 -0.039314514466356427 0.00018244619549989604 0 -0.039255484617541532 0.00021061670569416061 0 -0.039368717370924046 0.00012726277021511654 0 -0.039272267671561036 0.00016761192772857202 0 -0.039121173094953721 0.00014684776027017033 0 -0.039272267671561036 0.00016761192772857202 0 -0.039121173094953721 0.00014684776027017033 0 -0.039255484617541532 0.00021061670569416061 0 -0.039242469998023291 0.00014467099987095384 0 -0.039255484617541532 0.00021061670569416061 0 -0.039334839911561177 -8.1753261639964172e-05 0 -0.039255484617541532 0.00021061670569416061 0 -0.038958706111961082 0.00053160703378988281 0 -0.03909239031957204 0.0007421216259043778 0 -0.039177948200202123 0.00010600830540077474 0 -0.039581328688360652 0.00050853356130863914 0 -0.039121173094953721 0.00014684776027017033 0 -0.039255484617541532 0.00021061670569416061 0 -0.038958706111961082 0.00053160703378988281 0 -0.039242469998023291 0.00014467099987095384 0 -0.039314514466356427 0.00018244619549989604 0 -0.039255484617541532 0.00021061670569416061 0 -0.038046308699635163 0.00050075843308418865 0 -0.038061031216168953 0.00011934303259963481 0 -0.038143920495578493 0.00013435581202973293 0 -0.038283731316569578 0.00050931981216876512 0 -0.038473931223162068 0.00081222516381395835 0 -0.038674720084364518 0.00017514495222515565 0 -0.038450960942379868 0.00082595500958532219 0 -0.038143920495578493 0.00013435581202973293 0 -0.038283731316569578 0.00050931981216876512 0 -0.038141481349771751 7.0010624782257792e-05 0 -0.039121173094953721 0.00014684776027017033 0 -0.038958706111961082 0.00053160703378988281 0 -0.038473931223162068 0.00081222516381395835 0 -0.037229058717517118 0.00078459983570766136 0 -0.038141481349771751 7.0010624782257792e-05 0 -0.037278700680526231 0.00012106945209451448 0 -0.037229058717517118 0.00078459983570766136 0 -0.036112125330931062 0.00037310441499352221 0 -0.037278700680526231 0.00012106945209451448 0 -0.037229058717517118 0.00078459983570766136 0 -0.036112125330931062 0.00037310441499352221 0 -0.035894323943901525 0.0013925177633489294 0 -0.034005984219921168 3.7838756180435499e-06 0 -0.036112125330931062 0.00037310441499352221 0 -0.035894323943901525 0.0013925177633489294 0 -0.034005984219921168 3.7838756180435499e-06 0 -0.036112125330931062 0.00037310441499352221 0 -0.036534585636607532 -6.675021253773455e-06 0 -0.036112125330931062 0.00037310441499352221 0 -0.036534585636607532 -6.675021253773455e-06 0 -0.037278700680526231 0.00012106945209451448 0 -0.034005984219921168 3.7838756180435499e-06 0 -0.036534585636607532 -6.675021253773455e-06 0 -0.036668785776573128 -1.6396056257075716e-06 0 -0.036534585636607532 -6.675021253773455e-06 0 -0.037561439838458471 -8.016269528117852e-05 0 -0.036668785776573128 -1.6396056257075716e-06 0 -0.038141481349771751 7.0010624782257792e-05 0 -0.037278700680526231 0.00012106945209451448 0 -0.037875045656603969 -1.8987261050056618e-05 0 -0.037278700680526231 0.00012106945209451448 0 -0.037561439838458471 -8.016269528117852e-05 0 -0.037875045656603969 -1.8987261050056618e-05 0 -0.036534585636607532 -6.675021253773455e-06 0 -0.037278700680526231 0.00012106945209451448 0 -0.037561439838458471 -8.016269528117852e-05 0 -0.037561439838458471 -8.016269528117852e-05 0 -0.037875045656603969 -1.8987261050056618e-05 0 -0.038332239119400563 -0.00014205874725451911 0 -0.038141481349771751 7.0010624782257792e-05 0 -0.037875045656603969 -1.8987261050056618e-05 0 -0.038332239119400563 -0.00014205874725451911 0 -0.039916534553734125 -4.3372220611356113e-07 0 -0.036668785776573128 -1.6396056257075716e-06 0 -0.038546911284763785 -0.00018454219134349202 0 -0.038332239119400563 -0.00014205874725451911 0 -0.03830655731193288 -0.00023443714253317365 0 -0.038717536431817148 -0.00025496714487995307 0 -0.037561439838458471 -8.016269528117852e-05 0 -0.038332239119400563 -0.00014205874725451911 0 -0.03830655731193288 -0.00023443714253317365 0 -0.03830655731193288 -0.00023443714253317365 0 -0.038717536431817148 -0.00025496714487995307 0 -0.039029998593753362 -0.00029783641543853855 0 -0.037561439838458471 -8.016269528117852e-05 0 -0.03830655731193288 -0.00023443714253317365 0 -0.036668785776573128 -1.6396056257075716e-06 0 -0.03830655731193288 -0.00023443714253317365 0 -0.036668785776573128 -1.6396056257075716e-06 0 -0.038546911284763785 -0.00018454219134349202 0 -0.039916534553734125 -4.3372220611356113e-07 0 -0.038546911284763785 -0.00018454219134349202 0 -0.03934884021135316 -0.00019679122481685459 0 -0.038546911284763785 -0.00018454219134349202 0 -0.03934884021135316 -0.00019679122481685459 0 -0.038942330872394952 -0.00025270249173695486 0 -0.03830655731193288 -0.00023443714253317365 0 -0.039029998593753362 -0.00029783641543853855 0 -0.038942330872394952 -0.00025270249173695486 0 -0.03830655731193288 -0.00023443714253317365 0 -0.038546911284763785 -0.00018454219134349202 0 -0.038942330872394952 -0.00025270249173695486 0 -0.039029998593753362 -0.00029783641543853855 0 -0.038942330872394952 -0.00025270249173695486 0 -0.039479404537293698 -0.00026020696337816947 0 -0.03934884021135316 -0.00019679122481685459 0 -0.038942330872394952 -0.00025270249173695486 0 -0.039479404537293698 -0.00026020696337816947 0 -0.039029998593753362 -0.00029783641543853855 0 -0.039479404537293698 -0.00026020696337816947 0 -0.03957308785823753 -0.00030753579810808933 0 -0.039967743840772577 -0.00024270372384321091 0 -0.03957308785823753 -0.00030753579810808933 0 -0.039145800503453711 -0.00032031605337749206 0 -0.039879913209388954 -0.00027054690163197241 0 -0.039338759186530931 -0.00015668902981773601 0 -0.039029998593753362 -0.00029783641543853855 0 -0.03957308785823753 -0.00030753579810808933 0 -0.039145800503453711 -0.00032031605337749206 0 -0.039967743840772577 -0.00024270372384321091 0 -0.039841859644467646 1.4056618508800713e-06 0 -0.039505263535639136 6.1910993875026436e-05 0 -0.040027286626333848 -0.0001721117765227772 0 -0.040260775444037659 0.00019585225303283063 0 -0.039841859644467646 1.4056618508800713e-06 0 -0.039841859644467646 1.4056618508800713e-06 0 -0.039467319748819341 0.00013166666084281239 0 -0.039524251579283062 0.00010335577687549349 0 -0.039800808958800261 2.7139021895330257e-06 0 -0.039801651063682268 0.00018412192486166168 0 -0.040260775444037659 0.00019585225303283063 0 -0.039841859644467646 1.4056618508800713e-06 0 -0.040037074545293365 0.00036017053082564032 0 -0.039841859644467646 1.4056618508800713e-06 0 -0.039524251579283062 0.00010335577687549349 0 -0.039505263535639136 6.1910993875026436e-05 0 -0.039398808362622093 0.00014867580874584443 0 -0.039368717370924046 0.00012726277021511654 0 -0.039524251579283062 0.00010335577687549349 0 -0.039398808362622093 0.00014867580874584443 0 -0.039467319748819341 0.00013166666084281239 0 -0.039524251579283062 0.00010335577687549349 0 -0.038141481349771751 7.0010624782257792e-05 0 -0.038332239119400563 -0.00014205874725451911 0 -0.039145800503453711 -0.00032031605337749206 0 -0.039368717370924046 0.00012726277021511654 0 -0.039524251579283062 0.00010335577687549349 0 -0.039505263535639136 6.1910993875026436e-05 0 -0.038674720084364518 0.00017514495222515565 0 -0.039338759186530931 -0.00015668902981773601 0 -0.038332239119400563 -0.00014205874725451911 0 -0.038717536431817148 -0.00025496714487995307 0 -0.039145800503453711 -0.00032031605337749206 0 -0.038717536431817148 -0.00025496714487995307 0 -0.039029998593753362 -0.00029783641543853855 0 -0.039145800503453711 -0.00032031605337749206 0 -0.045033515024207167 -7.386613948828205e-05 0 -0.045022369385512281 -0.00015451484454437982 0 -0.044990765852924511 -0.00010961237115869161 0 -0.04454845119851731 -0.00042194466970576908 0 -0.044338320277515497 -0.00072252307145495044 0 -0.044089797868867318 -0.00072155385580436953 0 -0.044117349271252687 -0.001379967438526871 0 -0.043559236795230917 -0.0014114119593540079 0 -0.044089797868867318 -0.00072155385580436953 0 -0.04460479932521464 -0.0010880965295302506 0 -0.044117349271252687 -0.001379967438526871 0 -0.04454845119851731 -0.00042194466970576908 0 -0.044799575018207395 -0.00012839020548806605 0 -0.044520850887466858 -0.00056567621356342572 0 -0.044089797868867318 -0.00072155385580436953 0 -0.04460479932521464 -0.0010880965295302506 0 -0.044520850887466858 -0.00056567621356342572 0 -0.044089797868867318 -0.00072155385580436953 0 -0.044587153772582815 -0.00020188464118174425 0 -0.045033515024207167 -7.386613948828205e-05 0 -0.045005800036330243 -2.309853617262556e-05 0 -0.044999890942760259 -5.4317580263771157e-05 0 -0.045033515024207167 -7.386613948828205e-05 0 -0.045005800036330243 -2.309853617262556e-05 0 -0.045020674957412556 -2.3104777584297584e-05 0 -0.045005800036330243 -2.309853617262556e-05 0 -0.045000019468724284 -1.3423981514134979e-08 0 -0.044999986113357308 -7.7650161182541793e-09 0 -0.045005800036330243 -2.309853617262556e-05 0 -0.045000019468724284 -1.3423981514134979e-08 0 -0.045020674957412556 -2.3104777584297584e-05 0 -0.045000019468724284 -1.3423981514134979e-08 0 -0.045020674957412556 -2.3104777584297584e-05 0 -0.045000026307163488 -4.9430168317665491e-09 0 -0.044520850887466858 -0.00056567621356342572 0 -0.044587153772582815 -0.00020188464118174425 0 -0.044872430407754141 -0.00040686739028988515 0 -0.044909302804428751 -0.00011433829891579724 0 -0.043568617849214168 0.00030731826831497674 0 -0.044587153772582815 -0.00020188464118174425 0 -0.044933086315224489 -0.00013418940272691757 0 -0.044872430407754141 -0.00040686739028988515 0 -0.044976335433282381 -5.596359915458056e-07 0 -0.044979680767050098 -6.4580509461534411e-07 0 -0.0449426596236744 -4.7065453009440438e-06 0 -0.044237993543207864 0.00019994652235894684 0 -0.043568617849214168 0.00030731826831497674 0 -0.044587153772582815 -0.00020188464118174425 0 -0.044933086315224489 -0.00013418940272691757 0 -0.044999588341857119 1.5399320313561206e-07 0 -0.044909302804428751 -0.00011433829891579724 0 -0.044999977730047762 2.5856891570578611e-08 0 -0.044976335433282381 -5.596359915458056e-07 0 -0.04499997655329227 2.2793330359498401e-09 0 -0.044979680767050098 -6.4580509461534411e-07 0 -0.044799575018207395 -0.00012839020548806605 0 -0.044999917067453779 -5.0841852980885149e-08 0 -0.044933086315224489 -0.00013418940272691757 0 -0.044999588341857119 1.5399320313561206e-07 0 -0.045000282111305794 -9.8347712850777312e-08 0 -0.04499997655329227 2.2793330359498401e-09 0 -0.045000007929362817 -9.0661626957415961e-10 0 -0.044979680767050098 -6.4580509461534411e-07 0 -0.044999671091198179 5.2988260697364871e-07 0 -0.044279293920957169 0.00028040447418756307 0 -0.043501165066712449 0.0006202328253114769 0 -0.044999438064090673 -1.1650551857141705e-07 0 -0.044237993543207864 0.00019994652235894684 0 -0.044999671091198179 5.2988260697364871e-07 0 -0.044279293920957169 0.00028040447418756307 0 -0.044996487783914414 -4.6557751390723337e-08 0 -0.044279293920957169 0.00028040447418756307 0 -0.043187500329555074 0.00072772949276456254 0 -0.043501165066712449 0.0006202328253114769 0 -0.044279293920957169 0.00028040447418756307 0 -0.043187500329555074 0.00072772949276456254 0 -0.043516329676019518 0.00052317311053777472 0 -0.043187500329555074 0.00072772949276456254 0 -0.042471662926208353 0.00099542062456545915 0 -0.042381463193826262 0.00099985755276115872 0 -0.043187500329555074 0.00072772949276456254 0 -0.043501165066712449 0.0006202328253114769 0 -0.042381463193826262 0.00099985755276115872 0 -0.043187500329555074 0.00072772949276456254 0 -0.042471662926208353 0.00099542062456545915 0 -0.04276414019119059 0.00086130645349827674 0 -0.042471662926208353 0.00099542062456545915 0 -0.04172263116808491 0.0011219539256098615 0 -0.042381463193826262 0.00099985755276115872 0 -0.042471662926208353 0.00099542062456545915 0 -0.041977103118111293 0.0011323971769941735 0 -0.04172263116808491 0.0011219539256098615 0 -0.04172263116808491 0.0011219539256098615 0 -0.042381463193826262 0.00099985755276115872 0 -0.040995619463670516 0.0011201456542848608 0 -0.043568617849214168 0.00030731826831497674 0 -0.043181708416347789 -0.00068858052641198339 0 -0.044520850887466858 -0.00056567621356342572 0 -0.044872430407754141 -0.00040686739028988515 0 -0.04460479932521464 -0.0010880965295302506 0 -0.042260843531072789 0.00083425692515659512 0 -0.042101073066501786 3.9180409107327922e-07 0 -0.041820955202361752 -0.00018966922065231375 0 -0.043568617849214168 0.00030731826831497674 0 -0.041464172473435056 0.00052225678255563273 0 -0.042101073066501786 3.9180409107327922e-07 0 -0.041820955202361752 -0.00018966922065231375 0 -0.04195381453918632 -0.00085540593059003727 0 -0.040995619463670516 0.0011201456542848608 0 -0.040736006672599655 0.001010620301653799 0 -0.039591516879073259 0.00068722470200470931 0 -0.041464172473435056 0.00052225678255563273 0 -0.040930418108650585 -5.8081239873162608e-05 0 -0.04172263116808491 0.0011219539256098615 0 -0.040736006672599655 0.001010620301653799 0 -0.041344779480625905 0.0011173040658845647 0 -0.04172263116808491 0.0011219539256098615 0 -0.040995619463670516 0.0011201456542848608 0 -0.040736006672599655 0.001010620301653799 0 -0.040736006672599655 0.001010620301653799 0 -0.041344779480625905 0.0011173040658845647 0 -0.040788956534510076 0.00091194907248172094 0 -0.041977103118111293 0.0011323971769941735 0 -0.04172263116808491 0.0011219539256098615 0 -0.041344779480625905 0.0011173040658845647 0 -0.041753359793471126 0.0011736536974677038 0 -0.041504926908291093 0.0011413861954541109 0 -0.041846461596127059 0.0011795348621796919 0 -0.041344779480625905 0.0011173040658845647 0 -0.041753359793471126 0.0011736536974677038 0 -0.041504926908291093 0.0011413861954541109 0 -0.041977103118111293 0.0011323971769941735 0 -0.041344779480625905 0.0011173040658845647 0 -0.041753359793471126 0.0011736536974677038 0 -0.041344779480625905 0.0011173040658845647 0 -0.041504926908291093 0.0011413861954541109 0 -0.040788956534510076 0.00091194907248172094 0 -0.041504926908291093 0.0011413861954541109 0 -0.041719356530337065 0.0012831416141591164 0 -0.041617137081955871 0.00085676528368725099 0 -0.041504926908291093 0.0011413861954541109 0 -0.041719356530337065 0.0012831416141591164 0 -0.041846461596127059 0.0011795348621796919 0 -0.042477764964333149 0.00054090362188654825 0 -0.043200572870849316 0.00030206586591200493 0 -0.043168745257035478 -8.6940749966874767e-05 0 -0.043533990619259492 -0.00030734691926246536 0 -0.044230924939641911 -0.00039999396528914182 0 -0.041719356530337065 0.0012831416141591164 0 -0.041846461596127059 0.0011795348621796919 0 -0.042046376632577313 0.00088292309118568387 0 -0.043533990619259492 -0.00030734691926246536 0 -0.043856548233820118 -0.00040546460110092405 0 -0.043554973153961229 -0.00051315988067865642 0 -0.043533990619259492 -0.00030734691926246536 0 -0.043856548233820118 -0.00040546460110092405 0 -0.044230924939641911 -0.00039999396528914182 0 -0.041846461596127059 0.0011795348621796919 0 -0.042146743584798606 0.0011084961823666266 0 -0.042046376632577313 0.00088292309118568387 0 -0.041753359793471126 0.0011736536974677038 0 -0.041846461596127059 0.0011795348621796919 0 -0.042146743584798606 0.0011084961823666266 0 -0.041977103118111293 0.0011323971769941735 0 -0.041753359793471126 0.0011736536974677038 0 -0.042146743584798606 0.0011084961823666266 0 -0.042471662926208353 0.00099542062456545915 0 -0.042146743584798606 0.0011084961823666266 0 -0.04276414019119059 0.00086130645349827674 0 -0.042471662926208353 0.00099542062456545915 0 -0.041977103118111293 0.0011323971769941735 0 -0.042146743584798606 0.0011084961823666266 0 -0.042146743584798606 0.0011084961823666266 0 -0.04276414019119059 0.00086130645349827674 0 -0.042046376632577313 0.00088292309118568387 0 -0.043187500329555074 0.00072772949276456254 0 -0.04276414019119059 0.00086130645349827674 0 -0.043516329676019518 0.00052317311053777472 0 -0.04276414019119059 0.00086130645349827674 0 -0.043516329676019518 0.00052317311053777472 0 -0.042046376632577313 0.00088292309118568387 0 -0.044279293920957169 0.00028040447418756307 0 -0.043516329676019518 0.00052317311053777472 0 -0.044996487783914414 -4.6557751390723337e-08 0 -0.044999113795744589 -3.0302546881463267e-07 0 -0.045000255167188516 4.3677654686958257e-08 0 -0.044433916787332217 -0.00031810990633822231 0 -0.043516329676019518 0.00052317311053777472 0 -0.044996487783914414 -4.6557751390723337e-08 0 -0.042046376632577313 0.00088292309118568387 0 -0.044999256072909909 1.9170181479220344e-07 0 -0.043200572870849316 0.00030206586591200493 0 -0.045000255167188516 4.3677654686958257e-08 0 -0.044433916787332217 -0.00031810990633822231 0 -0.044230924939641911 -0.00039999396528914182 0 -0.044999990853911542 -9.8426359595162938e-10 0 -0.044992095728408392 -4.0986169105805731e-06 0 -0.044999983221220424 -5.4148155515251117e-09 0 -0.044999785316808497 -4.6240957282235701e-09 0 -0.0446860637003164 -9.5615465034032737e-05 0 -0.0446860637003164 -9.5615465034032737e-05 0 -0.043807149046493722 -0.00059498118887499828 0 -0.044992095728408392 -4.0986169105805731e-06 0 -0.04498350430316473 -9.3511637370085868e-06 0 -0.04499101799410881 -4.9612527347204821e-06 0 -0.043856548233820118 -0.00040546460110092405 0 -0.044433916787332217 -0.00031810990633822231 0 -0.044230924939641911 -0.00039999396528914182 0 -0.043856548233820118 -0.00040546460110092405 0 -0.044433916787332217 -0.00031810990633822231 0 -0.043860251355681328 -0.00040518114726386908 0 -0.043814701010426407 -0.00054902762262593399 0 -0.043807149046493722 -0.00059498118887499828 0 -0.043807149046493722 -0.00059498118887499828 0 -0.043503333912958166 -0.00057932442644304156 0 -0.04498350430316473 -9.3511637370085868e-06 0 -0.04499101799410881 -4.9612527347204821e-06 0 -0.044984807666341532 -8.0948380065998298e-06 0 -0.044992095728408392 -4.0986169105805731e-06 0 -0.04499101799410881 -4.9612527347204821e-06 0 -0.044999983221220424 -5.4148155515251117e-09 0 -0.04499101799410881 -4.9612527347204821e-06 0 -0.044999983221220424 -5.4148155515251117e-09 0 -0.044993728973729961 -3.5542947900980936e-06 0 -0.044999987773565078 -3.0764298164884106e-09 0 -0.044999983221220424 -5.4148155515251117e-09 0 -0.044993728973729961 -3.5542947900980936e-06 0 -0.044984580481582381 -6.8409405212623786e-06 0 -0.044993728973729961 -3.5542947900980936e-06 0 -0.044984807666341532 -8.0948380065998298e-06 0 -0.04499101799410881 -4.9612527347204821e-06 0 -0.044993728973729961 -3.5542947900980936e-06 0 -0.044984807666341532 -8.0948380065998298e-06 0 -0.041631732687450893 -0.00074135094366838431 0 -0.042163587311247468 -0.00079686224704632834 0 -0.042025613277474859 -0.00044928232295456377 0 -0.041631732687450893 -0.00074135094366838431 0 -0.042003971901059839 -0.0011722475139444495 0 -0.042163587311247468 -0.00079686224704632834 0 -0.04270930805237208 -0.0010465466008891765 0 -0.042163587311247468 -0.00079686224704632834 0 -0.042448231614087888 -0.00057232887982009036 0 -0.04270930805237208 -0.0010465466008891765 0 -0.042003971901059839 -0.0011722475139444495 0 -0.042163587311247468 -0.00079686224704632834 0 -0.043807149046493722 -0.00059498118887499828 0 -0.042657299059523091 -0.00034827278461032387 0 -0.043533990619259492 -0.00030734691926246536 0 -0.043554973153961229 -0.00051315988067865642 0 -0.042952774299110541 -0.0002595281599452294 0 -0.043168745257035478 -8.6940749966874767e-05 0 -0.043533990619259492 -0.00030734691926246536 0 -0.042952774299110541 -0.0002595281599452294 0 -0.042163587311247468 -0.00079686224704632834 0 -0.042448231614087888 -0.00057232887982009036 0 -0.042025613277474859 -0.00044928232295456377 0 -0.042657299059523091 -0.00034827278461032387 0 -0.042327849725533204 -3.6150006415533697e-05 0 -0.042448231614087888 -0.00057232887982009036 0 -0.042251404859212728 -4.4436720437344167e-05 0 -0.042025613277474859 -0.00044928232295456377 0 -0.043168745257035478 -8.6940749966874767e-05 0 -0.042712662947684936 -6.1980490011005729e-05 0 -0.042463751656948649 0.00017439286424124817 0 -0.043168745257035478 -8.6940749966874767e-05 0 -0.042952774299110541 -0.0002595281599452294 0 -0.042712662947684936 -6.1980490011005729e-05 0 -0.042952774299110541 -0.0002595281599452294 0 -0.042712662947684936 -6.1980490011005729e-05 0 -0.042251404859212728 -4.4436720437344167e-05 0 -0.041631732687450893 -0.00074135094366838431 0 -0.041679423533783608 -0.00026761939220718202 0 -0.042025613277474859 -0.00044928232295456377 0 -0.042251404859212728 -4.4436720437344167e-05 0 -0.041923493970930627 -0.00011846688491913073 0 -0.042025613277474859 -0.00044928232295456377 0 -0.041923493970930627 -0.00011846688491913073 0 -0.041679423533783608 -0.00026761939220718202 0 -0.041705786424574204 2.159869394276818e-05 0 -0.041923493970930627 -0.00011846688491913073 0 -0.041679423533783608 -0.00026761939220718202 0 -0.042025613277474859 -0.00044928232295456377 0 -0.041580045985103231 0.0002062806270873607 0 -0.042006905402091288 0.00018574191493834724 0 -0.041701511376372347 0.00032671168344613533 0 -0.041580045985103231 0.0002062806270873607 0 -0.041705786424574204 2.159869394276818e-05 0 -0.042006905402091288 0.00018574191493834724 0 -0.041923493970930627 -0.00011846688491913073 0 -0.041705786424574204 2.159869394276818e-05 0 -0.042006905402091288 0.00018574191493834724 0 -0.042251404859212728 -4.4436720437344167e-05 0 -0.041923493970930627 -0.00011846688491913073 0 -0.042006905402091288 0.00018574191493834724 0 -0.042251404859212728 -4.4436720437344167e-05 0 -0.042006905402091288 0.00018574191493834724 0 -0.042463751656948649 0.00017439286424124817 0 -0.042712662947684936 -6.1980490011005729e-05 0 -0.042251404859212728 -4.4436720437344167e-05 0 -0.042463751656948649 0.00017439286424124817 0 -0.043168745257035478 -8.6940749966874767e-05 0 -0.042463751656948649 0.00017439286424124817 0 -0.042350506066219026 0.00034418469980799002 0 -0.042477764964333149 0.00054090362188654825 0 -0.042378362689071046 0.00034670964012801771 0 -0.042006905402091288 0.00018574191493834724 0 -0.042463751656948649 0.00017439286424124817 0 -0.042350506066219026 0.00034418469980799002 0 -0.042006905402091288 0.00018574191493834724 0 -0.042350506066219026 0.00034418469980799002 0 -0.042558190393645813 0.00017668815243448061 0 -0.042024815206054313 0.00019386453297621644 0 -0.042558190393645813 0.00017668815243448061 0 -0.041714702441580299 -0.00038839102604870516 0 -0.041987596514295469 0.00014571629450954609 0 -0.042065289674411671 0.00025642232674059705 0 -0.042350506066219026 0.00034418469980799002 0 -0.042024815206054313 0.00019386453297621644 0 -0.042558190393645813 0.00017668815243448061 0 -0.042350506066219026 0.00034418469980799002 0 -0.042024815206054313 0.00019386453297621644 0 -0.041804772390968102 0.00049290828439250511 0 -0.042006905402091288 0.00018574191493834724 0 -0.041562735220639253 0.00045310947959875339 0 -0.041701511376372347 0.00032671168344613533 0 -0.041562735220639253 0.00045310947959875339 0 -0.041583594776830303 0.00040543198750417385 0 -0.041468339620641698 0.00048457408314047615 0 -0.041562735220639253 0.00045310947959875339 0 -0.041583594776830303 0.00040543198750417385 0 -0.041701511376372347 0.00032671168344613533 0 -0.041583594776830303 0.00040543198750417385 0 -0.041701511376372347 0.00032671168344613533 0 -0.041473821175783035 0.00037530513915966094 0 -0.041580045985103231 0.0002062806270873607 0 -0.041701511376372347 0.00032671168344613533 0 -0.041473821175783035 0.00037530513915966094 0 -0.041277851549015025 0.00049761178235145501 0 -0.041473821175783035 0.00037530513915966094 0 -0.041468339620641698 0.00048457408314047615 0 -0.041583594776830303 0.00040543198750417385 0 -0.041473821175783035 0.00037530513915966094 0 -0.041468339620641698 0.00048457408314047615 0 -0.041468339620641698 0.00048457408314047615 0 -0.04133462883958941 0.00059775600967355196 0 -0.041439135237130095 0.00064052932141926656 0 -0.041277851549015025 0.00049761178235145501 0 -0.041468339620641698 0.00048457408314047615 0 -0.04133462883958941 0.00059775600967355196 0 -0.041157842779221049 0.00062687215081411141 0 -0.04133462883958941 0.00059775600967355196 0 -0.04123906541432789 0.00071321488260105582 0 -0.04133462883958941 0.00059775600967355196 0 -0.04123906541432789 0.00071321488260105582 0 -0.041439135237130095 0.00064052932141926656 0 -0.04123906541432789 0.00071321488260105582 0 -0.041439135237130095 0.00064052932141926656 0 -0.041278835886649212 0.00077733732412440539 0 -0.041562735220639253 0.00045310947959875339 0 -0.041468339620641698 0.00048457408314047615 0 -0.041439135237130095 0.00064052932141926656 0 -0.042065289674411671 0.00025642232674059705 0 -0.041820625065073419 -0.00068110134370519152 0 -0.042558190393645813 0.00017668815243448061 0 -0.04242708341167744 -0.0017607295584367733 0 -0.041714702441580299 -0.00038839102604870516 0 -0.041714702441580299 -0.00038839102604870516 0 -0.040555415990575473 -0.0015502531225788814 0 -0.040726002484947448 2.845314372874175e-06 0 -0.04242708341167744 -0.0017607295584367733 0 -0.041714702441580299 -0.00038839102604870516 0 -0.040555415990575473 -0.0015502531225788814 0 -0.04242708341167744 -0.0017607295584367733 0 -0.040555415990575473 -0.0015502531225788814 0 -0.041777134860692164 -0.0042961175737604041 0 -0.041820625065073419 -0.00068110134370519152 0 -0.042206433006485779 -0.0014298592504659354 0 -0.040555415990575473 -0.0015502531225788814 0 -0.039246575617600137 -0.0032088623188411859 0 -0.041777134860692164 -0.0042961175737604041 0 -0.040555415990575473 -0.0015502531225788814 0 -0.038279146148571495 -0.0019600448256373482 0 -0.039246575617600137 -0.0032088623188411859 0 -0.040555415990575473 -0.0015502531225788814 0 -0.040726002484947448 2.845314372874175e-06 0 -0.03946306899854065 -0.00051206502573636977 0 -0.040555415990575473 -0.0015502531225788814 0 -0.03946306899854065 -0.00051206502573636977 0 -0.038279146148571495 -0.0019600448256373482 0 -0.040726002484947448 2.845314372874175e-06 0 -0.039940780478798968 0.00041903380327365964 0 -0.03946306899854065 -0.00051206502573636977 0 -0.040726002484947448 2.845314372874175e-06 0 -0.040890017567495385 0.00062689784137812652 0 -0.039940780478798968 0.00041903380327365964 0 -0.040726002484947448 2.845314372874175e-06 0 -0.041297282078308434 0.00042416445182273731 0 -0.040890017567495385 0.00062689784137812652 0 -0.041714702441580299 -0.00038839102604870516 0 -0.040726002484947448 2.845314372874175e-06 0 -0.041525652420845653 0.00013694550871940669 0 -0.040726002484947448 2.845314372874175e-06 0 -0.041525652420845653 0.00013694550871940669 0 -0.041297282078308434 0.00042416445182273731 0 -0.042024815206054313 0.00019386453297621644 0 -0.041714702441580299 -0.00038839102604870516 0 -0.041525652420845653 0.00013694550871940669 0 -0.042024815206054313 0.00019386453297621644 0 -0.041525652420845653 0.00013694550871940669 0 -0.041804772390968102 0.00049290828439250511 0 -0.041525652420845653 0.00013694550871940669 0 -0.041804772390968102 0.00049290828439250511 0 -0.041297282078308434 0.00042416445182273731 0 -0.042350506066219026 0.00034418469980799002 0 -0.041804772390968102 0.00049290828439250511 0 -0.041617137081955871 0.00085676528368725099 0 -0.041804772390968102 0.00049290828439250511 0 -0.041297282078308434 0.00042416445182273731 0 -0.041473671761321274 0.00073016839930034431 0 -0.041297282078308434 0.00042416445182273731 0 -0.041473671761321274 0.00073016839930034431 0 -0.040890017567495385 0.00062689784137812652 0 -0.041719356530337065 0.0012831416141591164 0 -0.042350506066219026 0.00034418469980799002 0 -0.041617137081955871 0.00085676528368725099 0 -0.041804772390968102 0.00049290828439250511 0 -0.041473671761321274 0.00073016839930034431 0 -0.041617137081955871 0.00085676528368725099 0 -0.041504926908291093 0.0011413861954541109 0 -0.041617137081955871 0.00085676528368725099 0 -0.041263601208695634 0.00086392082303667821 0 -0.041473671761321274 0.00073016839930034431 0 -0.041617137081955871 0.00085676528368725099 0 -0.041263601208695634 0.00086392082303667821 0 -0.041504926908291093 0.0011413861954541109 0 -0.041263601208695634 0.00086392082303667821 0 -0.040788956534510076 0.00091194907248172094 0 -0.041263601208695634 0.00086392082303667821 0 -0.040788956534510076 0.00091194907248172094 0 -0.040890017567495385 0.00062689784137812652 0 -0.040788956534510076 0.00091194907248172094 0 -0.040890017567495385 0.00062689784137812652 0 -0.039940780478798968 0.00041903380327365964 0 -0.041473671761321274 0.00073016839930034431 0 -0.041263601208695634 0.00086392082303667821 0 -0.040890017567495385 0.00062689784137812652 0 -0.040788956534510076 0.00091194907248172094 0 -0.039921509997444322 0.00074605054218610683 0 -0.039940780478798968 0.00041903380327365964 0 -0.040736006672599655 0.001010620301653799 0 -0.040788956534510076 0.00091194907248172094 0 -0.039921509997444322 0.00074605054218610683 0 -0.040736006672599655 0.001010620301653799 0 -0.039921509997444322 0.00074605054218610683 0 -0.039591516879073259 0.00068722470200470931 0 -0.039921509997444322 0.00074605054218610683 0 -0.039591516879073259 0.00068722470200470931 0 -0.038862882790971089 0.00057831433115875018 0 -0.039591516879073259 0.00068722470200470931 0 -0.03894265366935902 0.00063875210872946155 0 -0.038862882790971089 0.00057831433115875018 0 -0.040930418108650585 -5.8081239873162608e-05 0 -0.038489213483051052 -0.00085841117173655705 0 -0.038489213483051052 -0.00085841117173655705 0 -0.038749148918131783 0.00031569336386801393 0 -0.038862882790971089 0.00057831433115875018 0 -0.039078493636697749 8.9695456590051931e-06 0 -0.037997100658390737 -0.0006427180557483439 0 -0.036813398864266364 9.1883040907759277e-05 0 -0.038862882790971089 0.00057831433115875018 0 -0.037997100658390737 -0.0006427180557483439 0 -0.039921509997444322 0.00074605054218610683 0 -0.038862882790971089 0.00057831433115875018 0 -0.039940780478798968 0.00041903380327365964 0 -0.038862882790971089 0.00057831433115875018 0 -0.039078493636697749 8.9695456590051931e-06 0 -0.039940780478798968 0.00041903380327365964 0 -0.039078493636697749 8.9695456590051931e-06 0 -0.039940780478798968 0.00041903380327365964 0 -0.03946306899854065 -0.00051206502573636977 0 -0.03946306899854065 -0.00051206502573636977 0 -0.038279146148571495 -0.0019600448256373482 0 -0.037997100658390737 -0.0006427180557483439 0 -0.039078493636697749 8.9695456590051931e-06 0 -0.03946306899854065 -0.00051206502573636977 0 -0.037997100658390737 -0.0006427180557483439 0 -0.038279146148571495 -0.0019600448256373482 0 -0.03700346497660667 -0.0037888223334165243 0 -0.039246575617600137 -0.0032088623188411859 0 -0.038279146148571495 -0.0019600448256373482 0 -0.037997100658390737 -0.0006427180557483439 0 -0.034819699284795454 -0.0025388995644059593 0 -0.038279146148571495 -0.0019600448256373482 0 -0.034819699284795454 -0.0025388995644059593 0 -0.03700346497660667 -0.0037888223334165243 0 -0.036813398864266364 9.1883040907759277e-05 0 -0.037997100658390737 -0.0006427180557483439 0 -0.034819699284795454 -0.0025388995644059593 0 -0.041813817709336815 -0.0017317857146819677 0 -0.04097210022528823 -0.0023352228667788107 0 -0.041389571948736027 -0.0012495223879804109 0 -0.041167152099169935 -0.0028927523949027435 0 -0.043012846729941934 -0.0014861587667466588 0 -0.037467130847874709 -0.0020236483000888629 0 -0.037318892208063531 -0.0028031420938953583 0 -0.036886883870995285 -0.0024468489406002866 0 -0.038489213483051052 -0.00085841117173655705 0 -0.041167152099169935 -0.0028927523949027435 0 -0.038489213483051052 -0.00085841117173655705 0 -0.035893603822610184 -0.0028251635982236784 0 -0.037318892208063531 -0.0028031420938953583 0 -0.036886883870995285 -0.0024468489406002866 0 -0.036671766595294211 -0.0030237615434487715 0 -0.041167152099169935 -0.0028927523949027435 0 -0.039539864940271917 -0.0033936118552540594 0 -0.043887606172046442 -0.0028909656822586165 0 -0.04327802810108252 -0.0029284148151978843 0 -0.043201902242399323 -0.0033400738047107041 0 -0.041167152099169935 -0.0028927523949027435 0 -0.043179451659913631 -0.0033115386162846029 0 -0.042644817388665615 -0.0035058423828336262 0 -0.042639364403473906 -0.0036032006441986159 0 -0.042595937729756353 -0.003560084756190541 0 -0.043887606172046442 -0.0028909656822586165 0 -0.043516563535562339 -0.0020359717482331804 0 -0.043366261170553366 -0.0026007525685326459 0 -0.043887606172046442 -0.0028909656822586165 0 -0.043366261170553366 -0.0026007525685326459 0 -0.04327802810108252 -0.0029284148151978843 0 -0.043516563535562339 -0.0020359717482331804 0 -0.044273112623018633 -0.0019300521533507119 0 -0.043866538630709037 -0.0016871254243860634 0 -0.043887606172046442 -0.0028909656822586165 0 -0.043516563535562339 -0.0020359717482331804 0 -0.044273112623018633 -0.0019300521533507119 0 -0.04195381453918632 -0.00085540593059003727 0 -0.041813817709336815 -0.0017317857146819677 0 -0.041389571948736027 -0.0012495223879804109 0 -0.041820955202361752 -0.00018966922065231375 0 -0.04195381453918632 -0.00085540593059003727 0 -0.041389571948736027 -0.0012495223879804109 0 -0.04460479932521464 -0.0010880965295302506 0 -0.044273112623018633 -0.0019300521533507119 0 -0.044117349271252687 -0.001379967438526871 0 -0.043181708416347789 -0.00068858052641198339 0 -0.043012846729941934 -0.0014861587667466588 0 -0.044273112623018633 -0.0019300521533507119 0 -0.044117349271252687 -0.001379967438526871 0 -0.043866538630709037 -0.0016871254243860634 0 -0.043516563535562339 -0.0020359717482331804 0 -0.043559236795230917 -0.0014114119593540079 0 -0.043866538630709037 -0.0016871254243860634 0 -0.044117349271252687 -0.001379967438526871 0 -0.043559236795230917 -0.0014114119593540079 0 -0.043866538630709037 -0.0016871254243860634 0 -0.036770242781273818 -0.0043864979734371153 0 -0.036982312268248725 -0.0041239759458166284 0 -0.03663076570945064 -0.0041134455223623065 0 -0.036607310862098112 -0.0043338566775252786 0 -0.036770242781273818 -0.0043864979734371153 0 -0.03663076570945064 -0.0041134455223623065 0 -0.036607310862098112 -0.0043338566775252786 0 -0.03663076570945064 -0.0041134455223623065 0 -0.036434018043928457 -0.0043664723466560985 0 -0.036607310862098112 -0.0043338566775252786 0 -0.036770242781273818 -0.0043864979734371153 0 -0.036590842592457991 -0.0044646048230332887 0 -0.036607310862098112 -0.0043338566775252786 0 -0.036590842592457991 -0.0044646048230332887 0 -0.036434018043928457 -0.0043664723466560985 0 -0.034749011544427402 -0.0040995576323465364 0 -0.036810107590927843 -0.0036658907459867626 0 -0.036666514129869085 -0.0039524420726354988 0 -0.034749011544427402 -0.0040995576323465364 0 -0.034484107844232469 -0.0053002808297941363 0 -0.032820771088507096 -0.0045073555138092731 0 -0.036770242781273818 -0.0043864979734371153 0 -0.036982312268248725 -0.0041239759458166284 0 -0.03684429013786935 -0.0046686748118249964 0 -0.03183121543143435 -0.0061559447937233197 0 -0.030489470163012466 -0.0054855148700680718 0 -0.030677323198224107 -0.0055558268320016107 0 -0.03183121543143435 -0.0061559447937233197 0 -0.030632623855859967 -0.005395067315698613 0 -0.030677323198224107 -0.0055558268320016107 0 -0.03183121543143435 -0.0061559447937233197 0 -0.032873315386404901 -0.0058630327893493175 0 -0.0331694219454918 -0.0065902944571362559 0 -0.036982312268248725 -0.0041239759458166284 0 -0.036831882951594612 -0.0038003847005838105 0 -0.037150282293970244 -0.0035171507219849728 0 -0.034484107844232469 -0.0053002808297941363 0 -0.035042461076801645 -0.004661591123994507 0 -0.036831882951594612 -0.0038003847005838105 0 -0.03663076570945064 -0.0041134455223623065 0 -0.036481922240368954 -0.0035458003613076587 0 -0.036982312268248725 -0.0041239759458166284 0 -0.036831882951594612 -0.0038003847005838105 0 -0.03663076570945064 -0.0041134455223623065 0 -0.036831882951594612 -0.0038003847005838105 0 -0.037150282293970244 -0.0035171507219849728 0 -0.036481922240368954 -0.0035458003613076587 0 -0.039539864940271917 -0.0033936118552540594 0 -0.039536120645464384 -0.0036504669534512292 0 -0.036671766595294211 -0.0030237615434487715 0 -0.037150282293970244 -0.0035171507219849728 0 -0.036481922240368954 -0.0035458003613076587 0 -0.035893603822610184 -0.0028251635982236784 0 -0.035042461076801645 -0.004661591123994507 0 -0.034819699284795454 -0.0025388995644059593 0 -0.032873315386404901 -0.0058630327893493175 0 -0.0347316781847056 -0.0049432772148521207 0 -0.037318892208063531 -0.0028031420938953583 0 -0.036671766595294211 -0.0030237615434487715 0 -0.037150282293970244 -0.0035171507219849728 0 -0.0331694219454918 -0.0065902944571362559 0 -0.0347316781847056 -0.0049432772148521207 0 -0.036317059441406743 -0.0054594478093541073 0 -0.032873315386404901 -0.0058630327893493175 0 -0.0331694219454918 -0.0065902944571362559 0 -0.0347316781847056 -0.0049432772148521207 0 -0.034819699284795454 -0.0025388995644059593 0 -0.0347316781847056 -0.0049432772148521207 0 -0.03700346497660667 -0.0037888223334165243 0 -0.0347316781847056 -0.0049432772148521207 0 -0.03700346497660667 -0.0037888223334165243 0 -0.036317059441406743 -0.0054594478093541073 0 -0.03700346497660667 -0.0037888223334165243 0 -0.038842107325896859 -0.0052327942897278769 0 -0.039246575617600137 -0.0032088623188411859 0 -0.03700346497660667 -0.0037888223334165243 0 -0.036317059441406743 -0.0054594478093541073 0 -0.038842107325896859 -0.0052327942897278769 0 -0.036317059441406743 -0.0054594478093541073 0 -0.03780360164711534 -0.0074728795683424365 0 -0.038842107325896859 -0.0052327942897278769 0 -0.0331694219454918 -0.0065902944571362559 0 -0.036317059441406743 -0.0054594478093541073 0 -0.03780360164711534 -0.0074728795683424365 0 -0.033270695437695723 -0.0066562344640870479 0 -0.034387120976041803 -0.0070666605274158582 0 -0.030944276360802023 -0.0064746455522409633 0 -0.030733427116505074 -0.0055168019171413993 0 -0.030424707259735072 -0.0055208906540891393 0 -0.030944276360802023 -0.0064746455522409633 0 -0.031598514206395485 -0.0058635437801916801 0 -0.030733427116505074 -0.0055168019171413993 0 -0.0331694219454918 -0.0065902944571362559 0 -0.030944276360802023 -0.0064746455522409633 0 -0.031598514206395485 -0.0058635437801916801 0 -0.03183121543143435 -0.0061559447937233197 0 -0.0331694219454918 -0.0065902944571362559 0 -0.031598514206395485 -0.0058635437801916801 0 -0.03183121543143435 -0.0061559447937233197 0 -0.031598514206395485 -0.0058635437801916801 0 -0.030489470163012466 -0.0054855148700680718 0 -0.031598514206395485 -0.0058635437801916801 0 -0.030733427116505074 -0.0055168019171413993 0 -0.030489470163012466 -0.0054855148700680718 0 -0.030733427116505074 -0.0055168019171413993 0 -0.030424707259735072 -0.0055208906540891393 0 -0.030430541944590998 -0.0055030213981208153 0 -0.030424707259735072 -0.0055208906540891393 0 -0.030723689320459355 -0.0053183830595199969 0 -0.030731788449994021 -0.0056523698277404916 0 -0.035500401155001297 -0.0041253548380861477 0 -0.036100279184566375 -0.001923491936237375 0 -0.030723689320459355 -0.0053183830595199969 0 -0.030525681667730155 -0.0050570020657441754 0 -0.03094091498315436 -0.0049993462441019487 0 -0.030424707259735072 -0.0055208906540891393 0 -0.030723689320459355 -0.0053183830595199969 0 -0.030525681667730155 -0.0050570020657441754 0 -0.034387120976041803 -0.0070666605274158582 0 -0.035500401155001297 -0.0041253548380861477 0 -0.030944276360802023 -0.0064746455522409633 0 -0.030424707259735072 -0.0055208906540891393 0 -0.030147446152515137 -0.0063071221777442812 0 -0.02977189260666285 -0.0065369819505297407 0 -0.035500401155001297 -0.0041253548380861477 0 -0.040737291292079258 -0.0075735183380580724 0 -0.038842107325896859 -0.0052327942897278769 0 -0.041777134860692164 -0.0042961175737604041 0 -0.03780360164711534 -0.0074728795683424365 0 -0.040737291292079258 -0.0075735183380580724 0 -0.038842107325896859 -0.0052327942897278769 0 -0.038842107325896859 -0.0052327942897278769 0 -0.039246575617600137 -0.0032088623188411859 0 -0.041777134860692164 -0.0042961175737604041 0 -0.035500401155001297 -0.0041253548380861477 0 -0.042206433006485779 -0.0014298592504659354 0 -0.041278756954806456 0.00082491175411395705 0 -0.041341914748519906 0.00077656545860977538 0 -0.041274064632259057 0.00083097270628866376 0 -0.041278756954806456 0.00082491175411395705 0 -0.041274064632259057 0.00083097270628866376 0 -0.041237453838852481 0.00089136341920451241 0 -0.041274064632259057 0.00083097270628866376 0 -0.041163564205643211 0.0008808339637802053 0 -0.041237453838852481 0.00089136341920451241 0 -0.041274064632259057 0.00083097270628866376 0 -0.041278835886649212 0.00077733732412440539 0 -0.041163564205643211 0.0008808339637802053 0 -0.041439135237130095 0.00064052932141926656 0 -0.041341914748519906 0.00077656545860977538 0 -0.041278835886649212 0.00077733732412440539 0 -0.041341914748519906 0.00077656545860977538 0 -0.041274064632259057 0.00083097270628866376 0 -0.041278835886649212 0.00077733732412440539 0 -0.04123906541432789 0.00071321488260105582 0 -0.041278835886649212 0.00077733732412440539 0 -0.041129603123337098 0.00081557726368445725 0 -0.041278835886649212 0.00077733732412440539 0 -0.041163564205643211 0.0008808339637802053 0 -0.041129603123337098 0.00081557726368445725 0 -0.041163564205643211 0.0008808339637802053 0 -0.041099777080088572 0.00098209799063508864 0 -0.041023941135188813 0.0009549617259898269 0 -0.036578026156320054 -0.0019054081980628625 0 -0.036100279184566375 -0.001923491936237375 0 -0.041163564205643211 0.0008808339637802053 0 -0.041099777080088572 0.00098209799063508864 0 -0.041237453838852481 0.00089136341920451241 0 -0.03157229584499413 -0.0048481749740387735 0 -0.03094091498315436 -0.0049993462441019487 0 -0.031057593852137008 -0.005287810107827022 0 -0.030723689320459355 -0.0053183830595199969 0 -0.03094091498315436 -0.0049993462441019487 0 -0.031057593852137008 -0.005287810107827022 0 -0.031057593852137008 -0.005287810107827022 0 -0.031618704558554478 -0.0055366462991185937 0 -0.030731788449994021 -0.0056523698277404916 0 -0.030723689320459355 -0.0053183830595199969 0 -0.031057593852137008 -0.005287810107827022 0 -0.030731788449994021 -0.0056523698277404916 0 -0.03157229584499413 -0.0048481749740387735 0 -0.031057593852137008 -0.005287810107827022 0 -0.031618704558554478 -0.0055366462991185937 0 -0.026699421498935214 -0.0053657310361506878 0 -0.026853986204847614 -0.005603003402441192 0 -0.021582979611882661 -0.0050112831779588569 0 -0.022948525511723526 -0.0055610482506143789 0 -0.021875314854919736 -0.0044544439211253554 0 -0.021478457616069802 -0.0053225264199770273 0 -0.021582979611882661 -0.0050112831779588569 0 -0.022948525511723526 -0.0055610482506143789 0 -0.021582979611882661 -0.0050112831779588569 0 -0.021875314854919736 -0.0044544439211253554 0 -0.021374435538098681 -0.0044520788260640938 0 -0.022948525511723526 -0.0055610482506143789 0 -0.022558231991078197 -0.0038950849140960129 0 -0.021875314854919736 -0.0044544439211253554 0 -0.021875314854919736 -0.0044544439211253554 0 -0.021374435538098681 -0.0044520788260640938 0 -0.021492019480707534 -0.0036015787817274729 0 -0.022558231991078197 -0.0038950849140960129 0 -0.021875314854919736 -0.0044544439211253554 0 -0.021492019480707534 -0.0036015787817274729 0 -0.022322747353019052 -0.0027544355946043414 0 -0.021492019480707534 -0.0036015787817274729 0 -0.021389284233176889 -0.0026634156905426319 0 -0.022558231991078197 -0.0038950849140960129 0 -0.022322747353019052 -0.0027544355946043414 0 -0.021492019480707534 -0.0036015787817274729 0 -0.022322747353019052 -0.0027544355946043414 0 -0.021389284233176889 -0.0026634156905426319 0 -0.021841822174162497 -0.0021316681995841203 0 -0.022339855267094047 -0.0026818129814805956 0 -0.023089313463358241 -0.0017613341651801003 0 -0.022322747353019052 -0.0027544355946043414 0 -0.021841822174162497 -0.0021316681995841203 0 -0.022500285852016067 -0.0020492698634646191 0 -0.022558231991078197 -0.0038950849140960129 0 -0.022322747353019052 -0.0027544355946043414 0 -0.02390952655047808 -0.0039092610371084125 0 -0.022322747353019052 -0.0027544355946043414 0 -0.02390952655047808 -0.0039092610371084125 0 -0.024133709225696541 -0.0024712453400120098 0 -0.022322747353019052 -0.0027544355946043414 0 -0.024133709225696541 -0.0024712453400120098 0 -0.023706720632175306 -0.0013704756878654225 0 -0.024133709225696541 -0.0024712453400120098 0 -0.025604908326297537 -0.0027471769089687128 0 -0.025275675090857916 -0.0013760735414614636 0 -0.024133709225696541 -0.0024712453400120098 0 -0.023706720632175306 -0.0013704756878654225 0 -0.025275675090857916 -0.0013760735414614636 0 -0.02390952655047808 -0.0039092610371084125 0 -0.026154066825884389 -0.0041464364690941479 0 -0.025604908326297537 -0.0027471769089687128 0 -0.02390952655047808 -0.0039092610371084125 0 -0.024133709225696541 -0.0024712453400120098 0 -0.025604908326297537 -0.0027471769089687128 0 -0.02390952655047808 -0.0039092610371084125 0 -0.025050819597904946 -0.0055866781293265602 0 -0.026154066825884389 -0.0041464364690941479 0 -0.022948525511723526 -0.0055610482506143789 0 -0.022558231991078197 -0.0038950849140960129 0 -0.02390952655047808 -0.0039092610371084125 0 -0.026853986204847614 -0.005603003402441192 0 -0.027819440234819359 -0.0055072583834188454 0 -0.030424707259735072 -0.0055208906540891393 0 -0.030731788449994021 -0.0056523698277404916 0 -0.030430541944590998 -0.0055030213981208153 0 -0.022948525511723526 -0.0055610482506143789 0 -0.02390952655047808 -0.0039092610371084125 0 -0.025050819597904946 -0.0055866781293265602 0 -0.030430541944590998 -0.0055030213981208153 0 -0.030489470163012466 -0.0054855148700680718 0 -0.029110633934901001 -0.0051605812222736691 0 -0.030733427116505074 -0.0055168019171413993 0 -0.030430541944590998 -0.0055030213981208153 0 -0.030489470163012466 -0.0054855148700680718 0 -0.030489470163012466 -0.0054855148700680718 0 -0.03004684025191642 -0.0053621382209221111 0 -0.029110633934901001 -0.0051605812222736691 0 -0.030489470163012466 -0.0054855148700680718 0 -0.03004684025191642 -0.0053621382209221111 0 -0.030677323198224107 -0.0055558268320016107 0 -0.03004684025191642 -0.0053621382209221111 0 -0.029110633934901001 -0.0051605812222736691 0 -0.029838150118389865 -0.0047151084830355646 0 -0.029110633934901001 -0.0051605812222736691 0 -0.029062219943445589 -0.003868313029800625 0 -0.029838150118389865 -0.0047151084830355646 0 -0.029110633934901001 -0.0051605812222736691 0 -0.026154066825884389 -0.0041464364690941479 0 -0.027416775830146851 -0.0033060347341100833 0 -0.025050819597904946 -0.0055866781293265602 0 -0.029110633934901001 -0.0051605812222736691 0 -0.026154066825884389 -0.0041464364690941479 0 -0.027819440234819359 -0.0055072583834188454 0 -0.029114305941182379 -0.0051478075626470313 0 -0.026154066825884389 -0.0041464364690941479 0 -0.025604908326297537 -0.0027471769089687128 0 -0.027416775830146851 -0.0033060347341100833 0 -0.025604908326297537 -0.0027471769089687128 0 -0.02644682984930247 -0.0019066405766157101 0 -0.027416775830146851 -0.0033060347341100833 0 -0.025604908326297537 -0.0027471769089687128 0 -0.02644682984930247 -0.0019066405766157101 0 -0.025275675090857916 -0.0013760735414614636 0 -0.02644682984930247 -0.0019066405766157101 0 -0.027983115114779158 -0.0025979431939096892 0 -0.027416775830146851 -0.0033060347341100833 0 -0.026887338401989685 -0.0011938855927376734 0 -0.02644682984930247 -0.0019066405766157101 0 -0.027983115114779158 -0.0025979431939096892 0 -0.026887338401989685 -0.0011938855927376734 0 -0.02644682984930247 -0.0019066405766157101 0 -0.025922517940529393 -0.0011992114769810824 0 -0.027983115114779158 -0.0025979431939096892 0 -0.027416775830146851 -0.0033060347341100833 0 -0.029062219943445589 -0.003868313029800625 0 -0.029110633934901001 -0.0051605812222736691 0 -0.027416775830146851 -0.0033060347341100833 0 -0.029062219943445589 -0.003868313029800625 0 -0.029062219943445589 -0.003868313029800625 0 -0.030363625389489224 -0.0041274060570312757 0 -0.029838150118389865 -0.0047151084830355646 0 -0.029397660140547264 -0.0030266643305892787 0 -0.030425498519520231 -0.002383200287456597 0 -0.030363625389489224 -0.0041274060570312757 0 -0.029062219943445589 -0.003868313029800625 0 -0.029397660140547264 -0.0030266643305892787 0 -0.030363625389489224 -0.0041274060570312757 0 -0.027983115114779158 -0.0025979431939096892 0 -0.029062219943445589 -0.003868313029800625 0 -0.029397660140547264 -0.0030266643305892787 0 -0.027983115114779158 -0.0025979431939096892 0 -0.029397660140547264 -0.0030266643305892787 0 -0.028990733695061464 -0.0021332138542094598 0 -0.029397660140547264 -0.0030266643305892787 0 -0.028990733695061464 -0.0021332138542094598 0 -0.030425498519520231 -0.002383200287456597 0 -0.028990733695061464 -0.0021332138542094598 0 -0.029374663565167752 -0.0014880925309152754 0 -0.030425498519520231 -0.002383200287456597 0 -0.029374663565167752 -0.0014880925309152754 0 -0.030330175303442168 -0.0011399231505510592 0 -0.030425498519520231 -0.002383200287456597 0 -0.029374663565167752 -0.0014880925309152754 0 -0.030330175303442168 -0.0011399231505510592 0 -0.029661387545249798 -0.00053818601462820204 0 -0.026887338401989685 -0.0011938855927376734 0 -0.027983115114779158 -0.0025979431939096892 0 -0.028990733695061464 -0.0021332138542094598 0 -0.026887338401989685 -0.0011938855927376734 0 -0.029374663565167752 -0.0014880925309152754 0 -0.029661387545249798 -0.00053818601462820204 0 -0.026887338401989685 -0.0011938855927376734 0 -0.028990733695061464 -0.0021332138542094598 0 -0.029374663565167752 -0.0014880925309152754 0 -0.031624142003614422 -0.0021024764209850088 0 -0.031829055501705034 -0.002248487636661016 0 -0.031541362458721682 -0.0028721068165097055 0 -0.030574826799031295 -0.0016822810711338732 0 -0.030425498519520231 -0.002383200287456597 0 -0.030363625389489224 -0.0041274060570312757 0 -0.027620631403005705 -0.0015168405889415151 0 -0.027551501598293015 -0.0020830729728615206 0 -0.027089554016485357 -0.0012080710986835707 0 -0.027620631403005705 -0.0015168405889415151 0 -0.027551501598293015 -0.0020830729728615206 0 -0.028108441176236884 -0.0019502932278975861 0 -0.028360976712707219 -0.0019632278362812076 0 -0.029164358224614308 -0.0025492646317465902 0 -0.0283895885597629 -0.0010840649882694342 0 -0.028664106319986199 -0.001524694458063081 0 -0.029647189215132583 -0.0021328657603060914 0 -0.030574826799031295 -0.0016822810711338732 0 -0.030260375171479104 -0.0014568671535561059 0 -0.030425498519520231 -0.002383200287456597 0 -0.030074649245380964 -0.0022142705214075417 0 -0.026942510208369696 -0.0012569497816800885 0 -0.029421812631252979 -0.0017901624004262994 0 -0.026942510208369696 -0.0012569497816800885 0 -0.028208974576011361 -0.0015017518640284249 0 -0.028089923641080643 -0.0014151093365910143 0 -0.028148563303970902 -0.0012976228903519584 0 -0.029421812631252979 -0.0017901624004262994 0 -0.028664106319986199 -0.001524694458063081 0 -0.029421812631252979 -0.0017901624004262994 0 -0.030074649245380964 -0.0022142705214075417 0 -0.029421812631252979 -0.0017901624004262994 0 -0.030957478406955494 -0.0035414113552401003 0 -0.031829055501705034 -0.002248487636661016 0 -0.031541362458721682 -0.0028721068165097055 0 -0.032247166491866285 -0.0030073868396725948 0 -0.031541362458721682 -0.0028721068165097055 0 -0.031851543794328974 -0.0032181409657953113 0 -0.031455707960975583 -0.0036474650189234716 0 -0.031541362458721682 -0.0028721068165097055 0 -0.031851543794328974 -0.0032181409657953113 0 -0.032247166491866285 -0.0030073868396725948 0 -0.031851543794328974 -0.0032181409657953113 0 -0.031812520878471223 -0.0035752116379012366 0 -0.03217279260211748 -0.003409614021383167 0 -0.030363625389489224 -0.0041274060570312757 0 -0.030462552449688495 -0.0053847259878505834 0 -0.03065460962513656 -0.0054981521525244203 0 -0.030957478406955494 -0.0035414113552401003 0 -0.032820771088507096 -0.0045073555138092731 0 -0.030363625389489224 -0.0041274060570312757 0 -0.029838150118389865 -0.0047151084830355646 0 -0.030462552449688495 -0.0053847259878505834 0 -0.03004684025191642 -0.0053621382209221111 0 -0.029838150118389865 -0.0047151084830355646 0 -0.030462552449688495 -0.0053847259878505834 0 -0.030462552449688495 -0.0053847259878505834 0 -0.030632623855859967 -0.005395067315698613 0 -0.030677323198224107 -0.0055558268320016107 0 -0.032138830622931658 -0.0044054762125551733 0 -0.032820771088507096 -0.0045073555138092731 0 -0.03004684025191642 -0.0053621382209221111 0 -0.030462552449688495 -0.0053847259878505834 0 -0.030677323198224107 -0.0055558268320016107 0 -0.032820771088507096 -0.0045073555138092731 0 -0.034749011544427402 -0.0040995576323465364 0 -0.031909890511224337 -0.0039335807857570643 0 -0.031812520878471223 -0.0035752116379012366 0 -0.03217279260211748 -0.003409614021383167 0 -0.031455707960975583 -0.0036474650189234716 0 -0.031909890511224337 -0.0039335807857570643 0 -0.031812520878471223 -0.0035752116379012366 0 -0.036770242781273818 -0.0043864979734371153 0 -0.03684429013786935 -0.0046686748118249964 0 -0.036555774534125132 -0.004477343056768412 0 -0.031851543794328974 -0.0032181409657953113 0 -0.031455707960975583 -0.0036474650189234716 0 -0.031812520878471223 -0.0035752116379012366 0 -0.027388616268233343 0.00057880332164070563 0 -0.026568702282338374 0.00031509000704341524 0 -0.026782042693758473 0.0012797239918094787 0 -0.027388616268233343 0.00057880332164070563 0 -0.026568702282338374 0.00031509000704341524 0 -0.026947939214449983 -0.00014564101348096744 0 -0.028109594573813217 -0.0029715497780246859 0 -0.029401185801830966 -0.0035885983453526563 0 -0.029927742674419389 -0.0011118329934024567 0 -0.033876799464969479 5.185717959272512e-05 0 -0.033242703558004509 -0.0025003504457530848 0 -0.027957074543907036 -0.0020110400174840333 0 -0.033876799464969479 5.185717959272512e-05 0 -0.028109594573813217 -0.0029715497780246859 0 -0.029401185801830966 -0.0035885983453526563 0 -0.027095222580028777 -0.0042176486656539157 0 -0.028109594573813217 -0.0029715497780246859 0 -0.029927742674419389 -0.0011118329934024567 0 -0.027524023609229502 -0.0025177379520853966 0 -0.029927742674419389 -0.0011118329934024567 0 -0.026527334954692845 -0.0023435519781866373 0 -0.027524023609229502 -0.0025177379520853966 0 -0.027957074543907036 -0.0020110400174840333 0 -0.026820149328264715 -0.0017437782563748568 0 -0.026568702282338374 0.00031509000704341524 0 -0.026404244208629114 -0.00058283501907768808 0 -0.026947939214449983 -0.00014564101348096744 0 -0.029401185801830966 -0.0035885983453526563 0 -0.028899301437375086 -0.0059703924513216837 0 -0.027095222580028777 -0.0042176486656539157 0 -0.026404244208629114 -0.00058283501907768808 0 -0.026947939214449983 -0.00014564101348096744 0 -0.027278053593234923 -0.00062596789292345594 0 -0.026820149328264715 -0.0017437782563748568 0 -0.026974076001867783 -0.00060118962194357489 0 -0.026947939214449983 -0.00014564101348096744 0 -0.027492084621125099 -1.0918857863975209e-05 0 -0.027278053593234923 -0.00062596789292345594 0 -0.027388616268233343 0.00057880332164070563 0 -0.026947939214449983 -0.00014564101348096744 0 -0.027492084621125099 -1.0918857863975209e-05 0 -0.027278053593234923 -0.00062596789292345594 0 -0.028169014159828407 9.4931971440363917e-05 0 -0.027419603649546077 -0.0012246086052914349 0 -0.026808824955676512 0.00060119325292301465 0 -0.026114054252511038 -5.6897927648390145e-05 0 -0.027146570191835955 -7.5954500278647811e-05 0 -0.027276434125824492 0.00048386779737167381 0 -0.026720796019579503 -0.00066865807137882454 0 -0.027492084621125099 -1.0918857863975209e-05 0 -0.027278053593234923 -0.00062596789292345594 0 -0.028169014159828407 9.4931971440363917e-05 0 -0.026808824955676512 0.00060119325292301465 0 -0.029136120121571407 2.7569725121824634e-06 0 -0.027146570191835955 -7.5954500278647811e-05 0 -0.026808824955676512 0.00060119325292301465 0 -0.029136120121571407 2.7569725121824634e-06 0 -0.027929043330544329 0.0030630223202573483 0 -0.029139714038136904 2.1697422356266494e-07 0 -0.030260228869530798 0.0013962416959046552 0 -0.029141273559315221 2.9288196087201182e-07 0 -0.03157055955625266 -2.749564033507106e-07 0 -0.031769342588708623 1.7728466101125365e-05 0 -0.027388616268233343 0.00057880332164070563 0 -0.028169014159828407 9.4931971440363917e-05 0 -0.028153853066941154 0.0011429899669043936 0 -0.028169014159828407 9.4931971440363917e-05 0 -0.028153853066941154 0.0011429899669043936 0 -0.028851545309643088 0.0014754458247695015 0 -0.027276434125824492 0.00048386779737167381 0 -0.030260228869530798 0.0013962416959046552 0 -0.027388616268233343 0.00057880332164070563 0 -0.027492084621125099 -1.0918857863975209e-05 0 -0.028169014159828407 9.4931971440363917e-05 0 -0.03310920087376882 0.0013473661084684465 0 -0.033511840721625261 0.001745399394499889 0 -0.027388616268233343 0.00057880332164070563 0 -0.028153853066941154 0.0011429899669043936 0 -0.027704549017941244 0.0016222938949855643 0 -0.038698400502189347 0.0011639040613019881 0 -0.038224202958387056 0.00099220919117428666 0 -0.038473931223162068 0.00081222516381395835 0 -0.028153853066941154 0.0011429899669043936 0 -0.027704549017941244 0.0016222938949855643 0 -0.028657993650640628 0.0019603315544667065 0 -0.028153853066941154 0.0011429899669043936 0 -0.028851545309643088 0.0014754458247695015 0 -0.028657993650640628 0.0019603315544667065 0 -0.030260228869530798 0.0013962416959046552 0 -0.033511840721625261 0.001745399394499889 0 -0.030260228869530798 0.0013962416959046552 0 -0.033052041257799113 0.0012555245842982843 0 -0.032069631614041257 0.0013603665508077798 0 -0.03197170813257099 0.0016040955024463372 0 -0.032218322331800546 0.0016903513005868504 0 -0.03157055955625266 -2.749564033507106e-07 0 -0.032701239493460071 4.0314458171196609e-06 0 -0.032181936090573897 -4.1374756633506785e-05 0 -0.03157055955625266 -2.749564033507106e-07 0 -0.031769342588708623 1.7728466101125365e-05 0 -0.032181936090573897 -4.1374756633506785e-05 0 -0.034005984219921168 3.7838756180435499e-06 0 -0.035180456713962888 0.0028083935665689803 0 -0.035894323943901525 0.0013925177633489294 0 -0.034001924730820247 5.1611256633843844e-07 0 -0.033052041257799113 0.0012555245842982843 0 -0.034001069219983887 3.0153531042908595e-07 0 -0.032701239493460071 4.0314458171196609e-06 0 -0.032432336956355404 1.1309715922640389e-05 0 -0.034001069219983887 3.0153531042908595e-07 0 -0.03157055955625266 -2.749564033507106e-07 0 -0.032701239493460071 4.0314458171196609e-06 0 -0.032551560860823371 0.00077438449724114304 0 -0.033052041257799113 0.0012555245842982843 0 -0.036343367236292633 0.0030719421663772009 0 -0.035180456713962888 0.0028083935665689803 0 -0.035894323943901525 0.0013925177633489294 0 -0.033511840721625261 0.001745399394499889 0 -0.033052041257799113 0.0012555245842982843 0 -0.037229058717517118 0.00078459983570766136 0 -0.036343367236292633 0.0030719421663772009 0 -0.035894323943901525 0.0013925177633489294 0 -0.038046308699635163 0.00050075843308418865 0 -0.033511840721625261 0.001745399394499889 0 -0.038283731316569578 0.00050931981216876512 0 -0.038224202958387056 0.00099220919117428666 0 -0.038473931223162068 0.00081222516381395835 0 -0.038698400502189347 0.0011639040613019881 0 -0.038473931223162068 0.00081222516381395835 0 -0.038810862614893908 0.00080878992177763466 0 -0.038958706111961082 0.00053160703378988281 0 -0.038473931223162068 0.00081222516381395835 0 -0.038810862614893908 0.00080878992177763466 0 -0.038958706111961082 0.00053160703378988281 0 -0.03909239031957204 0.0007421216259043778 0 -0.038810862614893908 0.00080878992177763466 0 -0.038698400502189347 0.0011639040613019881 0 -0.03909239031957204 0.0007421216259043778 0 -0.038810862614893908 0.00080878992177763466 0 -0.038698400502189347 0.0011639040613019881 0 -0.03909239031957204 0.0007421216259043778 0 -0.039110048779234678 0.0012978650496783242 0 -0.039581328688360652 0.00050853356130863914 0 -0.033876799464969479 5.185717959272512e-05 0 -0.03310920087376882 0.0013473661084684465 0 -0.033876799464969479 5.185717959272512e-05 0 -0.027388616268233343 0.00057880332164070563 0 -0.027704549017941244 0.0016222938949855643 0 -0.026782042693758473 0.0012797239918094787 0 -0.038904124413603629 -0.00054431292610277252 0 -0.039253855821811616 -0.00060745550651797819 0 -0.038627248974456664 -0.00084511966994661443 0 -0.039334839911561177 -8.1753261639964172e-05 0 -0.039253855821811616 -0.00060745550651797819 0 -0.039099905719240199 -0.00028535281424008584 0 -0.038904124413603629 -0.00054431292610277252 0 -0.039253855821811616 -0.00060745550651797819 0 -0.039099905719240199 -0.00028535281424008584 0 -0.038904124413603629 -0.00054431292610277252 0 -0.039099905719240199 -0.00028535281424008584 0 -0.038846899900456089 -0.00019772585535823468 0 -0.039099905719240199 -0.00028535281424008584 0 -0.039141413284886191 -5.4383226389817108e-05 0 -0.038846899900456089 -0.00019772585535823468 0 -0.039334839911561177 -8.1753261639964172e-05 0 -0.039099905719240199 -0.00028535281424008584 0 -0.039141413284886191 -5.4383226389817108e-05 0 -0.039242469998023291 0.00014467099987095384 0 -0.039334839911561177 -8.1753261639964172e-05 0 -0.039141413284886191 -5.4383226389817108e-05 0 -0.039102022334666524 2.5067109958197172e-05 0 -0.039141413284886191 -5.4383226389817108e-05 0 -0.038846899900456089 -0.00019772585535823468 0 -0.037500331872135202 0.0017099198454359605 0 -0.03699343881019293 -0.0010069862520717511 0 -0.035701109238973065 -0.00032272349158607867 0 -0.035886618933478748 -0.0014937774165012089 0 -0.035701109238973065 -0.00032272349158607867 0 -0.035085400307880488 -0.0023936110702397549 0 -0.03699343881019293 -0.0010069862520717511 0 -0.035886618933478748 -0.0014937774165012089 0 -0.035701109238973065 -0.00032272349158607867 0 -0.038090317506870655 0.00028922485322518325 0 -0.037578562643709214 -0.00045304419975682327 0 -0.040811908599123627 0.00077355618488477557 0 -0.040540658177407006 0.00087744334126076801 0 -0.04077016323007672 0.00087345986017297217 0 -0.040540658177407006 0.00087744334126076801 0 -0.04077016323007672 0.00087345986017297217 0 -0.040786619640675946 0.00095896366286201372 0 -0.035701109238973065 -0.00032272349158607867 0 -0.033941542662155232 -0.0023573341736240353 0 -0.035085400307880488 -0.0023936110702397549 0 -0.033941542662155232 -0.0023573341736240353 0 -0.035085400307880488 -0.0023936110702397549 0 -0.034025767696594572 -0.0035685079506532014 0 -0.035085400307880488 -0.0023936110702397549 0 -0.035633644679983763 -0.0029221764172761449 0 -0.034961658287645719 -0.0034864348557108039 0 -0.035085400307880488 -0.0023936110702397549 0 -0.034961658287645719 -0.0034864348557108039 0 -0.034025767696594572 -0.0035685079506532014 0 -0.036204584537714413 -0.0026203062889050433 0 -0.036446485371274928 -0.0036919296624644514 0 -0.036014196183059413 -0.0033684550651746853 0 -0.035633644679983763 -0.0029221764172761449 0 -0.036014196183059413 -0.0033684550651746853 0 -0.035462065648982147 -0.0033783162821501033 0 -0.038311372800080186 -0.00045437969071171984 0 -0.033242703558004509 -0.0025003504457530848 0 -0.038904124413603629 -0.00054431292610277252 0 -0.038846899900456089 -0.00019772585535823468 0 -0.038627248974456664 -0.00084511966994661443 0 -0.035633644679983763 -0.0029221764172761449 0 -0.036204584537714413 -0.0026203062889050433 0 -0.036014196183059413 -0.0033684550651746853 0 -0.03699343881019293 -0.0010069862520717511 0 -0.036204584537714413 -0.0026203062889050433 0 -0.036446485371274928 -0.0036919296624644514 0 -0.035085400307880488 -0.0023936110702397549 0 -0.035633644679983763 -0.0029221764172761449 0 -0.035941340179812015 -0.0021102277059791524 0 -0.035633644679983763 -0.0029221764172761449 0 -0.036204584537714413 -0.0026203062889050433 0 -0.035941340179812015 -0.0021102277059791524 0 -0.03699343881019293 -0.0010069862520717511 0 -0.035886618933478748 -0.0014937774165012089 0 -0.035941340179812015 -0.0021102277059791524 0 -0.03699343881019293 -0.0010069862520717511 0 -0.036204584537714413 -0.0026203062889050433 0 -0.035941340179812015 -0.0021102277059791524 0 -0.035886618933478748 -0.0014937774165012089 0 -0.035085400307880488 -0.0023936110702397549 0 -0.035941340179812015 -0.0021102277059791524 0 -0.041049743521634631 0.00074553417752260464 0 -0.04123906541432789 0.00071321488260105582 0 -0.041129603123337098 0.00081557726368445725 0 -0.041129603123337098 0.00081557726368445725 0 -0.040924200451325506 0.00087282387334597367 0 -0.04102853031530062 0.00090097810499893596 0 -0.041049743521634631 0.00074553417752260464 0 -0.041129603123337098 0.00081557726368445725 0 -0.040924200451325506 0.00087282387334597367 0 -0.040811908599123627 0.00077355618488477557 0 -0.041049743521634631 0.00074553417752260464 0 -0.040924200451325506 0.00087282387334597367 0 -0.040811908599123627 0.00077355618488477557 0 -0.04077016323007672 0.00087345986017297217 0 -0.040924200451325506 0.00087282387334597367 0 -0.04077016323007672 0.00087345986017297217 0 -0.040786619640675946 0.00095896366286201372 0 -0.040924200451325506 0.00087282387334597367 0 -0.040786619640675946 0.00095896366286201372 0 -0.040934322281599149 0.00094751054942655974 0 -0.040915505968535222 0.0010274036573268606 0 -0.040786619640675946 0.00095896366286201372 0 -0.040924200451325506 0.00087282387334597367 0 -0.040934322281599149 0.00094751054942655974 0 -0.041163564205643211 0.0008808339637802053 0 -0.041129603123337098 0.00081557726368445725 0 -0.04102853031530062 0.00090097810499893596 0 -0.041163564205643211 0.0008808339637802053 0 -0.04102853031530062 0.00090097810499893596 0 -0.041023941135188813 0.0009549617259898269 0 -0.040924200451325506 0.00087282387334597367 0 -0.040934322281599149 0.00094751054942655974 0 -0.04102853031530062 0.00090097810499893596 0 -0.040934322281599149 0.00094751054942655974 0 -0.04102853031530062 0.00090097810499893596 0 -0.041023941135188813 0.0009549617259898269 0 -0.041099777080088572 0.00098209799063508864 0 -0.041023941135188813 0.0009549617259898269 0 -0.040915505968535222 0.0010274036573268606 0 -0.036578026156320054 -0.0019054081980628625 0 -0.035497823672017315 -0.0028973960890219209 0 -0.03157229584499413 -0.0048481749740387735 0 -0.032598390918616195 -0.0048045867569813244 0 -0.032236385049591879 -0.005207687189247209 0 -0.040934322281599149 0.00094751054942655974 0 -0.041023941135188813 0.0009549617259898269 0 -0.040915505968535222 0.0010274036573268606 0 -0.035497823672017315 -0.0028973960890219209 0 -0.032157320573327909 -0.0056993777618202807 0 -0.037578562643709214 -0.00045304419975682327 0 -0.035497823672017315 -0.0028973960890219209 0 -0.032218400580443819 -0.0043813078659883523 0 -0.033774341561408877 -0.0045899536698917947 0 -0.034025767696594572 -0.0035685079506532014 0 -0.032662045034193496 -0.0046034598507058919 0 -0.033372298490222545 -0.0048554048532942432 0 -0.032236385049591879 -0.005207687189247209 0 -0.033941542662155232 -0.0023573341736240353 0 -0.032218400580443819 -0.0043813078659883523 0 -0.034025767696594572 -0.0035685079506532014 0 -0.032662045034193496 -0.0046034598507058919 0 -0.033774341561408877 -0.0045899536698917947 0 -0.033372298490222545 -0.0048554048532942432 0 -0.035497823672017315 -0.0028973960890219209 0 -0.032856016212819299 -0.0042464151918919588 0 -0.021131730137842208 -0.0051214965963545427 0 -0.021722472753540983 -0.0051662885952865664 0 -0.021423823258204282 -0.0049672924452291494 0 -0.022983167114574408 -0.0053996708498203908 0 -0.022206543311112218 -0.0048725523770188984 0 -0.021722472753540983 -0.0051662885952865664 0 -0.021841002198316573 -0.0052827132787362464 0 -0.021848106236528157 -0.0051948732795363836 0 -0.022781856475768698 -0.0047661198680463927 0 -0.022983167114574408 -0.0053996708498203908 0 -0.023580590258119951 -0.0045720941267716518 0 -0.022654351498807741 -0.0041189306362036469 0 -0.022781856475768698 -0.0047661198680463927 0 -0.022206543311112218 -0.0048725523770188984 0 -0.022654351498807741 -0.0041189306362036469 0 -0.022781856475768698 -0.0047661198680463927 0 -0.023580590258119951 -0.0045720941267716518 0 -0.022781856475768698 -0.0047661198680463927 0 -0.022983167114574408 -0.0053996708498203908 0 -0.022206543311112218 -0.0048725523770188984 0 -0.021478457616069802 -0.0053225264199770273 0 -0.022654351498807741 -0.0041189306362036469 0 -0.022206543311112218 -0.0048725523770188984 0 -0.026699421498935214 -0.0053657310361506878 0 -0.027668108094975601 -0.0046090459335888859 0 -0.021478457616069802 -0.0053225264199770273 0 -0.022206543311112218 -0.0048725523770188984 0 -0.021722472753540983 -0.0051662885952865664 0 -0.031618704558554478 -0.0055366462991185937 0 -0.033372298490222545 -0.0048554048532942432 0 -0.032236385049591879 -0.005207687189247209 0 -0.03157229584499413 -0.0048481749740387735 0 -0.031618704558554478 -0.0055366462991185937 0 -0.032236385049591879 -0.005207687189247209 0 -0.021478457616069802 -0.0053225264199770273 0 -0.021582979611882661 -0.0050112831779588569 0 -0.021722472753540983 -0.0051662885952865664 0 -0.025476770760775744 -0.0034749750447592613 0 -0.026847678805168626 -0.0033534104967669529 0 -0.026527334954692845 -0.0023435519781866373 0 -0.025476770760775744 -0.0034749750447592613 0 -0.026847678805168626 -0.0033534104967669529 0 -0.027095222580028777 -0.0042176486656539157 0 -0.028109594573813217 -0.0029715497780246859 0 -0.026847678805168626 -0.0033534104967669529 0 -0.027524023609229502 -0.0025177379520853966 0 -0.028109594573813217 -0.0029715497780246859 0 -0.026847678805168626 -0.0033534104967669529 0 -0.027095222580028777 -0.0042176486656539157 0 -0.026847678805168626 -0.0033534104967669529 0 -0.026903350857617914 -0.0027913565517670887 0 -0.026527334954692845 -0.0023435519781866373 0 -0.026864464478866954 -0.0025356057542165827 0 -0.026527334954692845 -0.0023435519781866373 0 -0.027524023609229502 -0.0025177379520853966 0 -0.026903350857617914 -0.0027913565517670887 0 -0.026864464478866954 -0.0025356057542165827 0 -0.026527334954692845 -0.0023435519781866373 0 -0.026847678805168626 -0.0033534104967669529 0 -0.026903350857617914 -0.0027913565517670887 0 -0.027524023609229502 -0.0025177379520853966 0 -0.026903350857617914 -0.0027913565517670887 0 -0.026864464478866954 -0.0025356057542165827 0 -0.027524023609229502 -0.0025177379520853966 0 -0.036446485371274928 -0.0036919296624644514 0 -0.036014196183059413 -0.0033684550651746853 0 -0.035237834353393643 -0.003736145718784523 0 -0.036014196183059413 -0.0033684550651746853 0 -0.035462065648982147 -0.0033783162821501033 0 -0.035237834353393643 -0.003736145718784523 0 -0.035633644679983763 -0.0029221764172761449 0 -0.035462065648982147 -0.0033783162821501033 0 -0.034961658287645719 -0.0034864348557108039 0 -0.033774341561408877 -0.0045899536698917947 0 -0.036446485371274928 -0.0036919296624644514 0 -0.035237834353393643 -0.003736145718784523 0 -0.035462065648982147 -0.0033783162821501033 0 -0.034961658287645719 -0.0034864348557108039 0 -0.035237834353393643 -0.003736145718784523 0 -0.027668108094975601 -0.0046090459335888859 0 -0.033242703558004509 -0.0025003504457530848 0 -0.033774341561408877 -0.0045899536698917947 0 -0.033372298490222545 -0.0048554048532942432 0 -0.036446485371274928 -0.0036919296624644514 0 -0.022654351498807741 -0.0041189306362036469 0 -0.025476770760775744 -0.0034749750447592613 0 -0.023580590258119951 -0.0045720941267716518 0 -0.022654351498807741 -0.0041189306362036469 0 -0.025476770760775744 -0.0034749750447592613 0 -0.026527334954692845 -0.0023435519781866373 0 -0.034961658287645719 -0.0034864348557108039 0 -0.035237834353393643 -0.003736145718784523 0 -0.034608738243522202 -0.003865691687267496 0 -0.034961658287645719 -0.0034864348557108039 0 -0.034025767696594572 -0.0035685079506532014 0 -0.034608738243522202 -0.003865691687267496 0 -0.033774341561408877 -0.0045899536698917947 0 -0.034025767696594572 -0.0035685079506532014 0 -0.034608738243522202 -0.003865691687267496 0 -0.033774341561408877 -0.0045899536698917947 0 -0.035237834353393643 -0.003736145718784523 0 -0.034608738243522202 -0.003865691687267496 0 -0.021841002198316573 -0.0052827132787362464 0 -0.024532384706022793 -0.0039877021856008022 0 -0.022983167114574408 -0.0053996708498203908 0 -0.024249817415995509 -0.0047961414741747501 0 -0.025340327284553914 -0.005718909381248821 0 -0.021131730137842208 -0.0051214965963545427 0 -0.020789594189674927 -0.0050802140535428641 0 -0.020975868937295986 -0.0049250727146800607 0 -0.025476770760775744 -0.0034749750447592613 0 -0.024249817415995509 -0.0047961414741747501 0 -0.025340327284553914 -0.005718909381248821 0 -0.025476770760775744 -0.0034749750447592613 0 -0.024249817415995509 -0.0047961414741747501 0 -0.023580590258119951 -0.0045720941267716518 0 -0.022983167114574408 -0.0053996708498203908 0 -0.024249817415995509 -0.0047961414741747501 0 -0.023580590258119951 -0.0045720941267716518 0 -0.025476770760775744 -0.0034749750447592613 0 -0.025464359561761005 -0.0058147469470488031 0 -0.027095222580028777 -0.0042176486656539157 0 -0.026178740345413551 -0.00061908654473268434 0 -0.02472031266735996 -0.00055842701449571876 0 -0.025207987227841275 -0.00082295808990243895 0 -0.026820149328264715 -0.0017437782563748568 0 -0.024532384706022793 -0.0039877021856008022 0 -0.028899301437375086 -0.0059703924513216837 0 -0.025464359561761005 -0.0058147469470488031 0 -0.027095222580028777 -0.0042176486656539157 0 -0.025428702389015696 -0.004305123521210757 0 -0.024532384706022793 -0.0039877021856008022 0 -0.024532384706022793 -0.0039877021856008022 0 -0.023130309114013758 -0.0027488203697009967 0 -0.025414009082160412 -0.00046685130111700146 0 -0.023130309114013758 -0.0027488203697009967 0 -0.025207987227841275 -0.00082295808990243895 0 -0.025359584779803383 -0.0014690804925572135 0 -0.024735266823681087 -0.0017637616318819185 0 -0.02472031266735996 -0.00055842701449571876 0 -0.025207987227841275 -0.00082295808990243895 0 -0.024666440742607456 -0.0018996590541005749 0 -0.025207987227841275 -0.00082295808990243895 0 -0.025359584779803383 -0.0014690804925572135 0 -0.026023945413183265 -0.0013807315597051566 0 -0.020789594189674927 -0.0050802140535428641 0 -0.020975868937295986 -0.0049250727146800607 0 -0.020767286296257514 -0.0046483966604579765 0 -0.020975868937295986 -0.0049250727146800607 0 -0.020767286296257514 -0.0046483966604579765 0 -0.021127955650860356 -0.004737152581142102 0 -0.020975868937295986 -0.0049250727146800607 0 -0.02116387551694561 -0.0049379887040037831 0 -0.021127955650860356 -0.004737152581142102 0 -0.021131730137842208 -0.0051214965963545427 0 -0.020975868937295986 -0.0049250727146800607 0 -0.02116387551694561 -0.0049379887040037831 0 -0.020767286296257514 -0.0046483966604579765 0 -0.021127955650860356 -0.004737152581142102 0 -0.020952971190372347 -0.0042211063639208089 0 -0.023130309114013758 -0.0027488203697009967 0 -0.02156809514760644 -0.0039543028617796344 0 -0.022584791082019436 -0.0028671498053107702 0 -0.022574564592072036 -0.0030936667122861603 0 -0.022462134688245535 -0.0030949882231221431 0 -0.023130309114013758 -0.0027488203697009967 0 -0.023638576205603959 -0.0029548542847836318 0 -0.024735266823681087 -0.0017637616318819185 0 -0.024721054402419743 -0.0028994961788675381 0 -0.02567953176480172 -0.0019681184517984273 0 -0.025359584779803383 -0.0014690804925572135 0 -0.024735266823681087 -0.0017637616318819185 0 -0.02567953176480172 -0.0019681184517984273 0 -0.024721054402419743 -0.0028994961788675381 0 -0.02581619093487944 -0.0026774687226516405 0 -0.02567953176480172 -0.0019681184517984273 0 -0.021582979611882661 -0.0050112831779588569 0 -0.021423823258204282 -0.0049672924452291494 0 -0.021374435538098681 -0.0044520788260640938 0 -0.021582979611882661 -0.0050112831779588569 0 -0.021722472753540983 -0.0051662885952865664 0 -0.021423823258204282 -0.0049672924452291494 0 -0.021423823258204282 -0.0049672924452291494 0 -0.02116387551694561 -0.0049379887040037831 0 -0.021127955650860356 -0.004737152581142102 0 -0.021131730137842208 -0.0051214965963545427 0 -0.021423823258204282 -0.0049672924452291494 0 -0.02116387551694561 -0.0049379887040037831 0 -0.021423823258204282 -0.0049672924452291494 0 -0.021127955650860356 -0.004737152581142102 0 -0.021313507998532724 -0.0043774738535559627 0 -0.021362524555347911 -0.004884966168231409 0 -0.020943272593796032 -0.0041811921360999284 0 -0.021127955650860356 -0.004737152581142102 0 -0.021313507998532724 -0.0043774738535559627 0 -0.020952971190372347 -0.0042211063639208089 0 -0.020594300852877018 -0.0039239354471568054 0 -0.021374435538098681 -0.0044520788260640938 0 -0.021492019480707534 -0.0036015787817274729 0 -0.021423823258204282 -0.0049672924452291494 0 -0.020594300852877018 -0.0039239354471568054 0 -0.021374435538098681 -0.0044520788260640938 0 -0.021492019480707534 -0.0036015787817274729 0 -0.020894757355201334 -0.0030475500449978444 0 -0.021389284233176889 -0.0026634156905426319 0 -0.020594300852877018 -0.0039239354471568054 0 -0.021492019480707534 -0.0036015787817274729 0 -0.020894757355201334 -0.0030475500449978444 0 -0.020943272593796032 -0.0041811921360999284 0 -0.020990005419061358 -0.0029856255967645826 0 -0.020594300852877018 -0.0039239354471568054 0 -0.020204882231714526 -0.0026489094301796468 0 -0.020894757355201334 -0.0030475500449978444 0 -0.021313507998532724 -0.0043774738535559627 0 -0.021165496560761232 -0.0037712556377654189 0 -0.020952971190372347 -0.0042211063639208089 0 -0.020204882231714526 -0.0026489094301796468 0 -0.020894757355201334 -0.0030475500449978444 0 -0.020844027196232854 -0.0024368530821689124 0 -0.020844027196232854 -0.0024368530821689124 0 -0.021389284233176889 -0.0026634156905426319 0 -0.02119125696709134 -0.0020330805086328269 0 -0.020894757355201334 -0.0030475500449978444 0 -0.020844027196232854 -0.0024368530821689124 0 -0.021389284233176889 -0.0026634156905426319 0 -0.02449174180459783 -0.0034627011504482419 0 -0.025937658936703144 -0.0024480883724960693 0 -0.023638576205603959 -0.0029548542847836318 0 -0.02449174180459783 -0.0034627011504482419 0 -0.024721054402419743 -0.0028994961788675381 0 -0.024708342081472753 -0.0040211377137336938 0 -0.02581619093487944 -0.0026774687226516405 0 -0.020990005419061358 -0.0029856255967645826 0 -0.02156809514760644 -0.0039543028617796344 0 -0.022574564592072036 -0.0030936667122861603 0 -0.022462134688245535 -0.0030949882231221431 0 -0.022569232879843401 -0.0033101691043435745 0 -0.022347119807541681 -0.0033096484360437893 0 -0.022569232879843401 -0.0033101691043435745 0 -0.022398372585955478 -0.0035049785132668524 0 -0.022347119807541681 -0.0033096484360437893 0 -0.022462134688245535 -0.0030949882231221431 0 -0.022569232879843401 -0.0033101691043435745 0 -0.025008385670262902 -0.0034144224835182878 0 -0.025017994505692302 -0.0031684346035728657 0 -0.025566435177707986 -0.0033031561487597283 0 -0.025017994505692302 -0.0031684346035728657 0 -0.025566435177707986 -0.0033031561487597283 0 -0.025914242640832173 -0.002212290668735243 0 -0.024636041679103278 -0.0033705286795581079 0 -0.02449174180459783 -0.0034627011504482419 0 -0.025566435177707986 -0.0033031561487597283 0 -0.026135650791609372 -0.0032518098903056574 0 -0.025914242640832173 -0.002212290668735243 0 -0.022217390963094844 -0.00050455616240967585 0 -0.025012172251230935 -0.00064281894013977687 0 -0.02159573856512818 -0.00079714099576155329 0 -0.022217390963094844 -0.00050455616240967585 0 -0.021304193591614042 -0.00081038540093068855 0 -0.02159573856512818 -0.00079714099576155329 0 -0.023115020422077075 -0.0012084516690085787 0 -0.02008957235992739 -0.00110515886382695 0 -0.022217390963094844 -0.00050455616240967585 0 -0.025012172251230935 -0.00064281894013977687 0 -0.024910106875600524 7.5355813068960872e-05 0 -0.020865054467329135 -0.00027792549954981318 0 -0.02159573856512818 -0.00079714099576155329 0 -0.021057219822696323 -0.0005445054748244297 0 -0.022957616664815887 -0.00039618296950179842 0 -0.02189190834202823 -0.00074530430519906732 0 -0.020865054467329135 -0.00027792549954981318 0 -0.021057219822696323 -0.0005445054748244297 0 -0.020830326395410374 -0.0004803088014472826 0 -0.023115020422077075 -0.0012084516690085787 0 -0.024703293655776858 0.00033868854730486112 0 -0.025012172251230935 -0.00064281894013977687 0 -0.024910106875600524 7.5355813068960872e-05 0 -0.025619069542895997 4.39065201147089e-05 0 -0.024528394253176732 1.9761162479739772e-05 0 -0.024910106875600524 7.5355813068960872e-05 0 -0.025157817554433318 9.4362923985511979e-05 0 -0.024910106875600524 7.5355813068960872e-05 0 -0.025157817554433318 9.4362923985511979e-05 0 -0.025619069542895997 4.39065201147089e-05 0 -0.026135650791609372 -0.0032518098903056574 0 -0.02672389230569892 -0.00225476227578939 0 -0.025914242640832173 -0.002212290668735243 0 -0.023115020422077075 -0.0012084516690085787 0 -0.026223177301630075 -0.0011182410470680169 0 -0.02581619093487944 -0.0026774687226516405 0 -0.02567953176480172 -0.0019681184517984273 0 -0.026947937399513681 -0.0012492758002090318 0 -0.02672389230569892 -0.00225476227578939 0 -0.025914242640832173 -0.002212290668735243 0 -0.026947937399513681 -0.0012492758002090318 0 -0.025937658936703144 -0.0024480883724960693 0 -0.02686253921986112 -0.0013075824985459129 0 -0.02672389230569892 -0.00225476227578939 0 -0.026947937399513681 -0.0012492758002090318 0 -0.027419603649546077 -0.0012246086052914349 0 -0.026223177301630075 -0.0011182410470680169 0 -0.026720796019579503 -0.00066865807137882454 0 -0.025157817554433318 9.4362923985511979e-05 0 -0.026114054252511038 -5.6897927648390145e-05 0 -0.025619069542895997 4.39065201147089e-05 0 -0.026186851321685991 -0.00054411222174866535 0 -0.027278053593234923 -0.00062596789292345594 0 -0.026466557092038989 -0.0010253612350188839 0 -0.027278053593234923 -0.00062596789292345594 0 -0.026947937399513681 -0.0012492758002090318 0 -0.027419603649546077 -0.0012246086052914349 0 -0.027278053593234923 -0.00062596789292345594 0 -0.026947937399513681 -0.0012492758002090318 0 -0.026466557092038989 -0.0010253612350188839 0 -0.026178740345413551 -0.00061908654473268434 0 -0.025207987227841275 -0.00082295808990243895 0 -0.026023945413183265 -0.0013807315597051566 0 -0.026186851321685991 -0.00054411222174866535 0 -0.026466557092038989 -0.0010253612350188839 0 -0.026023945413183265 -0.0013807315597051566 0 -0.02567953176480172 -0.0019681184517984273 0 -0.026947937399513681 -0.0012492758002090318 0 -0.026023945413183265 -0.0013807315597051566 0 -0.026820149328264715 -0.0017437782563748568 0 -0.026239612986749004 -0.0010229016908687898 0 -0.025359584779803383 -0.0014690804925572135 0 -0.02567953176480172 -0.0019681184517984273 0 -0.026023945413183265 -0.0013807315597051566 0 -0.026947937399513681 -0.0012492758002090318 0 -0.026466557092038989 -0.0010253612350188839 0 -0.026023945413183265 -0.0013807315597051566 0 -0.029136120121571407 2.7569725121824634e-06 0 -0.027089611076993321 -1.4580826336411907e-06 0 -0.027146570191835955 -7.5954500278647811e-05 0 -0.027089611076993321 -1.4580826336411907e-06 0 -0.027146570191835955 -7.5954500278647811e-05 0 -0.026173404128502737 -0.00015307462260126081 0 -0.026114054252511038 -5.6897927648390145e-05 0 -0.027146570191835955 -7.5954500278647811e-05 0 -0.026173404128502737 -0.00015307462260126081 0 -0.026114054252511038 -5.6897927648390145e-05 0 -0.026173404128502737 -0.00015307462260126081 0 -0.025619069542895997 4.39065201147089e-05 0 -0.027089611076993321 -1.4580826336411907e-06 0 -0.026173404128502737 -0.00015307462260126081 0 -0.025043816764733134 5.8352645719193486e-07 0 -0.025039974043160423 -1.0716237001496591e-08 0 -0.023985853581855603 -2.5108261536358442e-05 0 -0.026173404128502737 -0.00015307462260126081 0 -0.025043816764733134 5.8352645719193486e-07 0 -0.025875653494185448 -2.9641847394030142e-05 0 -0.025012172251230935 -0.00064281894013977687 0 -0.025875653494185448 -2.9641847394030142e-05 0 -0.025619069542895997 4.39065201147089e-05 0 -0.026173404128502737 -0.00015307462260126081 0 -0.025875653494185448 -2.9641847394030142e-05 0 -0.025619069542895997 4.39065201147089e-05 0 -0.020865054467329135 -0.00027792549954981318 0 -0.022247026213066064 0.00021616415920126014 0 -0.021407908931726893 -0.00023509535301361015 0 -0.022957616664815887 -0.00039618296950179842 0 -0.023985853581855603 -2.5108261536358442e-05 0 -0.020865054467329135 -0.00027792549954981318 0 -0.021407908931726893 -0.00023509535301361015 0 -0.020830326395410374 -0.0004803088014472826 0 -0.022247026213066064 0.00021616415920126014 0 -0.021407908931726893 -0.00023509535301361015 0 -0.022343766926829212 -1.5611509274287178e-06 0 -0.025036545693721421 2.5791875324204874e-06 0 -0.022247026213066064 0.00021616415920126014 0 -0.022343766926829212 -1.5611509274287178e-06 0 -0.022343766926829212 -1.5611509274287178e-06 0 -0.021017106287382716 -0.0003558379600673337 0 -0.019646890525954825 -4.782396977174055e-07 0 -0.021407908931726893 -0.00023509535301361015 0 -0.022343766926829212 -1.5611509274287178e-06 0 -0.021017106287382716 -0.0003558379600673337 0 -0.021407908931726893 -0.00023509535301361015 0 -0.021017106287382716 -0.0003558379600673337 0 -0.020830326395410374 -0.0004803088014472826 0 -0.021017106287382716 -0.0003558379600673337 0 -0.02033455297613285 -0.00040901174880559422 0 -0.020830326395410374 -0.0004803088014472826 0 -0.02033455297613285 -0.00040901174880559422 0 -0.02000479134647665 -0.00038766939965665905 0 -0.019461299181860878 -0.00033888850828499555 0 -0.02033455297613285 -0.00040901174880559422 0 -0.019646890525954825 -4.782396977174055e-07 0 -0.019461299181860878 -0.00033888850828499555 0 -0.021017106287382716 -0.0003558379600673337 0 -0.02033455297613285 -0.00040901174880559422 0 -0.019646890525954825 -4.782396977174055e-07 0 -0.021304193591614042 -0.00081038540093068855 0 -0.02091606516937998 -0.00059916980237230963 0 -0.020301021563988889 -0.00034975315245847218 0 -0.019514996695215683 -0.00091547861950548874 0 -0.019481776871331426 -0.00091798544900931309 0 -0.019412222464925476 -0.00091861962254888166 0 -0.025566435177707986 -0.0033031561487597283 0 -0.026135650791609372 -0.0032518098903056574 0 -0.025357424804627791 -0.0040826187130192223 0 -0.023115020422077075 -0.0012084516690085787 0 -0.022406265637018554 -0.0027277784469995226 0 -0.02008957235992739 -0.00110515886382695 0 -0.019289472708545665 -0.00097895197679211967 0 -0.019514996695215683 -0.00091547861950548874 0 -0.019481776871331426 -0.00091798544900931309 0 -0.019479612101518957 -0.00091976507844856266 0 -0.019481776871331426 -0.00091798544900931309 0 -0.019476032055775666 -0.00091996181954769345 0 -0.019412222464925476 -0.00091861962254888166 0 -0.020064438859941122 -0.0010723375288277113 0 -0.02008957235992739 -0.00110515886382695 0 -0.02159573856512818 -0.00079714099576155329 0 -0.021262336406090456 -0.00066363254757728868 0 -0.021057219822696323 -0.0005445054748244297 0 -0.021304193591614042 -0.00081038540093068855 0 -0.021262336406090456 -0.00066363254757728868 0 -0.02091606516937998 -0.00059916980237230963 0 -0.021304193591614042 -0.00081038540093068855 0 -0.02159573856512818 -0.00079714099576155329 0 -0.021262336406090456 -0.00066363254757728868 0 -0.021262336406090456 -0.00066363254757728868 0 -0.02091606516937998 -0.00059916980237230963 0 -0.021057219822696323 -0.0005445054748244297 0 -0.02033455297613285 -0.00040901174880559422 0 -0.020830326395410374 -0.0004803088014472826 0 -0.020505678492225277 -0.00046996840641210663 0 -0.02091606516937998 -0.00059916980237230963 0 -0.020830326395410374 -0.0004803088014472826 0 -0.020505678492225277 -0.00046996840641210663 0 -0.02091606516937998 -0.00059916980237230963 0 -0.021057219822696323 -0.0005445054748244297 0 -0.020830326395410374 -0.0004803088014472826 0 -0.02091606516937998 -0.00059916980237230963 0 -0.020505678492225277 -0.00046996840641210663 0 -0.020301021563988889 -0.00034975315245847218 0 -0.02033455297613285 -0.00040901174880559422 0 -0.020505678492225277 -0.00046996840641210663 0 -0.02000479134647665 -0.00038766939965665905 0 -0.020505678492225277 -0.00046996840641210663 0 -0.020301021563988889 -0.00034975315245847218 0 -0.02000479134647665 -0.00038766939965665905 0 -0.02008957235992739 -0.00110515886382695 0 -0.019664201851618081 -0.00061997591790674078 0 -0.01911474928323062 -0.0013002742792220464 0 -0.018985328481102116 -0.00078927559764364289 0 -0.019232620388553393 -0.0010018030074508252 0 -0.019188868390971881 -0.00080329317341808551 0 -0.018985328481102116 -0.00078927559764364289 0 -0.019232620388553393 -0.0010018030074508252 0 -0.019166710918872659 -0.00056371957288085914 0 -0.018985328481102116 -0.00078927559764364289 0 -0.018841908891311508 -0.00027967630906196891 0 -0.019664201851618081 -0.00061997591790674078 0 -0.019080797885532502 -0.00027586880690717717 0 -0.019188868390971881 -0.00080329317341808551 0 -0.019166710918872659 -0.00056371957288085914 0 -0.018985328481102116 -0.00078927559764364289 0 -0.02000479134647665 -0.00038766939965665905 0 -0.01927767396232823 -0.0002552264636186908 0 -0.019461299181860878 -0.00033888850828499555 0 -0.020301021563988889 -0.00034975315245847218 0 -0.02000479134647665 -0.00038766939965665905 0 -0.01927767396232823 -0.0002552264636186908 0 -0.018841908891311508 -0.00027967630906196891 0 -0.019162999683885257 -0.00010749669928672506 0 -0.019239606193021692 -0.00033876339610249462 0 -0.019166710918872659 -0.00056371957288085914 0 -0.018841908891311508 -0.00027967630906196891 0 -0.019239606193021692 -0.00033876339610249462 0 -0.019646890525954825 -4.782396977174055e-07 0 -0.019461299181860878 -0.00033888850828499555 0 -0.018465475967684972 -0.00028905624054510005 0 -0.01927767396232823 -0.0002552264636186908 0 -0.019461299181860878 -0.00033888850828499555 0 -0.018465475967684972 -0.00028905624054510005 0 -0.01927767396232823 -0.0002552264636186908 0 -0.018465475967684972 -0.00028905624054510005 0 -0.01841243204954263 -6.2930900474623668e-05 0 -0.019646890525954825 -4.782396977174055e-07 0 -0.018465475967684972 -0.00028905624054510005 0 -0.016950466666731636 -1.4827358641573898e-06 0 -0.018465475967684972 -0.00028905624054510005 0 -0.016950466666731636 -1.4827358641573898e-06 0 -0.017156787608437061 -7.4249411454473059e-05 0 -0.016950466666731636 -1.4827358641573898e-06 0 -0.017156787608437061 -7.4249411454473059e-05 0 -0.01425769370639654 3.5442279108926767e-06 0 -0.01425769370639654 3.5442279108926767e-06 0 -0.016511737334264937 0.00084841418437833587 0 -0.017236446891838928 0.00024846660406555786 0 -0.017156787608437061 -7.4249411454473059e-05 0 -0.01425769370639654 3.5442279108926767e-06 0 -0.017236446891838928 0.00024846660406555786 0 -0.018053916487473204 0.00039636642530536123 0 -0.018249003484490399 0.0010353702501023352 0 -0.017540334405127495 0.0011515112585568665 0 -0.017236446891838928 0.00024846660406555786 0 -0.018053916487473204 0.00039636642530536123 0 -0.017540334405127495 0.0011515112585568665 0 -0.016511737334264937 0.00084841418437833587 0 -0.017236446891838928 0.00024846660406555786 0 -0.017540334405127495 0.0011515112585568665 0 -0.017236446891838928 0.00024846660406555786 0 -0.018053916487473204 0.00039636642530536123 0 -0.01841243204954263 -6.2930900474623668e-05 0 -0.017156787608437061 -7.4249411454473059e-05 0 -0.017236446891838928 0.00024846660406555786 0 -0.01841243204954263 -6.2930900474623668e-05 0 -0.018465475967684972 -0.00028905624054510005 0 -0.017156787608437061 -7.4249411454473059e-05 0 -0.01841243204954263 -6.2930900474623668e-05 0 -0.018841908891311508 -0.00027967630906196891 0 -0.018872420548278108 0.00020462852216744087 0 -0.018697844032899615 0.0004210992882356204 0 -0.019080797885532502 -0.00027586880690717717 0 -0.018737097601151113 0.00037262406146267713 0 -0.01927767396232823 -0.0002552264636186908 0 -0.01841243204954263 -6.2930900474623668e-05 0 -0.018697844032899615 0.0004210992882356204 0 -0.018841908891311508 -0.00027967630906196891 0 -0.019048885964648869 7.2879071763003517e-05 0 -0.018872420548278108 0.00020462852216744087 0 -0.018841908891311508 -0.00027967630906196891 0 -0.019162999683885257 -0.00010749669928672506 0 -0.019048885964648869 7.2879071763003517e-05 0 -0.019162999683885257 -0.00010749669928672506 0 -0.019048885964648869 7.2879071763003517e-05 0 -0.019228212998362543 8.7902662307664346e-05 0 -0.019122589375887008 0.00020560969612405216 0 -0.018988233579054315 0.00025179816289694069 0 -0.019059231926432683 0.00030478813867343971 0 -0.019048885964648869 7.2879071763003517e-05 0 -0.019122589375887008 0.00020560969612405216 0 -0.019228212998362543 8.7902662307664346e-05 0 -0.019048885964648869 7.2879071763003517e-05 0 -0.019122589375887008 0.00020560969612405216 0 -0.018988233579054315 0.00025179816289694069 0 -0.019048885964648869 7.2879071763003517e-05 0 -0.018988233579054315 0.00025179816289694069 0 -0.018872420548278108 0.00020462852216744087 0 -0.018988233579054315 0.00025179816289694069 0 -0.018872420548278108 0.00020462852216744087 0 -0.018890391782309064 0.00029831859594808548 0 -0.018988233579054315 0.00025179816289694069 0 -0.018919458031374112 0.00033475220605307598 0 -0.018890391782309064 0.00029831859594808548 0 -0.018919458031374112 0.00033475220605307598 0 -0.018916125144049674 0.00038291078528510613 0 -0.018979136729629659 0.00032626683198836218 0 -0.018919458031374112 0.00033475220605307598 0 -0.018916125144049674 0.00038291078528510613 0 -0.018881282950961153 0.00038017052484968226 0 -0.018916125144049674 0.00038291078528510613 0 -0.01898747717155326 0.00037287679874966197 0 -0.018979136729629659 0.00032626683198836218 0 -0.01898747717155326 0.00037287679874966197 0 -0.018979136729629659 0.00032626683198836218 0 -0.019059231926432683 0.00030478813867343971 0 -0.018988233579054315 0.00025179816289694069 0 -0.018979136729629659 0.00032626683198836218 0 -0.019059231926432683 0.00030478813867343971 0 -0.018988233579054315 0.00025179816289694069 0 -0.018919458031374112 0.00033475220605307598 0 -0.018979136729629659 0.00032626683198836218 0 -0.01898747717155326 0.00037287679874966197 0 -0.019059231926432683 0.00030478813867343971 0 -0.019071894451542719 0.00037821869563719882 0 -0.019059231926432683 0.00030478813867343971 0 -0.019146451699480371 0.00030648539866954763 0 -0.019071894451542719 0.00037821869563719882 0 -0.019122589375887008 0.00020560969612405216 0 -0.019059231926432683 0.00030478813867343971 0 -0.019146451699480371 0.00030648539866954763 0 -0.018053916487473204 0.00039636642530536123 0 -0.01841243204954263 -6.2930900474623668e-05 0 -0.018697844032899615 0.0004210992882356204 0 -0.018872420548278108 0.00020462852216744087 0 -0.018890391782309064 0.00029831859594808548 0 -0.0188197317803105 0.00032381640788815662 0 -0.018890391782309064 0.00029831859594808548 0 -0.0188197317803105 0.00032381640788815662 0 -0.018849839262204272 0.0003657610470208593 0 -0.018872420548278108 0.00020462852216744087 0 -0.0188197317803105 0.00032381640788815662 0 -0.018697844032899615 0.0004210992882356204 0 -0.0188197317803105 0.00032381640788815662 0 -0.018797252194350869 0.00039840070559413697 0 -0.018697844032899615 0.0004210992882356204 0 -0.0188197317803105 0.00032381640788815662 0 -0.018797252194350869 0.00039840070559413697 0 -0.018849839262204272 0.0003657610470208593 0 -0.018797252194350869 0.00039840070559413697 0 -0.018849839262204272 0.0003657610470208593 0 -0.018839447018096461 0.00043999281987989737 0 -0.018849839262204272 0.0003657610470208593 0 -0.018881282950961153 0.00038017052484968226 0 -0.018839447018096461 0.00043999281987989737 0 -0.018919458031374112 0.00033475220605307598 0 -0.018849839262204272 0.0003657610470208593 0 -0.018881282950961153 0.00038017052484968226 0 -0.018919458031374112 0.00033475220605307598 0 -0.018890391782309064 0.00029831859594808548 0 -0.018849839262204272 0.0003657610470208593 0 -0.018916125144049674 0.00038291078528510613 0 -0.018881282950961153 0.00038017052484968226 0 -0.018839447018096461 0.00043999281987989737 0 -0.018053916487473204 0.00039636642530536123 0 -0.018697844032899615 0.0004210992882356204 0 -0.018249003484490399 0.0010353702501023352 0 -0.018797252194350869 0.00039840070559413697 0 -0.018697844032899615 0.0004210992882356204 0 -0.018249003484490399 0.0010353702501023352 0 -0.018797252194350869 0.00039840070559413697 0 -0.018249003484490399 0.0010353702501023352 0 -0.018240396909171921 0.0030036707725013328 0 -0.0196169022668027 0.00066914874664906771 0 -0.015535498022249485 0.0010164883082906229 0 -0.018839447018096461 0.00043999281987989737 0 -0.018891358082356865 0.00049274742949955872 0 -0.018734713506691748 0.00056582521144470208 0 -0.018797252194350869 0.00039840070559413697 0 -0.018839447018096461 0.00043999281987989737 0 -0.018734713506691748 0.00056582521144470208 0 -0.018839447018096461 0.00043999281987989737 0 -0.018891358082356865 0.00049274742949955872 0 -0.018908489914518739 0.00042292417147827925 0 -0.018916125144049674 0.00038291078528510613 0 -0.018839447018096461 0.00043999281987989737 0 -0.018908489914518739 0.00042292417147827925 0 -0.019146451699480371 0.00030648539866954763 0 -0.019071894451542719 0.00037821869563719882 0 -0.019166171400678226 0.00039179662535325163 0 -0.019071894451542719 0.00037821869563719882 0 -0.01902381837138592 0.00048887646534767713 0 -0.019166171400678226 0.00039179662535325163 0 -0.019071894451542719 0.00037821869563719882 0 -0.018974437763936817 0.000432635355900838 0 -0.01902381837138592 0.00048887646534767713 0 -0.018891358082356865 0.00049274742949955872 0 -0.018974437763936817 0.000432635355900838 0 -0.018908489914518739 0.00042292417147827925 0 -0.01898747717155326 0.00037287679874966197 0 -0.018974437763936817 0.000432635355900838 0 -0.018908489914518739 0.00042292417147827925 0 -0.01898747717155326 0.00037287679874966197 0 -0.019071894451542719 0.00037821869563719882 0 -0.018974437763936817 0.000432635355900838 0 -0.018916125144049674 0.00038291078528510613 0 -0.01898747717155326 0.00037287679874966197 0 -0.018908489914518739 0.00042292417147827925 0 -0.018891358082356865 0.00049274742949955872 0 -0.01902381837138592 0.00048887646534767713 0 -0.018924091628026374 0.00057892872965910401 0 -0.018891358082356865 0.00049274742949955872 0 -0.018974437763936817 0.000432635355900838 0 -0.01902381837138592 0.00048887646534767713 0 -0.01902381837138592 0.00048887646534767713 0 -0.019176099151425426 0.00047077195497600098 0 -0.019166171400678226 0.00039179662535325163 0 -0.019075381174629164 0.00060342357861145276 0 -0.018939193250416972 0.00075299530218935016 0 -0.019230809884855735 0.00066832451551448384 0 -0.01902381837138592 0.00048887646534767713 0 -0.018924091628026374 0.00057892872965910401 0 -0.019075381174629164 0.00060342357861145276 0 -0.01902381837138592 0.00048887646534767713 0 -0.019075381174629164 0.00060342357861145276 0 -0.019176099151425426 0.00047077195497600098 0 -0.018924091628026374 0.00057892872965910401 0 -0.019075381174629164 0.00060342357861145276 0 -0.018939193250416972 0.00075299530218935016 0 -0.012667803357219601 0.0011377055763338226 0 -0.012751637414581152 0.00083436426927413845 0 -0.011773542481123502 0.0004921625671069882 0 -0.018924091628026374 0.00057892872965910401 0 -0.018734713506691748 0.00056582521144470208 0 -0.018939193250416972 0.00075299530218935016 0 -0.018891358082356865 0.00049274742949955872 0 -0.018924091628026374 0.00057892872965910401 0 -0.018734713506691748 0.00056582521144470208 0 -0.015535498022249485 0.0010164883082906229 0 -0.011565291545780931 0.00084369645299678853 0 -0.010999015324988266 -2.285601906018302e-05 0 -0.011044038320715996 -0.00018601364985054779 0 -0.011325494276474314 -0.00011270430079153626 0 -0.010999015324988266 -2.285601906018302e-05 0 -0.011325494276474314 -0.00011270430079153626 0 -0.011687806484661811 0.00028620931983541938 0 -0.015535498022249485 0.0010164883082906229 0 -0.0095023090443480673 0.0011708595439416762 0 -0.010771471820531073 -0.00013289772330307261 0 -0.011325494276474314 -0.00011270430079153626 0 -0.010805993964414885 -0.00018611894187031837 0 -0.0095023090443480673 0.0011708595439416762 0 -0.011359547465295824 0.00022862373491341881 0 -0.011325494276474314 -0.00011270430079153626 0 -0.011804185947592992 -7.5153850063140899e-07 0 -0.010647705113480834 -0.00019380717322798452 0 -0.011325494276474314 -0.00011270430079153626 0 -0.011804185947592992 -7.5153850063140899e-07 0 -0.012241696529722935 6.7411898723508491e-06 0 -0.011325494276474314 -0.00011270430079153626 0 -0.012241696529722935 6.7411898723508491e-06 0 -0.011687806484661811 0.00028620931983541938 0 -0.014250409390643591 1.5852521493303029e-06 0 -0.011804185947592992 -7.5153850063140899e-07 0 -0.012241696529722935 6.7411898723508491e-06 0 -0.014252916576345859 4.1442216688836445e-07 0 -0.014113638595632791 0.0010023485860905065 0 -0.01425769370639654 3.5442279108926767e-06 0 -0.016511737334264937 0.00084841418437833587 0 -0.01668475896234474 0.0020906802509313362 0 -0.014250409390643591 1.5852521493303029e-06 0 -0.012241696529722935 6.7411898723508491e-06 0 -0.011687806484661811 0.00028620931983541938 0 -0.018240396909171921 0.0030036707725013328 0 -0.017540334405127495 0.0011515112585568665 0 -0.01668475896234474 0.0020906802509313362 0 -0.015535498022249485 0.0010164883082906229 0 -0.014113638595632791 0.0010023485860905065 0 -0.018249003484490399 0.0010353702501023352 0 -0.018240396909171921 0.0030036707725013328 0 -0.017540334405127495 0.0011515112585568665 0 -0.016511737334264937 0.00084841418437833587 0 -0.017540334405127495 0.0011515112585568665 0 -0.01668475896234474 0.0020906802509313362 0 -0.019668525076025255 0.00037964806346147914 0 -0.019742340505113542 0.0003348368743157135 0 -0.019677421869163131 0.00034743812670034709 0 -0.019668525076025255 0.00037964806346147914 0 -0.019742340505113542 0.0003348368743157135 0 -0.019703274994964055 0.00032954299106809738 0 -0.019668525076025255 0.00037964806346147914 0 -0.019569509985545359 0.00037061165489690794 0 -0.019703274994964055 0.00032954299106809738 0 -0.019742340505113542 0.0003348368743157135 0 -0.019686997057362571 0.00030480848665218822 0 -0.019882836319973618 0.00036228642166895195 0 -0.019742340505113542 0.0003348368743157135 0 -0.019686997057362571 0.00030480848665218822 0 -0.01964697619881374 0.00029539820263401628 0 -0.019742340505113542 0.0003348368743157135 0 -0.01964697619881374 0.00029539820263401628 0 -0.019677421869163131 0.00034743812670034709 0 -0.01964697619881374 0.00029539820263401628 0 -0.019596701522442334 0.00026850164690048591 0 -0.019677421869163131 0.00034743812670034709 0 -0.019596701522442334 0.00026850164690048591 0 -0.019677421869163131 0.00034743812670034709 0 -0.01964632741510295 0.00031302080151907524 0 -0.019677421869163131 0.00034743812670034709 0 -0.019665420751256442 0.00043065321045839602 0 -0.01964632741510295 0.00031302080151907524 0 -0.019668525076025255 0.00037964806346147914 0 -0.019677421869163131 0.00034743812670034709 0 -0.019665420751256442 0.00043065321045839602 0 -0.019425082583487286 0.00057889833512333262 0 -0.019523010571719328 0.00043740502554490569 0 -0.019317951548167334 0.00050558622742514277 0 -0.019668525076025255 0.00037964806346147914 0 -0.019665420751256442 0.00043065321045839602 0 -0.019523010571719328 0.00043740502554490569 0 -0.019665420751256442 0.00043065321045839602 0 -0.019425082583487286 0.00057889833512333262 0 -0.019523010571719328 0.00043740502554490569 0 -0.019075381174629164 0.00060342357861145276 0 -0.019317951548167334 0.00050558622742514277 0 -0.019230809884855735 0.00066832451551448384 0 -0.019425082583487286 0.00057889833512333262 0 -0.019317951548167334 0.00050558622742514277 0 -0.019230809884855735 0.00066832451551448384 0 -0.019075381174629164 0.00060342357861145276 0 -0.019317951548167334 0.00050558622742514277 0 -0.019176099151425426 0.00047077195497600098 0 -0.019317951548167334 0.00050558622742514277 0 -0.019176099151425426 0.00047077195497600098 0 -0.019287327223293873 0.00039326943482722812 0 -0.019176099151425426 0.00047077195497600098 0 -0.019287327223293873 0.00039326943482722812 0 -0.019166171400678226 0.00039179662535325163 0 -0.019317951548167334 0.00050558622742514277 0 -0.019287327223293873 0.00039326943482722812 0 -0.019436105545590474 0.00038267811411994105 0 -0.019287327223293873 0.00039326943482722812 0 -0.01925378727670253 0.00029917766658279138 0 -0.019371183329918849 0.00029395239546687983 0 -0.019287327223293873 0.00039326943482722812 0 -0.019436105545590474 0.00038267811411994105 0 -0.019371183329918849 0.00029395239546687983 0 -0.019146451699480371 0.00030648539866954763 0 -0.019166171400678226 0.00039179662535325163 0 -0.01925378727670253 0.00029917766658279138 0 -0.019287327223293873 0.00039326943482722812 0 -0.019166171400678226 0.00039179662535325163 0 -0.01925378727670253 0.00029917766658279138 0 -0.019668525076025255 0.00037964806346147914 0 -0.019523010571719328 0.00043740502554490569 0 -0.019569509985545359 0.00037061165489690794 0 -0.019523010571719328 0.00043740502554490569 0 -0.019317951548167334 0.00050558622742514277 0 -0.019436105545590474 0.00038267811411994105 0 -0.019523010571719328 0.00043740502554490569 0 -0.019436105545590474 0.00038267811411994105 0 -0.019569509985545359 0.00037061165489690794 0 -0.019436105545590474 0.00038267811411994105 0 -0.019569509985545359 0.00037061165489690794 0 -0.019515415984850876 0.00029310280231956235 0 -0.019436105545590474 0.00038267811411994105 0 -0.019515415984850876 0.00029310280231956235 0 -0.019371183329918849 0.00029395239546687983 0 -0.019569509985545359 0.00037061165489690794 0 -0.019515415984850876 0.00029310280231956235 0 -0.019703274994964055 0.00032954299106809738 0 -0.019515415984850876 0.00029310280231956235 0 -0.019603439726428036 0.00017513931773265905 0 -0.019703274994964055 0.00032954299106809738 0 -0.019515415984850876 0.00029310280231956235 0 -0.019455754010602136 0.00021020948141351324 0 -0.019603439726428036 0.00017513931773265905 0 -0.019515415984850876 0.00029310280231956235 0 -0.019455754010602136 0.00021020948141351324 0 -0.019371183329918849 0.00029395239546687983 0 -0.019455055374248621 9.5509214623549154e-05 0 -0.019603439726428036 0.00017513931773265905 0 -0.019561881962494112 7.3080107775381266e-06 0 -0.019455754010602136 0.00021020948141351324 0 -0.019455055374248621 9.5509214623549154e-05 0 -0.019603439726428036 0.00017513931773265905 0 -0.019122589375887008 0.00020560969612405216 0 -0.019146451699480371 0.00030648539866954763 0 -0.019214397073056704 0.00023039151292830721 0 -0.019146451699480371 0.00030648539866954763 0 -0.019214397073056704 0.00023039151292830721 0 -0.01925378727670253 0.00029917766658279138 0 -0.019214397073056704 0.00023039151292830721 0 -0.01925378727670253 0.00029917766658279138 0 -0.019328880007248327 0.00018712809952805054 0 -0.019455754010602136 0.00021020948141351324 0 -0.019371183329918849 0.00029395239546687983 0 -0.019328880007248327 0.00018712809952805054 0 -0.01925378727670253 0.00029917766658279138 0 -0.019371183329918849 0.00029395239546687983 0 -0.019328880007248327 0.00018712809952805054 0 -0.019328880007248327 0.00018712809952805054 0 -0.019228212998362543 8.7902662307664346e-05 0 -0.019360104646537243 3.2599014174183248e-05 0 -0.019455055374248621 9.5509214623549154e-05 0 -0.019328880007248327 0.00018712809952805054 0 -0.019360104646537243 3.2599014174183248e-05 0 -0.019455754010602136 0.00021020948141351324 0 -0.019455055374248621 9.5509214623549154e-05 0 -0.019328880007248327 0.00018712809952805054 0 -0.019214397073056704 0.00023039151292830721 0 -0.019328880007248327 0.00018712809952805054 0 -0.019228212998362543 8.7902662307664346e-05 0 -0.019122589375887008 0.00020560969612405216 0 -0.019214397073056704 0.00023039151292830721 0 -0.019228212998362543 8.7902662307664346e-05 0 -0.019162999683885257 -0.00010749669928672506 0 -0.019228212998362543 8.7902662307664346e-05 0 -0.019312630469372975 -0.00011639182534236625 0 -0.019228212998362543 8.7902662307664346e-05 0 -0.019360104646537243 3.2599014174183248e-05 0 -0.019312630469372975 -0.00011639182534236625 0 -0.019455055374248621 9.5509214623549154e-05 0 -0.019360104646537243 3.2599014174183248e-05 0 -0.019459112194441866 -8.47315762201469e-05 0 -0.019360104646537243 3.2599014174183248e-05 0 -0.019312630469372975 -0.00011639182534236625 0 -0.019459112194441866 -8.47315762201469e-05 0 -0.019312630469372975 -0.00011639182534236625 0 -0.019459112194441866 -8.47315762201469e-05 0 -0.019421969777622686 -0.00029903803916567288 0 -0.019162999683885257 -0.00010749669928672506 0 -0.019312630469372975 -0.00011639182534236625 0 -0.019239606193021692 -0.00033876339610249462 0 -0.019603439726428036 0.00017513931773265905 0 -0.019561881962494112 7.3080107775381266e-06 0 -0.019705696461993511 -8.5562188507750891e-05 0 -0.019455055374248621 9.5509214623549154e-05 0 -0.019561881962494112 7.3080107775381266e-06 0 -0.019459112194441866 -8.47315762201469e-05 0 -0.019561881962494112 7.3080107775381266e-06 0 -0.019459112194441866 -8.47315762201469e-05 0 -0.019589983087944501 -0.00023549016631289798 0 -0.019459112194441866 -8.47315762201469e-05 0 -0.019421969777622686 -0.00029903803916567288 0 -0.019589983087944501 -0.00023549016631289798 0 -0.019561881962494112 7.3080107775381266e-06 0 -0.019705696461993511 -8.5562188507750891e-05 0 -0.019589983087944501 -0.00023549016631289798 0 -0.019705696461993511 -8.5562188507750891e-05 0 -0.019797821578869477 0.00017806316582951264 0 -0.020259269531781442 1.9116230816307065e-06 0 -0.020290565090725 -2.9427887694182102e-05 0 -0.019592486270720768 -0.00050474980596533687 0 -0.019705696461993511 -8.5562188507750891e-05 0 -0.020259269531781442 1.9116230816307065e-06 0 -0.01983061366202693 -0.00037037096355080167 0 -0.019603439726428036 0.00017513931773265905 0 -0.019705696461993511 -8.5562188507750891e-05 0 -0.019797821578869477 0.00017806316582951264 0 -0.019603439726428036 0.00017513931773265905 0 -0.019797821578869477 0.00017806316582951264 0 -0.019703274994964055 0.00032954299106809738 0 -0.019797821578869477 0.00017806316582951264 0 -0.019882836319973618 0.00036228642166895195 0 -0.020259269531781442 1.9116230816307065e-06 0 -0.019742340505113542 0.0003348368743157135 0 -0.019882836319973618 0.00036228642166895195 0 -0.019703274994964055 0.00032954299106809738 0 -0.019797821578869477 0.00017806316582951264 0 -0.019882836319973618 0.00036228642166895195 0 -0.019703274994964055 0.00032954299106809738 0 -0.019882836319973618 0.00036228642166895195 0 -0.020259269531781442 1.9116230816307065e-06 0 -0.020996190653836646 0.00043428010561738598 0 -0.019686997057362571 0.00030480848665218822 0 -0.019882836319973618 0.00036228642166895195 0 -0.019604356422356899 0.00033604640941053038 0 -0.019926369823522978 0.00037606837973275036 0 -0.020313881855237081 0.00036177836691983175 0 -0.020259269531781442 1.9116230816307065e-06 0 -0.020359534673963339 -0.00064955726510073221 0 -0.019766941491847888 -0.0008203773668435711 0 -0.020259269531781442 1.9116230816307065e-06 0 -0.020359534673963339 -0.00064955726510073221 0 -0.021079344125133351 -0.00010707439243210019 0 -0.020259269531781442 1.9116230816307065e-06 0 -0.020996190653836646 0.00043428010561738598 0 -0.021079344125133351 -0.00010707439243210019 0 -0.020359534673963339 -0.00064955726510073221 0 -0.020551610580138741 -0.0013019502888355521 0 -0.021251853826168034 -0.00050741409470891853 0 -0.020359534673963339 -0.00064955726510073221 0 -0.019766941491847888 -0.0008203773668435711 0 -0.020551610580138741 -0.0013019502888355521 0 -0.019766941491847888 -0.0008203773668435711 0 -0.019796730749427366 -0.0014673126097734422 0 -0.019228167864018687 -0.0016109295214736198 0 -0.019796730749427366 -0.0014673126097734422 0 -0.020551610580138741 -0.0013019502888355521 0 -0.020017248017421264 -0.0019510328139379157 0 -0.019766941491847888 -0.0008203773668435711 0 -0.019796730749427366 -0.0014673126097734422 0 -0.020551610580138741 -0.0013019502888355521 0 -0.019796730749427366 -0.0014673126097734422 0 -0.020017248017421264 -0.0019510328139379157 0 -0.019638310272384642 -0.0019097058851017029 0 -0.020839845548123164 -0.0010770462245201216 0 -0.020173934713879734 -0.0016568518746163225 0 -0.021076642424519374 -0.0009056457605054884 0 -0.021192650173056698 -0.001265751072444669 0 -0.020669475732694998 -0.0013721056412036203 0 -0.019166710918872659 -0.00056371957288085914 0 -0.019239606193021692 -0.00033876339610249462 0 -0.019357611557668311 -0.00048820983470324687 0 -0.019312630469372975 -0.00011639182534236625 0 -0.019239606193021692 -0.00033876339610249462 0 -0.019421969777622686 -0.00029903803916567288 0 -0.019421969777622686 -0.00029903803916567288 0 -0.019357611557668311 -0.00048820983470324687 0 -0.019534500591669349 -0.0005422267631816298 0 -0.019239606193021692 -0.00033876339610249462 0 -0.019421969777622686 -0.00029903803916567288 0 -0.019357611557668311 -0.00048820983470324687 0 -0.019421969777622686 -0.00029903803916567288 0 -0.019589983087944501 -0.00023549016631289798 0 -0.019534500591669349 -0.0005422267631816298 0 -0.01983061366202693 -0.00037037096355080167 0 -0.019589983087944501 -0.00023549016631289798 0 -0.019534500591669349 -0.0005422267631816298 0 -0.019705696461993511 -8.5562188507750891e-05 0 -0.01983061366202693 -0.00037037096355080167 0 -0.019589983087944501 -0.00023549016631289798 0 -0.019592486270720768 -0.00050474980596533687 0 -0.021308561171286145 -0.0022082577219578229 0 -0.01983061366202693 -0.00037037096355080167 0 -0.019580348798508406 -0.00069902435880298507 0 -0.019534500591669349 -0.0005422267631816298 0 -0.019796730749427366 -0.0014673126097734422 0 -0.019228167864018687 -0.0016109295214736198 0 -0.019638310272384642 -0.0019097058851017029 0 -0.021308561171286145 -0.0022082577219578229 0 -0.020103276519785558 -0.00036682165103139983 0 -0.019563092357369759 -0.00068904723079054372 0 -0.019534500591669349 -0.0005422267631816298 0 -0.019373364445695304 -0.00069363125408926081 0 -0.019357611557668311 -0.00048820983470324687 0 -0.019534500591669349 -0.0005422267631816298 0 -0.019373364445695304 -0.00069363125408926081 0 -0.019188868390971881 -0.00080329317341808551 0 -0.019166710918872659 -0.00056371957288085914 0 -0.019373364445695304 -0.00069363125408926081 0 -0.019166710918872659 -0.00056371957288085914 0 -0.019357611557668311 -0.00048820983470324687 0 -0.019373364445695304 -0.00069363125408926081 0 -0.019188868390971881 -0.00080329317341808551 0 -0.019373364445695304 -0.00069363125408926081 0 -0.019232620388553393 -0.0010018030074508252 0 -0.019382030323292006 -0.00070382527141166554 0 -0.019289472708545665 -0.00097895197679211967 0 -0.019563092357369759 -0.00068904723079054372 0 -0.019373364445695304 -0.00069363125408926081 0 -0.019412222464925476 -0.00091861962254888166 0 -0.024669514246117352 -0.0048626670870672815 0 -0.024913556747707396 -0.0038852125694289683 0 -0.025357424804627791 -0.0040826187130192223 0 -0.021308561171286145 -0.0022082577219578229 0 -0.022406265637018554 -0.0027277784469995226 0 -0.019373364445695304 -0.00069363125408926081 0 -0.019379614113176527 -0.0008860084978892592 0 -0.019412222464925476 -0.00091861962254888166 0 -0.024669514246117352 -0.0048626670870672815 0 -0.024427750357298262 -0.0038643525397227619 0 -0.024913556747707396 -0.0038852125694289683 0 -0.021308561171286145 -0.0022082577219578229 0 -0.02163063345496416 -0.0031022441011919017 0 -0.019228167864018687 -0.0016109295214736198 0 -0.019512984209458507 -0.0026052219291198618 0 -0.019638310272384642 -0.0019097058851017029 0 -0.02449174180459783 -0.0034627011504482419 0 -0.02163063345496416 -0.0031022441011919017 0 -0.025008385670262902 -0.0034144224835182878 0 -0.025011043009417842 -0.0031805222125326675 0 -0.024427750357298262 -0.0038643525397227619 0 -0.025008385670262902 -0.0034144224835182878 0 -0.024427750357298262 -0.0038643525397227619 0 -0.024913556747707396 -0.0038852125694289683 0 -0.019476032055775666 -0.00091996181954769345 0 -0.019379614113176527 -0.0008860084978892592 0 -0.019412222464925476 -0.00091861962254888166 0 -0.025008385670262902 -0.0034144224835182878 0 -0.025566435177707986 -0.0033031561487597283 0 -0.025357424804627791 -0.0040826187130192223 0 -0.025008385670262902 -0.0034144224835182878 0 -0.024913556747707396 -0.0038852125694289683 0 -0.025357424804627791 -0.0040826187130192223 0 -0.021042530691378167 -0.00160901401918138 0 -0.021192650173056698 -0.001265751072444669 0 -0.020669475732694998 -0.0013721056412036203 0 -0.021042530691378167 -0.00160901401918138 0 -0.02119125696709134 -0.0020330805086328269 0 -0.021491276936768 -0.0015275231881200022 0 -0.021042530691378167 -0.00160901401918138 0 -0.021192650173056698 -0.001265751072444669 0 -0.021491276936768 -0.0015275231881200022 0 -0.020196842703922059 -0.0019384719014925108 0 -0.020669475732694998 -0.0013721056412036203 0 -0.020639394547152679 -0.0018958014836465934 0 -0.02163063345496416 -0.0031022441011919017 0 -0.020173934713879734 -0.0016568518746163225 0 -0.019512984209458507 -0.0026052219291198618 0 -0.020017248017421264 -0.0019510328139379157 0 -0.019638310272384642 -0.0019097058851017029 0 -0.021042530691378167 -0.00160901401918138 0 -0.020669475732694998 -0.0013721056412036203 0 -0.020639394547152679 -0.0018958014836465934 0 -0.020990005419061358 -0.0029856255967645826 0 -0.02163063345496416 -0.0031022441011919017 0 -0.020204882231714526 -0.0026489094301796468 0 -0.020844027196232854 -0.0024368530821689124 0 -0.020639394547152679 -0.0018958014836465934 0 -0.020990005419061358 -0.0029856255967645826 0 -0.020536615828833541 -0.0019044141064778056 0 -0.020352148406977806 -0.0025185517808927736 0 -0.020196842703922059 -0.0019384719014925108 0 -0.020639394547152679 -0.0018958014836465934 0 -0.020844027196232854 -0.0024368530821689124 0 -0.020639394547152679 -0.0018958014836465934 0 -0.02119125696709134 -0.0020330805086328269 0 -0.021042530691378167 -0.00160901401918138 0 -0.020639394547152679 -0.0018958014836465934 0 -0.02119125696709134 -0.0020330805086328269 0 -0.02119125696709134 -0.0020330805086328269 0 -0.021841822174162497 -0.0021316681995841203 0 -0.021491276936768 -0.0015275231881200022 0 -0.021389284233176889 -0.0026634156905426319 0 -0.02119125696709134 -0.0020330805086328269 0 -0.021841822174162497 -0.0021316681995841203 0 -0.021491276936768 -0.0015275231881200022 0 -0.022033054855922069 -0.001293423178209966 0 -0.021591597330119103 -0.00097111319932898692 0 -0.021841822174162497 -0.0021316681995841203 0 -0.021491276936768 -0.0015275231881200022 0 -0.022033054855922069 -0.001293423178209966 0 -0.021841822174162497 -0.0021316681995841203 0 -0.022033054855922069 -0.001293423178209966 0 -0.022500285852016067 -0.0020492698634646191 0 -0.023089313463358241 -0.0017613341651801003 0 -0.023757835350905306 -0.00096949285049002961 0 -0.023706720632175306 -0.0013704756878654225 0 -0.024636714377979277 -0.00063968203527521171 0 -0.025275675090857916 -0.0013760735414614636 0 -0.022033054855922069 -0.001293423178209966 0 -0.022500285852016067 -0.0020492698634646191 0 -0.022945858888916738 -0.0013737026642643762 0 -0.022033054855922069 -0.001293423178209966 0 -0.022945858888916738 -0.0013737026642643762 0 -0.022496775400060471 -0.00078834993705719782 0 -0.022496775400060471 -0.00078834993705719782 0 -0.022748648442446808 -0.00019759750366698134 0 -0.022276200672712576 -7.8262783707218171e-05 0 -0.021979859644380189 -0.0012635922810182486 0 -0.022420556251897292 -0.00033623751788441772 0 -0.022033054855922069 -0.001293423178209966 0 -0.022496775400060471 -0.00078834993705719782 0 -0.022276200672712576 -7.8262783707218171e-05 0 -0.022945858888916738 -0.0013737026642643762 0 -0.022496775400060471 -0.00078834993705719782 0 -0.022748648442446808 -0.00019759750366698134 0 -0.022945858888916738 -0.0013737026642643762 0 -0.022748648442446808 -0.00019759750366698134 0 -0.023807298833907718 -0.0004180646346072732 0 -0.022748648442446808 -0.00019759750366698134 0 -0.022673761168116952 9.5430758699925096e-05 0 -0.02246435810985355 9.3945057039075377e-05 0 -0.022748648442446808 -0.00019759750366698134 0 -0.022276200672712576 -7.8262783707218171e-05 0 -0.02246435810985355 9.3945057039075377e-05 0 -0.022210087979026454 -0.00065809705816236345 0 -0.021591597330119103 -0.00097111319932898692 0 -0.021743626092135131 -0.00032998560393035698 0 -0.021251853826168034 -0.00050741409470891853 0 -0.021591597330119103 -0.00097111319932898692 0 -0.021743626092135131 -0.00032998560393035698 0 -0.020839845548123164 -0.0010770462245201216 0 -0.021223079547956453 -0.00055510642716031047 0 -0.021076642424519374 -0.0009056457605054884 0 -0.021251853826168034 -0.00050741409470891853 0 -0.021591597330119103 -0.00097111319932898692 0 -0.021192650173056698 -0.001265751072444669 0 -0.021491276936768 -0.0015275231881200022 0 -0.021591597330119103 -0.00097111319932898692 0 -0.021076642424519374 -0.0009056457605054884 0 -0.021192650173056698 -0.001265751072444669 0 -0.021591597330119103 -0.00097111319932898692 0 -0.022033054855922069 -0.001293423178209966 0 -0.022210087979026454 -0.00065809705816236345 0 -0.021591597330119103 -0.00097111319932898692 0 -0.024737003650585107 -0.00050537071668662432 0 -0.024753581443294457 -0.00098624171729065711 0 -0.024435159776554364 -0.0009860022295675524 0 -0.024737003650585107 -0.00050537071668662432 0 -0.024435159776554364 -0.0009860022295675524 0 -0.024328827392214841 -0.00032327526459931532 0 -0.024737003650585107 -0.00050537071668662432 0 -0.024753581443294457 -0.00098624171729065711 0 -0.025224756587839407 -0.0013402242378916988 0 -0.022715544958525756 -0.00063980326445277997 0 -0.024777795844797629 -0.0010905244205926482 0 -0.027620631403005705 -0.0015168405889415151 0 -0.027089554016485357 -0.0012080710986835707 0 -0.02807303093096589 -0.0010788316577750913 0 -0.024671974836069512 -0.0014107339684038445 0 -0.024753581443294457 -0.00098624171729065711 0 -0.025224756587839407 -0.0013402242378916988 0 -0.026942510208369696 -0.0012569497816800885 0 -0.024777795844797629 -0.0010905244205926482 0 -0.026463447833413589 -0.0015199562632747189 0 -0.026705629370794966 -0.0014885386790275664 0 -0.026373204271412678 -0.0008620341104245197 0 -0.027410714272222716 -0.0012589053466972595 0 -0.025548687106465576 -0.0010403438067022603 0 -0.028208974576011361 -0.0015017518640284249 0 -0.028148563303970902 -0.0012976228903519584 0 -0.028214754552150903 -0.0012361235721236609 0 -0.028664106319986199 -0.001524694458063081 0 -0.027410714272222716 -0.0012589053466972595 0 -0.028089923641080643 -0.0014151093365910143 0 -0.02806751018239043 -0.0012553529993170325 0 -0.028148563303970902 -0.0012976228903519584 0 -0.027410714272222716 -0.0012589053466972595 0 -0.026942510208369696 -0.0012569497816800885 0 -0.02806751018239043 -0.0012553529993170325 0 -0.028148563303970902 -0.0012976228903519584 0 -0.028214754552150903 -0.0012361235721236609 0 -0.026942510208369696 -0.0012569497816800885 0 -0.025548687106465576 -0.0010403438067022603 0 -0.026942510208369696 -0.0012569497816800885 0 -0.025553039618948451 -0.0013414334456330339 0 -0.024674691076599642 -0.0014188456177891163 0 -0.024753581443294457 -0.00098624171729065711 0 -0.024435159776554364 -0.0009860022295675524 0 -0.026247740319766833 -0.0011572740513280072 0 -0.026155261401191062 -0.0012621661533271373 0 -0.025860471170917866 -0.0010607525194922373 0 -0.026244424862407845 -0.001339347736772388 0 -0.026247740319766833 -0.0011572740513280072 0 -0.026155261401191062 -0.0012621661533271373 0 -0.027477466031348267 -0.0011527150022574021 0 -0.026225338457753933 -0.00087451802512994534 0 -0.026155261401191062 -0.0012621661533271373 0 -0.026178310107768922 -0.001333120820324983 0 -0.02614223919269875 -0.0012586652106900999 0 -0.026244424862407845 -0.001339347736772388 0 -0.026155261401191062 -0.0012621661533271373 0 -0.026178310107768922 -0.001333120820324983 0 -0.0280253894264333 -0.0012633685801413262 0 -0.027995203118063621 -0.0010382396793390167 0 -0.027759414154042848 -0.0010682241283672068 0 -0.028664106319986199 -0.001524694458063081 0 -0.027477466031348267 -0.0011527150022574021 0 -0.027410714272222716 -0.0012589053466972595 0 -0.027477466031348267 -0.0011527150022574021 0 -0.027050831285280252 -0.0010654326111636475 0 -0.027477466031348267 -0.0011527150022574021 0 -0.026887338401989685 -0.0011938855927376734 0 -0.025704451969711578 -0.00092427902555219986 0 -0.02614223919269875 -0.0012586652106900999 0 -0.026155261401191062 -0.0012621661533271373 0 -0.02614223919269875 -0.0012586652106900999 0 -0.025860471170917866 -0.0010607525194922373 0 -0.02614223919269875 -0.0012586652106900999 0 -0.025860471170917866 -0.0010607525194922373 0 -0.025832331817263729 -0.0010768785206949976 0 -0.025860471170917866 -0.0010607525194922373 0 -0.02554050818695754 -0.00061012968497249685 0 -0.025297752803497366 -0.0008161040279399506 0 -0.026247740319766833 -0.0011572740513280072 0 -0.025860471170917866 -0.0010607525194922373 0 -0.02554050818695754 -0.00061012968497249685 0 -0.02449610860408874 -0.0013435328548552484 0 -0.024409915518593072 -0.00078980678973817242 0 -0.024155117187920464 -0.00072852380656070615 0 -0.025548687106465576 -0.0010403438067022603 0 -0.024795159046840581 -0.00075298449982469601 0 -0.025548687106465576 -0.0010403438067022603 0 -0.024359537810930761 -0.00059734499541272607 0 -0.02554050818695754 -0.00061012968497249685 0 -0.025297752803497366 -0.0008161040279399506 0 -0.024531838778685623 -0.00051442299571612593 0 -0.025297752803497366 -0.0008161040279399506 0 -0.025033159443748634 -0.00076894659882340282 0 -0.024531838778685623 -0.00051442299571612593 0 -0.025860471170917866 -0.0010607525194922373 0 -0.025297752803497366 -0.0008161040279399506 0 -0.025832331817263729 -0.0010768785206949976 0 -0.025297752803497366 -0.0008161040279399506 0 -0.025033159443748634 -0.00076894659882340282 0 -0.025832331817263729 -0.0010768785206949976 0 -0.026887338401989685 -0.0011938855927376734 0 -0.02614223919269875 -0.0012586652106900999 0 -0.025832331817263729 -0.0010768785206949976 0 -0.026887338401989685 -0.0011938855927376734 0 -0.025832331817263729 -0.0010768785206949976 0 -0.025922517940529393 -0.0011992114769810824 0 -0.025033159443748634 -0.00076894659882340282 0 -0.025832331817263729 -0.0010768785206949976 0 -0.025922517940529393 -0.0011992114769810824 0 -0.025033159443748634 -0.00076894659882340282 0 -0.025922517940529393 -0.0011992114769810824 0 -0.025275675090857916 -0.0013760735414614636 0 -0.024636714377979277 -0.00063968203527521171 0 -0.025033159443748634 -0.00076894659882340282 0 -0.025275675090857916 -0.0013760735414614636 0 -0.02644682984930247 -0.0019066405766157101 0 -0.025922517940529393 -0.0011992114769810824 0 -0.025275675090857916 -0.0013760735414614636 0 -0.024636714377979277 -0.00063968203527521171 0 -0.025033159443748634 -0.00076894659882340282 0 -0.023807298833907718 -0.0004180646346072732 0 -0.023757835350905306 -0.00096949285049002961 0 -0.023885473042393017 -0.00046216346726039116 0 -0.022748648442446808 -0.00019759750366698134 0 -0.023807298833907718 -0.0004180646346072732 0 -0.022673761168116952 9.5430758699925096e-05 0 -0.023807298833907718 -0.0004180646346072732 0 -0.022673761168116952 9.5430758699925096e-05 0 -0.022991665400432498 4.8964565391640313e-05 0 -0.023807298833907718 -0.0004180646346072732 0 -0.022991665400432498 4.8964565391640313e-05 0 -0.023804737300959979 -0.00014712810431536768 0 -0.022991665400432498 4.8964565391640313e-05 0 -0.023804737300959979 -0.00014712810431536768 0 -0.022329609236173002 0.00025052308815421369 0 -0.02554050818695754 -0.00061012968497249685 0 -0.023804737300959979 -0.00014712810431536768 0 -0.024531838778685623 -0.00051442299571612593 0 -0.023807298833907718 -0.0004180646346072732 0 -0.023804737300959979 -0.00014712810431536768 0 -0.024531838778685623 -0.00051442299571612593 0 -0.025033159443748634 -0.00076894659882340282 0 -0.023807298833907718 -0.0004180646346072732 0 -0.024531838778685623 -0.00051442299571612593 0 -0.024795159046840581 -0.00075298449982469601 0 -0.024071720796712499 -0.00021621433662531847 0 -0.024155117187920464 -0.00072852380656070615 0 -0.023804737300959979 -0.00014712810431536768 0 -0.024331117638839293 -0.00022657816528286003 0 -0.024737003650585107 -0.00050537071668662432 0 -0.024328827392214841 -0.00032327526459931532 0 -0.024223751801128745 0.00034877311544053552 0 -0.024359537810930761 -0.00059734499541272607 0 -0.022780854941093678 0.00016341324986097195 0 -0.024409915518593072 -0.00078980678973817242 0 -0.024155117187920464 -0.00072852380656070615 0 -0.024331117638839293 -0.00022657816528286003 0 -0.022780854941093678 0.00016341324986097195 0 -0.021181011891389927 0.00020751609844901059 0 -0.020822856804680462 -0.00043763467592620829 0 -0.020952418777337372 -0.00023532664704430776 0 -0.020874416572137528 -6.6266135842204556e-05 0 -0.023804737300959979 -0.00014712810431536768 0 -0.024331117638839293 -0.00022657816528286003 0 -0.022329609236173002 0.00025052308815421369 0 -0.021735510672076738 0.0012518964135528822 0 -0.021842453971249749 0.0003909575836870517 0 -0.022329609236173002 0.00025052308815421369 0 -0.022780854941093678 0.00016341324986097195 0 -0.022527325931596207 0.00034374364895092011 0 -0.020822856804680462 -0.00043763467592620829 0 -0.020952418777337372 -0.00023532664704430776 0 -0.021091065226473596 -0.000447275205362593 0 -0.020952418777337372 -0.00023532664704430776 0 -0.021094189622567292 -0.00023099677827945582 0 -0.020930806219716137 -4.1218618198466279e-05 0 -0.020952418777337372 -0.00023532664704430776 0 -0.021094189622567292 -0.00023099677827945582 0 -0.021091065226473596 -0.000447275205362593 0 -0.022715544958525756 -0.00063980326445277997 0 -0.022780854941093678 0.00016341324986097195 0 -0.021029589231034561 -0.00082662895360318496 0 -0.021091065226473596 -0.000447275205362593 0 -0.021358804456302519 -0.00059224286551021535 0 -0.021029589231034561 -0.00082662895360318496 0 -0.020822856804680462 -0.00043763467592620829 0 -0.021091065226473596 -0.000447275205362593 0 -0.020888709285343698 4.9893327033291078e-05 0 -0.020930806219716137 -4.1218618198466279e-05 0 -0.021043053811852432 5.5341638877266012e-06 0 -0.020888709285343698 4.9893327033291078e-05 0 -0.021043053811852432 5.5341638877266012e-06 0 -0.020473570278002375 -1.5313864761601777e-06 0 -0.021094189622567292 -0.00023099677827945582 0 -0.020930806219716137 -4.1218618198466279e-05 0 -0.021198180970943305 -0.00012080721033523246 0 -0.020888709285343698 4.9893327033291078e-05 0 -0.020930806219716137 -4.1218618198466279e-05 0 -0.021198180970943305 -0.00012080721033523246 0 -0.020952418777337372 -0.00023532664704430776 0 -0.020930806219716137 -4.1218618198466279e-05 0 -0.020874416572137528 -6.6266135842204556e-05 0 -0.021181011891389927 0.00020751609844901059 0 -0.021157132588982341 -7.7918896579295434e-05 0 -0.021842453971249749 0.0003909575836870517 0 -0.021043053811852432 5.5341638877266012e-06 0 -0.022329609236173002 0.00025052308815421369 0 -0.020930806219716137 -4.1218618198466279e-05 0 -0.020874416572137528 -6.6266135842204556e-05 0 -0.021043053811852432 5.5341638877266012e-06 0 -0.021043053811852432 5.5341638877266012e-06 0 -0.021615954876881185 8.7505838862986395e-05 0 -0.022329609236173002 0.00025052308815421369 0 -0.021043053811852432 5.5341638877266012e-06 0 -0.021615954876881185 8.7505838862986395e-05 0 -0.020898198062536576 3.5186791028809287e-05 0 -0.022991665400432498 4.8964565391640313e-05 0 -0.022329609236173002 0.00025052308815421369 0 -0.022252673138491431 0.00013925083240304571 0 -0.021615954876881185 8.7505838862986395e-05 0 -0.022329609236173002 0.00025052308815421369 0 -0.022252673138491431 0.00013925083240304571 0 -0.022673761168116952 9.5430758699925096e-05 0 -0.021837810720289036 2.5636063806714595e-05 0 -0.02246435810985355 9.3945057039075377e-05 0 -0.022673761168116952 9.5430758699925096e-05 0 -0.022252673138491431 0.00013925083240304571 0 -0.021837810720289036 2.5636063806714595e-05 0 -0.022673761168116952 9.5430758699925096e-05 0 -0.022991665400432498 4.8964565391640313e-05 0 -0.022252673138491431 0.00013925083240304571 0 -0.021615954876881185 8.7505838862986395e-05 0 -0.021837810720289036 2.5636063806714595e-05 0 -0.020898198062536576 3.5186791028809287e-05 0 -0.021837810720289036 2.5636063806714595e-05 0 -0.020898198062536576 3.5186791028809287e-05 0 -0.020900318847421294 0.00016598570518929796 0 -0.021615954876881185 8.7505838862986395e-05 0 -0.022252673138491431 0.00013925083240304571 0 -0.021837810720289036 2.5636063806714595e-05 0 -0.020898198062536576 3.5186791028809287e-05 0 -0.020900318847421294 0.00016598570518929796 0 -0.019956362455725084 0.00013734891673276969 0 -0.020898198062536576 3.5186791028809287e-05 0 -0.019956362455725084 0.00013734891673276969 0 -0.019928981137931207 0.00015956523587720898 0 -0.020537877656833535 3.9620060853223634e-05 0 -0.020104415306363036 0.00016755327026722342 0 -0.019928981137931207 0.00015956523587720898 0 -0.020898198062536576 3.5186791028809287e-05 0 -0.020537877656833535 3.9620060853223634e-05 0 -0.019928981137931207 0.00015956523587720898 0 -0.021043053811852432 5.5341638877266012e-06 0 -0.020898198062536576 3.5186791028809287e-05 0 -0.020537877656833535 3.9620060853223634e-05 0 -0.021043053811852432 5.5341638877266012e-06 0 -0.020537877656833535 3.9620060853223634e-05 0 -0.020473570278002375 -1.5313864761601777e-06 0 -0.020537877656833535 3.9620060853223634e-05 0 -0.020104415306363036 0.00016755327026722342 0 -0.020473570278002375 -1.5313864761601777e-06 0 -0.020473570278002375 -1.5313864761601777e-06 0 -0.019980789692765281 0.00030190267184177551 0 -0.020445261876228232 0.00026232464660161972 0 -0.020104415306363036 0.00016755327026722342 0 -0.020473570278002375 -1.5313864761601777e-06 0 -0.019980789692765281 0.00030190267184177551 0 -0.020639584568914283 0.00026346579587733723 0 -0.020313881855237081 0.00036177836691983175 0 -0.019554390933061532 0.00020153249455161234 0 -0.019604356422356899 0.00033604640941053038 0 -0.019560824271709177 0.00025446650468156993 0 -0.021847450950025632 0.00028597021110516273 0 -0.020996190653836646 0.00043428010561738598 0 -0.021079344125133351 -0.00010707439243210019 0 -0.019686997057362571 0.00030480848665218822 0 -0.019604356422356899 0.00033604640941053038 0 -0.019560824271709177 0.00025446650468156993 0 -0.020359534673963339 -0.00064955726510073221 0 -0.021251853826168034 -0.00050741409470891853 0 -0.021079344125133351 -0.00010707439243210019 0 -0.021251853826168034 -0.00050741409470891853 0 -0.021079344125133351 -0.00010707439243210019 0 -0.021743626092135131 -0.00032998560393035698 0 -0.021847450950025632 0.00028597021110516273 0 -0.021079344125133351 -0.00010707439243210019 0 -0.021743626092135131 -0.00032998560393035698 0 -0.021847450950025632 0.00028597021110516273 0 -0.021743626092135131 -0.00032998560393035698 0 -0.022540311471207032 0.0001945239527590551 0 -0.022420556251897292 -0.00033623751788441772 0 -0.021398105075189116 1.7736895091780027e-05 0 -0.022210087979026454 -0.00065809705816236345 0 -0.021743626092135131 -0.00032998560393035698 0 -0.022540311471207032 0.0001945239527590551 0 -0.021837810720289036 2.5636063806714595e-05 0 -0.02246435810985355 9.3945057039075377e-05 0 -0.022433356761781327 3.0302231343800625e-05 0 -0.022276200672712576 -7.8262783707218171e-05 0 -0.02246435810985355 9.3945057039075377e-05 0 -0.022433356761781327 3.0302231343800625e-05 0 -0.021837810720289036 2.5636063806714595e-05 0 -0.021028722776892873 -0.00011939953141839972 0 -0.020900318847421294 0.00016598570518929796 0 -0.021928557048542338 -7.3233493574229439e-06 0 -0.021398105075189116 1.7736895091780027e-05 0 -0.021398105075189116 1.7736895091780027e-05 0 -0.020200009706402476 0.00011106382640358349 0 -0.020639584568914283 0.00026346579587733723 0 -0.021398105075189116 1.7736895091780027e-05 0 -0.019619738192516938 0.00010396650798997323 0 -0.019546572019944027 0.00016819753035366734 0 -0.019686605565041024 8.1976797294526382e-05 0 -0.019554390933061532 0.00020153249455161234 0 -0.019619738192516938 0.00010396650798997323 0 -0.019546572019944027 0.00016819753035366734 0 -0.019546572019944027 0.00016819753035366734 0 -0.019686605565041024 8.1976797294526382e-05 0 -0.019484826700222616 0.0001752029888165133 0 -0.019686605565041024 8.1976797294526382e-05 0 -0.019956362455725084 0.00013734891673276969 0 -0.019484826700222616 0.0001752029888165133 0 -0.020200009706402476 0.00011106382640358349 0 -0.020087045598896805 0.00021812718406189613 0 -0.019546572019944027 0.00016819753035366734 0 -0.019484826700222616 0.0001752029888165133 0 -0.019497871493584847 0.00022918582294132435 0 -0.019484826700222616 0.0001752029888165133 0 -0.019497871493584847 0.00022918582294132435 0 -0.019394642182874726 0.0001902422137742689 0 -0.019554390933061532 0.00020153249455161234 0 -0.019546572019944027 0.00016819753035366734 0 -0.019560824271709177 0.00025446650468156993 0 -0.019546572019944027 0.00016819753035366734 0 -0.019497871493584847 0.00022918582294132435 0 -0.019560824271709177 0.00025446650468156993 0 -0.01964697619881374 0.00029539820263401628 0 -0.019497871493584847 0.00022918582294132435 0 -0.019560824271709177 0.00025446650468156993 0 -0.019686997057362571 0.00030480848665218822 0 -0.01964697619881374 0.00029539820263401628 0 -0.019560824271709177 0.00025446650468156993 0 -0.01964697619881374 0.00029539820263401628 0 -0.019596701522442334 0.00026850164690048591 0 -0.019497871493584847 0.00022918582294132435 0 -0.019596701522442334 0.00026850164690048591 0 -0.019497871493584847 0.00022918582294132435 0 -0.019516059929520987 0.00019027094085801352 0 -0.019497871493584847 0.00022918582294132435 0 -0.019516059929520987 0.00019027094085801352 0 -0.019394642182874726 0.0001902422137742689 0 -0.019516059929520987 0.00019027094085801352 0 -0.019394642182874726 0.0001902422137742689 0 -0.019381103323859433 -3.2446197111068191e-05 0 -0.019516059929520987 0.00019027094085801352 0 -0.019381103323859433 -3.2446197111068191e-05 0 -0.019607133653421208 8.5381075637353871e-05 0 -0.019394642182874726 0.0001902422137742689 0 -0.019170784116937612 0.00018072243848380471 0 -0.019381103323859433 -3.2446197111068191e-05 0 -0.019484826700222616 0.0001752029888165133 0 -0.019394642182874726 0.0001902422137742689 0 -0.019170784116937612 0.00018072243848380471 0 -0.019956362455725084 0.00013734891673276969 0 -0.019170784116937612 0.00018072243848380471 0 -0.01936178964380366 0.00012244027749117945 0 -0.019956362455725084 0.00013734891673276969 0 -0.019484826700222616 0.0001752029888165133 0 -0.019170784116937612 0.00018072243848380471 0 -0.019170784116937612 0.00018072243848380471 0 -0.018854104864475283 3.8876238181153613e-06 0 -0.01936178964380366 0.00012244027749117945 0 -0.019170784116937612 0.00018072243848380471 0 -0.018527742133805442 -0.00020697228193194609 0 -0.019381103323859433 -3.2446197111068191e-05 0 -0.018527742133805442 -0.00020697228193194609 0 -0.018854104864475283 3.8876238181153613e-06 0 -0.018427631972664331 -0.000134260390331157 0 -0.019170784116937612 0.00018072243848380471 0 -0.018527742133805442 -0.00020697228193194609 0 -0.018854104864475283 3.8876238181153613e-06 0 -0.018527742133805442 -0.00020697228193194609 0 -0.018427631972664331 -0.000134260390331157 0 -0.017728723888329315 -0.00023044738314555345 0 -0.018527742133805442 -0.00020697228193194609 0 -0.018180103402688684 -0.00027967662221412416 0 -0.017728723888329315 -0.00023044738314555345 0 -0.018180103402688684 -0.00027967662221412416 0 -0.017758931016539543 -0.00021985526794074379 0 -0.017616941269587093 -0.00068337563211956617 0 -0.018076482484018292 -0.00073089905008888153 0 -0.017261152654850887 -0.0012466486539354413 0 -0.017616941269587093 -0.00068337563211956617 0 -0.018700100942085626 -0.00037660792597120384 0 -0.018428813949595769 -0.00056950590809503189 0 -0.018180103402688684 -0.00027967662221412416 0 -0.018076482484018292 -0.00073089905008888153 0 -0.017616941269587093 -0.00068337563211956617 0 -0.018527742133805442 -0.00020697228193194609 0 -0.018180103402688684 -0.00027967662221412416 0 -0.018076482484018292 -0.00073089905008888153 0 -0.018542844404612707 -0.00024282092477087715 0 -0.018700100942085626 -0.00037660792597120384 0 -0.019514074390081737 0.00079465396574724442 0 -0.019637468802418304 0.00033078275314421714 0 -0.019378554448396382 0.00037771638099516071 0 -0.019514074390081737 0.00079465396574724442 0 -0.019980789692765281 0.00030190267184177551 0 -0.019637468802418304 0.00033078275314421714 0 -0.020104415306363036 0.00016755327026722342 0 -0.019637468802418304 0.00033078275314421714 0 -0.019928981137931207 0.00015956523587720898 0 -0.020104415306363036 0.00016755327026722342 0 -0.019980789692765281 0.00030190267184177551 0 -0.019637468802418304 0.00033078275314421714 0 -0.019637468802418304 0.00033078275314421714 0 -0.019148103928984351 0.00011208501524143092 0 -0.019378554448396382 0.00037771638099516071 0 -0.019928981137931207 0.00015956523587720898 0 -0.01936178964380366 0.00012244027749117945 0 -0.019148103928984351 0.00011208501524143092 0 -0.019637468802418304 0.00033078275314421714 0 -0.019928981137931207 0.00015956523587720898 0 -0.019148103928984351 0.00011208501524143092 0 -0.019956362455725084 0.00013734891673276969 0 -0.019928981137931207 0.00015956523587720898 0 -0.01936178964380366 0.00012244027749117945 0 -0.018854104864475283 3.8876238181153613e-06 0 -0.01936178964380366 0.00012244027749117945 0 -0.019148103928984351 0.00011208501524143092 0 -0.018854104864475283 3.8876238181153613e-06 0 -0.018427631972664331 -0.000134260390331157 0 -0.019148103928984351 0.00011208501524143092 0 -0.018427631972664331 -0.000134260390331157 0 -0.018710239991078275 -6.8037348497873367e-05 0 -0.019148103928984351 0.00011208501524143092 0 -0.018427631972664331 -0.000134260390331157 0 -0.018710239991078275 -6.8037348497873367e-05 0 -0.018005998969126732 -0.00018831816373716663 0 -0.018710239991078275 -6.8037348497873367e-05 0 -0.019148103928984351 0.00011208501524143092 0 -0.019145847062011567 0.00013055630931814883 0 -0.018710239991078275 -6.8037348497873367e-05 0 -0.019145847062011567 0.00013055630931814883 0 -0.018903587952596963 0.00010437949467547723 0 -0.019148103928984351 0.00011208501524143092 0 -0.019378554448396382 0.00037771638099516071 0 -0.019145847062011567 0.00013055630931814883 0 -0.019378554448396382 0.00037771638099516071 0 -0.019145847062011567 0.00013055630931814883 0 -0.019049935126661796 0.00036829287690335558 0 -0.019145847062011567 0.00013055630931814883 0 -0.019049935126661796 0.00036829287690335558 0 -0.019136827940664049 3.2186317800912525e-05 0 -0.019514074390081737 0.00079465396574724442 0 -0.019378554448396382 0.00037771638099516071 0 -0.019049935126661796 0.00036829287690335558 0 -0.015923903423230388 -7.2278338230508937e-05 0 -0.016048072407556419 0.00014608492666540282 0 -0.015824552853363878 0.00028491442611488902 0 -0.015923903423230388 -7.2278338230508937e-05 0 -0.016048072407556419 0.00014608492666540282 0 -0.016018811972439297 -0.00010866494847993064 0 -0.019049935126661796 0.00036829287690335558 0 -0.019136827940664049 3.2186317800912525e-05 0 -0.018752947711243351 -0.00020417347949993649 0 -0.017636399839524211 0.00011788866917443545 0 -0.017227163174046843 4.2010341505729246e-05 0 -0.017636399839524211 0.00011788866917443545 0 -0.017105349735923689 -0.00016581522429991207 0 -0.019145847062011567 0.00013055630931814883 0 -0.019136827940664049 3.2186317800912525e-05 0 -0.018903587952596963 0.00010437949467547723 0 -0.019136827940664049 3.2186317800912525e-05 0 -0.018903587952596963 0.00010437949467547723 0 -0.01868350621249823 0.00026468655665639175 0 -0.016048072407556419 0.00014608492666540282 0 -0.016124774840492549 9.0995126433270302e-06 0 -0.016260346840749923 0.00010375054675276318 0 -0.016048072407556419 0.00014608492666540282 0 -0.016124774840492549 9.0995126433270302e-06 0 -0.016018811972439297 -0.00010866494847993064 0 -0.016124774840492549 9.0995126433270302e-06 0 -0.016123379452322267 -0.00014862920359970673 0 -0.016018811972439297 -0.00010866494847993064 0 -0.016124774840492549 9.0995126433270302e-06 0 -0.016260346840749923 0.00010375054675276318 0 -0.016123379452322267 -0.00014862920359970673 0 -0.016265363180702951 -0.00057496530680528537 0 -0.016478747141065408 -0.00093468250929361872 0 -0.016359338081063907 -0.00080570912463272498 0 -0.017105349735923689 -0.00016581522429991207 0 -0.016125765924512165 -0.00048798822113235604 0 -0.018710239991078275 -6.8037348497873367e-05 0 -0.01868350621249823 0.00026468655665639175 0 -0.018005998969126732 -0.00018831816373716663 0 -0.018710239991078275 -6.8037348497873367e-05 0 -0.018903587952596963 0.00010437949467547723 0 -0.01868350621249823 0.00026468655665639175 0 -0.01868350621249823 0.00026468655665639175 0 -0.01717483857520849 -0.00046663660607081255 0 -0.018005998969126732 -0.00018831816373716663 0 -0.017105349735923689 -0.00016581522429991207 0 -0.017425514843866102 -0.00040241381833136059 0 -0.016265363180702951 -0.00057496530680528537 0 -0.01717483857520849 -0.00046663660607081255 0 -0.016478747141065408 -0.00093468250929361872 0 -0.016478747141065408 -0.00093468250929361872 0 -0.016189547457879341 -0.00074575115328658482 0 -0.01627644288057524 -0.0015482741156889767 0 -0.016189547457879341 -0.00074575115328658482 0 -0.015920911669971546 -0.00022856304461965008 0 -0.01564241774722713 -0.000587857454251452 0 -0.016189547457879341 -0.00074575115328658482 0 -0.015920911669971546 -0.00022856304461965008 0 -0.016209422179760489 -0.00042708768073138412 0 -0.016209422179760489 -0.00042708768073138412 0 -0.016371662751066805 -9.2867825600447264e-05 0 -0.016121693762031587 -5.2297520604125541e-05 0 -0.016209422179760489 -0.00042708768073138412 0 -0.016359338081063907 -0.00080570912463272498 0 -0.016371662751066805 -9.2867825600447264e-05 0 -0.015920911669971546 -0.00022856304461965008 0 -0.016209422179760489 -0.00042708768073138412 0 -0.016121693762031587 -5.2297520604125541e-05 0 -0.016189547457879341 -0.00074575115328658482 0 -0.016209422179760489 -0.00042708768073138412 0 -0.016359338081063907 -0.00080570912463272498 0 -0.016478747141065408 -0.00093468250929361872 0 -0.016189547457879341 -0.00074575115328658482 0 -0.016359338081063907 -0.00080570912463272498 0 -0.016123379452322267 -0.00014862920359970673 0 -0.016018811972439297 -0.00010866494847993064 0 -0.015957521110427014 -0.0002125717129432403 0 -0.015957521110427014 -0.0002125717129432403 0 -0.015906339703834163 -0.0002378857754636446 0 -0.015879612773459957 -0.00026496357798112276 0 -0.016125765924512165 -0.00048798822113235604 0 -0.016136051861605053 -0.00017226990566584653 0 -0.016123379452322267 -0.00014862920359970673 0 -0.015957521110427014 -0.0002125717129432403 0 -0.015906339703834163 -0.0002378857754636446 0 -0.015957521110427014 -0.0002125717129432403 0 -0.015879612773459957 -0.00026496357798112276 0 -0.015914052895997628 -0.00023335395020490041 0 -0.015906339703834163 -0.0002378857754636446 0 -0.015879612773459957 -0.00026496357798112276 0 -0.015838259912145325 -0.00017838716663680956 0 -0.015879612773459957 -0.00026496357798112276 0 -0.015872548664304632 -0.00037245027898189458 0 -0.015838259912145325 -0.00017838716663680956 0 -0.015879612773459957 -0.00026496357798112276 0 -0.015914052895997628 -0.00023335395020490041 0 -0.015872548664304632 -0.00037245027898189458 0 -0.016018811972439297 -0.00010866494847993064 0 -0.015957521110427014 -0.0002125717129432403 0 -0.015914052895997628 -0.00023335395020490041 0 -0.015923903423230388 -7.2278338230508937e-05 0 -0.016018811972439297 -0.00010866494847993064 0 -0.015914052895997628 -0.00023335395020490041 0 -0.015923903423230388 -7.2278338230508937e-05 0 -0.015914052895997628 -0.00023335395020490041 0 -0.015809259146798118 -0.00025406835443718981 0 -0.012843540738280238 -0.0042199074314219496 0 -0.011304070867021683 -0.0017514785953790895 0 -0.0096256689751316633 -0.0031454454852224596 0 -0.014000270939578176 -0.0029225659238764617 0 -0.015474966662545738 -0.0023270306843757877 0 -0.010213339056421694 -0.0057928281470968649 0 -0.012843540738280238 -0.0042199074314219496 0 -0.0096256689751316633 -0.0031454454852224596 0 -0.018180103402688684 -0.00027967662221412416 0 -0.017758931016539543 -0.00021985526794074379 0 -0.018182127266390943 -0.00047000940161527074 0 -0.018180103402688684 -0.00027967662221412416 0 -0.018182127266390943 -0.00047000940161527074 0 -0.017728723888329315 -0.00023044738314555345 0 -0.012843540738280238 -0.0042199074314219496 0 -0.013821856683148434 -0.00081516624015125 0 -0.01627644288057524 -0.0015482741156889767 0 -0.018427631972664331 -0.000134260390331157 0 -0.018005998969126732 -0.00018831816373716663 0 -0.017728723888329315 -0.00023044738314555345 0 -0.01717483857520849 -0.00046663660607081255 0 -0.018005998969126732 -0.00018831816373716663 0 -0.017728723888329315 -0.00023044738314555345 0 -0.01717483857520849 -0.00046663660607081255 0 -0.017728723888329315 -0.00023044738314555345 0 -0.01627644288057524 -0.0015482741156889767 0 -0.01717483857520849 -0.00046663660607081255 0 -0.016478747141065408 -0.00093468250929361872 0 -0.01627644288057524 -0.0015482741156889767 0 -0.015474966662545738 -0.0023270306843757877 0 -0.016276123893272848 -0.0015960197236974485 0 -0.018182127266390943 -0.00047000940161527074 0 -0.017728723888329315 -0.00023044738314555345 0 -0.01627644288057524 -0.0015482741156889767 0 -0.013821856683148434 -0.00081516624015125 0 -0.01627644288057524 -0.0015482741156889767 0 -0.01564241774722713 -0.000587857454251452 0 -0.016189547457879341 -0.00074575115328658482 0 -0.01627644288057524 -0.0015482741156889767 0 -0.01564241774722713 -0.000587857454251452 0 -0.015920911669971546 -0.00022856304461965008 0 -0.01564241774722713 -0.000587857454251452 0 -0.015383084150260323 0.0001525011582622758 0 -0.01564241774722713 -0.000587857454251452 0 -0.014525965463740681 1.0225872867337484e-05 0 -0.015383084150260323 0.0001525011582622758 0 -0.013821856683148434 -0.00081516624015125 0 -0.01564241774722713 -0.000587857454251452 0 -0.014525965463740681 1.0225872867337484e-05 0 -0.013821856683148434 -0.00081516624015125 0 -0.014525965463740681 1.0225872867337484e-05 0 -0.013356130366679373 0.00051172303134444414 0 -0.012843540738280238 -0.0042199074314219496 0 -0.013821856683148434 -0.00081516624015125 0 -0.011304070867021683 -0.0017514785953790895 0 -0.013821856683148434 -0.00081516624015125 0 -0.011304070867021683 -0.0017514785953790895 0 -0.011625147521107581 0.00022672838505816319 0 -0.013821856683148434 -0.00081516624015125 0 -0.011625147521107581 0.00022672838505816319 0 -0.013356130366679373 0.00051172303134444414 0 -0.011304070867021683 -0.0017514785953790895 0 -0.0093832383135276885 -0.00064477489643138374 0 -0.0096256689751316633 -0.0031454454852224596 0 -0.011304070867021683 -0.0017514785953790895 0 -0.0093832383135276885 -0.00064477489643138374 0 -0.011625147521107581 0.00022672838505816319 0 -0.0071583786244365918 -0.00093949688507978947 0 -0.0096256689751316633 -0.0031454454852224596 0 -0.0076916900392314403 -0.0037292218925739674 0 -0.0071583786244365918 -0.00093949688507978947 0 -0.0076916900392314403 -0.0037292218925739674 0 -0.0064423346117943809 -0.0028698033701688185 0 -0.0093832383135276885 -0.00064477489643138374 0 -0.0071583786244365918 -0.00093949688507978947 0 -0.0072623391510482794 0.00042755393973032931 0 -0.0093832383135276885 -0.00064477489643138374 0 -0.0071583786244365918 -0.00093949688507978947 0 -0.0096256689751316633 -0.0031454454852224596 0 -0.0096256689751316633 -0.0031454454852224596 0 -0.0076916900392314403 -0.0037292218925739674 0 -0.0089443216878999799 -0.0047532854772857824 0 -0.0076916900392314403 -0.0037292218925739674 0 -0.0074821182614777399 -0.0051510352801944605 0 -0.0089443216878999799 -0.0047532854772857824 0 -0.010213339056421694 -0.0057928281470968649 0 -0.0096256689751316633 -0.0031454454852224596 0 -0.0089443216878999799 -0.0047532854772857824 0 -0.0051041149298505679 -0.0022724161379054854 0 -0.0045057731252916783 -0.001530479757010762 0 -0.0045296973796685527 -0.0023002722328165702 0 -0.0074821182614777399 -0.0051510352801944605 0 -0.0055496678458415135 -0.0046975564716007475 0 -0.0063318725631261548 -0.0057116238081179301 0 -0.0076916900392314403 -0.0037292218925739674 0 -0.0074821182614777399 -0.0051510352801944605 0 -0.0055496678458415135 -0.0046975564716007475 0 -0.0053190368005231695 -0.0038031464677845406 0 -0.0061835511054291331 -0.0021466137452686531 0 -0.0076916900392314403 -0.0037292218925739674 0 -0.0055496678458415135 -0.0046975564716007475 0 -0.0064423346117943809 -0.0028698033701688185 0 -0.0051041149298505679 -0.0022724161379054854 0 -0.0057768991150456347 -0.0016493054175249452 0 -0.0045057731252916783 -0.001530479757010762 0 -0.0057768991150456347 -0.0016493054175249452 0 -0.0049803605705616002 -0.00092864779489403818 0 -0.0045057731252916783 -0.001530479757010762 0 -0.0071583786244365918 -0.00093949688507978947 0 -0.0057768991150456347 -0.0016493054175249452 0 -0.0049803605705616002 -0.00092864779489403818 0 -0.0070847249312637299 -0.00097295175100236522 0 -0.0061835511054291331 -0.0021466137452686531 0 -0.0071583786244365918 -0.00093949688507978947 0 -0.0072623391510482794 0.00042755393973032931 0 -0.0045389655363769609 0.00010442436200554215 0 -0.0071583786244365918 -0.00093949688507978947 0 -0.0049803605705616002 -0.00092864779489403818 0 -0.0045389655363769609 0.00010442436200554215 0 -0.0049803605705616002 -0.00092864779489403818 0 -0.0037298720314330974 -0.0003335111705041074 0 -0.0045389655363769609 0.00010442436200554215 0 -0.0037298720314330974 -0.0003335111705041074 0 -0.0045389655363769609 0.00010442436200554215 0 -0.0036073690152289414 0.00043184773204778541 0 -0.0037298720314330974 -0.0003335111705041074 0 -0.0036073690152289414 0.00043184773204778541 0 -0.0026742607161877098 0.00070576599098945674 0 -0.0037298720314330974 -0.0003335111705041074 0 -0.0028454797953618421 -0.00043702208816415324 0 -0.0034783525765049411 -0.00092994290909995992 0 -0.0037298720314330974 -0.0003335111705041074 0 -0.0045057731252916783 -0.001530479757010762 0 -0.0034783525765049411 -0.00092994290909995992 0 -0.0049803605705616002 -0.00092864779489403818 0 -0.0037298720314330974 -0.0003335111705041074 0 -0.0045057731252916783 -0.001530479757010762 0 -0.00067750864280691713 -2.7847663462423685e-08 0 -0.00027905646780845188 0.00018571218498337726 0 -0.00068278452492668586 1.2870667190612028e-06 0 -0.0028454797953618421 -0.00043702208816415324 0 -0.0026742607161877098 0.00070576599098945674 0 -0.0037298720314330974 -0.0003335111705041074 0 -0.0028454797953618421 -0.00043702208816415324 0 -0.0026742607161877098 0.00070576599098945674 0 -0.00068278452492668586 1.2870667190612028e-06 0 -0.0028454797953618421 -0.00043702208816415324 0 -0.0027528685680589505 -1.262035351770793e-06 0 -0.0028454797953618421 -0.00043702208816415324 0 -0.0027528685680589505 -1.262035351770793e-06 0 -0.0037470589354353973 -0.0005086918975505941 0 -0.0027528685680589505 -1.262035351770793e-06 0 -0.0037470589354353973 -0.0005086918975505941 0 -0.0048305243350878447 -1.259927200822318e-06 0 -0.0028454797953618421 -0.00043702208816415324 0 -0.0037470589354353973 -0.0005086918975505941 0 -0.0034783525765049411 -0.00092994290909995992 0 -0.0037470589354353973 -0.0005086918975505941 0 -0.0038919798848451076 -0.00041695075105106571 0 -0.0034783525765049411 -0.00092994290909995992 0 -0.0037470589354353973 -0.0005086918975505941 0 -0.0038919798848451076 -0.00041695075105106571 0 -0.0045351778413854349 -0.00018728378374653415 0 -0.0038919798848451076 -0.00041695075105106571 0 -0.0045351778413854349 -0.00018728378374653415 0 -0.0040344602394635498 5.1680570296705571e-05 0 -0.0037470589354353973 -0.0005086918975505941 0 -0.0045351778413854349 -0.00018728378374653415 0 -0.0048305243350878447 -1.259927200822318e-06 0 -0.0045351778413854349 -0.00018728378374653415 0 -0.0048305243350878447 -1.259927200822318e-06 0 -0.0053375428852317679 -5.8853604296236925e-05 0 -0.0045057731252916783 -0.001530479757010762 0 -0.0034783525765049411 -0.00092994290909995992 0 -0.0039757473014282703 -0.0022308267828868847 0 -0.0035746286931785825 -0.0010907202697863819 0 -0.0036647857528585288 -0.00098605490127459477 0 -0.0038919798848451076 -0.00041695075105106571 0 -0.0034783525765049411 -0.00092994290909995992 0 -0.003524655589232878 -0.00029521683875503586 0 -0.0038919798848451076 -0.00041695075105106571 0 -0.003524655589232878 -0.00029521683875503586 0 -0.0040344602394635498 5.1680570296705571e-05 0 -0.0045057731252916783 -0.001530479757010762 0 -0.0045296973796685527 -0.0023002722328165702 0 -0.0039757473014282703 -0.0022308267828868847 0 -0.0036647857528585288 -0.00098605490127459477 0 -0.0040160840814445252 -0.0029369670181791643 0 -0.0045296973796685527 -0.0023002722328165702 0 -0.0039757473014282703 -0.0022308267828868847 0 -0.0045318626813560785 -0.0031695050327347901 0 -0.003524655589232878 -0.00029521683875503586 0 -0.0033658515003753982 0.00028704572192259992 0 -0.0037456443665876402 0.00035269417326381597 0 -0.003524655589232878 -0.00029521683875503586 0 -0.0040344602394635498 5.1680570296705571e-05 0 -0.0037456443665876402 0.00035269417326381597 0 -0.0040344602394635498 5.1680570296705571e-05 0 -0.0037456443665876402 0.00035269417326381597 0 -0.0041731289157617936 0.00078362146587507623 0 -0.0037456443665876402 0.00035269417326381597 0 -0.0041731289157617936 0.00078362146587507623 0 -0.0038876331616486876 0.00082915635511609782 0 -0.0037456443665876402 0.00035269417326381597 0 -0.0038876331616486876 0.00082915635511609782 0 -0.0036981981309174091 0.00083868405569385949 0 -0.0041731289157617936 0.00078362146587507623 0 -0.0038876331616486876 0.00082915635511609782 0 -0.0039423979713675049 0.0010275048522257386 0 -0.0038876331616486876 0.00082915635511609782 0 -0.0037948512003168895 0.001044392092111768 0 -0.0039423979713675049 0.0010275048522257386 0 -0.0038876331616486876 0.00082915635511609782 0 -0.0036981981309174091 0.00083868405569385949 0 -0.0037948512003168895 0.001044392092111768 0 -0.0033658515003753982 0.00028704572192259992 0 -0.0037456443665876402 0.00035269417326381597 0 -0.003480939268554323 0.00037246659018767722 0 -0.0039388830543591784 0.00023199798246852348 0 -0.0030158419634262103 0.00096425519323998349 0 -0.0037456443665876402 0.00035269417326381597 0 -0.0036981981309174091 0.00083868405569385949 0 -0.0035540038177813878 0.00082732012419956479 0 -0.0037456443665876402 0.00035269417326381597 0 -0.0034515147303197649 0.00038167445520088841 0 -0.003480939268554323 0.00037246659018767722 0 -0.0036981981309174091 0.00083868405569385949 0 -0.0036033982071196021 0.00089952752974009913 0 -0.0036451314429964609 0.00098279289105517292 0 -0.0036033982071196021 0.00089952752974009913 0 -0.0035427520890497495 0.00094981329080385288 0 -0.0036451314429964609 0.00098279289105517292 0 -0.0036981981309174091 0.00083868405569385949 0 -0.0036033982071196021 0.00089952752974009913 0 -0.0035540038177813878 0.00082732012419956479 0 -0.0035540038177813878 0.00082732012419956479 0 -0.0035427520890497495 0.00094981329080385288 0 -0.0034386900238795827 0.00096727305943986942 0 -0.0036033982071196021 0.00089952752974009913 0 -0.0035540038177813878 0.00082732012419956479 0 -0.0035427520890497495 0.00094981329080385288 0 -0.0034644506619188917 0.00040806673164748344 0 -0.0034515147303197649 0.00038167445520088841 0 -0.003480939268554323 0.00037246659018767722 0 -0.0040160840814445252 -0.0029369670181791643 0 -0.004430236712373658 -0.00058690926926165858 0 -0.0048305243350878447 -1.259927200822318e-06 0 -0.0069018018114186744 2.0512881263460384e-06 0 -0.0053375428852317679 -5.8853604296236925e-05 0 -0.0053375428852317679 -5.8853604296236925e-05 0 -0.0045926823282575469 0.00035786724359140643 0 -0.0052342888161195505 0.00037120330608538031 0 -0.0069018018114186744 2.0512881263460384e-06 0 -0.0053375428852317679 -5.8853604296236925e-05 0 -0.0052342888161195505 0.00037120330608538031 0 -0.0040344602394635498 5.1680570296705571e-05 0 -0.0041731289157617936 0.00078362146587507623 0 -0.0045926823282575469 0.00035786724359140643 0 -0.0045351778413854349 -0.00018728378374653415 0 -0.0053375428852317679 -5.8853604296236925e-05 0 -0.0045926823282575469 0.00035786724359140643 0 -0.0045351778413854349 -0.00018728378374653415 0 -0.0040344602394635498 5.1680570296705571e-05 0 -0.0045926823282575469 0.00035786724359140643 0 -0.0041731289157617936 0.00078362146587507623 0 -0.0047724079012448194 0.001136594227547347 0 -0.0040685537538573419 0.0012186144270095495 0 -0.0041731289157617936 0.00078362146587507623 0 -0.0045926823282575469 0.00035786724359140643 0 -0.0046289757638254148 0.00079723583447293886 0 -0.0041731289157617936 0.00078362146587507623 0 -0.0047724079012448194 0.001136594227547347 0 -0.0046289757638254148 0.00079723583447293886 0 -0.0047724079012448194 0.001136594227547347 0 -0.0048314955201445298 0.00066097841907620473 0 -0.0046289757638254148 0.00079723583447293886 0 -0.0045926823282575469 0.00035786724359140643 0 -0.0048314955201445298 0.00066097841907620473 0 -0.0052342888161195505 0.00037120330608538031 0 -0.0047724079012448194 0.001136594227547347 0 -0.0048314955201445298 0.00066097841907620473 0 -0.0052342888161195505 0.00037120330608538031 0 -0.0045926823282575469 0.00035786724359140643 0 -0.0048314955201445298 0.00066097841907620473 0 -0.0046289757638254148 0.00079723583447293886 0 -0.0069018018114186744 2.0512881263460384e-06 0 -0.0047724079012448194 0.001136594227547347 0 -0.0052342888161195505 0.00037120330608538031 0 -0.0069091964392800995 1.6095454692469248e-06 0 -0.0093683878585343518 0.00017820310346059902 0 -0.009354632589416623 -8.0917335622038149e-07 0 -0.0069062518807481025 2.8782435381598099e-07 0 -0.006828985631882954 -1.7854939309124824e-05 0 -0.0093683878585343518 0.00017820310346059902 0 -0.009354632589416623 -8.0917335622038149e-07 0 -0.010468298970022254 -0.00016878895206758185 0 -0.006828985631882954 -1.7854939309124824e-05 0 -0.0045524476461381424 0.00085336021746393396 0 -0.0069074878088417006 -0.00082536126632496603 0 -0.0064135688752881767 0.00082089364102746673 0 -0.0053506866320601398 0.00027270314554553299 0 -0.006828985631882954 -1.7854939309124824e-05 0 -0.0084313448139169984 0.00021806034560544697 0 -0.010771471820531073 -0.00013289772330307261 0 -0.010468298970022254 -0.00016878895206758185 0 -0.010805993964414885 -0.00018611894187031837 0 -0.0059277026861171856 0.0024965995843964873 0 -0.0064135688752881767 0.00082089364102746673 0 -0.0050615791473236993 0.0014717302416735166 0 -0.0095023090443480673 0.0011708595439416762 0 -0.0084313448139169984 0.00021806034560544697 0 -0.010468298970022254 -0.00016878895206758185 0 -0.010805993964414885 -0.00018611894187031837 0 -0.010647705113480834 -0.00019380717322798452 0 -0.011804185947592992 -7.5153850063140899e-07 0 -0.009354632589416623 -8.0917335622038149e-07 0 -0.010647705113480834 -0.00019380717322798452 0 -0.009354632589416623 -8.0917335622038149e-07 0 -0.010468298970022254 -0.00016878895206758185 0 -0.010647705113480834 -0.00019380717322798452 0 -0.011325494276474314 -0.00011270430079153626 0 -0.010805993964414885 -0.00018611894187031837 0 -0.010647705113480834 -0.00019380717322798452 0 -0.0038625076670572548 0.0012116069853068873 0 -0.0037749859326591199 0.0012934911151088828 0 -0.0038132904467855721 0.0014517476849670585 0 -0.003775430048817985 0.0011878208417969232 0 -0.0036684551939159859 0.0012094684356815711 0 -0.0036908128274489209 0.0011255430106933409 0 -0.003775430048817985 0.0011878208417969232 0 -0.0037749859326591199 0.0012934911151088828 0 -0.0036684551939159859 0.0012094684356815711 0 -0.003775430048817985 0.0011878208417969232 0 -0.0038625076670572548 0.0012116069853068873 0 -0.0037749859326591199 0.0012934911151088828 0 -0.0036684551939159859 0.0012094684356815711 0 -0.0036908128274489209 0.0011255430106933409 0 -0.0035194331225185905 0.0011237427656713189 0 -0.0037749859326591199 0.0012934911151088828 0 -0.0036383939886253051 0.001309879218532797 0 -0.0036684551939159859 0.0012094684356815711 0 -0.0036383939886253051 0.001309879218532797 0 -0.0036684551939159859 0.0012094684356815711 0 -0.0035194331225185905 0.0011237427656713189 0 -0.0036908128274489209 0.0011255430106933409 0 -0.0035846372082050794 0.0010463006885598042 0 -0.0036451314429964609 0.00098279289105517292 0 -0.0036908128274489209 0.0011255430106933409 0 -0.0035846372082050794 0.0010463006885598042 0 -0.0035194331225185905 0.0011237427656713189 0 -0.0035846372082050794 0.0010463006885598042 0 -0.0035194331225185905 0.0011237427656713189 0 -0.0035000824777826206 0.0010379296435042739 0 -0.0035846372082050794 0.0010463006885598042 0 -0.0035427520890497495 0.00094981329080385288 0 -0.0035000824777826206 0.0010379296435042739 0 -0.0035846372082050794 0.0010463006885598042 0 -0.0035427520890497495 0.00094981329080385288 0 -0.0036451314429964609 0.00098279289105517292 0 -0.0036981981309174091 0.00083868405569385949 0 -0.0036451314429964609 0.00098279289105517292 0 -0.0037948512003168895 0.001044392092111768 0 -0.0036908128274489209 0.0011255430106933409 0 -0.0036451314429964609 0.00098279289105517292 0 -0.0037948512003168895 0.001044392092111768 0 -0.003775430048817985 0.0011878208417969232 0 -0.0036908128274489209 0.0011255430106933409 0 -0.0037948512003168895 0.001044392092111768 0 -0.003775430048817985 0.0011878208417969232 0 -0.0038625076670572548 0.0012116069853068873 0 -0.0037948512003168895 0.001044392092111768 0 -0.0041731289157617936 0.00078362146587507623 0 -0.0039423979713675049 0.0010275048522257386 0 -0.0040685537538573419 0.0012186144270095495 0 -0.0038625076670572548 0.0012116069853068873 0 -0.0037948512003168895 0.001044392092111768 0 -0.0039423979713675049 0.0010275048522257386 0 -0.0038625076670572548 0.0012116069853068873 0 -0.0040685537538573419 0.0012186144270095495 0 -0.0038132904467855721 0.0014517476849670585 0 -0.0045524476461381424 0.00085336021746393396 0 -0.0039350339852031327 0.0013500519076489784 0 -0.0038625076670572548 0.0012116069853068873 0 -0.0039423979713675049 0.0010275048522257386 0 -0.0040685537538573419 0.0012186144270095495 0 -0.0064135688752881767 0.00082089364102746673 0 -0.0053506866320601398 0.00027270314554553299 0 -0.0050615791473236993 0.0014717302416735166 0 -0.0059277026861171856 0.0024965995843964873 0 -0.0050615791473236993 0.0014717302416735166 0 -0.0038201084103835826 0.0016721407447561881 0 -0.0095023090443480673 0.0011708595439416762 0 -0.011565291545780931 0.00084369645299678853 0 -0.0053506866320601398 0.00027270314554553299 0 -0.0050615791473236993 0.0014717302416735166 0 -0.0038132904467855721 0.0014517476849670585 0 -0.0050615791473236993 0.0014717302416735166 0 -0.0038201084103835826 0.0016721407447561881 0 -0.0038132904467855721 0.0014517476849670585 0 -0.0036383939886253051 0.001309879218532797 0 -0.0038201084103835826 0.0016721407447561881 0 -0.0038132904467855721 0.0014517476849670585 0 -0.0037749859326591199 0.0012934911151088828 0 -0.0036383939886253051 0.001309879218532797 0 -0.0038132904467855721 0.0014517476849670585 0 -0.0036383939886253051 0.001309879218532797 0 -0.0038201084103835826 0.0016721407447561881 0 -0.0031980643798472266 0.0010911445111478706 0 -0.011565291545780931 0.00084369645299678853 0 -0.0098659090357369281 -0.0016446113301127076 0 -0.019425082583487286 0.00057889833512333262 0 -0.019230809884855735 0.00066832451551448384 0 -0.019400678957726899 0.00091421171131598653 0 -0.018939193250416972 0.00075299530218935016 0 -0.019230809884855735 0.00066832451551448384 0 -0.019400678957726899 0.00091421171131598653 0 -0.012118103664138319 -0.00026881366565656634 0 -0.012865580832767235 0.00023271769738631847 0 -0.013018500849764737 5.7857152950125975e-06 0 -0.011565291545780931 0.00084369645299678853 0 -0.01728226886004899 -0.00030845338398633761 0 -0.0036383939886253051 0.001309879218532797 0 -0.0035194331225185905 0.0011237427656713189 0 -0.0031980643798472266 0.0010911445111478706 0 -0.0035540038177813878 0.00082732012419956479 0 -0.0032525147643466729 0.0010295901731614643 0 -0.0034386900238795827 0.00096727305943986942 0 -0.0035194331225185905 0.0011237427656713189 0 -0.0031980643798472266 0.0010911445111478706 0 -0.0032525147643466729 0.0010295901731614643 0 -0.00592878199590455 -0.0083094486329605786 0 -0.005782582828198002 -0.0080849111560122085 0 -0.0060611027188782786 -0.007841266481800592 0 -0.0098659090357369281 -0.0016446113301127076 0 -0.0058422371447434292 -0.0015044448543931278 0 -0.005782582828198002 -0.0080849111560122085 0 -0.0060611027188782786 -0.007841266481800592 0 -0.0059989165801651295 -0.0075303142664137901 0 -0.0032525147643466729 0.0010295901731614643 0 -0.0034386900238795827 0.00096727305943986942 0 -0.0035000824777826206 0.0010379296435042739 0 -0.0035194331225185905 0.0011237427656713189 0 -0.0032525147643466729 0.0010295901731614643 0 -0.0035000824777826206 0.0010379296435042739 0 -0.0035427520890497495 0.00094981329080385288 0 -0.0034386900238795827 0.00096727305943986942 0 -0.0035000824777826206 0.0010379296435042739 0 -0.015476953857317077 -0.00149034342722014 0 -0.015974128271637383 -0.0017462651036296403 0 -0.01674457125300206 -0.00066082029083325072 0 -0.00592878199590455 -0.0083094486329605786 0 -0.0060611027188782786 -0.007841266481800592 0 -0.0064423081848713794 -0.007497122094213075 0 -0.012912640013302905 3.3747186397420293e-05 0 -0.016554817677332946 -0.0019715006724648145 0 -0.014614690165238219 -0.0026459738605500295 0 -0.0098659090357369281 -0.0016446113301127076 0 -0.017872137758954292 -0.00086711570712619062 0 -0.0098659090357369281 -0.0016446113301127076 0 -0.01728226886004899 -0.00030845338398633761 0 -0.017872137758954292 -0.00086711570712619062 0 -0.01728226886004899 -0.00030845338398633761 0 -0.019665420751256442 0.00043065321045839602 0 -0.019695150266284676 0.0002707335432354204 0 -0.01972230381401224 0.00028084085791562594 0 -0.020236905723733066 0.00058396723415637941 0 -0.01728226886004899 -0.00030845338398633761 0 -0.019665420751256442 0.00043065321045839602 0 -0.019425082583487286 0.00057889833512333262 0 -0.019400678957726899 0.00091421171131598653 0 -0.01979613638045544 0.00015886244129714464 0 -0.01964632741510295 0.00031302080151907524 0 -0.019662556430911617 0.00019144659801645727 0 -0.017872137758954292 -0.00086711570712619062 0 -0.020207942487385815 0.00045005805726674477 0 -0.019665420751256442 0.00043065321045839602 0 -0.019695150266284676 0.0002707335432354204 0 -0.01964632741510295 0.00031302080151907524 0 -0.01964632741510295 0.00031302080151907524 0 -0.019662556430911617 0.00019144659801645727 0 -0.019607158408221127 0.00021560571687294605 0 -0.019596701522442334 0.00026850164690048591 0 -0.019516059929520987 0.00019027094085801352 0 -0.019607158408221127 0.00021560571687294605 0 -0.019596701522442334 0.00026850164690048591 0 -0.01964632741510295 0.00031302080151907524 0 -0.019607158408221127 0.00021560571687294605 0 -0.019662556430911617 0.00019144659801645727 0 -0.019607158408221127 0.00021560571687294605 0 -0.019607133653421208 8.5381075637353871e-05 0 -0.019516059929520987 0.00019027094085801352 0 -0.019607158408221127 0.00021560571687294605 0 -0.019607133653421208 8.5381075637353871e-05 0 -0.015974128271637383 -0.0017462651036296403 0 -0.017261152654850887 -0.0012466486539354413 0 -0.01674457125300206 -0.00066082029083325072 0 -0.01979613638045544 0.00015886244129714464 0 -0.019662556430911617 0.00019144659801645727 0 -0.019607133653421208 8.5381075637353871e-05 0 -0.017872137758954292 -0.00086711570712619062 0 -0.018428813949595769 -0.00056950590809503189 0 -0.0079707937106868777 -0.0070587736483397386 0 -0.0070320757407279291 -0.0061460140151015988 0 -0.0069533243763836346 -0.0067954263596793569 0 -0.017261152654850887 -0.0012466486539354413 0 -0.01674457125300206 -0.00066082029083325072 0 -0.017616941269587093 -0.00068337563211956617 0 -0.017758931016539543 -0.00021985526794074379 0 -0.01674457125300206 -0.00066082029083325072 0 -0.017616941269587093 -0.00068337563211956617 0 -0.010213339056421694 -0.0057928281470968649 0 -0.0089443216878999799 -0.0047532854772857824 0 -0.0079707937106868777 -0.0070587736483397386 0 -0.014000270939578176 -0.0029225659238764617 0 -0.012416794597029891 -0.0044349367129373242 0 -0.0074821182614777399 -0.0051510352801944605 0 -0.0089443216878999799 -0.0047532854772857824 0 -0.0079707937106868777 -0.0070587736483397386 0 -0.0074821182614777399 -0.0051510352801944605 0 -0.0079707937106868777 -0.0070587736483397386 0 -0.0070320757407279291 -0.0061460140151015988 0 -0.0074821182614777399 -0.0051510352801944605 0 -0.0070320757407279291 -0.0061460140151015988 0 -0.0063318725631261548 -0.0057116238081179301 0 -0.0070320757407279291 -0.0061460140151015988 0 -0.0069533243763836346 -0.0067954263596793569 0 -0.0063607527836755098 -0.0065867071283102242 0 -0.0063318725631261548 -0.0057116238081179301 0 -0.0056312892489842007 -0.0063186142218610158 0 -0.0063607527836755098 -0.0065867071283102242 0 -0.0070320757407279291 -0.0061460140151015988 0 -0.0063318725631261548 -0.0057116238081179301 0 -0.0063607527836755098 -0.0065867071283102242 0 -0.0053190368005231695 -0.0038031464677845406 0 -0.0040160840814445252 -0.0029369670181791643 0 -0.0055496678458415135 -0.0046975564716007475 0 -0.0046433481605858869 -0.0063809552083563814 0 -0.0056312892489842007 -0.0063186142218610158 0 -0.0055496678458415135 -0.0046975564716007475 0 -0.0063318725631261548 -0.0057116238081179301 0 -0.0056312892489842007 -0.0063186142218610158 0 -0.0051041149298505679 -0.0022724161379054854 0 -0.0045296973796685527 -0.0023002722328165702 0 -0.0045318626813560785 -0.0031695050327347901 0 -0.0046433481605858869 -0.0063809552083563814 0 -0.005782582828198002 -0.0080849111560122085 0 -0.0053303099060015673 -0.0069091860741924017 0 -0.0040160840814445252 -0.0029369670181791643 0 -0.0058422371447434292 -0.0015044448543931278 0 -0.005782582828198002 -0.0080849111560122085 0 -0.0053303099060015673 -0.0069091860741924017 0 -0.0056421796477364311 -0.007148451441723172 0 -0.0056312892489842007 -0.0063186142218610158 0 -0.0063607527836755098 -0.0065867071283102242 0 -0.0060151218959182632 -0.0070175628092756012 0 -0.0056312892489842007 -0.0063186142218610158 0 -0.0053303099060015673 -0.0069091860741924017 0 -0.0056421796477364311 -0.007148451441723172 0 -0.0034644506619188917 0.00040806673164748344 0 -0.0034515147303197649 0.00038167445520088841 0 -0.0035831800081602256 0.00029960577345755575 0 -0.0056312892489842007 -0.0063186142218610158 0 -0.0056421796477364311 -0.007148451441723172 0 -0.0060151218959182632 -0.0070175628092756012 0 -0.0030158419634262103 0.00096425519323998349 0 -0.0058422371447434292 -0.0015044448543931278 0 -0.0046433481605858869 -0.0063809552083563814 0 -0.0056312892489842007 -0.0063186142218610158 0 -0.0053303099060015673 -0.0069091860741924017 0 -0.005782582828198002 -0.0080849111560122085 0 -0.0056421796477364311 -0.007148451441723172 0 -0.0059989165801651295 -0.0075303142664137901 0 -0.0056421796477364311 -0.007148451441723172 0 -0.0059989165801651295 -0.0075303142664137901 0 -0.0060151218959182632 -0.0070175628092756012 0 -0.0060611027188782786 -0.007841266481800592 0 -0.0059989165801651295 -0.0075303142664137901 0 -0.0064423081848713794 -0.007497122094213075 0 -0.00592878199590455 -0.0083094486329605786 0 -0.0079707937106868777 -0.0070587736483397386 0 -0.0064423081848713794 -0.007497122094213075 0 -0.0098659090357369281 -0.0016446113301127076 0 -0.012416794597029891 -0.0044349367129373242 0 -0.0079707937106868777 -0.0070587736483397386 0 -0.0064423081848713794 -0.007497122094213075 0 -0.0069533243763836346 -0.0067954263596793569 0 -0.0059989165801651295 -0.0075303142664137901 0 -0.0064423081848713794 -0.007497122094213075 0 -0.0060151218959182632 -0.0070175628092756012 0 -0.0064423081848713794 -0.007497122094213075 0 -0.0069533243763836346 -0.0067954263596793569 0 -0.0063607527836755098 -0.0065867071283102242 0 -0.0064423081848713794 -0.007497122094213075 0 -0.0063607527836755098 -0.0065867071283102242 0 -0.0060151218959182632 -0.0070175628092756012 0 -0.011420538989049683 0.0034231347573062186 0 -0.016957319078655109 0.002396520821716052 0 -0.011420538989049683 0.0034231347573062186 0 -0.011078925829823054 0.0032780169094735337 0 -0.016718331609113884 0.001810305626253985 0 -0.017390401541005549 0.0024482972348363078 0 -0.01686361607084829 0.0025102245774443681 0 -0.016718331609113884 0.001810305626253985 0 -0.01686361607084829 0.0025102245774443681 0 -0.016072647703994053 0.0026050621414933309 0 -0.0099722154879658114 0.0041607229364456167 0 -0.010260769878385314 0.0042207927462531566 0 -0.010334162919585214 0.0039933460093824567 0 -0.011420538989049683 0.0034231347573062186 0 -0.013226664129838688 0.0029701467100173027 0 -0.016718331609113884 0.001810305626253985 0 -0.016072647703994053 0.0026050621414933309 0 -0.015362724189203269 0.0021994838840364607 0 -0.011420538989049683 0.0034231347573062186 0 -0.0062510224776301613 0.0048159718064148954 0 -0.0053646202170034131 0.0058886550302542353 0 -0.0028808355937773489 0.0053793961988345311 0 -0.0040103100116171573 0.0045414854328170691 0 -0.0032621645871289537 0.0041218228210840617 0 -0.0010033775343692376 0.0035593304737368617 0 -0.0028808355937773489 0.0053793961988345311 0 -0.0040103100116171573 0.0045414854328170691 0 -0.002067635775261879 0.0033491750727943363 0 -0.0040103100116171573 0.0045414854328170691 0 -0.0057853492727554358 0.0036010913771027434 0 -0.002067635775261879 0.0033491750727943363 0 -0.0053646202170034131 0.0058886550302542353 0 -0.0040103100116171573 0.0045414854328170691 0 -0.0057853492727554358 0.0036010913771027434 0 -0.0053646202170034131 0.0058886550302542353 0 -0.0057853492727554358 0.0036010913771027434 0 -0.007499147034343779 0.0049697184084124121 0 -0.014442823556085747 0.0016781278396114402 0 -0.015730292313288992 0.001163455652693731 0 -0.015802955524818536 0.002110588029124537 0 -0.011078925829823054 0.0032780169094735337 0 -0.0097966377566393089 0.0034368427006752993 0 -0.0057853492727554358 0.0036010913771027434 0 -0.007499147034343779 0.0049697184084124121 0 -0.0096638295875488608 0.0040130089495490186 0 -0.0032621645871289537 0.0041218228210840617 0 -0.0097966377566393089 0.0034368427006752993 0 -0.0016843799821812395 0.0044378376217586403 0 -0.005350764515485832 0.0049105452135150716 0 -0.0040834530291894485 0.0037315156897422129 0 -0.015730292313288992 0.001163455652693731 0 -0.015802955524818536 0.002110588029124537 0 -0.017123258730368556 0.002130897532121495 0 -0.0053835881904044265 0.0048869807031349331 0 -0.0055766548710495393 0.0047864897146139658 0 -0.0088141031706572733 0.0049544914551629534 0 -0.0055766548710495393 0.0047864897146139658 0 -0.0061318519140065647 0.0037169482725550986 0 -0.0054148700855997222 0.0041268468864016543 0 -0.005350764515485832 0.0049105452135150716 0 -0.0054148700855997222 0.0041268468864016543 0 -0.0040834530291894485 0.0037315156897422129 0 -0.0097966377566393089 0.0034368427006752993 0 -0.0092948790726261592 0.0036411436589126448 0 -0.005350764515485832 0.0049105452135150716 0 -0.0055766548710495393 0.0047864897146139658 0 -0.0054148700855997222 0.0041268468864016543 0 -0.017267602088028616 0.002690225973786999 0 -0.016957319078655109 0.002396520821716052 0 -0.018303982578733998 0.0027151244036290115 0 -0.017825500254346521 0.0022472774081838259 0 -0.017979792510364277 0.0027422519673156497 0 -0.015802955524818536 0.002110588029124537 0 -0.016542492959344349 0.0027650283806633915 0 -0.014876565807890412 0.0025538969528196842 0 -0.015802955524818536 0.002110588029124537 0 -0.016542492959344349 0.0027650283806633915 0 -0.017123258730368556 0.002130897532121495 0 -0.013098553219791337 0.0022653946723386774 0 -0.014442823556085747 0.0016781278396114402 0 -0.014876565807890412 0.0025538969528196842 0 -0.014442823556085747 0.0016781278396114402 0 -0.015802955524818536 0.002110588029124537 0 -0.014876565807890412 0.0025538969528196842 0 -0.016718331609113884 0.001810305626253985 0 -0.017825500254346521 0.0022472774081838259 0 -0.017390401541005549 0.0024482972348363078 0 -0.017825500254346521 0.0022472774081838259 0 -0.017390401541005549 0.0024482972348363078 0 -0.017979792510364277 0.0027422519673156497 0 -0.017390401541005549 0.0024482972348363078 0 -0.017440381574188361 0.0028164405217350266 0 -0.017979792510364277 0.0027422519673156497 0 -0.017979792510364277 0.0027422519673156497 0 -0.017625477979483779 0.0032366528526005999 0 -0.018205631235514722 0.003192738775110302 0 -0.017440381574188361 0.0028164405217350266 0 -0.017979792510364277 0.0027422519673156497 0 -0.017625477979483779 0.0032366528526005999 0 -0.017440381574188361 0.0028164405217350266 0 -0.017625477979483779 0.0032366528526005999 0 -0.017033999076195194 0.003479200491140848 0 -0.018226683638392416 0.0029057925397617179 0 -0.018205631235514722 0.003192738775110302 0 -0.018260885705297849 0.0028861847593976975 0 -0.018303982578733998 0.0027151244036290115 0 -0.017979792510364277 0.0027422519673156497 0 -0.018226683638392416 0.0029057925397617179 0 -0.018303982578733998 0.0027151244036290115 0 -0.018226683638392416 0.0029057925397617179 0 -0.018260885705297849 0.0028861847593976975 0 -0.017979792510364277 0.0027422519673156497 0 -0.018226683638392416 0.0029057925397617179 0 -0.018205631235514722 0.003192738775110302 0 -0.018956340599893335 0.0036699570709659689 0 -0.018205631235514722 0.003192738775110302 0 -0.019225891465412114 0.0032530427837276269 0 -0.018397484779655447 0.0031523083585939596 0 -0.018231108962848862 0.0031281939865686731 0 -0.018956340599893335 0.0036699570709659689 0 -0.019225891465412114 0.0032530427837276269 0 -0.01918175224622394 0.0035342857660418474 0 -0.018903027421820932 0.0037245808692264173 0 -0.018650352452166612 0.0038711825021816933 0 -0.018956340599893335 0.0036699570709659689 0 -0.018205631235514722 0.003192738775110302 0 -0.017574988323992395 0.0040426742114606437 0 -0.017625477979483779 0.0032366528526005999 0 -0.017574988323992395 0.0040426742114606437 0 -0.017033999076195194 0.003479200491140848 0 -0.017625477979483779 0.0032366528526005999 0 -0.018205631235514722 0.003192738775110302 0 -0.017574988323992395 0.0040426742114606437 0 -0.017574988323992395 0.0040426742114606437 0 -0.017033999076195194 0.003479200491140848 0 -0.016429272393515899 0.0043335996472770016 0 -0.017033999076195194 0.003479200491140848 0 -0.016295745378119866 0.0036441269523501975 0 -0.016429272393515899 0.0043335996472770016 0 -0.017033999076195194 0.003479200491140848 0 -0.016560768098932192 0.0030236339138514472 0 -0.016295745378119866 0.0036441269523501975 0 -0.017440381574188361 0.0028164405217350266 0 -0.017033999076195194 0.003479200491140848 0 -0.016560768098932192 0.0030236339138514472 0 -0.016560768098932192 0.0030236339138514472 0 -0.01686361607084829 0.0025102245774443681 0 -0.016072647703994053 0.0026050621414933309 0 -0.017440381574188361 0.0028164405217350266 0 -0.016560768098932192 0.0030236339138514472 0 -0.01686361607084829 0.0025102245774443681 0 -0.017390401541005549 0.0024482972348363078 0 -0.017440381574188361 0.0028164405217350266 0 -0.01686361607084829 0.0025102245774443681 0 -0.016072647703994053 0.0026050621414933309 0 -0.014872601803016675 0.0029171548695553049 0 -0.015362724189203269 0.0021994838840364607 0 -0.016072647703994053 0.0026050621414933309 0 -0.015770311037383584 0.0034091387834034362 0 -0.014872601803016675 0.0029171548695553049 0 -0.016560768098932192 0.0030236339138514472 0 -0.016072647703994053 0.0026050621414933309 0 -0.015770311037383584 0.0034091387834034362 0 -0.015770311037383584 0.0034091387834034362 0 -0.016295745378119866 0.0036441269523501975 0 -0.015728455363544339 0.0040389922290074822 0 -0.016560768098932192 0.0030236339138514472 0 -0.015770311037383584 0.0034091387834034362 0 -0.016295745378119866 0.0036441269523501975 0 -0.016295745378119866 0.0036441269523501975 0 -0.015728455363544339 0.0040389922290074822 0 -0.016429272393515899 0.0043335996472770016 0 -0.015770311037383584 0.0034091387834034362 0 -0.015728455363544339 0.0040389922290074822 0 -0.015182374240400531 0.0041347436556375744 0 -0.015770311037383584 0.0034091387834034362 0 -0.015182374240400531 0.0041347436556375744 0 -0.014872601803016675 0.0029171548695553049 0 -0.015728455363544339 0.0040389922290074822 0 -0.015279708434347433 0.004105314785708955 0 -0.015334505094054259 0.0045449944153569339 0 -0.015576533887197921 0.0043601003966265255 0 -0.017377887300168558 0.0044316617958462829 0 -0.017377887300168558 0.0044316617958462829 0 -0.014645104352079916 0.0029913290912468907 0 -0.015169286890576662 0.004904365992118298 0 -0.01380106704854793 0.0040236758788362 0 -0.014872601803016675 0.0029171548695553049 0 -0.015169286890576662 0.004904365992118298 0 -0.01380106704854793 0.0040236758788362 0 -0.013012063395896464 0.0051912606254249337 0 -0.017377887300168558 0.0044316617958462829 0 -0.016991501075862222 0.0026506225528103401 0 -0.01380106704854793 0.0040236758788362 0 -0.013372743640869168 0.0028559737300632823 0 -0.012455160823612284 0.0044247412624886509 0 -0.01380106704854793 0.0040236758788362 0 -0.012455160823612284 0.0044247412624886509 0 -0.013012063395896464 0.0051912606254249337 0 -0.010761821226841179 0.0038509484719125549 0 -0.010917989345320556 0.0039799888161753966 0 -0.010578045141837907 0.0040552626144621873 0 -0.01380106704854793 0.0040236758788362 0 -0.013372743640869168 0.0028559737300632823 0 -0.014872601803016675 0.0029171548695553049 0 -0.011957881744032634 0.0034176628840688317 0 -0.013226664129838688 0.0029701467100173027 0 -0.010761821226841179 0.0038509484719125549 0 -0.010578045141837907 0.0040552626144621873 0 -0.010334162919585214 0.0039933460093824567 0 -0.013372743640869168 0.0028559737300632823 0 -0.014872601803016675 0.0029171548695553049 0 -0.015362724189203269 0.0021994838840364607 0 -0.0038798096266104442 0.0047689456327173977 0 -0.01219977961088625 0.0033656366770892102 0 -0.011086318406682484 0.0038730178489431726 0 -0.010894944170974259 0.0037906172880481908 0 -0.010653115781436229 0.0053385810090393173 0 0.0010979917770735045 0.0053174267664616174 0 0.0015657435743301668 0.0051148144222548332 0 0.0014735106796484553 0.0056199550586514598 0 -0.0066354641160157914 0.0048124281450927309 0 -0.0066660317369524134 0.0041638941763261174 0 -0.0070262243253807677 0.0044365812087971759 0 -0.0038798096266104442 0.0047689456327173977 0 -0.0022221157963948131 0.0056642414192224306 0 -0.011086318406682484 0.0038730178489431726 0 -0.012455160823612284 0.0044247412624886509 0 -0.010653115781436229 0.0053385810090393173 0 -0.013372743640869168 0.0028559737300632823 0 -0.011086318406682484 0.0038730178489431726 0 -0.012455160823612284 0.0044247412624886509 0 -0.012455160823612284 0.0044247412624886509 0 -0.010653115781436229 0.0053385810090393173 0 -0.013012063395896464 0.0051912606254249337 0 -0.0038798096266104442 0.0047689456327173977 0 -0.0057052554924014228 0.0043197448591391248 0 -0.010761821226841179 0.0038509484719125549 0 -0.011086318406682484 0.0038730178489431726 0 -0.010917989345320556 0.0039799888161753966 0 -0.011957881744032634 0.0034176628840688317 0 -0.011177893701914465 0.0038114333765882293 0 0.0010066223989605595 0.0055811626326439856 0 0.001052923372857537 0.0048599901965004364 0 0.00022394569630821169 0.004855295683627716 0 -0.011086318406682484 0.0038730178489431726 0 -0.010894944170974259 0.0037906172880481908 0 -0.010917989345320556 0.0039799888161753966 0 0.0010979917770735045 0.0053174267664616174 0 0.001052923372857537 0.0048599901965004364 0 0.0015657435743301668 0.0051148144222548332 0 -0.0038798096266104442 0.0047689456327173977 0 0.00077465242413989673 0.0051302532003469027 0 0.001052923372857537 0.0048599901965004364 0 0.0011560475699591104 0.0043295744390878686 0 0.0016807001783909533 0.0045488376995665419 0 0.001052923372857537 0.0048599901965004364 0 0.0015657435743301668 0.0051148144222548332 0 0.0016807001783909533 0.0045488376995665419 0 0.001052923372857537 0.0048599901965004364 0 0.0011560475699591104 0.0043295744390878686 0 0.00050021042727127019 0.0044111824871704867 0 0.001052923372857537 0.0048599901965004364 0 0.00022394569630821169 0.004855295683627716 0 0.00050021042727127019 0.0044111824871704867 0 0.0012209335238733429 0.0040851497881491299 0 -0.00019507469362451635 0.004172140505366846 0 0.00076775308670345977 0.0034627237097337171 0 0.00050021042727127019 0.0044111824871704867 0 0.00062054320420258918 0.0038994846164089941 0 -0.0006339962770575033 0.0040780646677310876 0 0.0011560475699591104 0.0043295744390878686 0 0.00050021042727127019 0.0044111824871704867 0 0.00062054320420258918 0.0038994846164089941 0 0.0012209335238733429 0.0040851497881491299 0 0.0013963162108659843 0.0035599986417736195 0 0.0017549025351047708 0.0038944564229513043 0 0.0016668094841505716 0.0040213214524366233 0 0.0013820043808795647 0.0039160569403223107 0 0.0011560475699591104 0.0043295744390878686 0 0.00062054320420258918 0.0038994846164089941 0 0.0017549025351047708 0.0038944564229513043 0 -0.010260769878385314 0.0042207927462531566 0 -0.010578045141837907 0.0040552626144621873 0 -0.010334162919585214 0.0039933460093824567 0 -0.010260769878385314 0.0042207927462531566 0 -0.010578045141837907 0.0040552626144621873 0 -0.01057307386810406 0.0042942060616215465 0 0.00022394569630821169 0.004855295683627716 0 0.00050021042727127019 0.0044111824871704867 0 -0.0006339962770575033 0.0040780646677310876 0 -0.010917989345320556 0.0039799888161753966 0 -0.010578045141837907 0.0040552626144621873 0 -0.01057307386810406 0.0042942060616215465 0 -0.0057052554924014228 0.0043197448591391248 0 -0.0041544556043411531 0.0038428461258317296 0 0.0016668094841505716 0.0040213214524366233 0 -0.0041544556043411531 0.0038428461258317296 0 -0.00019507469362451635 0.004172140505366846 0 -0.002067635775261879 0.0033491750727943363 0 0.00076775308670345977 0.0034627237097337171 0 0.0012209335238733429 0.0040851497881491299 0 -0.00019507469362451635 0.004172140505366846 0 -0.00066577460772917802 0.0048446119438023977 0 -0.0062510224776301613 0.0048159718064148954 0 -0.0041544556043411531 0.0038428461258317296 0 -0.00019507469362451635 0.004172140505366846 0 -0.00066577460772917802 0.0048446119438023977 0 -0.002067635775261879 0.0033491750727943363 0 -0.0028808355937773489 0.0053793961988345311 0 -0.00066577460772917802 0.0048446119438023977 0 -0.002067635775261879 0.0033491750727943363 0 0.00037887687736454559 0.0037281085865952554 0 0.00063714251936561404 0.0033519703984086478 0 0.00018101521050488224 0.0028665497346140908 0 -0.0010033775343692376 0.0035593304737368617 0 0.00072072100582888372 0.0034499137009689927 0 0.00063714251936561404 0.0033519703984086478 0 0.00076775308670345977 0.0034627237097337171 0 0.0009182024652357075 0.0031338381521903861 0 0.00037887687736454559 0.0037281085865952554 0 0.00063714251936561404 0.0033519703984086478 0 0.00076775308670345977 0.0034627237097337171 0 0.001126323931259792 0.0026005092085049294 0 0.00072827277435044333 0.002791422635485982 0 0.0014637883783876985 0.0028979092706708041 0 0.00063714251936561404 0.0033519703984086478 0 0.00072827277435044333 0.002791422635485982 0 0.0014637883783876985 0.0028979092706708041 0 0.00069721237533426248 0.0033161900309282293 0 0.0011434100237942178 0.0030327292043504212 0 0.00072827277435044333 0.002791422635485982 0 0.00018101521050488224 0.0028665497346140908 0 0.00028378735544574079 0.002437651483425258 0 0.00063714251936561404 0.0033519703984086478 0 0.00072827277435044333 0.002791422635485982 0 0.00018101521050488224 0.0028665497346140908 0 0.0013963162108659843 0.0035599986417736195 0 0.0016618428483570428 0.0033177888259968901 0 0.0017549025351047708 0.0038944564229513043 0 0.0013963162108659843 0.0035599986417736195 0 0.0010517689812591529 0.0033827875499538545 0 0.0012893597582329793 0.0032391637070294009 0 0.0013963162108659843 0.0035599986417736195 0 0.0012893597582329793 0.0032391637070294009 0 0.0016618428483570428 0.0033177888259968901 0 0.0012209335238733429 0.0040851497881491299 0 0.0013963162108659843 0.0035599986417736195 0 0.0010517689812591529 0.0033827875499538545 0 0.0012209335238733429 0.0040851497881491299 0 0.00076775308670345977 0.0034627237097337171 0 0.0010517689812591529 0.0033827875499538545 0 0.00076775308670345977 0.0034627237097337171 0 0.0010517689812591529 0.0033827875499538545 0 0.0009182024652357075 0.0031338381521903861 0 0.0011434100237942178 0.0030327292043504212 0 0.002065214915768593 0.002627082718206638 0 0.001126323931259792 0.0026005092085049294 0 0.0014637883783876985 0.0028979092706708041 0 0.0021786078659136493 0.0024767995885626218 0 0.0010517689812591529 0.0033827875499538545 0 0.0009182024652357075 0.0031338381521903861 0 0.0012893597582329793 0.0032391637070294009 0 0.0009182024652357075 0.0031338381521903861 0 0.0012893597582329793 0.0032391637070294009 0 0.0014621475021422763 0.0027887726045696623 0 0.0012893597582329793 0.0032391637070294009 0 0.0016618428483570428 0.0033177888259968901 0 0.0014621475021422763 0.0027887726045696623 0 0.0021819323246227845 0.0022273006937553515 0 0.0021844831122916747 0.0026389477550738559 0 0.002869681603017715 0.0023292253516209982 0 0.0021819323246227845 0.0022273006937553515 0 0.0021844831122916747 0.0026389477550738559 0 0.0018029704651824215 0.0021166746463348244 0 0.0021844831122916747 0.0026389477550738559 0 0.0013194003489241893 0.002181316521301348 0 0.0018029704651824215 0.0021166746463348244 0 0.0012353498345882643 0.0025853777246397213 0 0.002065214915768593 0.002627082718206638 0 0.001126323931259792 0.0026005092085049294 0 0.0021844831122916747 0.0026389477550738559 0 0.0013194003489241893 0.002181316521301348 0 0.0013194003489241893 0.002181316521301348 0 0.0015812421522458263 0.0017471486596082259 0 0.0018029704651824215 0.0021166746463348244 0 0.0013194003489241893 0.002181316521301348 0 0.0015812421522458263 0.0017471486596082259 0 0.0010960684872308856 0.0017613048301112983 0 0.0015812421522458263 0.0017471486596082259 0 0.0010960684872308856 0.0017613048301112983 0 0.0014098864898687659 0.0013034752496654341 0 0.0015812421522458263 0.0017471486596082259 0 0.0020212092784749327 0.0018657282231348145 0 0.0019384464122046224 0.001512611091541769 0 0.0015812421522458263 0.0017471486596082259 0 0.0018029704651824215 0.0021166746463348244 0 0.0020212092784749327 0.0018657282231348145 0 0.0021819323246227845 0.0022273006937553515 0 0.0018029704651824215 0.0021166746463348244 0 0.0020212092784749327 0.0018657282231348145 0 0.0020212092784749327 0.0018657282231348145 0 0.0023183017830243464 0.0016053690188862564 0 0.0019384464122046224 0.001512611091541769 0 0.0020212092784749327 0.0018657282231348145 0 0.0023955098985833177 0.0019529210046863555 0 0.0023183017830243464 0.0016053690188862564 0 0.0021819323246227845 0.0022273006937553515 0 0.0020212092784749327 0.0018657282231348145 0 0.0023955098985833177 0.0019529210046863555 0 0.00072827277435044333 0.002791422635485982 0 0.00028378735544574079 0.002437651483425258 0 0.00074942563151245926 0.0021756636331421511 0 0.00028378735544574079 0.002437651483425258 0 0.00074942563151245926 0.0021756636331421511 0 0.00019814161112437172 0.0019506709449605439 0 0.001126323931259792 0.0026005092085049294 0 0.0013194003489241893 0.002181316521301348 0 0.00074942563151245926 0.0021756636331421511 0 0.001126323931259792 0.0026005092085049294 0 0.00072827277435044333 0.002791422635485982 0 0.00074942563151245926 0.0021756636331421511 0 0.00074942563151245926 0.0021756636331421511 0 0.0010960684872308856 0.0017613048301112983 0 0.00062504291675243289 0.0016159740835830054 0 0.0013194003489241893 0.002181316521301348 0 0.00074942563151245926 0.0021756636331421511 0 0.0010960684872308856 0.0017613048301112983 0 0.0010960684872308856 0.0017613048301112983 0 0.00062504291675243289 0.0016159740835830054 0 0.0009482579690005676 0.001396807074837363 0 0.00074942563151245926 0.0021756636331421511 0 0.00062504291675243289 0.0016159740835830054 0 0.00019814161112437172 0.0019506709449605439 0 0.00062504291675243289 0.0016159740835830054 0 0.00027098572061076215 0.0015116152233847083 0 0.00019814161112437172 0.0019506709449605439 0 0.00027098572061076215 0.0015116152233847083 0 -0.00027819366007328264 0.001753713197839474 0 0.00019814161112437172 0.0019506709449605439 0 -0.00027819366007328264 0.001753713197839474 0 -0.00066726289931824797 0.0022105624370620551 0 -0.00030372459125627003 0.002305381225633688 0 -0.00027819366007328264 0.001753713197839474 0 0.00019814161112437172 0.0019506709449605439 0 -0.00030372459125627003 0.002305381225633688 0 0.00028378735544574079 0.002437651483425258 0 0.00019814161112437172 0.0019506709449605439 0 -0.00030372459125627003 0.002305381225633688 0 0.00018101521050488224 0.0028665497346140908 0 -0.00030372459125627003 0.002305381225633688 0 -0.00092279851808465781 0.0027735300949242002 0 0.00018101521050488224 0.0028665497346140908 0 0.00028378735544574079 0.002437651483425258 0 -0.00030372459125627003 0.002305381225633688 0 -0.00066726289931824797 0.0022105624370620551 0 -0.00030372459125627003 0.002305381225633688 0 -0.00092279851808465781 0.0027735300949242002 0 -0.0028124497630516473 5.9397496825065789e-05 0 -0.00092279851808465781 0.0027735300949242002 0 -0.0030713143292018731 0.0018681250866605878 0 -0.0017377746193356937 0.0011976992453537028 0 -0.00093042702835680231 0.0026729657184730005 0 -0.00092279851808465781 0.0027735300949242002 0 -0.0026145634333310497 0.0031876990907540974 0 -0.0030713143292018731 0.0018681250866605878 0 -0.0016843799821812395 0.0044378376217586403 0 -0.00092279851808465781 0.0027735300949242002 0 -0.0026145634333310497 0.0031876990907540974 0 0.00037887687736454559 0.0037281085865952554 0 0.00018101521050488224 0.0028665497346140908 0 -0.00092279851808465781 0.0027735300949242002 0 -0.0016843799821812395 0.0044378376217586403 0 0.00037887687736454559 0.0037281085865952554 0 -0.00092279851808465781 0.0027735300949242002 0 -0.0055766548710495393 0.0047864897146139658 0 -0.0061318519140065647 0.0037169482725550986 0 -0.0076168982820972375 0.0036064503553982666 0 -0.0052854029809084845 0.0031873562454617058 0 -0.0042324012553936457 0.0025394777237829633 0 -0.0055130449384828174 0.0020513738113430305 0 -0.0052854029809084845 0.0031873562454617058 0 -0.0064707446497628178 0.0027399197185390121 0 -0.0055130449384828174 0.0020513738113430305 0 -0.0052854029809084845 0.0031873562454617058 0 -0.0064707446497628178 0.0027399197185390121 0 -0.0061318519140065647 0.0037169482725550986 0 -0.0052854029809084845 0.0031873562454617058 0 -0.0054148700855997222 0.0041268468864016543 0 -0.0040834530291894485 0.0037315156897422129 0 -0.0052854029809084845 0.0031873562454617058 0 -0.0061318519140065647 0.0037169482725550986 0 -0.0054148700855997222 0.0041268468864016543 0 -0.0016843799821812395 0.0044378376217586403 0 -0.0026145634333310497 0.0031876990907540974 0 -0.0040834530291894485 0.0037315156897422129 0 -0.0026145634333310497 0.0031876990907540974 0 -0.0042324012553936457 0.0025394777237829633 0 -0.0030713143292018731 0.0018681250866605878 0 -0.0026145634333310497 0.0031876990907540974 0 -0.0040834530291894485 0.0037315156897422129 0 -0.0042324012553936457 0.0025394777237829633 0 -0.0052854029809084845 0.0031873562454617058 0 -0.0040834530291894485 0.0037315156897422129 0 -0.0042324012553936457 0.0025394777237829633 0 -0.0042324012553936457 0.0025394777237829633 0 -0.0030713143292018731 0.0018681250866605878 0 -0.0046414062392334783 0.00075797445013992611 0 -0.0028124497630516473 5.9397496825065789e-05 0 -0.0030713143292018731 0.0018681250866605878 0 -0.0046414062392334783 0.00075797445013992611 0 -0.0046414062392334783 0.00075797445013992611 0 -0.0055130449384828174 0.0020513738113430305 0 -0.0064958571990095413 0.001138164710275075 0 -0.0046414062392334783 0.00075797445013992611 0 -0.0064958571990095413 0.001138164710275075 0 -0.0060576827692208077 -0.00034511812747392172 0 -0.0042324012553936457 0.0025394777237829633 0 -0.0046414062392334783 0.00075797445013992611 0 -0.0055130449384828174 0.0020513738113430305 0 -0.0064707446497628178 0.0027399197185390121 0 -0.0055130449384828174 0.0020513738113430305 0 -0.0064958571990095413 0.001138164710275075 0 -0.0046414062392334783 0.00075797445013992611 0 -0.0060576827692208077 -0.00034511812747392172 0 -0.0045604537102101215 -0.0020852381793425244 0 -0.0028124497630516473 5.9397496825065789e-05 0 -0.0046414062392334783 0.00075797445013992611 0 -0.0045604537102101215 -0.0020852381793425244 0 -0.0017377746193356937 0.0011976992453537028 0 -0.0026342615845255583 -0.00012659122176161348 0 -0.00027819366007328264 0.001753713197839474 0 -0.00066726289931824797 0.0022105624370620551 0 -0.00077032008613723115 0.0017225340395266473 0 -0.00027819366007328264 0.001753713197839474 0 -0.00077032008613723115 0.0017225340395266473 0 -0.00041985200190921635 0.0012954869157233034 0 -0.0045604537102101215 -0.0020852381793425244 0 -0.0072513398268945935 -0.0014028091439245965 0 -0.007322778672164805 -0.0029820369190802906 0 -0.0060576827692208077 -0.00034511812747392172 0 -0.0045604537102101215 -0.0020852381793425244 0 -0.0072513398268945935 -0.0014028091439245965 0 -0.0072513398268945935 -0.0014028091439245965 0 -0.0089647277714652637 -0.0019846564408326907 0 -0.007322778672164805 -0.0029820369190802906 0 -0.0064958571990095413 0.001138164710275075 0 -0.0060576827692208077 -0.00034511812747392172 0 -0.0081959981931534875 0.00025182228401950352 0 -0.0060576827692208077 -0.00034511812747392172 0 -0.0072513398268945935 -0.0014028091439245965 0 -0.0081959981931534875 0.00025182228401950352 0 -0.0072513398268945935 -0.0014028091439245965 0 -0.0081959981931534875 0.00025182228401950352 0 -0.0089647277714652637 -0.0019846564408326907 0 -0.0081959981931534875 0.00025182228401950352 0 -0.0097719950291450183 -0.00041354236917610758 0 -0.010334265587107804 0.00096269063502801703 0 -0.0081959981931534875 0.00025182228401950352 0 -0.0097719950291450183 -0.00041354236917610758 0 -0.0089647277714652637 -0.0019846564408326907 0 -0.0097719950291450183 -0.00041354236917610758 0 -0.0089647277714652637 -0.0019846564408326907 0 -0.010935067915463753 -0.0024448683585171615 0 -0.010935067915463753 -0.0024448683585171615 0 -0.012983611767250504 -0.0010385646786402079 0 -0.011534400574007135 -0.00048061261685850134 0 -0.010935067915463753 -0.0024448683585171615 0 -0.013089950453955574 -0.0023016422043730107 0 -0.012983611767250504 -0.0010385646786402079 0 -0.012983611767250504 -0.0010385646786402079 0 -0.011534400574007135 -0.00048061261685850134 0 -0.013205953662680158 0.00025232385677795863 0 -0.0097719950291450183 -0.00041354236917610758 0 -0.011534400574007135 -0.00048061261685850134 0 -0.010334265587107804 0.00096269063502801703 0 -0.0097719950291450183 -0.00041354236917610758 0 -0.010935067915463753 -0.0024448683585171615 0 -0.011534400574007135 -0.00048061261685850134 0 -0.010334265587107804 0.00096269063502801703 0 -0.011967308037554941 0.00094487850798723151 0 -0.01125769811831042 0.002723371618275947 0 -0.011534400574007135 -0.00048061261685850134 0 -0.010334265587107804 0.00096269063502801703 0 -0.011967308037554941 0.00094487850798723151 0 -0.011967308037554941 0.00094487850798723151 0 -0.013089099106654675 0.0015781491135442016 0 -0.01125769811831042 0.002723371618275947 0 -0.011534400574007135 -0.00048061261685850134 0 -0.011967308037554941 0.00094487850798723151 0 -0.013205953662680158 0.00025232385677795863 0 -0.011967308037554941 0.00094487850798723151 0 -0.013205953662680158 0.00025232385677795863 0 -0.013089099106654675 0.0015781491135442016 0 -0.013205953662680158 0.00025232385677795863 0 -0.013089099106654675 0.0015781491135442016 0 -0.014748691906169406 0.00081020249045206329 0 -0.013089099106654675 0.0015781491135442016 0 -0.013433662323888203 0.003307317569902748 0 -0.01125769811831042 0.002723371618275947 0 -0.013089099106654675 0.0015781491135442016 0 -0.013433662323888203 0.003307317569902748 0 -0.014748691906169406 0.00081020249045206329 0 -0.0090277217167591094 0.0022222290669433186 0 -0.0076168982820972375 0.0036064503553982666 0 -0.0088141031706572733 0.0049544914551629534 0 -0.01125769811831042 0.002723371618275947 0 -0.0090277217167591094 0.0022222290669433186 0 -0.0088141031706572733 0.0049544914551629534 0 -0.0064707446497628178 0.0027399197185390121 0 -0.0061318519140065647 0.0037169482725550986 0 -0.0076168982820972375 0.0036064503553982666 0 -0.0064707446497628178 0.0027399197185390121 0 -0.0076168982820972375 0.0036064503553982666 0 -0.0075685495842488472 0.0019804927530776826 0 -0.0090277217167591094 0.0022222290669433186 0 -0.0076168982820972375 0.0036064503553982666 0 -0.0075685495842488472 0.0019804927530776826 0 -0.0081959981931534875 0.00025182228401950352 0 -0.0090277217167591094 0.0022222290669433186 0 -0.0075685495842488472 0.0019804927530776826 0 -0.0064707446497628178 0.0027399197185390121 0 -0.0064958571990095413 0.001138164710275075 0 -0.0075685495842488472 0.0019804927530776826 0 -0.0064958571990095413 0.001138164710275075 0 -0.0081959981931534875 0.00025182228401950352 0 -0.0075685495842488472 0.0019804927530776826 0 -0.0081959981931534875 0.00025182228401950352 0 -0.010334265587107804 0.00096269063502801703 0 -0.0090277217167591094 0.0022222290669433186 0 -0.010334265587107804 0.00096269063502801703 0 -0.01125769811831042 0.002723371618275947 0 -0.0090277217167591094 0.0022222290669433186 0 -0.015923903423230388 -7.2278338230508937e-05 0 -0.015809259146798118 -0.00025406835443718981 0 -0.015769191703619116 -2.4244543807952838e-06 0 -0.015669602789113203 -0.0001714816133295566 0 -0.015809259146798118 -0.00025406835443718981 0 -0.015660971818583707 -0.00043585620935827755 0 -0.015669602789113203 -0.0001714816133295566 0 -0.015809259146798118 -0.00025406835443718981 0 -0.015769191703619116 -2.4244543807952838e-06 0 -0.015809259146798118 -0.00025406835443718981 0 -0.015872548664304632 -0.00037245027898189458 0 -0.015712148913317285 -0.00045343329084871566 0 -0.015809259146798118 -0.00025406835443718981 0 -0.015712148913317285 -0.00045343329084871566 0 -0.015660971818583707 -0.00043585620935827755 0 -0.015914052895997628 -0.00023335395020490041 0 -0.015809259146798118 -0.00025406835443718981 0 -0.015872548664304632 -0.00037245027898189458 0 -0.015838332745044377 -0.00040795972895893179 0 -0.015619754650345565 -0.0007424807073006742 0 -0.015872548664304632 -0.00037245027898189458 0 -0.015544369896604612 -0.0006167011735004745 0 -0.015529382659585859 -0.0013288257661677816 0 -0.015872548664304632 -0.00037245027898189458 0 -0.015712148913317285 -0.00045343329084871566 0 -0.015544369896604612 -0.0006167011735004745 0 -0.015712148913317285 -0.00045343329084871566 0 -0.015639605560300748 -0.00060270665780387176 0 -0.015544369896604612 -0.0006167011735004745 0 -0.015712148913317285 -0.00045343329084871566 0 -0.015639605560300748 -0.00060270665780387176 0 -0.015660971818583707 -0.00043585620935827755 0 -0.015714357830158222 -0.00094114087169272617 0 -0.015415752612978647 -0.00076119549031002153 0 -0.015117160060212619 -0.0011993308511125459 0 -0.015606833761549584 -0.00064214212510313104 0 -0.015714357830158222 -0.00094114087169272617 0 -0.015415752612978647 -0.00076119549031002153 0 -0.015544369896604612 -0.0006167011735004745 0 -0.015270265017406021 -0.00066383281523581738 0 -0.015529382659585859 -0.0013288257661677816 0 -0.015639605560300748 -0.00060270665780387176 0 -0.015606833761549584 -0.00064214212510313104 0 -0.015660971818583707 -0.00043585620935827755 0 -0.015606833761549584 -0.00064214212510313104 0 -0.015678775735111089 -0.00075430447631969031 0 -0.015714357830158222 -0.00094114087169272617 0 -0.015639605560300748 -0.00060270665780387176 0 -0.015606833761549584 -0.00064214212510313104 0 -0.015678775735111089 -0.00075430447631969031 0 -0.015639605560300748 -0.00060270665780387176 0 -0.015544369896604612 -0.0006167011735004745 0 -0.015678775735111089 -0.00075430447631969031 0 -0.015544369896604612 -0.0006167011735004745 0 -0.015678775735111089 -0.00075430447631969031 0 -0.015757289347041434 -0.00072737160680720549 0 -0.015095258440212873 -0.00017656480506392648 0 -0.014830587552214702 -0.00010851448835851237 0 -0.014889091283761674 -0.00016920846197449179 0 -0.014830587552214702 -0.00010851448835851237 0 -0.015415752612978647 -0.00076119549031002153 0 -0.015491857079214541 -0.00030591130124854192 0 -0.015077369551531902 -0.00057391406953890775 0 -0.015606833761549584 -0.00064214212510313104 0 -0.015415752612978647 -0.00076119549031002153 0 -0.015491857079214541 -0.00030591130124854192 0 -0.015606833761549584 -0.00064214212510313104 0 -0.015660971818583707 -0.00043585620935827755 0 -0.015491857079214541 -0.00030591130124854192 0 -0.015669602789113203 -0.0001714816133295566 0 -0.015660971818583707 -0.00043585620935827755 0 -0.015491857079214541 -0.00030591130124854192 0 -0.015491857079214541 -0.00030591130124854192 0 -0.015077369551531902 -0.00057391406953890775 0 -0.015149277021733173 0.00021286600366025426 0 -0.015077369551531902 -0.00057391406953890775 0 -0.014382169344408538 -0.00020334378704323826 0 -0.015149277021733173 0.00021286600366025426 0 -0.015415752612978647 -0.00076119549031002153 0 -0.015077369551531902 -0.00057391406953890775 0 -0.015117160060212619 -0.0011993308511125459 0 -0.014830587552214702 -0.00010851448835851237 0 -0.013411087537746553 -0.0010941128340046741 0 -0.015117160060212619 -0.0011993308511125459 0 -0.014255355538194922 -0.0013000631442359307 0 -0.014833671662016825 -0.0024043196827208805 0 -0.015714357830158222 -0.00094114087169272617 0 -0.015117160060212619 -0.0011993308511125459 0 -0.014833671662016825 -0.0024043196827208805 0 -0.015077369551531902 -0.00057391406953890775 0 -0.015117160060212619 -0.0011993308511125459 0 -0.014255355538194922 -0.0013000631442359307 0 -0.013089950453955574 -0.0023016422043730107 0 -0.014255355538194922 -0.0013000631442359307 0 -0.014833671662016825 -0.0024043196827208805 0 -0.013089950453955574 -0.0023016422043730107 0 -0.012983611767250504 -0.0010385646786402079 0 -0.014255355538194922 -0.0013000631442359307 0 -0.015077369551531902 -0.00057391406953890775 0 -0.014255355538194922 -0.0013000631442359307 0 -0.014382169344408538 -0.00020334378704323826 0 -0.012983611767250504 -0.0010385646786402079 0 -0.014255355538194922 -0.0013000631442359307 0 -0.014382169344408538 -0.00020334378704323826 0 -0.012983611767250504 -0.0010385646786402079 0 -0.013205953662680158 0.00025232385677795863 0 -0.014382169344408538 -0.00020334378704323826 0 -0.013205953662680158 0.00025232385677795863 0 -0.014382169344408538 -0.00020334378704323826 0 -0.014748691906169406 0.00081020249045206329 0 -0.014382169344408538 -0.00020334378704323826 0 -0.014748691906169406 0.00081020249045206329 0 -0.015149277021733173 0.00021286600366025426 0 -0.01487994632972982 0.00051618388001747244 0 -0.014748691906169406 0.00081020249045206329 0 -0.015180773628609883 0.0004032826599922988 0 -0.013818724918366575 0.0022237635333248757 0 -0.014798422339661615 0.00084641234792916784 0 -0.01487994632972982 0.00051618388001747244 0 -0.015180773628609883 0.0004032826599922988 0 -0.015194665890916767 0.00079532702823350361 0 -0.014748691906169406 0.00081020249045206329 0 -0.015180773628609883 0.0004032826599922988 0 -0.015068918346978898 0.00052985267086603594 0 -0.01531755876557013 0.00033060355679068637 0 -0.016320325932141177 0.0001052164246740272 0 -0.015180773628609883 0.0004032826599922988 0 -0.017362178770104385 -0.00038790270726919517 0 -0.01659193843038221 0.0005976514377394052 0 -0.015180773628609883 0.0004032826599922988 0 -0.015068918346978898 0.00052985267086603594 0 -0.015299432709557461 0.00051908761246951206 0 -0.014748691906169406 0.00081020249045206329 0 -0.015068918346978898 0.00052985267086603594 0 -0.015149277021733173 0.00021286600366025426 0 -0.015068918346978898 0.00052985267086603594 0 -0.015149277021733173 0.00021286600366025426 0 -0.015299432709557461 0.00051908761246951206 0 -0.015669602789113203 -0.0001714816133295566 0 -0.015491857079214541 -0.00030591130124854192 0 -0.015540162894600702 0.00015239739458889121 0 -0.015149277021733173 0.00021286600366025426 0 -0.015540162894600702 0.00015239739458889121 0 -0.015299432709557461 0.00051908761246951206 0 -0.015491857079214541 -0.00030591130124854192 0 -0.015149277021733173 0.00021286600366025426 0 -0.015540162894600702 0.00015239739458889121 0 -0.017362178770104385 -0.00038790270726919517 0 -0.018752947711243351 -0.00020417347949993649 0 -0.018262343582655754 0.00026269509546259347 0 -0.016320325932141177 0.0001052164246740272 0 -0.017227163174046843 4.2010341505729246e-05 0 -0.015540162894600702 0.00015239739458889121 0 -0.015299432709557461 0.00051908761246951206 0 -0.015824552853363878 0.00028491442611488902 0 -0.015923903423230388 -7.2278338230508937e-05 0 -0.015824552853363878 0.00028491442611488902 0 -0.015769191703619116 -2.4244543807952838e-06 0 -0.015540162894600702 0.00015239739458889121 0 -0.015824552853363878 0.00028491442611488902 0 -0.015769191703619116 -2.4244543807952838e-06 0 -0.015669602789113203 -0.0001714816133295566 0 -0.015540162894600702 0.00015239739458889121 0 -0.015769191703619116 -2.4244543807952838e-06 0 -0.019514074390081737 0.00079465396574724442 0 -0.019049935126661796 0.00036829287690335558 0 -0.018030633503800339 0.00098525441585770404 0 -0.019049935126661796 0.00036829287690335558 0 -0.018752947711243351 -0.00020417347949993649 0 -0.018262343582655754 0.00026269509546259347 0 -0.019049935126661796 0.00036829287690335558 0 -0.018262343582655754 0.00026269509546259347 0 -0.018030633503800339 0.00098525441585770404 0 -0.018262343582655754 0.00026269509546259347 0 -0.018030633503800339 0.00098525441585770404 0 -0.01659193843038221 0.0005976514377394052 0 -0.017362178770104385 -0.00038790270726919517 0 -0.018262343582655754 0.00026269509546259347 0 -0.01659193843038221 0.0005976514377394052 0 -0.018030633503800339 0.00098525441585770404 0 -0.018012937647359006 0.0011401950051552199 0 -0.018146704560442085 0.0012984735021939057 0 -0.018012937647359006 0.0011401950051552199 0 -0.018003547068632195 0.0011901835634152882 0 -0.018002069166760212 0.0011353258757808749 0 -0.018030633503800339 0.00098525441585770404 0 -0.018012937647359006 0.0011401950051552199 0 -0.018003547068632195 0.0011901835634152882 0 -0.017890285306903956 0.0010930243609225546 0 -0.016928013537999803 0.0011119381355066409 0 -0.018030633503800339 0.00098525441585770404 0 -0.01659193843038221 0.0005976514377394052 0 -0.015614111527264314 0.0014018955704318665 0 -0.01659193843038221 0.0005976514377394052 0 -0.015194665890916767 0.00079532702823350361 0 -0.015614111527264314 0.0014018955704318665 0 -0.015194665890916767 0.00079532702823350361 0 -0.015614111527264314 0.0014018955704318665 0 -0.014279761512604039 0.0011514899995114427 0 -0.015180773628609883 0.0004032826599922988 0 -0.01659193843038221 0.0005976514377394052 0 -0.015194665890916767 0.00079532702823350361 0 -0.018003547068632195 0.0011901835634152882 0 -0.018002069166760212 0.0011353258757808749 0 -0.018093344423256909 0.0011721303711675929 0 -0.021618720180425575 0.001142301277016041 0 -0.021996216827708168 0.00076412253665983961 0 -0.022368269255664201 0.001120629118755567 0 -0.021618720180425575 0.001142301277016041 0 -0.021996216827708168 0.00076412253665983961 0 -0.021076364597816099 0.00062291170739242521 0 -0.021996216827708168 0.00076412253665983961 0 -0.021076364597816099 0.00062291170739242521 0 -0.021132680456829929 7.2081226000212647e-05 0 -0.019842473963392396 0.0011615412231636697 0 -0.019431129431213039 0.0011170676002708344 0 -0.021618720180425575 0.001142301277016041 0 -0.021076364597816099 0.00062291170739242521 0 -0.020678525503643113 0.0010228907833468139 0 -0.018012937647359006 0.0011401950051552199 0 -0.018002069166760212 0.0011353258757808749 0 -0.018146704560442085 0.0012984735021939057 0 -0.021076364597816099 0.00062291170739242521 0 -0.020678525503643113 0.0010228907833468139 0 -0.020445261876228232 0.00026232464660161972 0 -0.019514074390081737 0.00079465396574724442 0 -0.019980789692765281 0.00030190267184177551 0 -0.020445261876228232 0.00026232464660161972 0 -0.019514074390081737 0.00079465396574724442 0 -0.018030633503800339 0.00098525441585770404 0 -0.018146704560442085 0.0012984735021939057 0 -0.019500705820626563 0.00086883194325323488 0 -0.019431129431213039 0.0011170676002708344 0 -0.019514074390081737 0.00079465396574724442 0 -0.020678525503643113 0.0010228907833468139 0 -0.020445261876228232 0.00026232464660161972 0 -0.018313848925739888 0.0022229919951858583 0 -0.017123258730368556 0.002130897532121495 0 -0.01785259402904122 0.0015473343244384505 0 -0.018313848925739888 0.0022229919951858583 0 -0.018090813705114245 0.0027917990897578233 0 -0.017123258730368556 0.002130897532121495 0 -0.018313848925739888 0.0022229919951858583 0 -0.018090813705114245 0.0027917990897578233 0 -0.018684359312478433 0.0026390661384477752 0 -0.016542492959344349 0.0027650283806633915 0 -0.018090813705114245 0.0027917990897578233 0 -0.017123258730368556 0.002130897532121495 0 -0.017267602088028616 0.002690225973786999 0 -0.018067458805700834 0.0028080853994921469 0 -0.0097966377566393089 0.0034368427006752993 0 -0.013459525546779309 0.0033707603831988524 0 -0.0055766548710495393 0.0047864897146139658 0 -0.0076168982820972375 0.0036064503553982666 0 -0.0088141031706572733 0.0049544914551629534 0 -0.015730292313288992 0.001163455652693731 0 -0.017123258730368556 0.002130897532121495 0 -0.01785259402904122 0.0015473343244384505 0 -0.018313848925739888 0.0022229919951858583 0 -0.01785259402904122 0.0015473343244384505 0 -0.019325654460712535 0.0018519776573678128 0 -0.01125769811831042 0.002723371618275947 0 -0.0088141031706572733 0.0049544914551629534 0 -0.012127714815704783 0.005157680478819233 0 -0.013459525546779309 0.0033707603831988524 0 -0.015793331984569326 0.0022930072933930895 0 -0.013433662323888203 0.003307317569902748 0 -0.01125769811831042 0.002723371618275947 0 -0.012127714815704783 0.005157680478819233 0 -0.016928013537999803 0.0011119381355066409 0 -0.015793331984569326 0.0022930072933930895 0 -0.01487994632972982 0.00051618388001747244 0 -0.015194665890916767 0.00079532702823350361 0 -0.014279761512604039 0.0011514899995114427 0 -0.013818724918366575 0.0022237635333248757 0 -0.015793331984569326 0.0022930072933930895 0 -0.018003547068632195 0.0011901835634152882 0 -0.018173522836855506 0.0012912485076796794 0 -0.018093344423256909 0.0011721303711675929 0 -0.018173522836855506 0.0012912485076796794 0 -0.018093344423256909 0.0011721303711675929 0 -0.018310915330144319 0.0011842671093935644 0 -0.018313848925739888 0.0022229919951858583 0 -0.019325654460712535 0.0018519776573678128 0 -0.018684359312478433 0.0026390661384477752 0 -0.015793331984569326 0.0022930072933930895 0 -0.018603640368387367 0.0016999075154551365 0 -0.018310915330144319 0.0011842671093935644 0 -0.018191227866260779 0.0010622699806012779 0 -0.018464325238570917 0.0010402141872415415 0 -0.0201843200703456 0.00090975380619683229 0 -0.021164037963047777 0.0026470809995534626 0 -0.019842473963392396 0.0011615412231636697 0 -0.0201843200703456 0.00090975380619683229 0 -0.018093344423256909 0.0011721303711675929 0 -0.018310915330144319 0.0011842671093935644 0 -0.018191227866260779 0.0010622699806012779 0 -0.018002069166760212 0.0011353258757808749 0 -0.018093344423256909 0.0011721303711675929 0 -0.018191227866260779 0.0010622699806012779 0 -0.021996216827708168 0.00076412253665983961 0 -0.022368269255664201 0.001120629118755567 0 -0.022336339351404097 0.00081151517166806969 0 -0.021996216827708168 0.00076412253665983961 0 -0.022336339351404097 0.00081151517166806969 0 -0.022292206641395477 0.00063103803078667291 0 -0.022368269255664201 0.001120629118755567 0 -0.022616098647928917 0.0008824372691271545 0 -0.02287431232656529 0.0011141797650560973 0 -0.022368269255664201 0.001120629118755567 0 -0.022336339351404097 0.00081151517166806969 0 -0.022616098647928917 0.0008824372691271545 0 -0.022336339351404097 0.00081151517166806969 0 -0.022616098647928917 0.0008824372691271545 0 -0.0225164122077798 0.00066654694319909637 0 -0.022616098647928917 0.0008824372691271545 0 -0.022824606413132914 0.00091733238397909427 0 -0.022732376642438584 0.00075011731770676835 0 -0.022824606413132914 0.00091733238397909427 0 -0.02298617344285148 0.0007958849850599897 0 -0.022732376642438584 0.00075011731770676835 0 -0.022824606413132914 0.00091733238397909427 0 -0.02298617344285148 0.0007958849850599897 0 -0.022928735704371643 0.0010526638378679655 0 -0.031587894019036757 0.0025036826982047524 0 -0.024561146025019995 0.0030096313105512011 0 -0.022824606413132914 0.00091733238397909427 0 -0.022928735704371643 0.0010526638378679655 0 -0.02287431232656529 0.0011141797650560973 0 -0.019621892929525282 0.0033358878927157477 0 -0.019625807568191957 0.0032641838543939509 0 -0.019390462749899091 0.003379463190819177 0 -0.024561146025019995 0.0030096313105512011 0 -0.021164037963047777 0.0026470809995534626 0 -0.024561146025019995 0.0030096313105512011 0 -0.021373406356563301 0.0028108431502807197 0 -0.022616098647928917 0.0008824372691271545 0 -0.022824606413132914 0.00091733238397909427 0 -0.02287431232656529 0.0011141797650560973 0 -0.018684359312478433 0.0026390661384477752 0 -0.018209962199285796 0.003050701372423074 0 -0.018170529882600185 0.002928049074342316 0 -0.018603640368387367 0.0016999075154551365 0 -0.021164037963047777 0.0026470809995534626 0 -0.021164037963047777 0.0026470809995534626 0 -0.021373406356563301 0.0028108431502807197 0 -0.021373406356563301 0.0028108431502807197 0 -0.02078163317431915 0.0030385991212331792 0 -0.018170529882600185 0.002928049074342316 0 -0.018174304223239506 0.002811613808327164 0 -0.018209534271006654 0.0028547281059404244 0 -0.018185750645473335 0.0028576569673033391 0 -0.018170529882600185 0.002928049074342316 0 -0.018209534271006654 0.0028547281059404244 0 -0.018209962199285796 0.003050701372423074 0 -0.018155720526875446 0.0030548576464003688 0 -0.018170529882600185 0.002928049074342316 0 -0.023041198262372237 0.0028760038417003126 0 -0.022669063530673533 0.0033609652668036391 0 -0.022968192339977812 0.0033347182673669705 0 -0.018090813705114245 0.0027917990897578233 0 -0.018170529882600185 0.002928049074342316 0 -0.018174304223239506 0.002811613808327164 0 -0.018090813705114245 0.0027917990897578233 0 -0.018684359312478433 0.0026390661384477752 0 -0.018170529882600185 0.002928049074342316 0 -0.018303982578733998 0.0027151244036290115 0 -0.018090813705114245 0.0027917990897578233 0 -0.018174304223239506 0.002811613808327164 0 -0.021373406356563301 0.0028108431502807197 0 -0.018231108962848862 0.0031281939865686731 0 -0.018185750645473335 0.0028576569673033391 0 -0.018209534271006654 0.0028547281059404244 0 -0.018260885705297849 0.0028861847593976975 0 -0.018303982578733998 0.0027151244036290115 0 -0.018228403860023036 0.0028162334903541518 0 -0.018260885705297849 0.0028861847593976975 0 -0.018303982578733998 0.0027151244036290115 0 -0.018174304223239506 0.002811613808327164 0 -0.018228403860023036 0.0028162334903541518 0 -0.018174304223239506 0.002811613808327164 0 -0.018228403860023036 0.0028162334903541518 0 -0.018209534271006654 0.0028547281059404244 0 -0.018228403860023036 0.0028162334903541518 0 -0.018209534271006654 0.0028547281059404244 0 -0.018260885705297849 0.0028861847593976975 0 -0.019225891465412114 0.0032530427837276269 0 -0.019390462749899091 0.003379463190819177 0 -0.01918175224622394 0.0035342857660418474 0 -0.024561146025019995 0.0030096313105512011 0 -0.027609702942131612 0.0042837453313746389 0 -0.019625807568191957 0.0032641838543939509 0 -0.019225891465412114 0.0032530427837276269 0 -0.019390462749899091 0.003379463190819177 0 -0.035506825100122451 0.0047870843446201584 0 -0.035343635112417879 0.0052468025783655213 0 -0.035935694796421495 0.0046276943451514082 0 -0.019390462749899091 0.003379463190819177 0 -0.01918175224622394 0.0035342857660418474 0 -0.019152866094889292 0.0036373867914764112 0 -0.019621892929525282 0.0033358878927157477 0 -0.019390462749899091 0.003379463190819177 0 -0.019152866094889292 0.0036373867914764112 0 -0.018956340599893335 0.0036699570709659689 0 -0.01918175224622394 0.0035342857660418474 0 -0.019152866094889292 0.0036373867914764112 0 -0.035935694796421495 0.0046276943451514082 0 -0.035944503119709599 0.0043733043396351253 0 -0.036166477823617101 0.0042210860648198342 0 -0.035506825100122451 0.0047870843446201584 0 -0.035935694796421495 0.0046276943451514082 0 -0.035650861227535247 0.0045288378629421188 0 -0.035935694796421495 0.0046276943451514082 0 -0.035944503119709599 0.0043733043396351253 0 -0.035650861227535247 0.0045288378629421188 0 -0.035944503119709599 0.0043733043396351253 0 -0.035960491507581141 0.0041494816415281553 0 -0.036166477823617101 0.0042210860648198342 0 -0.035960491507581141 0.0041494816415281553 0 -0.035650861227535247 0.0045288378629421188 0 -0.036030851839639701 0.0039278022621800843 0 -0.038632412562478985 0.0044288747936265683 0 -0.02953910476616689 0.0035649344720770442 0 -0.034979713566313062 0.0042923452559026909 0 -0.036188861477742154 0.003795052020854076 0 -0.035960491507581141 0.0041494816415281553 0 -0.036493269474874926 0.0040016285132501352 0 -0.036906937940606462 0.0043043757583574914 0 -0.035944503119709599 0.0043733043396351253 0 -0.035960491507581141 0.0041494816415281553 0 -0.035650861227535247 0.0045288378629421188 0 -0.035960491507581141 0.0041494816415281553 0 -0.036493269474874926 0.0040016285132501352 0 -0.036030851839639701 0.0039278022621800843 0 -0.035945821150204352 0.0039150403216812952 0 -0.035977512365558156 0.004196822399332739 0 -0.036176360711289567 0.0036813866960047313 0 -0.035936451865966584 0.0037352837863330025 0 -0.035678409770940507 0.0040298694913988055 0 -0.035757477601256721 0.0035763988456123438 0 -0.035936451865966584 0.0037352837863330025 0 -0.035945821150204352 0.0039150403216812952 0 -0.035678409770940507 0.0040298694913988055 0 -0.035936451865966584 0.0037352837863330025 0 -0.035945821150204352 0.0039150403216812952 0 -0.036176360711289567 0.0036813866960047313 0 -0.035945821150204352 0.0039150403216812952 0 -0.035678409770940507 0.0040298694913988055 0 -0.035977512365558156 0.004196822399332739 0 -0.02298617344285148 0.0007958849850599897 0 -0.022725781603770846 0.00049889742060058874 0 -0.022732376642438584 0.00075011731770676835 0 -0.03592861250678283 0.0043787398149041038 0 -0.035678409770940507 0.0040298694913988055 0 -0.035977512365558156 0.004196822399332739 0 -0.031587894019036757 0.0025036826982047524 0 -0.028951209024793204 0.0021668672703214942 0 -0.031587894019036757 0.0025036826982047524 0 -0.034979713566313062 0.0042923452559026909 0 -0.022616098647928917 0.0008824372691271545 0 -0.022732376642438584 0.00075011731770676835 0 -0.0225164122077798 0.00066654694319909637 0 -0.022725781603770846 0.00049889742060058874 0 -0.0225164122077798 0.00066654694319909637 0 -0.022421887495614204 0.00046523459039778635 0 -0.022725781603770846 0.00049889742060058874 0 -0.022732376642438584 0.00075011731770676835 0 -0.0225164122077798 0.00066654694319909637 0 -0.021996216827708168 0.00076412253665983961 0 -0.022292206641395477 0.00063103803078667291 0 -0.022102155216745863 0.00052310856222354701 0 -0.022292206641395477 0.00063103803078667291 0 -0.022421887495614204 0.00046523459039778635 0 -0.022102155216745863 0.00052310856222354701 0 -0.022336339351404097 0.00081151517166806969 0 -0.0225164122077798 0.00066654694319909637 0 -0.022292206641395477 0.00063103803078667291 0 -0.0225164122077798 0.00066654694319909637 0 -0.022292206641395477 0.00063103803078667291 0 -0.022421887495614204 0.00046523459039778635 0 -0.022421887495614204 0.00046523459039778635 0 -0.022524624831294107 0.00026603301861772346 0 -0.0222505078949762 0.00025890715367518261 0 -0.022421887495614204 0.00046523459039778635 0 -0.0222505078949762 0.00025890715367518261 0 -0.022102155216745863 0.00052310856222354701 0 -0.028951209024793204 0.0021668672703214942 0 -0.028957325882136301 0.0019580994264426829 0 -0.035678409770940507 0.0040298694913988055 0 -0.035326667441793455 0.0036145915821390287 0 -0.035757477601256721 0.0035763988456123438 0 -0.022725781603770846 0.00049889742060058874 0 -0.022421887495614204 0.00046523459039778635 0 -0.022524624831294107 0.00026603301861772346 0 -0.035326667441793455 0.0036145915821390287 0 -0.035786972175675086 0.003085531136486849 0 -0.035757477601256721 0.0035763988456123438 0 -0.022524624831294107 0.00026603301861772346 0 -0.0222505078949762 0.00025890715367518261 0 -0.022368543976918343 2.0027169978307806e-05 0 -0.0222505078949762 0.00025890715367518261 0 -0.022368543976918343 2.0027169978307806e-05 0 -0.022149303397211741 5.8607583692281625e-05 0 -0.028957325882136301 0.0019580994264426829 0 -0.028603941560812324 0.0016152737382289426 0 -0.034897872483208622 0.0031136811288298141 0 -0.034969495839168245 0.0025984871554276183 0 -0.034637486118484613 0.0027961357706622531 0 -0.034897872483208622 0.0031136811288298141 0 -0.035288967634175446 0.0029728916548672178 0 -0.034969495839168245 0.0025984871554276183 0 -0.035326667441793455 0.0036145915821390287 0 -0.034897872483208622 0.0031136811288298141 0 -0.035288967634175446 0.0029728916548672178 0 -0.028603941560812324 0.0016152737382289426 0 -0.028444797379607464 0.0012836036381200589 0 -0.022368543976918343 2.0027169978307806e-05 0 -0.022149303397211741 5.8607583692281625e-05 0 -0.022287746622107626 -0.00014245146334770654 0 -0.035326667441793455 0.0036145915821390287 0 -0.035288967634175446 0.0029728916548672178 0 -0.035786972175675086 0.003085531136486849 0 -0.035786972175675086 0.003085531136486849 0 -0.036432274659095577 0.0030202087205247062 0 -0.036159391458864577 0.0025515663374536821 0 -0.035786972175675086 0.003085531136486849 0 -0.036432274659095577 0.0030202087205247062 0 -0.036040230990039904 0.0033624752161842699 0 -0.036432274659095577 0.0030202087205247062 0 -0.036030851839639701 0.0039278022621800843 0 -0.036819499869332764 0.0035170180659290493 0 -0.036493269474874926 0.0040016285132501352 0 -0.036030851839639701 0.0039278022621800843 0 -0.036819499869332764 0.0035170180659290493 0 -0.036432274659095577 0.0030202087205247062 0 -0.036176360711289567 0.0036813866960047313 0 -0.036040230990039904 0.0033624752161842699 0 -0.036363738704990052 0.0030791217666942326 0 -0.036188861477742154 0.003795052020854076 0 -0.035936451865966584 0.0037352837863330025 0 -0.036176360711289567 0.0036813866960047313 0 -0.036040230990039904 0.0033624752161842699 0 -0.035786972175675086 0.003085531136486849 0 -0.035757477601256721 0.0035763988456123438 0 -0.036040230990039904 0.0033624752161842699 0 -0.035936451865966584 0.0037352837863330025 0 -0.035757477601256721 0.0035763988456123438 0 -0.036040230990039904 0.0033624752161842699 0 -0.020888709285343698 4.9893327033291078e-05 0 -0.020473570278002375 -1.5313864761601777e-06 0 -0.020648771999219204 -9.1418873956271553e-05 0 -0.020473570278002375 -1.5313864761601777e-06 0 -0.020445261876228232 0.00026232464660161972 0 -0.020648771999219204 -9.1418873956271553e-05 0 -0.021076364597816099 0.00062291170739242521 0 -0.020445261876228232 0.00026232464660161972 0 -0.021132680456829929 7.2081226000212647e-05 0 -0.020445261876228232 0.00026232464660161972 0 -0.020648771999219204 -9.1418873956271553e-05 0 -0.021132680456829929 7.2081226000212647e-05 0 -0.021065794738666949 0.00016603001637285563 0 -0.021493319320385593 0.00037428092718286608 0 -0.021844456661752418 0.00063639572264048716 0 -0.022102155216745863 0.00052310856222354701 0 -0.021912844600572353 0.00023715352283751613 0 -0.021465628019289348 0.00044143088961064088 0 -0.021844456661752418 0.00063639572264048716 0 -0.021912844600572353 0.00023715352283751613 0 -0.021996216827708168 0.00076412253665983961 0 -0.021844456661752418 0.00063639572264048716 0 -0.022102155216745863 0.00052310856222354701 0 -0.021968702465676095 0.00074020237405011979 0 -0.021493319320385593 0.00037428092718286608 0 -0.0222505078949762 0.00025890715367518261 0 -0.022102155216745863 0.00052310856222354701 0 -0.021912844600572353 0.00023715352283751613 0 -0.0222505078949762 0.00025890715367518261 0 -0.022149303397211741 5.8607583692281625e-05 0 -0.021912844600572353 0.00023715352283751613 0 -0.022149303397211741 5.8607583692281625e-05 0 -0.021948416149520623 -7.9292686666494104e-05 0 -0.022287746622107626 -0.00014245146334770654 0 -0.022149303397211741 5.8607583692281625e-05 0 -0.021948416149520623 -7.9292686666494104e-05 0 -0.021912844600572353 0.00023715352283751613 0 -0.021948416149520623 -7.9292686666494104e-05 0 -0.021912844600572353 0.00023715352283751613 0 -0.021536055382152045 6.179681167919196e-05 0 -0.021465628019289348 0.00044143088961064088 0 -0.021912844600572353 0.00023715352283751613 0 -0.021536055382152045 6.179681167919196e-05 0 -0.021536055382152045 6.179681167919196e-05 0 -0.021198180970943305 -0.00012080721033523246 0 -0.021556976176695372 -0.00017629154301461306 0 -0.021948416149520623 -7.9292686666494104e-05 0 -0.021536055382152045 6.179681167919196e-05 0 -0.021556976176695372 -0.00017629154301461306 0 -0.020888709285343698 4.9893327033291078e-05 0 -0.021536055382152045 6.179681167919196e-05 0 -0.021198180970943305 -0.00012080721033523246 0 -0.020889532666361597 5.168056682664042e-05 0 -0.021065794738666949 0.00016603001637285563 0 -0.020888709285343698 4.9893327033291078e-05 0 -0.021465628019289348 0.00044143088961064088 0 -0.021536055382152045 6.179681167919196e-05 0 -0.021091065226473596 -0.000447275205362593 0 -0.021358804456302519 -0.00059224286551021535 0 -0.021374906211618104 -0.00036322083385095869 0 -0.021358804456302519 -0.00059224286551021535 0 -0.021374906211618104 -0.00036322083385095869 0 -0.021645458474619114 -0.00066058499688535853 0 -0.021198180970943305 -0.00012080721033523246 0 -0.021374906211618104 -0.00036322083385095869 0 -0.021556976176695372 -0.00017629154301461306 0 -0.021094189622567292 -0.00023099677827945582 0 -0.021091065226473596 -0.000447275205362593 0 -0.021374906211618104 -0.00036322083385095869 0 -0.021094189622567292 -0.00023099677827945582 0 -0.021198180970943305 -0.00012080721033523246 0 -0.021374906211618104 -0.00036322083385095869 0 -0.021650738766714066 -0.00027419191212608171 0 -0.021531226418169215 -0.00027465767654352382 0 -0.021374906211618104 -0.00036322083385095869 0 -0.021556976176695372 -0.00017629154301461306 0 -0.021811162050067945 -0.00044054768285411869 0 -0.021374906211618104 -0.00036322083385095869 0 -0.021645458474619114 -0.00066058499688535853 0 -0.021811162050067945 -0.00044054768285411869 0 -0.021774929987769465 -0.00042685888845158185 0 -0.02194325497952539 -0.00032086516132142864 0 -0.021987490699767732 -0.00068339452634103438 0 -0.021645458474619114 -0.00066058499688535853 0 -0.021811162050067945 -0.00044054768285411869 0 -0.022057995644137369 -0.0007415952287682725 0 -0.021531226418169215 -0.00027465767654352382 0 -0.026166549037589554 0.00023662346066077975 0 -0.021948416149520623 -7.9292686666494104e-05 0 -0.021556976176695372 -0.00017629154301461306 0 -0.02194325497952539 -0.00032086516132142864 0 -0.021556976176695372 -0.00017629154301461306 0 -0.021774929987769465 -0.00042685888845158185 0 -0.02194325497952539 -0.00032086516132142864 0 -0.021948416149520623 -7.9292686666494104e-05 0 -0.02194325497952539 -0.00032086516132142864 0 -0.022186060763446348 -0.00032815602993546586 0 -0.021948416149520623 -7.9292686666494104e-05 0 -0.022186060763446348 -0.00032815602993546586 0 -0.022287746622107626 -0.00014245146334770654 0 -0.028540749342910145 0.00119463060243174 0 -0.028444797379607464 0.0012836036381200589 0 -0.028540749342910145 0.00119463060243174 0 -0.026166549037589554 0.00023662346066077975 0 -0.034332049977908861 0.0024198621457113489 0 -0.034450368204399104 0.001881299122826243 0 -0.033724316197820993 0.0015857088032245423 0 -0.034332049977908861 0.0024198621457113489 0 -0.034450368204399104 0.001881299122826243 0 -0.034749055815567108 0.0022354227446505434 0 -0.02194325497952539 -0.00032086516132142864 0 -0.022186060763446348 -0.00032815602993546586 0 -0.021987490699767732 -0.00068339452634103438 0 -0.03451061731500768 0.0013704538129159409 0 -0.034192690133913177 0.00086937428163684776 0 -0.033724316197820993 0.0015857088032245423 0 -0.033010379343832094 0.00014303187103317208 0 -0.026166549037589554 0.00023662346066077975 0 -0.03451061731500768 0.0013704538129159409 0 -0.034192690133913177 0.00086937428163684776 0 -0.034981818895207011 0.0009997212871255619 0 -0.034450368204399104 0.001881299122826243 0 -0.03451061731500768 0.0013704538129159409 0 -0.033724316197820993 0.0015857088032245423 0 -0.032423963054819135 0.00033724546787529093 0 -0.03210920839016395 -0.00093949898778244556 0 -0.033363509448090897 -0.0011957503425891211 0 -0.033010379343832094 0.00014303187103317208 0 -0.033942049626036475 -0.0004529678477919866 0 -0.032423963054819135 0.00033724546787529093 0 -0.031461782932734175 -0.00010217079195575029 0 -0.03210920839016395 -0.00093949898778244556 0 -0.033010379343832094 0.00014303187103317208 0 -0.026155322311312783 -0.00088969787974281977 0 -0.031461782932734175 -0.00010217079195575029 0 -0.030155748916691021 -8.4266393628870109e-05 0 -0.030851962406235497 -0.0017072462011319021 0 -0.032423963054819135 0.00033724546787529093 0 -0.031461782932734175 -0.00010217079195575029 0 -0.030251239685345446 6.4734549595370035e-05 0 -0.031461782932734175 -0.00010217079195575029 0 -0.030251239685345446 6.4734549595370035e-05 0 -0.030155748916691021 -8.4266393628870109e-05 0 -0.026166549037589554 0.00023662346066077975 0 -0.026155322311312783 -0.00088969787974281977 0 -0.022057995644137369 -0.0007415952287682725 0 -0.021697950546513901 -0.00094630384160437767 0 -0.021834908828328302 -0.0011326172105771098 0 -0.029890696170976106 -0.00080201727142413211 0 -0.02851527511999814 0.0013609808190573438 0 -0.026913966588073528 -0.001187051294683101 0 -0.021645458474619114 -0.00066058499688535853 0 -0.021697950546513901 -0.00094630384160437767 0 -0.021355977361005335 -0.00089318818712454638 0 -0.021645458474619114 -0.00066058499688535853 0 -0.022057995644137369 -0.0007415952287682725 0 -0.021697950546513901 -0.00094630384160437767 0 -0.022337779047414331 -0.0003967209342071752 0 -0.02558651195157877 -0.0010654339118576356 0 -0.021697950546513901 -0.00094630384160437767 0 -0.021824931604529141 -0.0011841075280005736 0 -0.021271182235146471 -0.0012218931047719675 0 -0.021697950546513901 -0.00094630384160437767 0 -0.021834908828328302 -0.0011326172105771098 0 -0.021819124063044086 -0.0011627461306230923 0 -0.028377179833360713 -0.00073691612957512114 0 -0.026289847379948973 -0.00089148830397356492 0 -0.027547404788151104 -0.0013275604129560467 0 -0.028377179833360713 -0.00073691612957512114 0 -0.028202914431895855 -0.0010190996353960429 0 -0.027547404788151104 -0.0013275604129560467 0 -0.026155322311312783 -0.00088969787974281977 0 -0.02558651195157877 -0.0010654339118576356 0 -0.02558651195157877 -0.0010654339118576356 0 -0.026303298174063891 -0.00060786647883647924 0 -0.021697950546513901 -0.00094630384160437767 0 -0.021271182235146471 -0.0012218931047719675 0 -0.021355977361005335 -0.00089318818712454638 0 -0.02558651195157877 -0.0010654339118576356 0 -0.024777795844797629 -0.0010905244205926482 0 -0.021029589231034561 -0.00082662895360318496 0 -0.021358804456302519 -0.00059224286551021535 0 -0.021355977361005335 -0.00089318818712454638 0 -0.021029589231034561 -0.00082662895360318496 0 -0.021271182235146471 -0.0012218931047719675 0 -0.021355977361005335 -0.00089318818712454638 0 -0.021358804456302519 -0.00059224286551021535 0 -0.021645458474619114 -0.00066058499688535853 0 -0.021355977361005335 -0.00089318818712454638 0 -0.036198219056444159 0.0019818853759804305 0 -0.036873817675444946 0.002226848290807474 0 -0.036159391458864577 0.0025515663374536821 0 -0.036198219056444159 0.0019818853759804305 0 -0.036159391458864577 0.0025515663374536821 0 -0.035466163714574998 0.0023624918985211416 0 -0.036198219056444159 0.0019818853759804305 0 -0.036873817675444946 0.002226848290807474 0 -0.036915960901032135 0.0015191654261244203 0 -0.036432274659095577 0.0030202087205247062 0 -0.036873817675444946 0.002226848290807474 0 -0.036159391458864577 0.0025515663374536821 0 -0.035786972175675086 0.003085531136486849 0 -0.036159391458864577 0.0025515663374536821 0 -0.035466163714574998 0.0023624918985211416 0 -0.035288967634175446 0.0029728916548672178 0 -0.035466163714574998 0.0023624918985211416 0 -0.034969495839168245 0.0025984871554276183 0 -0.035288967634175446 0.0029728916548672178 0 -0.035786972175675086 0.003085531136486849 0 -0.035466163714574998 0.0023624918985211416 0 -0.035466163714574998 0.0023624918985211416 0 -0.034969495839168245 0.0025984871554276183 0 -0.034749055815567108 0.0022354227446505434 0 -0.034332049977908861 0.0024198621457113489 0 -0.034969495839168245 0.0025984871554276183 0 -0.034749055815567108 0.0022354227446505434 0 -0.034332049977908861 0.0024198621457113489 0 -0.034969495839168245 0.0025984871554276183 0 -0.034637486118484613 0.0027961357706622531 0 -0.035466163714574998 0.0023624918985211416 0 -0.034749055815567108 0.0022354227446505434 0 -0.034921132405360114 0.0017750368741599586 0 -0.034450368204399104 0.001881299122826243 0 -0.034749055815567108 0.0022354227446505434 0 -0.034921132405360114 0.0017750368741599586 0 -0.036198219056444159 0.0019818853759804305 0 -0.035466163714574998 0.0023624918985211416 0 -0.0355333842481474 0.0016976813995638563 0 -0.035466163714574998 0.0023624918985211416 0 -0.034921132405360114 0.0017750368741599586 0 -0.0355333842481474 0.0016976813995638563 0 -0.035780615754831976 0.0011682063677941905 0 -0.0355333842481474 0.0016976813995638563 0 -0.036288812435897981 0.001402843288370268 0 -0.035780615754831976 0.0011682063677941905 0 -0.0355333842481474 0.0016976813995638563 0 -0.034981818895207011 0.0009997212871255619 0 -0.03451061731500768 0.0013704538129159409 0 -0.034921132405360114 0.0017750368741599586 0 -0.034981818895207011 0.0009997212871255619 0 -0.034921132405360114 0.0017750368741599586 0 -0.0355333842481474 0.0016976813995638563 0 -0.034981818895207011 0.0009997212871255619 0 -0.034450368204399104 0.001881299122826243 0 -0.03451061731500768 0.0013704538129159409 0 -0.034921132405360114 0.0017750368741599586 0 -0.034086680959288358 0.00096020908584307013 0 -0.034953013020558879 0.0010747852171580723 0 -0.034608557970480021 0.00013786605094743903 0 -0.034953013020558879 0.0010747852171580723 0 -0.034608557970480021 0.00013786605094743903 0 -0.035447013906571061 0.00041944273867959792 0 -0.033010379343832094 0.00014303187103317208 0 -0.035202659161888895 0.0010825550348928584 0 -0.035610359016537176 0.0011377342339456019 0 -0.035202659161888895 0.0010825550348928584 0 -0.035780615754831976 0.0011682063677941905 0 -0.034953013020558879 0.0010747852171580723 0 -0.035447013906571061 0.00041944273867959792 0 -0.035780615754831976 0.0011682063677941905 0 -0.036221939127142208 0.00058634389218432199 0 -0.035447013906571061 0.00041944273867959792 0 -0.036221939127142208 0.00058634389218432199 0 -0.036684004874550306 0.0009492335260869036 0 -0.037070014442638702 0.0003680082380398197 0 -0.036221939127142208 0.00058634389218432199 0 -0.036288812435897981 0.001402843288370268 0 -0.036684004874550306 0.0009492335260869036 0 -0.035780615754831976 0.0011682063677941905 0 -0.036221939127142208 0.00058634389218432199 0 -0.036288812435897981 0.001402843288370268 0 -0.036198219056444159 0.0019818853759804305 0 -0.0355333842481474 0.0016976813995638563 0 -0.036288812435897981 0.001402843288370268 0 -0.036198219056444159 0.0019818853759804305 0 -0.036288812435897981 0.001402843288370268 0 -0.036915960901032135 0.0015191654261244203 0 -0.036873817675444946 0.002226848290807474 0 -0.036915960901032135 0.0015191654261244203 0 -0.037353979846631982 0.0017883790377512636 0 -0.036288812435897981 0.001402843288370268 0 -0.036915960901032135 0.0015191654261244203 0 -0.036684004874550306 0.0009492335260869036 0 -0.036684004874550306 0.0009492335260869036 0 -0.037597555399601287 0.00062167713555094553 0 -0.037070014442638702 0.0003680082380398197 0 -0.036915960901032135 0.0015191654261244203 0 -0.036684004874550306 0.0009492335260869036 0 -0.037597555399601287 0.00062167713555094553 0 -0.036915960901032135 0.0015191654261244203 0 -0.037597555399601287 0.00062167713555094553 0 -0.037813941035444713 0.001178479518678616 0 -0.037597555399601287 0.00062167713555094553 0 -0.037813941035444713 0.001178479518678616 0 -0.038255705534080357 0.00051082870750378381 0 -0.037813941035444713 0.001178479518678616 0 -0.038255705534080357 0.00051082870750378381 0 -0.038565835066240284 0.0014211818051243902 0 -0.038255705534080357 0.00051082870750378381 0 -0.038565835066240284 0.0014211818051243902 0 -0.039020330397513764 0.00035798533345366741 0 -0.037632030737191555 0.0016667388969951087 0 -0.037911044729470496 0.0020880240163594658 0 -0.037467683414560658 0.0020436456672227482 0 -0.037632030737191555 0.0016667388969951087 0 -0.037353979846631982 0.0017883790377512636 0 -0.037467683414560658 0.0020436456672227482 0 -0.037813941035444713 0.001178479518678616 0 -0.038565835066240284 0.0014211818051243902 0 -0.037353979846631982 0.0017883790377512636 0 -0.036915960901032135 0.0015191654261244203 0 -0.037813941035444713 0.001178479518678616 0 -0.037353979846631982 0.0017883790377512636 0 -0.038078135428291013 0.0015336077239420339 0 -0.037447629061323297 0.001776960730195542 0 -0.036844254339386956 0.0016153075069489623 0 -0.037092630355220084 0.0014969328204600025 0 -0.036748567692601625 0.0010630278645649891 0 -0.040263769396595574 0.00078009208000636582 0 -0.04025312639885463 0.00067147479329119112 0 -0.041327241245245401 0.00021818147670144383 0 -0.037637268821148109 0.00098272933287285938 0 -0.037784308417990888 0.00097673000703169584 0 -0.040265407669301381 0.00078777089472744277 0 -0.04025312639885463 0.00067147479329119112 0 -0.040026574680765321 0.00068718190066188126 0 -0.04025312639885463 0.00067147479329119112 0 -0.040026574680765321 0.00068718190066188126 0 -0.040092468199198622 0.00036464518998612165 0 -0.038078135428291013 0.0015336077239420339 0 -0.038812928726743558 0.0013153646879695644 0 -0.038565835066240284 0.0014211818051243902 0 -0.039468988907569356 0.001008434267964708 0 -0.039020330397513764 0.00035798533345366741 0 -0.037637268821148109 0.00098272933287285938 0 -0.038812928726743558 0.0013153646879695644 0 -0.039746124561952041 0.0010500492666990179 0 -0.040026574680765321 0.00068718190066188126 0 -0.039780051269566921 0.00055689740851527108 0 -0.040265407669301381 0.00078777089472744277 0 -0.039746124561952041 0.0010500492666990179 0 -0.040026574680765321 0.00068718190066188126 0 -0.038812928726743558 0.0013153646879695644 0 -0.039156228116614962 0.00042285596071565832 0 -0.039746124561952041 0.0010500492666990179 0 -0.039780051269566921 0.00055689740851527108 0 -0.039285878017186041 0.00044720013708968908 0 -0.037632030737191555 0.0016667388969951087 0 -0.037982668325223422 0.0017888220798359122 0 -0.037911044729470496 0.0020880240163594658 0 -0.038032245854683344 0.0014711745533129983 0 -0.037982668325223422 0.0017888220798359122 0 -0.038355318796465171 0.0019291196493863652 0 -0.037632030737191555 0.0016667388969951087 0 -0.038032245854683344 0.0014711745533129983 0 -0.037982668325223422 0.0017888220798359122 0 -0.037982668325223422 0.0017888220798359122 0 -0.038355318796465171 0.0019291196493863652 0 -0.037911044729470496 0.0020880240163594658 0 -0.038812928726743558 0.0013153646879695644 0 -0.034711626085260516 0.0017992473207377947 0 -0.037637268821148109 0.00098272933287285938 0 -0.034711626085260516 0.0017992473207377947 0 -0.033443832770859133 0.00075505811130751103 0 -0.033902144100838735 0.001146083749369543 0 -0.033674061923276745 0.0013431865292579603 0 -0.033443832770859133 0.00075505811130751103 0 -0.033489709704617301 0.0013818554260722779 0 -0.033674061923276745 0.0013431865292579603 0 -0.038355318796465171 0.0019291196493863652 0 -0.038383059926006449 0.0021119745027313413 0 -0.037911044729470496 0.0020880240163594658 0 -0.028698659763392788 0.002503443319474186 0 -0.028686141187935135 0.0025149830670244708 0 -0.028705412024303881 0.002561094902915239 0 -0.033489709704617301 0.0013818554260722779 0 -0.033563323653010568 0.0014881783252325004 0 -0.033674061923276745 0.0013431865292579603 0 -0.032381729530260438 0.0016511671871772904 0 -0.033207567004830095 0.0011620386494960709 0 -0.034711626085260516 0.0017992473207377947 0 -0.032381729530260438 0.0016511671871772904 0 -0.033369125332027696 0.0017961413105484542 0 -0.033295055725624294 0.0017010048495162086 0 -0.033341281211362782 0.0016375704161378328 0 -0.034711626085260516 0.0017992473207377947 0 -0.032136677946796588 0.0019216473668163694 0 -0.032381729530260438 0.0016511671871772904 0 -0.032136677946796588 0.0019216473668163694 0 -0.038383059926006449 0.0021119745027313413 0 -0.037911044729470496 0.0020880240163594658 0 -0.038030026557225767 0.0026953965441654081 0 -0.028715575367226888 0.0021934362529316956 0 -0.028693914142892341 0.0021844221845029278 0 -0.028656630682428012 0.0021832586328282048 0 -0.028686141187935135 0.0025149830670244708 0 -0.028640234836416884 0.0026252998580195111 0 -0.028705412024303881 0.002561094902915239 0 -0.032136677946796588 0.0019216473668163694 0 -0.028501771843240382 0.002440649784525236 0 -0.032136677946796588 0.0019216473668163694 0 -0.03347804752375267 0.0024834820558009489 0 -0.036873817675444946 0.002226848290807474 0 -0.037353979846631982 0.0017883790377512636 0 -0.037467683414560658 0.0020436456672227482 0 -0.036873817675444946 0.002226848290807474 0 -0.037467683414560658 0.0020436456672227482 0 -0.037318412528476036 0.0025766186069004354 0 -0.037911044729470496 0.0020880240163594658 0 -0.037467683414560658 0.0020436456672227482 0 -0.037318412528476036 0.0025766186069004354 0 -0.037911044729470496 0.0020880240163594658 0 -0.038030026557225767 0.0026953965441654081 0 -0.037318412528476036 0.0025766186069004354 0 -0.036432274659095577 0.0030202087205247062 0 -0.036873817675444946 0.002226848290807474 0 -0.037318412528476036 0.0025766186069004354 0 -0.036432274659095577 0.0030202087205247062 0 -0.037318412528476036 0.0025766186069004354 0 -0.036819499869332764 0.0035170180659290493 0 -0.037318412528476036 0.0025766186069004354 0 -0.036819499869332764 0.0035170180659290493 0 -0.03755972906176476 0.0034202028494868045 0 -0.036819499869332764 0.0035170180659290493 0 -0.03755972906176476 0.0034202028494868045 0 -0.036906937940606462 0.0043043757583574914 0 -0.036493269474874926 0.0040016285132501352 0 -0.036819499869332764 0.0035170180659290493 0 -0.036906937940606462 0.0043043757583574914 0 -0.033631456811440828 0.0025793104161437774 0 -0.02953910476616689 0.0035649344720770442 0 -0.038030026557225767 0.0026953965441654081 0 -0.037318412528476036 0.0025766186069004354 0 -0.03755972906176476 0.0034202028494868045 0 -0.03347804752375267 0.0024834820558009489 0 -0.033631456811440828 0.0025793104161437774 0 -0.028693914142892341 0.0021844221845029278 0 -0.02870798466072744 0.0021592526607819274 0 -0.028650354383207711 0.0021614790439003291 0 -0.028640234836416884 0.0026252998580195111 0 -0.028582131411088715 0.0027416057975320012 0 -0.028651374951323482 0.0026498321080498204 0 -0.028693914142892341 0.0021844221845029278 0 -0.028650354383207711 0.0021614790439003291 0 -0.028656630682428012 0.0021832586328282048 0 -0.028501771843240382 0.002440649784525236 0 -0.02650278798163257 0.0026144680935016305 0 -0.028650354383207711 0.0021614790439003291 0 -0.028656630682428012 0.0021832586328282048 0 -0.028582027687354752 0.0021413412461960663 0 -0.028650354383207711 0.0021614790439003291 0 -0.028582027687354752 0.0021413412461960663 0 -0.02862043601708944 0.0021251083417909811 0 -0.02870798466072744 0.0021592526607819274 0 -0.02862043601708944 0.0021251083417909811 0 -0.028641634500067559 0.002096312546121238 0 -0.02870798466072744 0.0021592526607819274 0 -0.028650354383207711 0.0021614790439003291 0 -0.02862043601708944 0.0021251083417909811 0 -0.02862043601708944 0.0021251083417909811 0 -0.028641634500067559 0.002096312546121238 0 -0.028550511231936405 0.0020861821569799705 0 -0.023089065326346241 0.0025076888948804329 0 -0.024361429212456747 0.0024607450510357883 0 -0.024814666919364164 0.0025651984533860664 0 -0.024781500313712953 0.002640522309757688 0 -0.024800055225991768 0.0026425153821898971 0 -0.028582027687354752 0.0021413412461960663 0 -0.02862043601708944 0.0021251083417909811 0 -0.028550511231936405 0.0020861821569799705 0 -0.019773303097595916 0.0031694163159061346 0 -0.020623373443025114 0.0031958402581578828 0 -0.020575202014071755 0.0034554253305889289 0 -0.02650278798163257 0.0026144680935016305 0 -0.024361429212456747 0.0024607450510357883 0 -0.024361429212456747 0.0024607450510357883 0 -0.022820868241841763 0.0025097664585513519 0 -0.015728455363544339 0.0040389922290074822 0 -0.016429272393515899 0.0043335996472770016 0 -0.015334505094054259 0.0045449944153569339 0 -0.020575202014071755 0.0034554253305889289 0 -0.02015925009640469 0.0037025548182667918 0 -0.02083546986298259 0.0035914590579431849 0 -0.017926204026605181 0.0041155655883074529 0 -0.019874140959795877 0.0030241864641468571 0 -0.020628284805124974 0.0031549123330373236 0 -0.020575202014071755 0.0034554253305889289 0 -0.020804964594197787 0.0031734255946311938 0 -0.024361429212456747 0.0024607450510357883 0 -0.022477237001671976 0.003585210514493598 0 -0.019773303097595916 0.0031694163159061346 0 -0.020575202014071755 0.0034554253305889289 0 -0.02015925009640469 0.0037025548182667918 0 -0.01955151085226384 0.0037655302550405416 0 -0.019773303097595916 0.0031694163159061346 0 -0.02015925009640469 0.0037025548182667918 0 -0.018650352452166612 0.0038711825021816933 0 -0.017926204026605181 0.0041155655883074529 0 -0.01955151085226384 0.0037655302550405416 0 -0.019773303097595916 0.0031694163159061346 0 -0.019249750269349726 0.003499660398539859 0 -0.018956340599893335 0.0036699570709659689 0 -0.01955151085226384 0.0037655302550405416 0 -0.019249750269349726 0.003499660398539859 0 -0.018956340599893335 0.0036699570709659689 0 -0.019152866094889292 0.0036373867914764112 0 -0.019249750269349726 0.003499660398539859 0 -0.027609702942131612 0.0042837453313746389 0 -0.02953910476616689 0.0035649344720770442 0 -0.019152866094889292 0.0036373867914764112 0 -0.019249750269349726 0.003499660398539859 0 -0.019212835629544369 0.0032650666295804399 0 -0.023089065326346241 0.0025076888948804329 0 -0.02953910476616689 0.0035649344720770442 0 -0.019773303097595916 0.0031694163159061346 0 -0.019249750269349726 0.003499660398539859 0 -0.019212835629544369 0.0032650666295804399 0 -0.02870798466072744 0.0021592526607819274 0 -0.028641634500067559 0.002096312546121238 0 -0.028739909021948527 0.0021153825419260547 0 -0.015471076566289257 0.0021286655026724341 0 -0.01555899893300243 0.0023781729323061442 0 -0.015741331822096034 0.0020763098043243716 0 -0.022145644498909645 0.002927779729252004 0 -0.022398107078584157 0.0025859700707783159 0 -0.022451386310895351 0.0027136500729242155 0 -0.020244647997249118 0.0026294154624487004 0 -0.019087481160344588 0.0022572772634080374 0 -0.015590935034699809 0.0024176516053630208 0 -0.01555899893300243 0.0023781729323061442 0 -0.015741331822096034 0.0020763098043243716 0 -0.022145644498909645 0.002927779729252004 0 -0.022451386310895351 0.0027136500729242155 0 -0.022501678607708728 0.0028952745541568994 0 -0.015471076566289257 0.0021286655026724341 0 -0.01555899893300243 0.0023781729323061442 0 -0.015286615993083437 0.0023219987354483711 0 -0.015590313204468666 0.0024172088348852205 0 -0.01555899893300243 0.0023781729323061442 0 -0.015286615993083437 0.0023219987354483711 0 -0.020244647997249118 0.0026294154624487004 0 -0.019864475222110527 0.0023580432249200047 0 -0.015138441777484033 0.0022043819826683851 0 -0.014840106328924832 0.0021072303869547541 0 -0.015086447063109581 0.0015697772880209958 0 -0.015138441777484033 0.0022043819826683851 0 -0.014840106328924832 0.0021072303869547541 0 -0.014890476204553886 0.00238604997872938 0 -0.014840106328924832 0.0021072303869547541 0 -0.015086447063109581 0.0015697772880209958 0 -0.014641221920258017 0.0018785975586401154 0 -0.015471076566289257 0.0021286655026724341 0 -0.015286615993083437 0.0023219987354483711 0 -0.015281319062543108 0.0018101752133928401 0 -0.015424905466935541 0.0019265221443514591 0 -0.01219977961088625 0.0033656366770892102 0 -0.01219977961088625 0.0033656366770892102 0 -0.016991501075862222 0.0026506225528103401 0 -0.015281319062543108 0.0018101752133928401 0 -0.015741331822096034 0.0020763098043243716 0 -0.015898676611758977 0.0017317064168245891 0 -0.015471076566289257 0.0021286655026724341 0 -0.015281319062543108 0.0018101752133928401 0 -0.015741331822096034 0.0020763098043243716 0 -0.019087481160344588 0.0022572772634080374 0 -0.016991501075862222 0.0026506225528103401 0 -0.022475651265298918 0.0027379049906952647 0 -0.022433723786025594 0.0026159865925264509 0 -0.022215186613313873 0.002737665733046765 0 -0.022498349530169704 0.0025818174624291238 0 -0.022433723786025594 0.0026159865925264509 0 -0.022351383750807627 0.0026049301224583318 0 -0.022398107078584157 0.0025859700707783159 0 -0.022498349530169704 0.0025818174624291238 0 -0.022433723786025594 0.0026159865925264509 0 -0.022398107078584157 0.0025859700707783159 0 -0.022475651265298918 0.0027379049906952647 0 -0.022433723786025594 0.0026159865925264509 0 -0.021976707961775765 0.0028990205805211671 0 -0.022475651265298918 0.0027379049906952647 0 -0.022215186613313873 0.002737665733046765 0 -0.022498349530169704 0.0025818174624291238 0 -0.022351383750807627 0.0026049301224583318 0 -0.022215669685355564 0.002524676329967696 0 -0.023153755151562556 0.0024797189350879672 0 -0.019874140959795877 0.0030241864641468571 0 -0.022433723786025594 0.0026159865925264509 0 -0.021933237867369035 0.0026659272206925743 0 -0.022215186613313873 0.002737665733046765 0 -0.022433723786025594 0.0026159865925264509 0 -0.02224633229644226 0.0026778708808578291 0 -0.022351383750807627 0.0026049301224583318 0 -0.017377887300168558 0.0044316617958462829 0 -0.019874140959795877 0.0030241864641468571 0 -0.021976707961775765 0.0028990205805211671 0 -0.021933237867369035 0.0026659272206925743 0 -0.022215186613313873 0.002737665733046765 0 -0.02224633229644226 0.0026778708808578291 0 -0.022351383750807627 0.0026049301224583318 0 -0.022215669685355564 0.002524676329967696 0 -0.020575202014071755 0.0034554253305889289 0 -0.02083546986298259 0.0035914590579431849 0 -0.020804964594197787 0.0031734255946311938 0 -0.019874140959795877 0.0030241864641468571 0 -0.022820868241841763 0.0025097664585513519 0 -0.023228884103654739 0.0025913000195380547 0 -0.022869435412815282 0.0029055465890717919 0 -0.02306456612145023 0.0030790629349885987 0 -0.022498349530169704 0.0025818174624291238 0 -0.023228884103654739 0.0025913000195380547 0 -0.02264089311763616 0.0027763640554765013 0 -0.023228884103654739 0.0025913000195380547 0 -0.022869435412815282 0.0029055465890717919 0 -0.02264089311763616 0.0027763640554765013 0 -0.02650278798163257 0.0026144680935016305 0 -0.022820868241841763 0.0025097664585513519 0 -0.022484117910265097 0.0025748811816129302 0 -0.022820868241841763 0.0025097664585513519 0 -0.023305092278220058 0.0031712485655964687 0 -0.023228884103654739 0.0025913000195380547 0 -0.02306456612145023 0.0030790629349885987 0 -0.022398107078584157 0.0025859700707783159 0 -0.022498349530169704 0.0025818174624291238 0 -0.022451386310895351 0.0027136500729242155 0 -0.022498349530169704 0.0025818174624291238 0 -0.022451386310895351 0.0027136500729242155 0 -0.02264089311763616 0.0027763640554765013 0 -0.022869435412815282 0.0029055465890717919 0 -0.02264089311763616 0.0027763640554765013 0 -0.022501678607708728 0.0028952745541568994 0 -0.022869435412815282 0.0029055465890717919 0 -0.022501678607708728 0.0028952745541568994 0 -0.022716613203751602 0.0031726980820409871 0 -0.022451386310895351 0.0027136500729242155 0 -0.02264089311763616 0.0027763640554765013 0 -0.022501678607708728 0.0028952745541568994 0 -0.020244647997249118 0.0026294154624487004 0 -0.025713667801171219 0.0034012918742933012 0 -0.022145644498909645 0.002927779729252004 0 -0.022716613203751602 0.0031726980820409871 0 -0.022641743036195032 0.003628203053574721 0 -0.022145644498909645 0.002927779729252004 0 -0.022501678607708728 0.0028952745541568994 0 -0.022716613203751602 0.0031726980820409871 0 -0.022716613203751602 0.0031726980820409871 0 -0.023079241638693702 0.0033142042285923042 0 -0.022641743036195032 0.003628203053574721 0 -0.023305092278220058 0.0031712485655964687 0 -0.023079241638693702 0.0033142042285923042 0 -0.023258221467613499 0.0035653009721040695 0 -0.02650278798163257 0.0026144680935016305 0 -0.025750692802452995 0.0033613099045922733 0 -0.023305092278220058 0.0031712485655964687 0 -0.02306456612145023 0.0030790629349885987 0 -0.023079241638693702 0.0033142042285923042 0 -0.022869435412815282 0.0029055465890717919 0 -0.022716613203751602 0.0031726980820409871 0 -0.02306456612145023 0.0030790629349885987 0 -0.022716613203751602 0.0031726980820409871 0 -0.02306456612145023 0.0030790629349885987 0 -0.023079241638693702 0.0033142042285923042 0 -0.023121661163193686 0.0035457419651691744 0 -0.022935602256686085 0.0034936616195281071 0 -0.023263746398910753 0.0038576804574579149 0 -0.023079241638693702 0.0033142042285923042 0 -0.023121661163193686 0.0035457419651691744 0 -0.023258221467613499 0.0035653009721040695 0 -0.023079241638693702 0.0033142042285923042 0 -0.023121661163193686 0.0035457419651691744 0 -0.022935602256686085 0.0034936616195281071 0 -0.022446162308810878 0.0038455959634736366 0 -0.025713667801171219 0.0034012918742933012 0 -0.023901932138588031 0.0028751592018293123 0 -0.023497779962616597 0.0029197872983665074 0 -0.023630523516641935 0.0030692580092109554 0 -0.025713667801171219 0.0034012918742933012 0 -0.029042837431478192 0.0023870181293729042 0 -0.020244647997249118 0.0026294154624487004 0 -0.01860857838601845 0.0031958749938442096 0 -0.023629134487974424 0.0025578886724693132 0 -0.023901932138588031 0.0028751592018293123 0 -0.023497779962616597 0.0029197872983665074 0 -0.015138441777484033 0.0022043819826683851 0 -0.014991294387615291 0.0025877167390535509 0 -0.015227588081632779 0.0028770580459799139 0 -0.015424905466935541 0.0019265221443514591 0 -0.015194359490694193 0.0029757470813575942 0 -0.015590313204468666 0.0024172088348852205 0 -0.015286615993083437 0.0023219987354483711 0 -0.015227588081632779 0.0028770580459799139 0 -0.015590313204468666 0.0024172088348852205 0 -0.015227588081632779 0.0028770580459799139 0 -0.015230095838820545 0.0030972795458381283 0 -0.014890476204553886 0.00238604997872938 0 -0.014991294387615291 0.0025877167390535509 0 -0.014763163107148432 0.0026714363274389168 0 -0.015138441777484033 0.0022043819826683851 0 -0.014890476204553886 0.00238604997872938 0 -0.014991294387615291 0.0025877167390535509 0 -0.014991294387615291 0.0025877167390535509 0 -0.014937215181090736 0.0028028460839128445 0 -0.015227588081632779 0.0028770580459799139 0 -0.014991294387615291 0.0025877167390535509 0 -0.014937215181090736 0.0028028460839128445 0 -0.014763163107148432 0.0026714363274389168 0 -0.014937215181090736 0.0028028460839128445 0 -0.014884084463158462 0.0030332225258617013 0 -0.015227588081632779 0.0028770580459799139 0 -0.014884084463158462 0.0030332225258617013 0 -0.015227588081632779 0.0028770580459799139 0 -0.015230095838820545 0.0030972795458381283 0 -0.014884084463158462 0.0030332225258617013 0 -0.015230095838820545 0.0030972795458381283 0 -0.014869546134136529 0.0033745321448559141 0 -0.029042837431478192 0.0023870181293729042 0 -0.023649723742529945 0.0032447925098317018 0 -0.015230095838820545 0.0030972795458381283 0 -0.014923512540667159 0.0038144803472875606 0 -0.014869546134136529 0.0033745321448559141 0 -0.023497779962616597 0.0029197872983665074 0 -0.023630523516641935 0.0030692580092109554 0 -0.02336459401062823 0.0032582418451626259 0 -0.01860857838601845 0.0031958749938442096 0 -0.023649723742529945 0.0032447925098317018 0 -0.032185570397468694 0.0026224651960641788 0 -0.031865565775376165 0.001741405412854723 0 -0.031557243033317223 0.0024518770630162852 0 -0.032185570397468694 0.0026224651960641788 0 -0.031865565775376165 0.001741405412854723 0 -0.032944662462339382 0.0020591203275052818 0 -0.031865565775376165 0.001741405412854723 0 -0.032944662462339382 0.0020591203275052818 0 -0.032636967593183006 0.001148716380523245 0 -0.025750692802452995 0.0033613099045922733 0 -0.029120848356932641 0.0025304419477055261 0 -0.023121661163193686 0.0035457419651691744 0 -0.023258221467613499 0.0035653009721040695 0 -0.023263746398910753 0.0038576804574579149 0 -0.025713667801171219 0.0034012918742933012 0 -0.029120848356932641 0.0025304419477055261 0 -0.028640234836416884 0.0026252998580195111 0 -0.028651374951323482 0.0026498321080498204 0 -0.028705412024303881 0.002561094902915239 0 -0.031400410842453923 0.0031854259152881989 0 -0.032185570397468694 0.0026224651960641788 0 -0.031557243033317223 0.0024518770630162852 0 -0.031400410842453923 0.0031854259152881989 0 -0.030775933566855072 0.0022555618548471801 0 -0.031557243033317223 0.0024518770630162852 0 -0.031865565775376165 0.001741405412854723 0 -0.030775933566855072 0.0022555618548471801 0 -0.031557243033317223 0.0024518770630162852 0 -0.031865565775376165 0.001741405412854723 0 -0.030775933566855072 0.0022555618548471801 0 -0.030977591444475931 0.001193007752211395 0 -0.033746629603422472 0.0018306974889733324 0 -0.033902144100838735 0.001146083749369543 0 -0.033674061923276745 0.0013431865292579603 0 -0.033541408782010264 0.0014974297654023652 0 -0.033746629603422472 0.0018306974889733324 0 -0.033674061923276745 0.0013431865292579603 0 -0.029120848356932641 0.0025304419477055261 0 -0.032535631825390092 0.0011549446545795286 0 -0.032381729530260438 0.0016511671871772904 0 -0.029120848356932641 0.0025304419477055261 0 -0.031865565775376165 0.001741405412854723 0 -0.030977591444475931 0.001193007752211395 0 -0.03201675284379512 0.00087961116297254852 0 -0.030977591444475931 0.001193007752211395 0 -0.03176099094298325 0.00029674784789732097 0 -0.031170681318518363 8.668738647057171e-05 0 -0.030977591444475931 0.001193007752211395 0 -0.03201675284379512 0.00087961116297254852 0 -0.03176099094298325 0.00029674784789732097 0 -0.032535631825390092 0.0011549446545795286 0 -0.034991714406370431 -0.000188961647586035 0 -0.033443832770859133 0.00075505811130751103 0 -0.033902144100838735 0.001146083749369543 0 -0.034029788222439468 0.00046231687998093198 0 -0.031865565775376165 0.001741405412854723 0 -0.032636967593183006 0.001148716380523245 0 -0.03201675284379512 0.00087961116297254852 0 -0.032636967593183006 0.001148716380523245 0 -0.03201675284379512 0.00087961116297254852 0 -0.032501091155338786 0.00068513093307112714 0 -0.03201675284379512 0.00087961116297254852 0 -0.032303924031140054 0.00041943109357485577 0 -0.03176099094298325 0.00029674784789732097 0 -0.03201675284379512 0.00087961116297254852 0 -0.032303924031140054 0.00041943109357485577 0 -0.032501091155338786 0.00068513093307112714 0 -0.032636967593183006 0.001148716380523245 0 -0.032501091155338786 0.00068513093307112714 0 -0.032873389503564693 0.00036171583426851221 0 -0.032303924031140054 0.00041943109357485577 0 -0.032501091155338786 0.00068513093307112714 0 -0.032873389503564693 0.00036171583426851221 0 -0.032636967593183006 0.001148716380523245 0 -0.032873389503564693 0.00036171583426851221 0 -0.033403090587884952 0.0010657643295817979 0 -0.032867545236881977 -0.00029481900585298827 0 -0.032874993089459112 -0.00043242889855784846 0 -0.032452705335249889 -0.00038674576070318526 0 -0.033206183892264401 0.0001115226985239027 0 -0.032357203956026745 -0.00044922020361160198 0 -0.032867545236881977 -0.00029481900585298827 0 -0.032874993089459112 -0.00043242889855784846 0 -0.032916290508268449 -0.00041250869727668356 0 -0.032873389503564693 0.00036171583426851221 0 -0.032305343837008622 8.0078278759907384e-05 0 -0.032452705335249889 -0.00038674576070318526 0 -0.032303924031140054 0.00041943109357485577 0 -0.032873389503564693 0.00036171583426851221 0 -0.032305343837008622 8.0078278759907384e-05 0 -0.032303924031140054 0.00041943109357485577 0 -0.032305343837008622 8.0078278759907384e-05 0 -0.03176099094298325 0.00029674784789732097 0 -0.032305343837008622 8.0078278759907384e-05 0 -0.032028641026516695 -0.00031722863860337072 0 -0.032452705335249889 -0.00038674576070318526 0 -0.032305343837008622 8.0078278759907384e-05 0 -0.032028641026516695 -0.00031722863860337072 0 -0.03176099094298325 0.00029674784789732097 0 -0.032028641026516695 -0.00031722863860337072 0 -0.032452705335249889 -0.00038674576070318526 0 -0.032939430287621203 -0.00058280480226075904 0 -0.033349176444726299 -0.00078017382554502589 0 -0.032939430287621203 -0.00058280480226075904 0 -0.03330045201349479 -0.00051744188742436879 0 -0.032226595272339523 -0.00041770897147306918 0 -0.033076065354299439 -0.00065647934795689047 0 -0.033349176444726299 -0.00078017382554502589 0 -0.03330045201349479 -0.00051744188742436879 0 -0.033468020343436239 -0.00065528150299433126 0 -0.032874993089459112 -0.00043242889855784846 0 -0.032939430287621203 -0.00058280480226075904 0 -0.032925633837586045 -0.00047263836501835945 0 -0.032874993089459112 -0.00043242889855784846 0 -0.032452705335249889 -0.00038674576070318526 0 -0.032939430287621203 -0.00058280480226075904 0 -0.032939430287621203 -0.00058280480226075904 0 -0.032925633837586045 -0.00047263836501835945 0 -0.03297643963674849 -0.00044843743021709057 0 -0.032939430287621203 -0.00058280480226075904 0 -0.033091110646220737 -0.00042927944845538732 0 -0.03297643963674849 -0.00044843743021709057 0 -0.033091110646220737 -0.00042927944845538732 0 -0.033285689843184731 -0.00031790220604431692 0 -0.033046578091721707 -0.00032798932422664542 0 -0.033091110646220737 -0.00042927944845538732 0 -0.03297643963674849 -0.00044843743021709057 0 -0.033046578091721707 -0.00032798932422664542 0 -0.033091110646220737 -0.00042927944845538732 0 -0.03330045201349479 -0.00051744188742436879 0 -0.033285689843184731 -0.00031790220604431692 0 -0.032939430287621203 -0.00058280480226075904 0 -0.033091110646220737 -0.00042927944845538732 0 -0.03330045201349479 -0.00051744188742436879 0 -0.03330045201349479 -0.00051744188742436879 0 -0.033285689843184731 -0.00031790220604431692 0 -0.033576617300363598 -0.00048879646205086588 0 -0.033285689843184731 -0.00031790220604431692 0 -0.033377509879877816 -0.00016700106429475293 0 -0.033499484251266268 -0.00021897340526442531 0 -0.033285689843184731 -0.00031790220604431692 0 -0.033153506662404374 -0.00020488235180685026 0 -0.033046578091721707 -0.00032798932422664542 0 -0.033285689843184731 -0.00031790220604431692 0 -0.033153506662404374 -0.00020488235180685026 0 -0.033377509879877816 -0.00016700106429475293 0 -0.040996411895181689 -0.0021853816037071807 0 -0.041500242494795198 -0.0010577420037878097 0 -0.041617694786300306 -0.0021973218956835199 0 -0.037881505536235871 -0.00084282194401405725 0 -0.03750898862880158 -0.001186039365890652 0 -0.033285689843184731 -0.00031790220604431692 0 -0.033576617300363598 -0.00048879646205086588 0 -0.033499484251266268 -0.00021897340526442531 0 -0.041500242494795198 -0.0010577420037878097 0 -0.04085808134908319 -0.0005848207485836032 0 -0.040723640351038801 -0.0014051554785063432 0 -0.040996411895181689 -0.0021853816037071807 0 -0.041500242494795198 -0.0010577420037878097 0 -0.040723640351038801 -0.0014051554785063432 0 -0.037881505536235871 -0.00084282194401405725 0 -0.034991714406370431 -0.000188961647586035 0 -0.041500242494795198 -0.0010577420037878097 0 -0.04085808134908319 -0.0005848207485836032 0 -0.041327241245245401 0.00021818147670144383 0 -0.033576617300363598 -0.00048879646205086588 0 -0.033468020343436239 -0.00065528150299433126 0 -0.033675826771565637 -0.00091223749058048952 0 -0.03330045201349479 -0.00051744188742436879 0 -0.033576617300363598 -0.00048879646205086588 0 -0.033468020343436239 -0.00065528150299433126 0 -0.033349176444726299 -0.00078017382554502589 0 -0.033468020343436239 -0.00065528150299433126 0 -0.033675826771565637 -0.00091223749058048952 0 -0.032226595272339523 -0.00041770897147306918 0 -0.034991714406370431 -0.000188961647586035 0 -0.032028641026516695 -0.00031722863860337072 0 -0.03176099094298325 0.00029674784789732097 0 -0.031170681318518363 8.668738647057171e-05 0 -0.04085808134908319 -0.0005848207485836032 0 -0.041327241245245401 0.00021818147670144383 0 -0.04051063169263211 1.7699922974372123e-06 0 -0.037637268821148109 0.00098272933287285938 0 -0.034991714406370431 -0.000188961647586035 0 -0.04025312639885463 0.00067147479329119112 0 -0.041327241245245401 0.00021818147670144383 0 -0.04051063169263211 1.7699922974372123e-06 0 -0.04051063169263211 1.7699922974372123e-06 0 -0.040092468199198622 0.00036464518998612165 0 -0.039932062742536897 5.151379683418996e-05 0 -0.04025312639885463 0.00067147479329119112 0 -0.04051063169263211 1.7699922974372123e-06 0 -0.040092468199198622 0.00036464518998612165 0 -0.040026574680765321 0.00068718190066188126 0 -0.040092468199198622 0.00036464518998612165 0 -0.039780051269566921 0.00055689740851527108 0 -0.039932062742536897 5.151379683418996e-05 0 -0.039573354271526119 -0.00049902729033453157 0 -0.039285878017186041 0.00044720013708968908 0 -0.040092468199198622 0.00036464518998612165 0 -0.039780051269566921 0.00055689740851527108 0 -0.039932062742536897 5.151379683418996e-05 0 -0.039780051269566921 0.00055689740851527108 0 -0.039932062742536897 5.151379683418996e-05 0 -0.039285878017186041 0.00044720013708968908 0 -0.039932062742536897 5.151379683418996e-05 0 -0.039573354271526119 -0.00049902729033453157 0 -0.040225383292899305 -0.00063866025310769245 0 -0.039573354271526119 -0.00049902729033453157 0 -0.040225383292899305 -0.00063866025310769245 0 -0.040056653284797863 -0.0013177252416472457 0 -0.04085808134908319 -0.0005848207485836032 0 -0.040225383292899305 -0.00063866025310769245 0 -0.040723640351038801 -0.0014051554785063432 0 -0.04085808134908319 -0.0005848207485836032 0 -0.04051063169263211 1.7699922974372123e-06 0 -0.040225383292899305 -0.00063866025310769245 0 -0.04051063169263211 1.7699922974372123e-06 0 -0.039932062742536897 5.151379683418996e-05 0 -0.040225383292899305 -0.00063866025310769245 0 -0.038255705534080357 0.00051082870750378381 0 -0.037822251880437793 -0.0001560428303088071 0 -0.038737422356587815 -0.00021449591634961363 0 -0.037597555399601287 0.00062167713555094553 0 -0.038255705534080357 0.00051082870750378381 0 -0.037822251880437793 -0.0001560428303088071 0 -0.039573354271526119 -0.00049902729033453157 0 -0.039285878017186041 0.00044720013708968908 0 -0.038737422356587815 -0.00021449591634961363 0 -0.038255705534080357 0.00051082870750378381 0 -0.039020330397513764 0.00035798533345366741 0 -0.038737422356587815 -0.00021449591634961363 0 -0.039156228116614962 0.00042285596071565832 0 -0.038769893414676244 -0.00015379598467170959 0 -0.039573354271526119 -0.00049902729033453157 0 -0.038737422356587815 -0.00021449591634961363 0 -0.039172246981815394 -0.0012067462663646663 0 -0.038737422356587815 -0.00021449591634961363 0 -0.038252376628161576 -0.0010180329683312924 0 -0.039172246981815394 -0.0012067462663646663 0 -0.037822251880437793 -0.0001560428303088071 0 -0.038252376628161576 -0.0010180329683312924 0 -0.037458688824825871 -0.00087891029847821415 0 -0.037822251880437793 -0.0001560428303088071 0 -0.038737422356587815 -0.00021449591634961363 0 -0.038252376628161576 -0.0010180329683312924 0 -0.038252376628161576 -0.0010180329683312924 0 -0.038686044209668723 -0.0019478940794383105 0 -0.037615864317638054 -0.0017366486515372202 0 -0.038252376628161576 -0.0010180329683312924 0 -0.039172246981815394 -0.0012067462663646663 0 -0.038686044209668723 -0.0019478940794383105 0 -0.039172246981815394 -0.0012067462663646663 0 -0.038686044209668723 -0.0019478940794383105 0 -0.039623645090362737 -0.0022534563955418706 0 -0.038686044209668723 -0.0019478940794383105 0 -0.037615864317638054 -0.0017366486515372202 0 -0.037920574649071198 -0.0026513265856744745 0 -0.040225383292899305 -0.00063866025310769245 0 -0.040723640351038801 -0.0014051554785063432 0 -0.040056653284797863 -0.0013177252416472457 0 -0.039573354271526119 -0.00049902729033453157 0 -0.039172246981815394 -0.0012067462663646663 0 -0.040056653284797863 -0.0013177252416472457 0 -0.039172246981815394 -0.0012067462663646663 0 -0.040056653284797863 -0.0013177252416472457 0 -0.039623645090362737 -0.0022534563955418706 0 -0.040056653284797863 -0.0013177252416472457 0 -0.040370976285014903 -0.002190383629099272 0 -0.039623645090362737 -0.0022534563955418706 0 -0.040996411895181689 -0.0021853816037071807 0 -0.040723640351038801 -0.0014051554785063432 0 -0.040370976285014903 -0.002190383629099272 0 -0.040723640351038801 -0.0014051554785063432 0 -0.040056653284797863 -0.0013177252416472457 0 -0.040370976285014903 -0.002190383629099272 0 -0.040996411895181689 -0.0021853816037071807 0 -0.040370976285014903 -0.002190383629099272 0 -0.040817426506893476 -0.0029481039269693551 0 -0.040370976285014903 -0.002190383629099272 0 -0.040222772141625618 -0.0030087273937292043 0 -0.039623645090362737 -0.0022534563955418706 0 -0.040370976285014903 -0.002190383629099272 0 -0.040222772141625618 -0.0030087273937292043 0 -0.040817426506893476 -0.0029481039269693551 0 -0.040222772141625618 -0.0030087273937292043 0 -0.040817426506893476 -0.0029481039269693551 0 -0.040950779068443813 -0.003372657240789946 0 -0.038763972121281118 -0.0020026737371770216 0 -0.038897398967204309 -0.0029193090041957511 0 -0.038686044209668723 -0.0019478940794383105 0 -0.03877084080297441 -0.0032184121425881435 0 -0.037920574649071198 -0.0026513265856744745 0 -0.040222772141625618 -0.0030087273937292043 0 -0.039623645090362737 -0.0022534563955418706 0 -0.039326086945071871 -0.0028129693863473888 0 -0.038686044209668723 -0.0019478940794383105 0 -0.039623645090362737 -0.0022534563955418706 0 -0.039326086945071871 -0.0028129693863473888 0 -0.038897398967204309 -0.0029193090041957511 0 -0.040380389538205878 -0.0042092474222906818 0 -0.040222772141625618 -0.0030087273937292043 0 -0.039326086945071871 -0.0028129693863473888 0 -0.039709984602131161 -0.0036897578706466391 0 -0.03877084080297441 -0.0032184121425881435 0 -0.038345874271368353 -0.0038515143364335203 0 -0.037774868839149323 -0.0035193768497046932 0 -0.03877084080297441 -0.0032184121425881435 0 -0.037920574649071198 -0.0026513265856744745 0 -0.037774868839149323 -0.0035193768497046932 0 -0.038345874271368353 -0.0038515143364335203 0 -0.037774868839149323 -0.0035193768497046932 0 -0.037921464682807798 -0.0043062286899400032 0 -0.03877084080297441 -0.0032184121425881435 0 -0.038345874271368353 -0.0038515143364335203 0 -0.038918485686509796 -0.0043464474885487759 0 -0.038345874271368353 -0.0038515143364335203 0 -0.038918485686509796 -0.0043464474885487759 0 -0.037921464682807798 -0.0043062286899400032 0 -0.040380389538205878 -0.0042092474222906818 0 -0.04025758484252423 -0.004675009833790213 0 -0.040380389538205878 -0.0042092474222906818 0 -0.040673271838124476 -0.0035779835589796033 0 -0.040380389538205878 -0.0042092474222906818 0 -0.041442072771174329 -0.003985029329480777 0 -0.04179570420555697 -0.0050122129220540063 0 -0.042345545971583611 -0.0043442055552231681 0 -0.041682841394603702 -0.0043595519107326678 0 -0.041042223742036317 -0.0036942757275450306 0 -0.04070943086809526 -0.0035903166661847129 0 -0.041116239285561525 -0.0035607790414637682 0 -0.04179570420555697 -0.0050122129220540063 0 -0.042617560325853711 -0.0049858662134761034 0 -0.042345545971583611 -0.0043442055552231681 0 -0.040817426506893476 -0.0029481039269693551 0 -0.040950779068443813 -0.003372657240789946 0 -0.041251527984242829 -0.0033880802273522272 0 -0.040950779068443813 -0.003372657240789946 0 -0.04070943086809526 -0.0035903166661847129 0 -0.041147694855457891 -0.0035401851798647285 0 -0.040950779068443813 -0.003372657240789946 0 -0.041147694855457891 -0.0035401851798647285 0 -0.041251527984242829 -0.0033880802273522272 0 -0.040222772141625618 -0.0030087273937292043 0 -0.040950779068443813 -0.003372657240789946 0 -0.04070943086809526 -0.0035903166661847129 0 -0.040222772141625618 -0.0030087273937292043 0 -0.039709984602131161 -0.0036897578706466391 0 -0.04070943086809526 -0.0035903166661847129 0 -0.04070943086809526 -0.0035903166661847129 0 -0.041083500184444226 -0.0035951501256081789 0 -0.041116239285561525 -0.0035607790414637682 0 -0.04070943086809526 -0.0035903166661847129 0 -0.041147694855457891 -0.0035401851798647285 0 -0.041083500184444226 -0.0035951501256081789 0 -0.041147694855457891 -0.0035401851798647285 0 -0.041409953286114617 -0.0035402376172195028 0 -0.041251527984242829 -0.0033880802273522272 0 -0.041147694855457891 -0.0035401851798647285 0 -0.041409953286114617 -0.0035402376172195028 0 -0.041513344458478561 -0.003562926658713775 0 -0.041409953286114617 -0.0035402376172195028 0 -0.041251527984242829 -0.0033880802273522272 0 -0.041419591226458614 -0.0034191998586442403 0 -0.037519588997917776 -0.002051584172993867 0 -0.037549924047244609 -0.0016660255598411277 0 -0.041251527984242829 -0.0033880802273522272 0 -0.041419591226458614 -0.0034191998586442403 0 -0.041606886590531911 -0.0030905857187282938 0 -0.041419591226458614 -0.0034191998586442403 0 -0.041429237132968692 -0.0035549970826076007 0 -0.041606886590531911 -0.0030905857187282938 0 -0.041409953286114617 -0.0035402376172195028 0 -0.041429237132968692 -0.0035549970826076007 0 -0.041377799878605237 -0.0034273971788607803 0 -0.041409953286114617 -0.0035402376172195028 0 -0.041419591226458614 -0.0034191998586442403 0 -0.041429237132968692 -0.0035549970826076007 0 -0.033569302253617268 -0.00062150491480731393 0 -0.033656672350193283 -0.00038364371823910824 0 -0.033808071768893493 -0.0007443539329639239 0 -0.033683810156223452 -0.00040483584454075247 0 -0.03377231991306396 -0.00065160575325598675 0 -0.033769887679866897 -0.00044919344612110731 0 -0.033656672350193283 -0.00038364371823910824 0 -0.033728093970117737 -0.00053400586741296952 0 -0.033769887679866897 -0.00044919344612110731 0 -0.033731293757295229 -0.00029816157232326774 0 -0.033921826849021404 -0.00049175329644181645 0 -0.033769887679866897 -0.00044919344612110731 0 -0.033812401764351192 -0.0005355363042650129 0 -0.033921826849021404 -0.00049175329644181645 0 -0.033769887679866897 -0.00044919344612110731 0 -0.033812401764351192 -0.0005355363042650129 0 -0.033728093970117737 -0.00053400586741296952 0 -0.033769887679866897 -0.00044919344612110731 0 -0.033731293757295229 -0.00029816157232326774 0 -0.033656672350193283 -0.00038364371823910824 0 -0.033454001800892891 -0.0001486798388104152 0 -0.033448791423474934 -0.00031678919464175719 0 -0.033656672350193283 -0.00038364371823910824 0 -0.033553553562453237 -0.00025843482308661274 0 -0.033493134780960783 -0.00024070036047330382 0 -0.033569302253617268 -0.00062150491480731393 0 -0.033656672350193283 -0.00038364371823910824 0 -0.033493134780960783 -0.00024070036047330382 0 -0.033731293757295229 -0.00029816157232326774 0 -0.033656672350193283 -0.00038364371823910824 0 -0.033553553562453237 -0.00025843482308661274 0 -0.033731293757295229 -0.00029816157232326774 0 -0.033553553562453237 -0.00025843482308661274 0 -0.033377509879877816 -0.00016700106429475293 0 -0.033553553562453237 -0.00025843482308661274 0 -0.033377509879877816 -0.00016700106429475293 0 -0.033493134780960783 -0.00024070036047330382 0 -0.033454001800892891 -0.0001486798388104152 0 -0.033396278921714768 -0.00018118232497270188 0 -0.033160897342926987 2.4598830058402723e-05 0 -0.033377509879877816 -0.00016700106429475293 0 -0.033130074759134799 -7.4457015786734776e-05 0 -0.033160897342926987 2.4598830058402723e-05 0 -0.033113230108621827 -6.6137414193217365e-06 0 -0.033130074759134799 -7.4457015786734776e-05 0 -0.033153506662404374 -0.00020488235180685026 0 -0.033377509879877816 -0.00016700106429475293 0 -0.033130074759134799 -7.4457015786734776e-05 0 -0.041617694786300306 -0.0021973218956835199 0 -0.041263866476753737 -0.0027275113348284386 0 -0.041606886590531911 -0.0030905857187282938 0 -0.033377509879877816 -0.00016700106429475293 0 -0.033499484251266268 -0.00021897340526442531 0 -0.033493134780960783 -0.00024070036047330382 0 -0.03750898862880158 -0.001186039365890652 0 -0.037549924047244609 -0.0016660255598411277 0 -0.040996411895181689 -0.0021853816037071807 0 -0.041617694786300306 -0.0021973218956835199 0 -0.041263866476753737 -0.0027275113348284386 0 -0.040996411895181689 -0.0021853816037071807 0 -0.040817426506893476 -0.0029481039269693551 0 -0.041263866476753737 -0.0027275113348284386 0 -0.041251527984242829 -0.0033880802273522272 0 -0.041263866476753737 -0.0027275113348284386 0 -0.041606886590531911 -0.0030905857187282938 0 -0.040817426506893476 -0.0029481039269693551 0 -0.041251527984242829 -0.0033880802273522272 0 -0.041263866476753737 -0.0027275113348284386 0 -0.031909890511224337 -0.0039335807857570643 0 -0.032743976732979518 -0.0035409005676752957 0 -0.03217279260211748 -0.003409614021383167 0 -0.036243144509295069 -0.0034156463301906106 0 -0.036013570569827486 -0.0036083361533674799 0 -0.036147347821042966 -0.0037084852492039536 0 -0.034749011544427402 -0.0040995576323465364 0 -0.035123705822858176 -0.0031148408533978184 0 -0.035919952508870957 -0.0035716607247458249 0 -0.036243144509295069 -0.0034156463301906106 0 -0.036013570569827486 -0.0036083361533674799 0 -0.035123705822858176 -0.0031148408533978184 0 -0.038388712846657035 -0.0033687587462767452 0 -0.037985050493623218 -0.0027877662269166726 0 -0.037782409168045851 -0.0027413782794838935 0 -0.037958611711789263 -0.0026515626535342264 0 -0.037985050493623218 -0.0027877662269166726 0 -0.037958611711789263 -0.0026515626535342264 0 -0.037965891158185001 -0.0025681361573468026 0 -0.032743976732979518 -0.0035409005676752957 0 -0.032941290944819727 -0.0030022679138390056 0 -0.032674992501530935 -0.0031000418506076039 0 -0.034035486213160548 -0.0031822470829856947 0 -0.034016668784872986 -0.0032079196156003585 0 -0.034009024007103046 -0.0031960745165047302 0 -0.035123705822858176 -0.0031148408533978184 0 -0.031575624282721933 -0.0033456244017443107 0 -0.032743976732979518 -0.0035409005676752957 0 -0.032674992501530935 -0.0031000418506076039 0 -0.03247524553372489 -0.0032123755533343614 0 -0.035123705822858176 -0.0031148408533978184 0 -0.035301990140491929 -0.0031334169080088885 0 -0.032941290944819727 -0.0030022679138390056 0 -0.032674992501530935 -0.0031000418506076039 0 -0.032679736581474453 -0.0027980875330530864 0 -0.032674992501530935 -0.0031000418506076039 0 -0.03247524553372489 -0.0032123755533343614 0 -0.032512411481851418 -0.0028974787621442459 0 -0.03247524553372489 -0.0032123755533343614 0 -0.03217279260211748 -0.003409614021383167 0 -0.032247166491866285 -0.0030073868396725948 0 -0.032743976732979518 -0.0035409005676752957 0 -0.03247524553372489 -0.0032123755533343614 0 -0.03217279260211748 -0.003409614021383167 0 -0.03247524553372489 -0.0032123755533343614 0 -0.032247166491866285 -0.0030073868396725948 0 -0.032512411481851418 -0.0028974787621442459 0 -0.031851543794328974 -0.0032181409657953113 0 -0.03217279260211748 -0.003409614021383167 0 -0.032247166491866285 -0.0030073868396725948 0 -0.030074649245380964 -0.0022142705214075417 0 -0.032700243439138736 -0.0030720307203480324 0 -0.02851644722888453 -0.002789051990103581 0 -0.028781156244540036 -0.002285386298477294 0 -0.029486160383609971 -0.0034933334269060898 0 -0.02797371923224018 -0.0023124533498495164 0 -0.029997258109189344 -0.0030069267017164606 0 -0.0316971482542827 -0.0020823252258276889 0 -0.032247166491866285 -0.0030073868396725948 0 -0.032216890420340677 -0.0024373553973229814 0 -0.032247166491866285 -0.0030073868396725948 0 -0.032512411481851418 -0.0028974787621442459 0 -0.032216890420340677 -0.0024373553973229814 0 -0.032512411481851418 -0.0028974787621442459 0 -0.032216890420340677 -0.0024373553973229814 0 -0.032679736581474453 -0.0027980875330530864 0 -0.030418413260643606 -0.002671340562384039 0 -0.029997258109189344 -0.0030069267017164606 0 -0.026289847379948973 -0.00089148830397356492 0 -0.027010187284088417 -0.0021195893019133188 0 -0.027547404788151104 -0.0013275604129560467 0 -0.030074649245380964 -0.0022142705214075417 0 -0.030418413260643606 -0.002671340562384039 0 -0.02851644722888453 -0.002789051990103581 0 -0.028781156244540036 -0.002285386298477294 0 -0.028108441176236884 -0.0019502932278975861 0 -0.02807303093096589 -0.0010788316577750913 0 -0.028781156244540036 -0.002285386298477294 0 -0.028108441176236884 -0.0019502932278975861 0 -0.024777795844797629 -0.0010905244205926482 0 -0.02797371923224018 -0.0023124533498495164 0 -0.027551501598293015 -0.0020830729728615206 0 -0.02851644722888453 -0.002789051990103581 0 -0.028108441176236884 -0.0019502932278975861 0 -0.027620631403005705 -0.0015168405889415151 0 -0.02807303093096589 -0.0010788316577750913 0 -0.028108441176236884 -0.0019502932278975861 0 -0.028376281421100973 -0.00073608236790592317 0 -0.028202914431895855 -0.0010190996353960429 0 -0.028988941095411534 -0.0020850077454424832 0 -0.028202914431895855 -0.0010190996353960429 0 -0.027904165327676266 -0.0019819222985721372 0 -0.028988941095411534 -0.0020850077454424832 0 -0.028202914431895855 -0.0010190996353960429 0 -0.027547404788151104 -0.0013275604129560467 0 -0.027904165327676266 -0.0019819222985721372 0 -0.027010187284088417 -0.0021195893019133188 0 -0.027547404788151104 -0.0013275604129560467 0 -0.027904165327676266 -0.0019819222985721372 0 -0.027010187284088417 -0.0021195893019133188 0 -0.027904165327676266 -0.0019819222985721372 0 -0.027739062201915732 -0.0033458656797152437 0 -0.027904165327676266 -0.0019819222985721372 0 -0.027739062201915732 -0.0033458656797152437 0 -0.028988941095411534 -0.0020850077454424832 0 -0.028367884818693147 -0.0037974555635723797 0 -0.027739062201915732 -0.0033458656797152437 0 -0.028988941095411534 -0.0020850077454424832 0 -0.032674992501530935 -0.0031000418506076039 0 -0.032512411481851418 -0.0028974787621442459 0 -0.032679736581474453 -0.0027980875330530864 0 -0.031575624282721933 -0.0033456244017443107 0 -0.029997258109189344 -0.0030069267017164606 0 -0.030995151220760863 -0.0019295279680601623 0 -0.033797652896756993 -0.0030653801561652668 0 -0.032232140153325449 -0.003090825226582362 0 -0.032670250262225704 -0.0018882236067756912 0 -0.03331326549837331 -0.0033224410879723631 0 -0.031575624282721933 -0.0033456244017443107 0 -0.030995151220760863 -0.0019295279680601623 0 -0.03096170481640145 -0.0015723369508583722 0 -0.0323516458598248 -0.0021165163111792856 0 -0.03195698548289156 -0.0037906014077203408 0 -0.031461782932734175 -0.00010217079195575029 0 -0.03096170481640145 -0.0015723369508583722 0 -0.03210920839016395 -0.00093949898778244556 0 -0.02558651195157877 -0.0010654339118576356 0 -0.030995151220760863 -0.0019295279680601623 0 -0.03096170481640145 -0.0015723369508583722 0 -0.03210920839016395 -0.00093949898778244556 0 -0.0323516458598248 -0.0021165163111792856 0 -0.031435608105507058 -0.00017081465066172272 0 -0.030995151220760863 -0.0019295279680601623 0 -0.03210920839016395 -0.00093949898778244556 0 -0.0323516458598248 -0.0021165163111792856 0 -0.033363509448090897 -0.0011957503425891211 0 -0.0323516458598248 -0.0021165163111792856 0 -0.033126952916270359 -0.0032421620274099144 0 -0.03195698548289156 -0.0037906014077203408 0 -0.0323516458598248 -0.0021165163111792856 0 -0.033126952916270359 -0.0032421620274099144 0 -0.033363509448090897 -0.0011957503425891211 0 -0.034132918979405028 -0.0028509475289104609 0 -0.033797652896756993 -0.0030653801561652668 0 -0.03538364321694705 -0.0024086860172478491 0 -0.035383282478785187 -0.002608023630787226 0 -0.035135474978081532 -0.0025263996422925962 0 -0.035301990140491929 -0.0031334169080088885 0 -0.035903544599371687 -0.0030078154971364067 0 -0.035383282478785187 -0.002608023630787226 0 -0.035135474978081532 -0.0025263996422925962 0 -0.035261910352099995 -0.0027882779672829799 0 -0.035040495880603234 -0.0028439936540709107 0 -0.034813289423975088 -0.0029510651714867663 0 -0.035220286896208951 -0.0032469904259575877 0 -0.033797652896756993 -0.0030653801561652668 0 -0.035903544599371687 -0.0030078154971364067 0 -0.032232140153325449 -0.003090825226582362 0 -0.03331326549837331 -0.0033224410879723631 0 -0.032852568547654823 -0.0035388696900060254 0 -0.031575624282721933 -0.0033456244017443107 0 -0.035301990140491929 -0.0031334169080088885 0 -0.033797652896756993 -0.0030653801561652668 0 -0.035301990140491929 -0.0031334169080088885 0 -0.037985050493623218 -0.0027877662269166726 0 -0.037780333653677736 -0.0029030826013864675 0 -0.037782409168045851 -0.0027413782794838935 0 -0.037780333653677736 -0.0029030826013864675 0 -0.037782409168045851 -0.0027413782794838935 0 -0.037607968615686993 -0.0027803452180542895 0 -0.037782409168045851 -0.0027413782794838935 0 -0.037607968615686993 -0.0027803452180542895 0 -0.037541084711974697 -0.0026222801501158423 0 -0.035903544599371687 -0.0030078154971364067 0 -0.035333381909693783 -0.0028232255348957279 0 -0.035331157966413326 -0.0028187462573393274 0 -0.035525924745212288 -0.0029601388486619313 0 -0.035403830114750276 -0.0030047163781198693 0 -0.035903544599371687 -0.0030078154971364067 0 -0.037144564209499638 -0.0027430354170674782 0 -0.035261910352099995 -0.0027882779672829799 0 -0.035573901631487534 -0.0027291254015388471 0 -0.035525924745212288 -0.0029601388486619313 0 -0.035383282478785187 -0.002608023630787226 0 -0.035261910352099995 -0.0027882779672829799 0 -0.035573901631487534 -0.0027291254015388471 0 -0.035573901631487534 -0.0027291254015388471 0 -0.035679714825670332 -0.0029451521996511328 0 -0.035760320071347565 -0.0027761350973815359 0 -0.035573901631487534 -0.0027291254015388471 0 -0.035525924745212288 -0.0029601388486619313 0 -0.035679714825670332 -0.0029451521996511328 0 -0.035589367151973632 -0.0027974070121856947 0 -0.036509766639574059 -0.0024795955439078491 0 -0.035902361103819461 -0.0019682254462390632 0 -0.036509766639574059 -0.0024795955439078491 0 -0.035760320071347565 -0.0027761350973815359 0 -0.0358180755936095 -0.0025868871303845408 0 -0.036005085322444459 -0.0028786586019452489 0 -0.035679714825670332 -0.0029451521996511328 0 -0.035760320071347565 -0.0027761350973815359 0 -0.036005085322444459 -0.0028786586019452489 0 -0.035573901631487534 -0.0027291254015388471 0 -0.035760320071347565 -0.0027761350973815359 0 -0.0358180755936095 -0.0025868871303845408 0 -0.035902361103819461 -0.0019682254462390632 0 -0.035174354651075927 -0.0016040049681266991 0 -0.0358180755936095 -0.0025868871303845408 0 -0.035558534816489157 -0.0025249029600321149 0 -0.035630336327205213 -0.0022900449715037205 0 -0.035573901631487534 -0.0027291254015388471 0 -0.0358180755936095 -0.0025868871303845408 0 -0.035558534816489157 -0.0025249029600321149 0 -0.035383282478785187 -0.002608023630787226 0 -0.035573901631487534 -0.0027291254015388471 0 -0.035558534816489157 -0.0025249029600321149 0 -0.03538364321694705 -0.0024086860172478491 0 -0.035383282478785187 -0.002608023630787226 0 -0.035558534816489157 -0.0025249029600321149 0 -0.033126952916270359 -0.0032421620274099144 0 -0.034306709898688198 -0.0026879507098117946 0 -0.033363509448090897 -0.0011957503425891211 0 -0.034132918979405028 -0.0028509475289104609 0 -0.035174354651075927 -0.0016040049681266991 0 -0.03538364321694705 -0.0024086860172478491 0 -0.035558534816489157 -0.0025249029600321149 0 -0.035630336327205213 -0.0022900449715037205 0 -0.035174354651075927 -0.0016040049681266991 0 -0.033942049626036475 -0.0004529678477919866 0 -0.035132550044517701 -0.00071429894014002837 0 -0.034608557970480021 0.00013786605094743903 0 -0.035312839265864468 -0.00014831902493285431 0 -0.034608557970480021 0.00013786605094743903 0 -0.035447013906571061 0.00041944273867959792 0 -0.035312839265864468 -0.00014831902493285431 0 -0.035447013906571061 0.00041944273867959792 0 -0.035312839265864468 -0.00014831902493285431 0 -0.035867977393943318 -0.00037179518878365013 0 -0.036221939127142208 0.00058634389218432199 0 -0.035447013906571061 0.00041944273867959792 0 -0.035867977393943318 -0.00037179518878365013 0 -0.035974900670979033 -0.0013553696977238803 0 -0.035500475671873748 -0.00061265388093775623 0 -0.03616503948328538 -0.00029300182834498498 0 -0.035974900670979033 -0.0013553696977238803 0 -0.03616503948328538 -0.00029300182834498498 0 -0.036715470653043654 -0.00065253350669020743 0 -0.035174354651075927 -0.0016040049681266991 0 -0.03611553142586043 -0.0002933518255791328 0 -0.035132550044517701 -0.00071429894014002837 0 -0.035312839265864468 -0.00014831902493285431 0 -0.035867977393943318 -0.00037179518878365013 0 -0.03616503948328538 -0.00029300182834498498 0 -0.036715470653043654 -0.00065253350669020743 0 -0.036693402607162431 4.8860955029589553e-06 0 -0.036715470653043654 -0.00065253350669020743 0 -0.036693402607162431 4.8860955029589553e-06 0 -0.03717305933581011 -0.00031621314034705643 0 -0.036221939127142208 0.00058634389218432199 0 -0.035867977393943318 -0.00037179518878365013 0 -0.036693402607162431 4.8860955029589553e-06 0 -0.03611553142586043 -0.0002933518255791328 0 -0.036589180300389615 -5.127702584526424e-05 0 -0.036221939127142208 0.00058634389218432199 0 -0.036693402607162431 4.8860955029589553e-06 0 -0.037070014442638702 0.0003680082380398197 0 -0.037597555399601287 0.00062167713555094553 0 -0.037822251880437793 -0.0001560428303088071 0 -0.037070014442638702 0.0003680082380398197 0 -0.036693402607162431 4.8860955029589553e-06 0 -0.037070014442638702 0.0003680082380398197 0 -0.03717305933581011 -0.00031621314034705643 0 -0.037822251880437793 -0.0001560428303088071 0 -0.037070014442638702 0.0003680082380398197 0 -0.03717305933581011 -0.00031621314034705643 0 -0.037822251880437793 -0.0001560428303088071 0 -0.03717305933581011 -0.00031621314034705643 0 -0.037458688824825871 -0.00087891029847821415 0 -0.036715470653043654 -0.00065253350669020743 0 -0.03717305933581011 -0.00031621314034705643 0 -0.037458688824825871 -0.00087891029847821415 0 -0.038252376628161576 -0.0010180329683312924 0 -0.037458688824825871 -0.00087891029847821415 0 -0.037615864317638054 -0.0017366486515372202 0 -0.037458688824825871 -0.00087891029847821415 0 -0.036815983108789779 -0.0012846733553124004 0 -0.037615864317638054 -0.0017366486515372202 0 -0.035974900670979033 -0.0013553696977238803 0 -0.036815983108789779 -0.0012846733553124004 0 -0.036607544042889191 -0.0016930605050346848 0 -0.036715470653043654 -0.00065253350669020743 0 -0.037458688824825871 -0.00087891029847821415 0 -0.036815983108789779 -0.0012846733553124004 0 -0.035974900670979033 -0.0013553696977238803 0 -0.036715470653043654 -0.00065253350669020743 0 -0.036815983108789779 -0.0012846733553124004 0 -0.036815983108789779 -0.0012846733553124004 0 -0.036607544042889191 -0.0016930605050346848 0 -0.036964062603182746 -0.0021076330917013959 0 -0.035974900670979033 -0.0013553696977238803 0 -0.036607544042889191 -0.0016930605050346848 0 -0.03649860928529701 -0.0021985785437254038 0 -0.036607544042889191 -0.0016930605050346848 0 -0.03649860928529701 -0.0021985785437254038 0 -0.036964062603182746 -0.0021076330917013959 0 -0.036509766639574059 -0.0024795955439078491 0 -0.036846842612158544 -0.0022747729464935931 0 -0.036575564656677724 -0.0021921620537355829 0 -0.036964062603182746 -0.0021076330917013959 0 -0.037010109037949795 -0.0027555901836626736 0 -0.037615864317638054 -0.0017366486515372202 0 -0.037920574649071198 -0.0026513265856744745 0 -0.037363668545493771 -0.0024553889454782749 0 -0.036964062603182746 -0.0021076330917013959 0 -0.037615864317638054 -0.0017366486515372202 0 -0.037363668545493771 -0.0024553889454782749 0 -0.036815983108789779 -0.0012846733553124004 0 -0.036964062603182746 -0.0021076330917013959 0 -0.037615864317638054 -0.0017366486515372202 0 -0.037410713477319744 -0.0029535186790684634 0 -0.037920574649071198 -0.0026513265856744745 0 -0.037774868839149323 -0.0035193768497046932 0 -0.037410713477319744 -0.0029535186790684634 0 -0.037363668545493771 -0.0024553889454782749 0 -0.037010109037949795 -0.0027555901836626736 0 -0.037410713477319744 -0.0029535186790684634 0 -0.037920574649071198 -0.0026513265856744745 0 -0.037363668545493771 -0.0024553889454782749 0 -0.036776655693568028 -0.0023899637555427834 0 -0.037010109037949795 -0.0027555901836626736 0 -0.036546500527817959 -0.0029839965701393247 0 -0.036964062603182746 -0.0021076330917013959 0 -0.037363668545493771 -0.0024553889454782749 0 -0.037010109037949795 -0.0027555901836626736 0 -0.036509766639574059 -0.0024795955439078491 0 -0.036893236145737807 -0.0026831236525591499 0 -0.037010109037949795 -0.0027555901836626736 0 -0.03702885131636819 -0.0033365536501859419 0 -0.036546500527817959 -0.0029839965701393247 0 -0.037410713477319744 -0.0029535186790684634 0 -0.037010109037949795 -0.0027555901836626736 0 -0.03702885131636819 -0.0033365536501859419 0 -0.03702885131636819 -0.0033365536501859419 0 -0.036969494741354129 -0.0042311594975976297 0 -0.03649048705917482 -0.0035830321176001695 0 -0.03702885131636819 -0.0033365536501859419 0 -0.037774868839149323 -0.0035193768497046932 0 -0.036969494741354129 -0.0042311594975976297 0 -0.037410713477319744 -0.0029535186790684634 0 -0.03702885131636819 -0.0033365536501859419 0 -0.037774868839149323 -0.0035193768497046932 0 -0.04025758484252423 -0.004675009833790213 0 -0.040203733128594599 -0.0046453378558284058 0 -0.037774868839149323 -0.0035193768497046932 0 -0.037921464682807798 -0.0043062286899400032 0 -0.036969494741354129 -0.0042311594975976297 0 -0.042617560325853711 -0.0049858662134761034 0 -0.043103212064973695 -0.0044215054086944455 0 -0.042345545971583611 -0.0043442055552231681 0 -0.042617560325853711 -0.0049858662134761034 0 -0.043103212064973695 -0.0044215054086944455 0 -0.043373657187514993 -0.0049263419917990308 0 -0.043103212064973695 -0.0044215054086944455 0 -0.043559288432365617 -0.0043441244938071518 0 -0.043373657187514993 -0.0049263419917990308 0 -0.036969494741354129 -0.0042311594975976297 0 -0.036113231398481146 -0.0041701503382783594 0 -0.03649048705917482 -0.0035830321176001695 0 -0.040203733128594599 -0.0046453378558284058 0 -0.039920684067634306 -0.0037258155215991262 0 -0.043373657187514993 -0.0049263419917990308 0 -0.043863025560572588 -0.0044519768000791148 0 -0.044017281928564821 -0.0048990653449059651 0 -0.043559288432365617 -0.0043441244938071518 0 -0.043373657187514993 -0.0049263419917990308 0 -0.043863025560572588 -0.0044519768000791148 0 -0.042100660153254844 -0.0042785340157825867 0 -0.039920684067634306 -0.0037258155215991262 0 -0.040211181539844237 -0.0037675646306147832 0 -0.040225712864501627 -0.0037802393365206897 0 -0.040246968664126179 -0.0037766745759588989 0 -0.040211181539844237 -0.0037675646306147832 0 -0.040225712864501627 -0.0037802393365206897 0 -0.04023335920717204 -0.0037130983004357264 0 -0.040278646295204085 -0.00377314764640104 0 -0.040197721017983919 -0.0038134358511726805 0 -0.040344237285539777 -0.0038095023553793477 0 -0.040278646295204085 -0.00377314764640104 0 -0.040225712864501627 -0.0037802393365206897 0 -0.040286902336071045 -0.0037133698349933629 0 -0.040225712864501627 -0.0037802393365206897 0 -0.040197721017983919 -0.0038134358511726805 0 -0.040246968664126179 -0.0037766745759588989 0 -0.040278646295204085 -0.00377314764640104 0 -0.040225712864501627 -0.0037802393365206897 0 -0.040197721017983919 -0.0038134358511726805 0 -0.039920684067634306 -0.0037258155215991262 0 -0.037773845156738005 -0.0031114745087240121 0 -0.040197721017983919 -0.0038134358511726805 0 -0.039985753651164968 -0.0036651278060876374 0 -0.039381823041835684 -0.0034662544737724277 0 -0.040333805529037405 -0.0036833391926038659 0 -0.039803735823674254 -0.003325068260854977 0 -0.039999092267723926 -0.0029770560395714725 0 -0.039985753651164968 -0.0036651278060876374 0 -0.040333805529037405 -0.0036833391926038659 0 -0.039803735823674254 -0.003325068260854977 0 -0.040197721017983919 -0.0038134358511726805 0 -0.039985753651164968 -0.0036651278060876374 0 -0.040246968664126179 -0.0037766745759588989 0 -0.040093450533939541 -0.0037024972850619813 0 -0.039920684067634306 -0.0037258155215991262 0 -0.036113231398481146 -0.0041701503382783594 0 -0.035786598107114466 -0.0033953653634207384 0 -0.03649048705917482 -0.0035830321176001695 0 -0.035786598107114466 -0.0033953653634207384 0 -0.03649048705917482 -0.0035830321176001695 0 -0.036546500527817959 -0.0029839965701393247 0 -0.03702885131636819 -0.0033365536501859419 0 -0.03649048705917482 -0.0035830321176001695 0 -0.036546500527817959 -0.0029839965701393247 0 -0.036136064904450906 -0.0025280402359510296 0 -0.036776655693568028 -0.0023899637555427834 0 -0.036546500527817959 -0.0029839965701393247 0 -0.036136064904450906 -0.0025280402359510296 0 -0.035786598107114466 -0.0033953653634207384 0 -0.036546500527817959 -0.0029839965701393247 0 -0.035525924745212288 -0.0029601388486619313 0 -0.035679714825670332 -0.0029451521996511328 0 -0.035403830114750276 -0.0030047163781198693 0 -0.037773845156738005 -0.0031114745087240121 0 -0.037144564209499638 -0.0027430354170674782 0 -0.036136064904450906 -0.0025280402359510296 0 -0.035786598107114466 -0.0033953653634207384 0 -0.03548540801118652 -0.0026668757358668024 0 -0.035589367151973632 -0.0027974070121856947 0 -0.037144564209499638 -0.0027430354170674782 0 -0.039638664290056011 -0.0022042963657710976 0 -0.0388090507205208 -0.002384592281902213 0 -0.039362880602245617 -0.0028615754581390895 0 -0.039999092267723926 -0.0029770560395714725 0 -0.039638664290056011 -0.0022042963657710976 0 -0.039362880602245617 -0.0028615754581390895 0 -0.037144564209499638 -0.0027430354170674782 0 -0.038613330622335774 -0.0024271815040839387 0 -0.037782409168045851 -0.0027413782794838935 0 -0.037541084711974697 -0.0026222801501158423 0 -0.037811423430770777 -0.0025765846077533592 0 -0.037782409168045851 -0.0027413782794838935 0 -0.037811423430770777 -0.0025765846077533592 0 -0.037958611711789263 -0.0026515626535342264 0 -0.039672113408959063 -0.0034983287167601458 0 -0.039848021138629931 -0.00365977495568399 0 -0.038560631334591651 -0.0029765774082385075 0 -0.039362880602245617 -0.0028615754581390895 0 -0.039381823041835684 -0.0034662544737724277 0 -0.0388090507205208 -0.002384592281902213 0 -0.038560631334591651 -0.0029765774082385075 0 -0.039362880602245617 -0.0028615754581390895 0 -0.039803735823674254 -0.003325068260854977 0 -0.039999092267723926 -0.0029770560395714725 0 -0.039362880602245617 -0.0028615754581390895 0 -0.039803735823674254 -0.003325068260854977 0 -0.039362880602245617 -0.0028615754581390895 0 -0.039381823041835684 -0.0034662544737724277 0 -0.040172986471993979 -0.0038143886750832013 0 -0.039848021138629931 -0.00365977495568399 0 -0.04037248123436861 -0.0038980247764726647 0 -0.040344237285539777 -0.0038095023553793477 0 -0.040473761263812663 -0.0038338245250234613 0 -0.039985753651164968 -0.0036651278060876374 0 -0.039803735823674254 -0.003325068260854977 0 -0.039381823041835684 -0.0034662544737724277 0 -0.040197721017983919 -0.0038134358511726805 0 -0.04037248123436861 -0.0038980247764726647 0 -0.040344237285539777 -0.0038095023553793477 0 -0.040278646295204085 -0.00377314764640104 0 -0.040389921561111083 -0.0037340139507983576 0 -0.040286902336071045 -0.0037133698349933629 0 -0.040344237285539777 -0.0038095023553793477 0 -0.040389921561111083 -0.0037340139507983576 0 -0.040473761263812663 -0.0038338245250234613 0 -0.040278646295204085 -0.00377314764640104 0 -0.040344237285539777 -0.0038095023553793477 0 -0.040389921561111083 -0.0037340139507983576 0 -0.040389921561111083 -0.0037340139507983576 0 -0.040473761263812663 -0.0038338245250234613 0 -0.040569088830664124 -0.0036907960670535095 0 -0.040482216349400905 -0.0039445282489009676 0 -0.04037248123436861 -0.0038980247764726647 0 -0.040473761263812663 -0.0038338245250234613 0 -0.040578385197828831 -0.0038391393490471788 0 -0.040578380277519567 -0.0039482778934317158 0 -0.04053675127497354 -0.0039154376902829861 0 -0.040482216349400905 -0.0039445282489009676 0 -0.040473761263812663 -0.0038338245250234613 0 -0.04053675127497354 -0.0039154376902829861 0 -0.040473761263812663 -0.0038338245250234613 0 -0.040578385197828831 -0.0038391393490471788 0 -0.04053675127497354 -0.0039154376902829861 0 -0.04178079041016592 -0.0038427170831001126 0 -0.041270726270295197 -0.0036442367821013372 0 -0.042499604450996126 -0.0037846298366520023 0 -0.042496893157245745 -0.0035783344221760453 0 -0.042438667734785024 -0.0033780128884499968 0 -0.040473761263812663 -0.0038338245250234613 0 -0.040578385197828831 -0.0038391393490471788 0 -0.040569088830664124 -0.0036907960670535095 0 -0.042639364403473906 -0.0036032006441986159 0 -0.042574585548043505 -0.0036501564952800426 0 -0.042598664910696207 -0.0037903393948331061 0 -0.042496893157245745 -0.0035783344221760453 0 -0.042574585548043505 -0.0036501564952800426 0 -0.042595937729756353 -0.003560084756190541 0 -0.042639364403473906 -0.0036032006441986159 0 -0.042574585548043505 -0.0036501564952800426 0 -0.042595937729756353 -0.003560084756190541 0 -0.042499604450996126 -0.0037846298366520023 0 -0.042496893157245745 -0.0035783344221760453 0 -0.042574585548043505 -0.0036501564952800426 0 -0.042499604450996126 -0.0037846298366520023 0 -0.042598664910696207 -0.0037903393948331061 0 -0.04251235204883419 -0.0039300165180633454 0 -0.04178079041016592 -0.0038427170831001126 0 -0.039610268343721208 -0.0039857190588078375 0 -0.042499604450996126 -0.0037846298366520023 0 -0.042574585548043505 -0.0036501564952800426 0 -0.042598664910696207 -0.0037903393948331061 0 -0.03663076570945064 -0.0041134455223623065 0 -0.036481922240368954 -0.0035458003613076587 0 -0.036321050690345628 -0.0040068397357597204 0 -0.040578380277519567 -0.0039482778934317158 0 -0.04053675127497354 -0.0039154376902829861 0 -0.040555178900067261 -0.0039874425748641657 0 -0.039536120645464384 -0.0036504669534512292 0 -0.039610268343721208 -0.0039857190588078375 0 -0.039672113408959063 -0.0034983287167601458 0 -0.038388712846657035 -0.0033687587462767452 0 -0.040482216349400905 -0.0039445282489009676 0 -0.04053675127497354 -0.0039154376902829861 0 -0.040555178900067261 -0.0039874425748641657 0 -0.037811423430770777 -0.0025765846077533592 0 -0.03807006399099739 -0.0026098219644249175 0 -0.037958611711789263 -0.0026515626535342264 0 -0.0388090507205208 -0.002384592281902213 0 -0.038560631334591651 -0.0029765774082385075 0 -0.03807006399099739 -0.0026098219644249175 0 -0.038613330622335774 -0.0024271815040839387 0 -0.037967642148651753 -0.002609492966948779 0 -0.038560631334591651 -0.0029765774082385075 0 -0.03807006399099739 -0.0026098219644249175 0 -0.037965891158185001 -0.0025681361573468026 0 -0.03807006399099739 -0.0026098219644249175 0 -0.037958611711789263 -0.0026515626535342264 0 -0.037965891158185001 -0.0025681361573468026 0 -0.039610268343721208 -0.0039857190588078375 0 -0.036810107590927843 -0.0036658907459867626 0 -0.036810107590927843 -0.0036658907459867626 0 -0.038388712846657035 -0.0033687587462767452 0 -0.038285112370346985 -0.004063704689253541 0 -0.038031288021926068 -0.0033115616082073371 0 -0.03846052029721362 -0.0035831629105868008 0 -0.03663076570945064 -0.0041134455223623065 0 -0.036321050690345628 -0.0040068397357597204 0 -0.036434018043928457 -0.0043664723466560985 0 -0.036013570569827486 -0.0036083361533674799 0 -0.036023458456397851 -0.0036342032501784547 0 -0.036147347821042966 -0.0037084852492039536 0 -0.035919952508870957 -0.0035716607247458249 0 -0.036013570569827486 -0.0036083361533674799 0 -0.036022709087913378 -0.003634148266154645 0 -0.03676281495355372 -0.0036298682587541536 0 -0.036810107590927843 -0.0036658907459867626 0 -0.039610268343721208 -0.0039857190588078375 0 -0.038388712846657035 -0.0033687587462767452 0 -0.045022369385512281 -0.00015451484454437982 0 -0.044967865035994245 -0.00017324246550166496 0 -0.044990765852924511 -0.00010961237115869161 0 -0.045022369385512281 -0.00015451484454437982 0 -0.044967865035994245 -0.00017324246550166496 0 -0.044985997894631445 -0.00024509258053929413 0 -0.044338320277515497 -0.00072252307145495044 0 -0.043773952208108272 -0.0014921463433821371 0 -0.044967865035994245 -0.00017324246550166496 0 -0.044913796492990092 -0.00017695622349904257 0 -0.044960132091041355 -0.00011074811476457275 0 -0.043773952208108272 -0.0014921463433821371 0 -0.043344341278033313 -0.0020159714336121059 0 -0.044967865035994245 -0.00017324246550166496 0 -0.044985997894631445 -0.00024509258053929413 0 -0.044911912701679269 -0.00027389223786762515 0 -0.042953583945050042 -0.0021921004161979912 0 -0.042833100330594724 -0.0024009733423349345 0 -0.042126582690321934 -0.0024570712642689048 0 -0.044967865035994245 -0.00017324246550166496 0 -0.044911912701679269 -0.00027389223786762515 0 -0.044913796492990092 -0.00017695622349904257 0 -0.043516563535562339 -0.0020359717482331804 0 -0.043559236795230917 -0.0014114119593540079 0 -0.043069605040339132 -0.0021701128386494577 0 -0.043773952208108272 -0.0014921463433821371 0 -0.043241468360611254 -0.0022004339612561744 0 -0.042955253266021599 -0.0021845552475334754 0 -0.043110510671989892 -0.0024296509138927629 0 -0.042833100330594724 -0.0024009733423349345 0 -0.043185422124960411 -0.002058254699824744 0 -0.043773952208108272 -0.0014921463433821371 0 -0.043516563535562339 -0.0020359717482331804 0 -0.043366261170553366 -0.0026007525685326459 0 -0.043110510671989892 -0.0024296509138927629 0 -0.043516563535562339 -0.0020359717482331804 0 -0.042955253266021599 -0.0021845552475334754 0 -0.043110510671989892 -0.0024296509138927629 0 -0.043366261170553366 -0.0026007525685326459 0 -0.043110510671989892 -0.0024296509138927629 0 -0.043015375998780352 -0.0026917920852365133 0 -0.042833100330594724 -0.0024009733423349345 0 -0.043015375998780352 -0.0026917920852365133 0 -0.042602804812712718 -0.0027599723008469921 0 -0.043110510671989892 -0.0024296509138927629 0 -0.042833100330594724 -0.0024009733423349345 0 -0.043015375998780352 -0.0026917920852365133 0 -0.043015375998780352 -0.0026917920852365133 0 -0.042819772589961627 -0.0030050108434072458 0 -0.042602804812712718 -0.0027599723008469921 0 -0.043015375998780352 -0.0026917920852365133 0 -0.04327802810108252 -0.0029284148151978843 0 -0.042819772589961627 -0.0030050108434072458 0 -0.043366261170553366 -0.0026007525685326459 0 -0.043015375998780352 -0.0026917920852365133 0 -0.04327802810108252 -0.0029284148151978843 0 -0.042496893157245745 -0.0035783344221760453 0 -0.042727688431986877 -0.0033366381364624375 0 -0.043201902242399323 -0.0033400738047107041 0 -0.04327802810108252 -0.0029284148151978843 0 -0.042819772589961627 -0.0030050108434072458 0 -0.043201902242399323 -0.0033400738047107041 0 -0.042460494100641129 -0.0036408745936369262 0 -0.043179451659913631 -0.0033115386162846029 0 -0.042819772589961627 -0.0030050108434072458 0 -0.042727688431986877 -0.0033366381364624375 0 -0.043201902242399323 -0.0033400738047107041 0 -0.042819772589961627 -0.0030050108434072458 0 -0.042438667734785024 -0.0033780128884499968 0 -0.042602804812712718 -0.0027599723008469921 0 -0.042496893157245745 -0.0035783344221760453 0 -0.042727688431986877 -0.0033366381364624375 0 -0.042438667734785024 -0.0033780128884499968 0 -0.042819772589961627 -0.0030050108434072458 0 -0.042727688431986877 -0.0033366381364624375 0 -0.042438667734785024 -0.0033780128884499968 0 -0.042833100330594724 -0.0024009733423349345 0 -0.042602804812712718 -0.0027599723008469921 0 -0.042126582690321934 -0.0024570712642689048 0 -0.042438667734785024 -0.0033780128884499968 0 -0.042602804812712718 -0.0027599723008469921 0 -0.042126582690321934 -0.0024570712642689048 0 -0.041270726270295197 -0.0036442367821013372 0 -0.043344341278033313 -0.0020159714336121059 0 -0.04608289736254316 -0.002244429945856405 0 -0.045260502922464106 -0.002532312345422276 0 -0.045478030669776279 -0.0018262827779157481 0 -0.040550058556976569 -0.0035133407875408279 0 -0.040452227560748961 -0.0036357816944750342 0 -0.040402936894375886 -0.0035666053470500615 0 -0.040569088830664124 -0.0036907960670535095 0 -0.040550058556976569 -0.0035133407875408279 0 -0.040452227560748961 -0.0036357816944750342 0 -0.043344341278033313 -0.0020159714336121059 0 -0.0428134284684085 -0.0031026299080872369 0 -0.040389921561111083 -0.0037340139507983576 0 -0.040569088830664124 -0.0036907960670535095 0 -0.040452227560748961 -0.0036357816944750342 0 -0.040389921561111083 -0.0037340139507983576 0 -0.040354046554115293 -0.0036617914032885199 0 -0.040286902336071045 -0.0037133698349933629 0 -0.040389921561111083 -0.0037340139507983576 0 -0.040452227560748961 -0.0036357816944750342 0 -0.040354046554115293 -0.0036617914032885199 0 -0.040354046554115293 -0.0036617914032885199 0 -0.040402936894375886 -0.0035666053470500615 0 -0.04027372336167992 -0.003631462362548655 0 -0.045260502922464106 -0.002532312345422276 0 -0.044808901280782291 -0.0020209728226442234 0 -0.044396336851439462 -0.002824655619359543 0 -0.0428134284684085 -0.0031026299080872369 0 -0.042214842524661789 -0.0032273614956177068 0 -0.040452227560748961 -0.0036357816944750342 0 -0.040354046554115293 -0.0036617914032885199 0 -0.040402936894375886 -0.0035666053470500615 0 -0.044808901280782291 -0.0020209728226442234 0 -0.045447459164880848 -0.0012181560578368974 0 -0.044194601217723423 -0.0015180171035744762 0 -0.044808901280782291 -0.0020209728226442234 0 -0.045478030669776279 -0.0018262827779157481 0 -0.045447459164880848 -0.0012181560578368974 0 -0.045260502922464106 -0.002532312345422276 0 -0.044808901280782291 -0.0020209728226442234 0 -0.045478030669776279 -0.0018262827779157481 0 -0.043344341278033313 -0.0020159714336121059 0 -0.045561111066937825 -0.00062832272954887255 0 -0.04608289736254316 -0.002244429945856405 0 -0.045478030669776279 -0.0018262827779157481 0 -0.045747724155734575 -0.0012338136297141643 0 -0.045478030669776279 -0.0018262827779157481 0 -0.045747724155734575 -0.0012338136297141643 0 -0.045447459164880848 -0.0012181560578368974 0 -0.045447459164880848 -0.0012181560578368974 0 -0.045140913145110026 -0.00091007352731125712 0 -0.045395451507977004 -0.00094410878815089582 0 -0.045747724155734575 -0.0012338136297141643 0 -0.045447459164880848 -0.0012181560578368974 0 -0.045395451507977004 -0.00094410878815089582 0 -0.045403557705401686 -0.0012501729156492271 0 -0.044549665985562106 -0.0013894508230976013 0 -0.045447459164880848 -0.0012181560578368974 0 -0.044929525315811666 -0.0014059297042781078 0 -0.045140913145110026 -0.00091007352731125712 0 -0.044929525315811666 -0.0014059297042781078 0 -0.044306800430044799 -0.0016618512036580102 0 -0.044526341006509609 -0.0011876459256809264 0 -0.044929525315811666 -0.0014059297042781078 0 -0.044526341006509609 -0.0011876459256809264 0 -0.045140913145110026 -0.00091007352731125712 0 -0.044549665985562106 -0.0013894508230976013 0 -0.043794710546556689 -0.0023169540343064106 0 -0.044194601217723423 -0.0015180171035744762 0 -0.043262856441630561 -0.0024765892643097646 0 -0.042998394296629168 -0.0018521928291994987 0 -0.044194601217723423 -0.0015180171035744762 0 -0.044037978893000936 -0.0023754463804852191 0 -0.043262856441630561 -0.0024765892643097646 0 -0.044808901280782291 -0.0020209728226442234 0 -0.044194601217723423 -0.0015180171035744762 0 -0.044037978893000936 -0.0023754463804852191 0 -0.044808901280782291 -0.0020209728226442234 0 -0.044396336851439462 -0.002824655619359543 0 -0.044037978893000936 -0.0023754463804852191 0 -0.040354046554115293 -0.0036617914032885199 0 -0.04027372336167992 -0.003631462362548655 0 -0.040286902336071045 -0.0037133698349933629 0 -0.04027372336167992 -0.003631462362548655 0 -0.04023335920717204 -0.0037130983004357264 0 -0.040286902336071045 -0.0037133698349933629 0 -0.040225712864501627 -0.0037802393365206897 0 -0.04023335920717204 -0.0037130983004357264 0 -0.040286902336071045 -0.0037133698349933629 0 -0.04027372336167992 -0.003631462362548655 0 -0.04023335920717204 -0.0037130983004357264 0 -0.040185270483892969 -0.0036848466601499619 0 -0.042214842524661789 -0.0032273614956177068 0 -0.042662702202004174 -0.0038022844219704395 0 -0.043559288432365617 -0.0043441244938071518 0 -0.043705730506382295 -0.0039547838928562879 0 -0.043630673266921334 -0.0039775153671029106 0 -0.043559288432365617 -0.0043441244938071518 0 -0.043863025560572588 -0.0044519768000791148 0 -0.043705730506382295 -0.0039547838928562879 0 -0.042100660153254844 -0.0042785340157825867 0 -0.042662702202004174 -0.0038022844219704395 0 -0.040211181539844237 -0.0037675646306147832 0 -0.04023335920717204 -0.0037130983004357264 0 -0.040185270483892969 -0.0036848466601499619 0 -0.043713981034881957 -0.0039509960842270394 0 -0.043630673266921334 -0.0039775153671029106 0 -0.043539966005965866 -0.0034725597109795669 0 -0.042662702202004174 -0.0038022844219704395 0 -0.042872040501730095 -0.0037685803008136705 0 -0.044396336851439462 -0.002824655619359543 0 -0.043525306732702641 -0.0031033210845017338 0 -0.044037978893000936 -0.0023754463804852191 0 -0.042662702202004174 -0.0038022844219704395 0 -0.043385418542055604 -0.0029863830501085562 0 -0.043525306732702641 -0.0031033210845017338 0 -0.044037978893000936 -0.0023754463804852191 0 -0.043262856441630561 -0.0024765892643097646 0 -0.043539966005965866 -0.0034725597109795669 0 -0.043195149812679925 -0.0034529264257425352 0 -0.043362954127108645 -0.0030743981317825587 0 -0.043539966005965866 -0.0034725597109795669 0 -0.043195149812679925 -0.0034529264257425352 0 -0.04332969796359807 -0.0037598242457889358 0 -0.043195149812679925 -0.0034529264257425352 0 -0.04332969796359807 -0.0037598242457889358 0 -0.042943199838853731 -0.003885049395587422 0 -0.043630673266921334 -0.0039775153671029106 0 -0.043539966005965866 -0.0034725597109795669 0 -0.04332969796359807 -0.0037598242457889358 0 -0.043630673266921334 -0.0039775153671029106 0 -0.04332969796359807 -0.0037598242457889358 0 -0.043359998019813759 -0.0041073345148810699 0 -0.04332969796359807 -0.0037598242457889358 0 -0.043359998019813759 -0.0041073345148810699 0 -0.042943199838853731 -0.003885049395587422 0 -0.043103212064973695 -0.0044215054086944455 0 -0.043359998019813759 -0.0041073345148810699 0 -0.042943199838853731 -0.003885049395587422 0 -0.043103212064973695 -0.0044215054086944455 0 -0.043559288432365617 -0.0043441244938071518 0 -0.043359998019813759 -0.0041073345148810699 0 -0.043559288432365617 -0.0043441244938071518 0 -0.043630673266921334 -0.0039775153671029106 0 -0.043359998019813759 -0.0041073345148810699 0 -0.043103212064973695 -0.0044215054086944455 0 -0.042943199838853731 -0.003885049395587422 0 -0.042345545971583611 -0.0043442055552231681 0 -0.043195149812679925 -0.0034529264257425352 0 -0.042943199838853731 -0.003885049395587422 0 -0.042802861794008912 -0.0031549287946951803 0 -0.042943199838853731 -0.003885049395587422 0 -0.042355611480959773 -0.0036981620133493898 0 -0.042802861794008912 -0.0031549287946951803 0 -0.043794710546556689 -0.0023169540343064106 0 -0.042893029102380076 -0.0032648913886295905 0 -0.043195149812679925 -0.0034529264257425352 0 -0.043362954127108645 -0.0030743981317825587 0 -0.042802861794008912 -0.0031549287946951803 0 -0.044485016173751453 -0.0027813210034738529 0 -0.043072180496246823 -0.0020902517395467849 0 -0.042802861794008912 -0.0031549287946951803 0 -0.043385418542055604 -0.0029863830501085562 0 -0.043794710546556689 -0.0023169540343064106 0 -0.044306800430044799 -0.0016618512036580102 0 -0.044526341006509609 -0.0011876459256809264 0 -0.043918358814168591 -0.0011238383800593649 0 -0.043794710546556689 -0.0023169540343064106 0 -0.044096542162959371 -0.0011589367360812391 0 -0.044485016173751453 -0.0027813210034738529 0 -0.043072180496246823 -0.0020902517395467849 0 -0.043918358814168591 -0.0011238383800593649 0 -0.044078831551864803 -0.00072390826636325914 0 -0.043558255642134926 -0.00058871640431055073 0 -0.043918358814168591 -0.0011238383800593649 0 -0.044078831551864803 -0.00072390826636325914 0 -0.043918358814168591 -0.0011238383800593649 0 -0.044358758750554825 -0.00089766728233152686 0 -0.044526341006509609 -0.0011876459256809264 0 -0.043918358814168591 -0.0011238383800593649 0 -0.044358758750554825 -0.00089766728233152686 0 -0.044358758750554825 -0.00089766728233152686 0 -0.044401815745762574 -0.00055992790336233307 0 -0.044778583371596722 -0.00067443744974645206 0 -0.044078831551864803 -0.00072390826636325914 0 -0.044358758750554825 -0.00089766728233152686 0 -0.044401815745762574 -0.00055992790336233307 0 -0.044401815745762574 -0.00055992790336233307 0 -0.04404685679496266 -0.00044256270011136685 0 -0.044739655759024742 -6.6567632773765326e-05 0 -0.044078831551864803 -0.00072390826636325914 0 -0.044401815745762574 -0.00055992790336233307 0 -0.04404685679496266 -0.00044256270011136685 0 -0.044401815745762574 -0.00055992790336233307 0 -0.044739655759024742 -6.6567632773765326e-05 0 -0.044778583371596722 -0.00067443744974645206 0 -0.04404685679496266 -0.00044256270011136685 0 -0.043519459184936271 -0.0002966486425295305 0 -0.044739655759024742 -6.6567632773765326e-05 0 -0.044078831551864803 -0.00072390826636325914 0 -0.043558255642134926 -0.00058871640431055073 0 -0.04404685679496266 -0.00044256270011136685 0 -0.043558255642134926 -0.00058871640431055073 0 -0.04404685679496266 -0.00044256270011136685 0 -0.043519459184936271 -0.0002966486425295305 0 -0.045031043987484594 -0.00015460587955100455 0 -0.044971462582077883 -9.415487690362314e-05 0 -0.044739655759024742 -6.6567632773765326e-05 0 -0.044267440088392944 -0.00027299552172408722 0 -0.044677546016065009 -7.2473351845082578e-05 0 -0.044971462582077883 -9.415487690362314e-05 0 -0.044999973767589192 -1.7499428657047361e-07 0 -0.044739655759024742 -6.6567632773765326e-05 0 -0.044999973767589192 -1.7499428657047361e-07 0 -0.044739655759024742 -6.6567632773765326e-05 0 -0.044999530878341423 3.2166893570586786e-08 0 -0.044739655759024742 -6.6567632773765326e-05 0 -0.044999530878341423 3.2166893570586786e-08 0 -0.044975387653974019 -0.00013041581298405043 0 -0.04500053837172216 -5.1220935469059859e-09 0 -0.044975387653974019 -0.00013041581298405043 0 -0.045258137386669853 -0.00019936587395760416 0 -0.044999530878341423 3.2166893570586786e-08 0 -0.04500053837172216 -5.1220935469059859e-09 0 -0.044975387653974019 -0.00013041581298405043 0 -0.044975387653974019 -0.00013041581298405043 0 -0.045128509018229346 -0.00049317217975648514 0 -0.045258137386669853 -0.00019936587395760416 0 -0.044975387653974019 -0.00013041581298405043 0 -0.045128509018229346 -0.00049317217975648514 0 -0.044778583371596722 -0.00067443744974645206 0 -0.044739655759024742 -6.6567632773765326e-05 0 -0.044975387653974019 -0.00013041581298405043 0 -0.044778583371596722 -0.00067443744974645206 0 -0.044526341006509609 -0.0011876459256809264 0 -0.044778583371596722 -0.00067443744974645206 0 -0.045140913145110026 -0.00091007352731125712 0 -0.044526341006509609 -0.0011876459256809264 0 -0.044358758750554825 -0.00089766728233152686 0 -0.044778583371596722 -0.00067443744974645206 0 -0.045128509018229346 -0.00049317217975648514 0 -0.044778583371596722 -0.00067443744974645206 0 -0.045140913145110026 -0.00091007352731125712 0 -0.045128509018229346 -0.00049317217975648514 0 -0.045140913145110026 -0.00091007352731125712 0 -0.045499407997171663 -0.00065593574105351083 0 -0.045140913145110026 -0.00091007352731125712 0 -0.045499407997171663 -0.00065593574105351083 0 -0.045395451507977004 -0.00094410878815089582 0 -0.045747724155734575 -0.0012338136297141643 0 -0.045499407997171663 -0.00065593574105351083 0 -0.045395451507977004 -0.00094410878815089582 0 -0.044913796492990092 -0.00017695622349904257 0 -0.04493284562457437 -9.8649547168436195e-05 0 -0.044960132091041355 -0.00011074811476457275 0 -0.045561111066937825 -0.00062832272954887255 0 -0.045192859851832148 -0.00039289884793447657 0 -0.04493284562457437 -9.8649547168436195e-05 0 -0.04496601671186494 -6.4607949132420404e-05 0 -0.044960132091041355 -0.00011074811476457275 0 -0.04493284562457437 -9.8649547168436195e-05 0 -0.04496601671186494 -6.4607949132420404e-05 0 -0.044961103585431518 -3.9871097840020745e-05 0 -0.045128509018229346 -0.00049317217975648514 0 -0.045499407997171663 -0.00065593574105351083 0 -0.045258137386669853 -0.00019936587395760416 0 -0.045192859851832148 -0.00039289884793447657 0 -0.045112844251698786 -0.00013435599119823629 0 -0.045000046718642939 -5.4108859257074979e-08 0 -0.045112844251698786 -0.00013435599119823629 0 -0.044999936602301026 -5.4044601062879989e-09 0 -0.044961103585431518 -3.9871097840020745e-05 0 -0.044999998131113932 -2.6294904810561006e-08 0 -0.044961103585431518 -3.9871097840020745e-05 0 -0.044999998131113932 -2.6294904810561006e-08 0 -0.044989139308248022 -3.4600827433038686e-05 0 -0.044999991051664683 -7.4322054764451107e-09 0 -0.044987345527083805 -2.5125050427816539e-05 0 -0.04496601671186494 -6.4607949132420404e-05 0 -0.044961103585431518 -3.9871097840020745e-05 0 -0.044989139308248022 -3.4600827433038686e-05 0 -0.044985447840468144 -1.5332041851645178e-05 0 -0.044992256261503633 -2.3045712624469804e-05 0 -0.044975252515987559 -5.005378242825696e-05 0 -0.044987345527083805 -2.5125050427816539e-05 0 -0.044982729909170606 -6.2461091366445521e-05 0 -0.04496601671186494 -6.4607949132420404e-05 0 -0.044989139308248022 -3.4600827433038686e-05 0 -0.044986908130455854 -7.2511115530680465e-05 0 -0.044985447840468144 -1.5332041851645178e-05 0 -0.044999986113357308 -7.7650161182541793e-09 0 -0.044992256261503633 -2.3045712624469804e-05 0 -0.04499997452121083 -7.1946079557616687e-09 0 -0.044985447840468144 -1.5332041851645178e-05 0 -0.044999986113357308 -7.7650161182541793e-09 0 -0.045005800036330243 -2.309853617262556e-05 0 -0.044999986113357308 -7.7650161182541793e-09 0 -0.044992256261503633 -2.3045712624469804e-05 0 -0.045005800036330243 -2.309853617262556e-05 0 -0.044992256261503633 -2.3045712624469804e-05 0 -0.044999890942760259 -5.4317580263771157e-05 0 -0.044992256261503633 -2.3045712624469804e-05 0 -0.044999890942760259 -5.4317580263771157e-05 0 -0.044975252515987559 -5.005378242825696e-05 0 -0.045033515024207167 -7.386613948828205e-05 0 -0.044999890942760259 -5.4317580263771157e-05 0 -0.044990765852924511 -0.00010961237115869161 0 -0.044999890942760259 -5.4317580263771157e-05 0 -0.044975252515987559 -5.005378242825696e-05 0 -0.044990765852924511 -0.00010961237115869161 0 -0.04496601671186494 -6.4607949132420404e-05 0 -0.044986908130455854 -7.2511115530680465e-05 0 -0.044960132091041355 -0.00011074811476457275 0 -0.044982729909170606 -6.2461091366445521e-05 0 -0.044992004977006589 -0.00010374793285472765 0 -0.044967865035994245 -0.00017324246550166496 0 -0.044960132091041355 -0.00011074811476457275 0 -0.044990765852924511 -0.00010961237115869161 0 -0.044986908130455854 -7.2511115530680465e-05 0 -0.044960132091041355 -0.00011074811476457275 0 -0.044990765852924511 -0.00010961237115869161 0 -0.041330823291682202 -0.0026206027544718523 0 -0.040767551922066908 -0.0020888370410213418 0 -0.041109177932371364 -0.0032415069147858576 0 -0.041330823291682202 -0.0026206027544718523 0 -0.04175611262648591 -0.0028259134890154239 0 -0.04176968563352753 -0.0021669041017891816 0 -0.041330823291682202 -0.0026206027544718523 0 -0.04176968563352753 -0.0021669041017891816 0 -0.041239618965565543 -0.0021304408329549333 0 -0.041330823291682202 -0.0026206027544718523 0 -0.041239618965565543 -0.0021304408329549333 0 -0.040767551922066908 -0.0020888370410213418 0 -0.041330823291682202 -0.0026206027544718523 0 -0.04175611262648591 -0.0028259134890154239 0 -0.041422122091002739 -0.0030811903085445273 0 -0.04175611262648591 -0.0028259134890154239 0 -0.042234485762880289 -0.0025697641454298275 0 -0.042006328250446617 -0.0029745399161833575 0 -0.04175611262648591 -0.0028259134890154239 0 -0.042234485762880289 -0.0025697641454298275 0 -0.04176968563352753 -0.0021669041017891816 0 -0.042234485762880289 -0.0025697641454298275 0 -0.04236226515745093 -0.0016716081859942762 0 -0.043056603755509758 -0.0014492224105064841 0 -0.042234485762880289 -0.0025697641454298275 0 -0.04236226515745093 -0.0016716081859942762 0 -0.04176968563352753 -0.0021669041017891816 0 -0.04236226515745093 -0.0016716081859942762 0 -0.043056603755509758 -0.0014492224105064841 0 -0.043046784791520895 -0.00078539665036090256 0 -0.04236226515745093 -0.0016716081859942762 0 -0.041593090433693129 -0.0013795927202827291 0 -0.04176968563352753 -0.0021669041017891816 0 -0.041593090433693129 -0.0013795927202827291 0 -0.04176968563352753 -0.0021669041017891816 0 -0.041239618965565543 -0.0021304408329549333 0 -0.041593090433693129 -0.0013795927202827291 0 -0.041239618965565543 -0.0021304408329549333 0 -0.040820429580322483 -0.001935671032611361 0 -0.042588027977788101 -0.001007439755019585 0 -0.04048491067717308 -0.00094406437989186405 0 -0.042217826705881402 -0.0016332437108272566 0 -0.042147306273052548 -0.0016701043395813211 0 -0.042049275225955432 -0.00079826890139504442 0 -0.039923677341467956 -0.00040668284757358299 0 -0.039996407784498832 -0.00046597427165957544 0 -0.039959339814419653 -0.0005195138237165445 0 -0.03791687798268846 -0.00079270169237349039 0 -0.040868193811945952 -0.00068396611512593606 0 -0.039533752467809262 -0.00084255133940395013 0 -0.039542061860577814 -0.00083970777630626469 0 -0.039570087790363515 -0.00080223892728517533 0 -0.041239618965565543 -0.0021304408329549333 0 -0.040767551922066908 -0.0020888370410213418 0 -0.040820429580322483 -0.001935671032611361 0 -0.037699425036266471 -0.0012400750334286366 0 -0.037867850906352779 -0.0012496817566833415 0 -0.037689515330769613 -0.0015925736527315768 0 -0.037699425036266471 -0.0012400750334286366 0 -0.037867850906352779 -0.0012496817566833415 0 -0.037856109065149274 -0.0011565652822977755 0 -0.03791687798268846 -0.00079270169237349039 0 -0.039396479829366171 -0.0011859925120275036 0 -0.039456189947893482 -0.0010951128437975707 0 -0.039260653356888268 -0.0014919988494550215 0 -0.039494962388225016 -0.0013644885794520166 0 -0.038667110619820311 -0.0015059301673352083 0 -0.04048491067717308 -0.00094406437989186405 0 -0.038667110619820311 -0.0015059301673352083 0 -0.039396479829366171 -0.0011859925120275036 0 -0.04048491067717308 -0.00094406437989186405 0 -0.039396479829366171 -0.0011859925120275036 0 -0.039923677341467956 -0.00040668284757358299 0 -0.040031655841628239 -0.00040963915987676515 0 -0.039996407784498832 -0.00046597427165957544 0 -0.040031655841628239 -0.00040963915987676515 0 -0.039996407784498832 -0.00046597427165957544 0 -0.040067209025437457 -0.00047128465096777337 0 -0.033824700770872053 -0.00091892107933107031 0 -0.033903124469443741 -0.00082952602103706936 0 -0.034029483295700269 -0.00081111607410833076 0 -0.03791687798268846 -0.00079270169237349039 0 -0.035765910189404025 -0.0005707494569775404 0 -0.039923677341467956 -0.00040668284757358299 0 -0.040031655841628239 -0.00040963915987676515 0 -0.040023920829899688 -0.00032747668812521533 0 -0.033903124469443741 -0.00082952602103706936 0 -0.033889565854086035 -0.00077068608928003868 0 -0.033938631626088726 -0.0007681880366335207 0 -0.033903124469443741 -0.00082952602103706936 0 -0.033889565854086035 -0.00077068608928003868 0 -0.033849119030409221 -0.00077351147330247084 0 -0.033903124469443741 -0.00082952602103706936 0 -0.033938631626088726 -0.0007681880366335207 0 -0.033972411485053831 -0.0008178738875948752 0 -0.033511483076650167 -0.00091676684091976065 0 -0.035765910189404025 -0.0005707494569775404 0 -0.033950521268006351 -0.0018052112394970079 0 -0.033901172783311617 -0.0014697838185460438 0 -0.033750600660114878 -0.0012131127824042758 0 -0.033950521268006351 -0.0018052112394970079 0 -0.033993525449767928 -0.0016571471442924795 0 -0.033901172783311617 -0.0014697838185460438 0 -0.036153770832242353 -0.0015286523822620158 0 -0.033696627920558331 -0.0009006759626617282 0 -0.033822389572768854 -0.00085798724260863679 0 -0.033849119030409221 -0.00077351147330247084 0 -0.033783940704557959 -0.00069479615822618088 0 -0.038667110619820311 -0.0015059301673352083 0 -0.037257941830508561 -0.0022840691921912465 0 -0.033993525449767928 -0.0016571471442924795 0 -0.033901172783311617 -0.0014697838185460438 0 -0.033911167214184766 -0.0012030383014096874 0 -0.038667110619820311 -0.0015059301673352083 0 -0.036153770832242353 -0.0015286523822620158 0 -0.03791687798268846 -0.00079270169237349039 0 -0.036153770832242353 -0.0015286523822620158 0 -0.033824700770872053 -0.00091892107933107031 0 -0.033903124469443741 -0.00082952602103706936 0 -0.033822389572768854 -0.00085798724260863679 0 -0.033903124469443741 -0.00082952602103706936 0 -0.033822389572768854 -0.00085798724260863679 0 -0.033849119030409221 -0.00077351147330247084 0 -0.033901172783311617 -0.0014697838185460438 0 -0.033911167214184766 -0.0012030383014096874 0 -0.033750600660114878 -0.0012131127824042758 0 -0.033849119030409221 -0.00077351147330247084 0 -0.033783940704557959 -0.00069479615822618088 0 -0.033848609018602149 -0.00071760184693944664 0 -0.033783940704557959 -0.00069479615822618088 0 -0.033827401305613965 -0.00065529702208853889 0 -0.033799148033307122 -0.00059978407828029752 0 -0.033783940704557959 -0.00069479615822618088 0 -0.033848609018602149 -0.00071760184693944664 0 -0.033827401305613965 -0.00065529702208853889 0 -0.033911167214184766 -0.0012030383014096874 0 -0.033750600660114878 -0.0012131127824042758 0 -0.033757794913637715 -0.00094401818125878069 0 -0.033958536948293726 -0.00071046007099029903 0 -0.033938631626088726 -0.0007681880366335207 0 -0.033902228229747283 -0.00071938882943460309 0 -0.033889565854086035 -0.00077068608928003868 0 -0.033938631626088726 -0.0007681880366335207 0 -0.033902228229747283 -0.00071938882943460309 0 -0.033889565854086035 -0.00077068608928003868 0 -0.033902228229747283 -0.00071938882943460309 0 -0.033848609018602149 -0.00071760184693944664 0 -0.033889565854086035 -0.00077068608928003868 0 -0.033849119030409221 -0.00077351147330247084 0 -0.033848609018602149 -0.00071760184693944664 0 -0.033848609018602149 -0.00071760184693944664 0 -0.033827401305613965 -0.00065529702208853889 0 -0.033874537595875623 -0.00067076981091101779 0 -0.033902228229747283 -0.00071938882943460309 0 -0.033848609018602149 -0.00071760184693944664 0 -0.033874537595875623 -0.00067076981091101779 0 -0.033902228229747283 -0.00071938882943460309 0 -0.033874537595875623 -0.00067076981091101779 0 -0.033919601859232588 -0.00064413362396162073 0 -0.033958536948293726 -0.00071046007099029903 0 -0.033902228229747283 -0.00071938882943460309 0 -0.033919601859232588 -0.00064413362396162073 0 -0.033919601859232588 -0.00064413362396162073 0 -0.033857832439899274 -0.00060079532377593325 0 -0.033921826849021404 -0.00049175329644181645 0 -0.033874537595875623 -0.00067076981091101779 0 -0.033919601859232588 -0.00064413362396162073 0 -0.033857832439899274 -0.00060079532377593325 0 -0.033827401305613965 -0.00065529702208853889 0 -0.033874537595875623 -0.00067076981091101779 0 -0.033857832439899274 -0.00060079532377593325 0 -0.033827401305613965 -0.00065529702208853889 0 -0.033857832439899274 -0.00060079532377593325 0 -0.033799148033307122 -0.00059978407828029752 0 -0.033857832439899274 -0.00060079532377593325 0 -0.033812401764351192 -0.0005355363042650129 0 -0.033799148033307122 -0.00059978407828029752 0 -0.033857832439899274 -0.00060079532377593325 0 -0.033812401764351192 -0.0005355363042650129 0 -0.033921826849021404 -0.00049175329644181645 0 -0.033911167214184766 -0.0012030383014096874 0 -0.033757794913637715 -0.00094401818125878069 0 -0.033808071768893493 -0.0007443539329639239 0 -0.033696627920558331 -0.0009006759626617282 0 -0.03377231991306396 -0.00065160575325598675 0 -0.033569302253617268 -0.00062150491480731393 0 -0.033750600660114878 -0.0012131127824042758 0 -0.033757794913637715 -0.00094401818125878069 0 -0.033783940704557959 -0.00069479615822618088 0 -0.033799148033307122 -0.00059978407828029752 0 -0.033728093970117737 -0.00053400586741296952 0 -0.033812401764351192 -0.0005355363042650129 0 -0.033799148033307122 -0.00059978407828029752 0 -0.033728093970117737 -0.00053400586741296952 0 -0.033569302253617268 -0.00062150491480731393 0 -0.033757794913637715 -0.00094401818125878069 0 -0.033808071768893493 -0.0007443539329639239 0 -0.037519588997917776 -0.002051584172993867 0 -0.037257941830508561 -0.0022840691921912465 0 -0.041429237132968692 -0.0035549970826076007 0 -0.041109177932371364 -0.0032415069147858576 0 -0.041377799878605237 -0.0034273971788607803 0 -0.041109177932371364 -0.0032415069147858576 0 -0.041377799878605237 -0.0034273971788607803 0 -0.041372785204736806 -0.0032585586734142614 0 -0.041109177932371364 -0.0032415069147858576 0 -0.041372785204736806 -0.0032585586734142614 0 -0.041422122091002739 -0.0030811903085445273 0 -0.041330823291682202 -0.0026206027544718523 0 -0.041109177932371364 -0.0032415069147858576 0 -0.041422122091002739 -0.0030811903085445273 0 -0.041372785204736806 -0.0032585586734142614 0 -0.041422122091002739 -0.0030811903085445273 0 -0.041547855871295267 -0.0032497215436930872 0 -0.041377799878605237 -0.0034273971788607803 0 -0.041372785204736806 -0.0032585586734142614 0 -0.041547855871295267 -0.0032497215436930872 0 -0.04175611262648591 -0.0028259134890154239 0 -0.041422122091002739 -0.0030811903085445273 0 -0.041547855871295267 -0.0032497215436930872 0 -0.042006328250446617 -0.0029745399161833575 0 -0.041547855871295267 -0.0032497215436930872 0 -0.041513344458478561 -0.003562926658713775 0 -0.04175611262648591 -0.0028259134890154239 0 -0.042006328250446617 -0.0029745399161833575 0 -0.041547855871295267 -0.0032497215436930872 0 -0.041409953286114617 -0.0035402376172195028 0 -0.041377799878605237 -0.0034273971788607803 0 -0.041513344458478561 -0.003562926658713775 0 -0.041377799878605237 -0.0034273971788607803 0 -0.041547855871295267 -0.0032497215436930872 0 -0.041513344458478561 -0.003562926658713775 0 -0.041513344458478561 -0.003562926658713775 0 -0.041083500184444226 -0.0035951501256081789 0 -0.04114483845883847 -0.0035902427901729848 0 -0.041572170736364981 -0.0035114362556208684 0 -0.041788487738330285 -0.0033627221409823983 0 -0.041147694855457891 -0.0035401851798647285 0 -0.041513344458478561 -0.003562926658713775 0 -0.041083500184444226 -0.0035951501256081789 0 -0.041083500184444226 -0.0035951501256081789 0 -0.04114483845883847 -0.0035902427901729848 0 -0.041400550353287296 -0.0035799188878427872 0 -0.04114483845883847 -0.0035902427901729848 0 -0.041400550353287296 -0.0035799188878427872 0 -0.041350752881103008 -0.003207620928010605 0 -0.042006328250446617 -0.0029745399161833575 0 -0.041513344458478561 -0.003562926658713775 0 -0.042443343496977766 -0.0030754360974833382 0 -0.042006328250446617 -0.0029745399161833575 0 -0.042443343496977766 -0.0030754360974833382 0 -0.042441816680967699 -0.0026537135171641663 0 -0.042345545971583611 -0.0043442055552231681 0 -0.041682841394603702 -0.0043595519107326678 0 -0.041920145439139821 -0.0039385038078572432 0 -0.042345545971583611 -0.0043442055552231681 0 -0.041920145439139821 -0.0039385038078572432 0 -0.042355611480959773 -0.0036981620133493898 0 -0.042943199838853731 -0.003885049395587422 0 -0.042345545971583611 -0.0043442055552231681 0 -0.042355611480959773 -0.0036981620133493898 0 -0.041083500184444226 -0.0035951501256081789 0 -0.041116239285561525 -0.0035607790414637682 0 -0.041400550353287296 -0.0035799188878427872 0 -0.041682841394603702 -0.0043595519107326678 0 -0.041920145439139821 -0.0039385038078572432 0 -0.041400550353287296 -0.0035799188878427872 0 -0.041442072771174329 -0.003985029329480777 0 -0.041380549967164455 -0.0035659612712608752 0 -0.041400550353287296 -0.0035799188878427872 0 -0.04154338872950402 -0.0033685554318923969 0 -0.041350752881103008 -0.003207620928010605 0 -0.04154338872950402 -0.0033685554318923969 0 -0.0418731933060775 -0.0035484756275342491 0 -0.042060153746639746 -0.0031999360268167923 0 -0.041920145439139821 -0.0039385038078572432 0 -0.041400550353287296 -0.0035799188878427872 0 -0.0418731933060775 -0.0035484756275342491 0 -0.041400550353287296 -0.0035799188878427872 0 -0.04154338872950402 -0.0033685554318923969 0 -0.0418731933060775 -0.0035484756275342491 0 -0.041920145439139821 -0.0039385038078572432 0 -0.0418731933060775 -0.0035484756275342491 0 -0.042355611480959773 -0.0036981620133493898 0 -0.0418731933060775 -0.0035484756275342491 0 -0.042060153746639746 -0.0031999360268167923 0 -0.042355611480959773 -0.0036981620133493898 0 -0.042060153746639746 -0.0031999360268167923 0 -0.042355611480959773 -0.0036981620133493898 0 -0.042802861794008912 -0.0031549287946951803 0 -0.043072180496246823 -0.0020902517395467849 0 -0.042802861794008912 -0.0031549287946951803 0 -0.041937212445528192 -0.0025262323966022569 0 -0.042060153746639746 -0.0031999360268167923 0 -0.042802861794008912 -0.0031549287946951803 0 -0.041937212445528192 -0.0025262323966022569 0 -0.041937212445528192 -0.0025262323966022569 0 -0.042136789520686412 -0.0015546155122003686 0 -0.040983783905996857 -0.0026813440557465129 0 -0.04154338872950402 -0.0033685554318923969 0 -0.042060153746639746 -0.0031999360268167923 0 -0.041549600303078117 -0.0028863498256819593 0 -0.042060153746639746 -0.0031999360268167923 0 -0.041937212445528192 -0.0025262323966022569 0 -0.041549600303078117 -0.0028863498256819593 0 -0.04154338872950402 -0.0033685554318923969 0 -0.041549600303078117 -0.0028863498256819593 0 -0.040983783905996857 -0.0026813440557465129 0 -0.041521113463606714 -0.0032306567260461283 0 -0.041949940652749096 -0.0025296784465474145 0 -0.041937212445528192 -0.0025262323966022569 0 -0.041549600303078117 -0.0028863498256819593 0 -0.040983783905996857 -0.0026813440557465129 0 -0.042722544010578047 -0.0011495895824360895 0 -0.043104415172544534 -0.0010849153750540855 0 -0.042640199766611792 -0.0015763534539287591 0 -0.042637364268072422 -0.0012670545104985353 0 -0.041949940652749096 -0.0025296784465474145 0 -0.042722544010578047 -0.0011495895824360895 0 -0.043104415172544534 -0.0010849153750540855 0 -0.042899860547050361 -0.00073197220276089803 0 -0.043072180496246823 -0.0020902517395467849 0 -0.041937212445528192 -0.0025262323966022569 0 -0.042136789520686412 -0.0015546155122003686 0 -0.043072180496246823 -0.0020902517395467849 0 -0.043918358814168591 -0.0011238383800593649 0 -0.042136789520686412 -0.0015546155122003686 0 -0.042234485762880289 -0.0025697641454298275 0 -0.042006328250446617 -0.0029745399161833575 0 -0.042441816680967699 -0.0026537135171641663 0 -0.042234485762880289 -0.0025697641454298275 0 -0.042441816680967699 -0.0026537135171641663 0 -0.042522787759336912 -0.0023608547080326272 0 -0.042443343496977766 -0.0030754360974833382 0 -0.042441816680967699 -0.0026537135171641663 0 -0.042806229542709406 -0.0026441968871882167 0 -0.042441816680967699 -0.0026537135171641663 0 -0.042806229542709406 -0.0026441968871882167 0 -0.042522787759336912 -0.0023608547080326272 0 -0.041788487738330285 -0.0033627221409823983 0 -0.041949940652749096 -0.0025296784465474145 0 -0.041949940652749096 -0.0025296784465474145 0 -0.043401039488814006 -0.0015040605342956858 0 -0.042722544010578047 -0.0011495895824360895 0 -0.042306491345253945 -0.0011410522415382165 0 -0.042899860547050361 -0.00073197220276089803 0 -0.042722544010578047 -0.0011495895824360895 0 -0.042640199766611792 -0.0015763534539287591 0 -0.042306491345253945 -0.0011410522415382165 0 -0.042227771179974012 -0.0026939721998095081 0 -0.043401039488814006 -0.0015040605342956858 0 -0.042234485762880289 -0.0025697641454298275 0 -0.04405990815593866 -0.001637789128515193 0 -0.043056603755509758 -0.0014492224105064841 0 -0.04405990815593866 -0.001637789128515193 0 -0.043056603755509758 -0.0014492224105064841 0 -0.04322968660967353 -0.00072694364916560123 0 -0.044556447532179508 -0.001012789161120059 0 -0.044296861455989878 -0.00079641854537733793 0 -0.044570544339804535 -0.00077228478625596684 0 -0.043056603755509758 -0.0014492224105064841 0 -0.04322968660967353 -0.00072694364916560123 0 -0.043046784791520895 -0.00078539665036090256 0 -0.043401039488814006 -0.0015040605342956858 0 -0.043860083398744608 -0.00079085408849240363 0 -0.044296861455989878 -0.00079641854537733793 0 -0.044235248183218112 -0.00060402487880641998 0 -0.044473405908427743 -0.00062324992339023275 0 -0.044296861455989878 -0.00079641854537733793 0 -0.044570544339804535 -0.00077228478625596684 0 -0.044473405908427743 -0.00062324992339023275 0 -0.043401039488814006 -0.0015040605342956858 0 -0.043936010507942429 -0.00059035368916052829 0 -0.044570544339804535 -0.00077228478625596684 0 -0.044702081996352554 -0.00057248965477204455 0 -0.044955325662115402 -0.00059267590578991809 0 -0.044556447532179508 -0.001012789161120059 0 -0.044570544339804535 -0.00077228478625596684 0 -0.044955325662115402 -0.00059267590578991809 0 -0.044570544339804535 -0.00077228478625596684 0 -0.044702081996352554 -0.00057248965477204455 0 -0.044473405908427743 -0.00062324992339023275 0 -0.044702081996352554 -0.00057248965477204455 0 -0.044651561711087508 -0.00044991406956069942 0 -0.044473405908427743 -0.00062324992339023275 0 -0.044702081996352554 -0.00057248965477204455 0 -0.044651561711087508 -0.00044991406956069942 0 -0.044849615086430823 -0.00040865596698517049 0 -0.044651561711087508 -0.00044991406956069942 0 -0.044849615086430823 -0.00040865596698517049 0 -0.044773685021285474 -0.0002398437145951763 0 -0.044651561711087508 -0.00044991406956069942 0 -0.044413370975083993 -0.00042750657859646189 0 -0.044773685021285474 -0.0002398437145951763 0 -0.044413370975083993 -0.00042750657859646189 0 -0.044235248183218112 -0.00060402487880641998 0 -0.043664724330366222 -0.00053324812980806062 0 -0.044413370975083993 -0.00042750657859646189 0 -0.044310433952955697 -0.00018933410774564361 0 -0.043664724330366222 -0.00053324812980806062 0 -0.044296861455989878 -0.00079641854537733793 0 -0.044235248183218112 -0.00060402487880641998 0 -0.043664724330366222 -0.00053324812980806062 0 -0.044413370975083993 -0.00042750657859646189 0 -0.044235248183218112 -0.00060402487880641998 0 -0.044473405908427743 -0.00062324992339023275 0 -0.044651561711087508 -0.00044991406956069942 0 -0.044413370975083993 -0.00042750657859646189 0 -0.044473405908427743 -0.00062324992339023275 0 -0.043558255642134926 -0.00058871640431055073 0 -0.043104415172544534 -0.0010849153750540855 0 -0.042899860547050361 -0.00073197220276089803 0 -0.043558255642134926 -0.00058871640431055073 0 -0.043918358814168591 -0.0011238383800593649 0 -0.042136789520686412 -0.0015546155122003686 0 -0.043463026960412737 -0.00065044173667873307 0 -0.042637364268072422 -0.0012670545104985353 0 -0.044702081996352554 -0.00057248965477204455 0 -0.044955325662115402 -0.00059267590578991809 0 -0.044849615086430823 -0.00040865596698517049 0 -0.044849615086430823 -0.00040865596698517049 0 -0.044936317143124058 -0.00024457448451844387 0 -0.044773685021285474 -0.0002398437145951763 0 -0.044936317143124058 -0.00024457448451844387 0 -0.044970533029484484 -0.00030762859959024118 0 -0.044999265614095917 -0.00016401553328022637 0 -0.044849615086430823 -0.00040865596698517049 0 -0.044936317143124058 -0.00024457448451844387 0 -0.044970533029484484 -0.00030762859959024118 0 -0.044955325662115402 -0.00059267590578991809 0 -0.044849615086430823 -0.00040865596698517049 0 -0.044970533029484484 -0.00030762859959024118 0 -0.043558255642134926 -0.00058871640431055073 0 -0.043519459184936271 -0.0002966486425295305 0 -0.042899860547050361 -0.00073197220276089803 0 -0.045031043987484594 -0.00015460587955100455 0 -0.044970533029484484 -0.00030762859959024118 0 -0.044999265614095917 -0.00016401553328022637 0 -0.045031043987484594 -0.00015460587955100455 0 -0.044955325662115402 -0.00059267590578991809 0 -0.044970533029484484 -0.00030762859959024118 0 -0.044267440088392944 -0.00027299552172408722 0 -0.043936010507942429 -0.00059035368916052829 0 -0.045031043987484594 -0.00015460587955100455 0 -0.044971462582077883 -9.415487690362314e-05 0 -0.044999265614095917 -0.00016401553328022637 0 -0.044971462582077883 -9.415487690362314e-05 0 -0.044999265614095917 -0.00016401553328022637 0 -0.04498602088014543 -7.0547544075086959e-05 0 -0.044999265614095917 -0.00016401553328022637 0 -0.044936927630535708 -0.00010529084426337399 0 -0.04498602088014543 -7.0547544075086959e-05 0 -0.044936317143124058 -0.00024457448451844387 0 -0.044999265614095917 -0.00016401553328022637 0 -0.044936927630535708 -0.00010529084426337399 0 -0.044936317143124058 -0.00024457448451844387 0 -0.044936927630535708 -0.00010529084426337399 0 -0.044773685021285474 -0.0002398437145951763 0 -0.044936927630535708 -0.00010529084426337399 0 -0.045000116053637414 -7.5234712763399454e-08 0 -0.04498602088014543 -7.0547544075086959e-05 0 -0.044971462582077883 -9.415487690362314e-05 0 -0.044999973767589192 -1.7499428657047361e-07 0 -0.04498602088014543 -7.0547544075086959e-05 0 -0.044999973767589192 -1.7499428657047361e-07 0 -0.045000116053637414 -7.5234712763399454e-08 0 -0.04498602088014543 -7.0547544075086959e-05 0 -0.044310433952955697 -0.00018933410774564361 0 -0.044816856165879645 -2.2418167567257932e-05 0 -0.04439417507810884 4.2350879984326062e-05 0 -0.044413370975083993 -0.00042750657859646189 0 -0.044310433952955697 -0.00018933410774564361 0 -0.044773685021285474 -0.0002398437145951763 0 -0.044310433952955697 -0.00018933410774564361 0 -0.044773685021285474 -0.0002398437145951763 0 -0.044816856165879645 -2.2418167567257932e-05 0 -0.044936927630535708 -0.00010529084426337399 0 -0.044773685021285474 -0.0002398437145951763 0 -0.044816856165879645 -2.2418167567257932e-05 0 -0.044936927630535708 -0.00010529084426337399 0 -0.045000116053637414 -7.5234712763399454e-08 0 -0.044816856165879645 -2.2418167567257932e-05 0 -0.045000116053637414 -7.5234712763399454e-08 0 -0.044816856165879645 -2.2418167567257932e-05 0 -0.044998629380177582 3.8223054934113186e-07 0 -0.044816856165879645 -2.2418167567257932e-05 0 -0.044998629380177582 3.8223054934113186e-07 0 -0.04439417507810884 4.2350879984326062e-05 0 -0.0449998859183132 -1.5414521829683984e-08 0 -0.045000099418750439 1.6306116581891946e-08 0 -0.044965945984348644 -3.629167636480977e-05 0 -0.044999763752515659 -3.7341787994122011e-08 0 -0.044648028638025319 -1.6810208246377638e-05 0 -0.0449998859183132 -1.5414521829683984e-08 0 -0.044966171018477108 -2.4462660633500701e-05 0 -0.044965945984348644 -3.629167636480977e-05 0 -0.044999997335090476 1.1666856453887893e-09 0 -0.044997779699543168 3.1746349728905668e-07 0 -0.044999991312274251 -4.4045575309034887e-10 0 -0.044392389941099245 0.0004143461746151991 0 -0.044038858653524922 0.00040543265575449823 0 -0.044999633741696222 1.2935109313008009e-07 0 -0.044392389941099245 0.0004143461746151991 0 -0.044999991312274251 -4.4045575309034887e-10 0 -0.044992242711013632 -2.7055560018326884e-06 0 -0.044990792006510377 -1.0816340152623953e-06 0 -0.044997779699543168 3.1746349728905668e-07 0 -0.044999991312274251 -4.4045575309034887e-10 0 -0.044992242711013632 -2.7055560018326884e-06 0 -0.042734230809913017 0.00068367577460589366 0 -0.042498792737804117 0.00012578615020937127 0 -0.0432680637919114 0.00030273553550273655 0 -0.044392389941099245 0.0004143461746151991 0 -0.043735532993849642 1.4722271268835988e-05 0 -0.044966171018477108 -2.4462660633500701e-05 0 -0.044965945984348644 -3.629167636480977e-05 0 -0.044868814665776899 -9.8632616087152581e-05 0 -0.043620714522404964 0.00098502719653206566 0 -0.042734230809913017 0.00068367577460589366 0 -0.0432680637919114 0.00030273553550273655 0 -0.044310433952955697 -0.00018933410774564361 0 -0.04439417507810884 4.2350879984326062e-05 0 -0.043711012408594901 -0.00021808832025173189 0 -0.044648028638025319 -1.6810208246377638e-05 0 -0.043735532993849642 1.4722271268835988e-05 0 -0.044310433952955697 -0.00018933410774564361 0 -0.043711012408594901 -0.00021808832025173189 0 -0.043664724330366222 -0.00053324812980806062 0 -0.043711012408594901 -0.00021808832025173189 0 -0.043664724330366222 -0.00053324812980806062 0 -0.043132658168203102 -0.00074629592212019293 0 -0.043860083398744608 -0.00079085408849240363 0 -0.043598191853686123 -0.00048617825598129392 0 -0.043664724330366222 -0.00053324812980806062 0 -0.043132658168203102 -0.00074629592212019293 0 -0.04323773676882936 -0.00077046280353872576 0 -0.042498792737804117 0.00012578615020937127 0 -0.0432680637919114 0.00030273553550273655 0 -0.042840118180499577 -0.00030558376397431068 0 -0.043735532993849642 1.4722271268835988e-05 0 -0.042823851143603354 -0.00032593815709619847 0 -0.043735532993849642 1.4722271268835988e-05 0 -0.043184660133739991 -0.00069932755853778842 0 -0.043246084892186766 0.00027695714497549703 0 -0.042826997217556971 -0.00031014894118111303 0 -0.04273203417435658 -0.00068261496692289018 0 -0.042498792737804117 0.00012578615020937127 0 -0.042840118180499577 -0.00030558376397431068 0 -0.042387761303906271 -0.00044013858903667894 0 -0.042840118180499577 -0.00030558376397431068 0 -0.042411446327356911 -0.00089679317563348508 0 -0.042387761303906271 -0.00044013858903667894 0 -0.042217826705881402 -0.0016332437108272566 0 -0.04273203417435658 -0.00068261496692289018 0 -0.042411446327356911 -0.00089679317563348508 0 -0.04048491067717308 -0.00094406437989186405 0 -0.043184660133739991 -0.00069932755853778842 0 -0.043185666841228348 -0.00080303820518676293 0 -0.043076323189891547 -0.0008516221307877693 0 -0.043132658168203102 -0.00074629592212019293 0 -0.043185666841228348 -0.00080303820518676293 0 -0.043132658168203102 -0.00074629592212019293 0 -0.04323773676882936 -0.00077046280353872576 0 -0.042826997217556971 -0.00031014894118111303 0 -0.04273203417435658 -0.00068261496692289018 0 -0.042411446327356911 -0.00089679317563348508 0 -0.042823851143603354 -0.00032593815709619847 0 -0.042467979599215347 -0.00082629221934658339 0 -0.04236226515745093 -0.0016716081859942762 0 -0.041593090433693129 -0.0013795927202827291 0 -0.043046784791520895 -0.00078539665036090256 0 -0.043185666841228348 -0.00080303820518676293 0 -0.043046784791520895 -0.00078539665036090256 0 -0.04323773676882936 -0.00077046280353872576 0 -0.043664724330366222 -0.00053324812980806062 0 -0.043046784791520895 -0.00078539665036090256 0 -0.04323773676882936 -0.00077046280353872576 0 -0.04322968660967353 -0.00072694364916560123 0 -0.043664724330366222 -0.00053324812980806062 0 -0.043046784791520895 -0.00078539665036090256 0 -0.042588027977788101 -0.001007439755019585 0 -0.04288580982297082 -0.00085586423827043964 0 -0.040055207471938872 -0.00051725701561146386 0 -0.039996407784498832 -0.00046597427165957544 0 -0.039959339814419653 -0.0005195138237165445 0 -0.040055207471938872 -0.00051725701561146386 0 -0.039959339814419653 -0.0005195138237165445 0 -0.040046841134695539 -0.00056702373701335578 0 -0.040055207471938872 -0.00051725701561146386 0 -0.039996407784498832 -0.00046597427165957544 0 -0.040067209025437457 -0.00047128465096777337 0 -0.042217826705881402 -0.0016332437108272566 0 -0.042411446327356911 -0.00089679317563348508 0 -0.042049275225955432 -0.00079826890139504442 0 -0.039396479829366171 -0.0011859925120275036 0 -0.040868193811945952 -0.00068396611512593606 0 -0.042411446327356911 -0.00089679317563348508 0 -0.042049275225955432 -0.00079826890139504442 0 -0.042387761303906271 -0.00044013858903667894 0 -0.040868193811945952 -0.00068396611512593606 0 -0.041818913718619365 -0.00037031884203935953 0 -0.039959339814419653 -0.0005195138237165445 0 -0.040046841134695539 -0.00056702373701335578 0 -0.040011823156150469 -0.00064001014785687192 0 -0.040868193811945952 -0.00068396611512593606 0 -0.042394098610392186 -0.00014343316564098245 0 -0.042045298106060454 -0.00080847284940707286 0 -0.042059591901055418 -0.00024862995322356713 0 -0.041900173201917745 0.00036058014817644398 0 -0.042049275225955432 -0.00079826890139504442 0 -0.042387761303906271 -0.00044013858903667894 0 -0.042059591901055418 -0.00024862995322356713 0 -0.042498792737804117 0.00012578615020937127 0 -0.042387761303906271 -0.00044013858903667894 0 -0.042059591901055418 -0.00024862995322356713 0 -0.040046841134695539 -0.00056702373701335578 0 -0.040011823156150469 -0.00064001014785687192 0 -0.040121858872093796 -0.00059477354908597053 0 -0.040011823156150469 -0.00064001014785687192 0 -0.040121858872093796 -0.00059477354908597053 0 -0.040129132393299807 -0.00059769019435732115 0 -0.040055207471938872 -0.00051725701561146386 0 -0.040046841134695539 -0.00056702373701335578 0 -0.040084793156436968 -0.00055330231722696516 0 -0.042394098610392186 -0.00014343316564098245 0 -0.042042375576091889 -0.00064244447862174634 0 -0.043046762144957333 -9.8374639611151996e-05 0 -0.043428178817033071 -0.00026547723485092963 0 -0.042781098810910009 -0.00051797766712038463 0 -0.042734230809913017 0.00068367577460589366 0 -0.042498792737804117 0.00012578615020937127 0 -0.041900173201917745 0.00036058014817644398 0 -0.044992242711013632 -2.7055560018326884e-06 0 -0.04497143569370507 -6.5637610350102262e-06 0 -0.044990792006510377 -1.0816340152623953e-06 0 -0.044038858653524922 0.00040543265575449823 0 -0.042394098610392186 -0.00014343316564098245 0 -0.042498792737804117 0.00012578615020937127 0 -0.042059591901055418 -0.00024862995322356713 0 -0.041900173201917745 0.00036058014817644398 0 -0.04497143569370507 -6.5637610350102262e-06 0 -0.044990792006510377 -1.0816340152623953e-06 0 -0.044999962322370066 4.7429482779920425e-09 0 -0.044999991312274251 -4.4045575309034887e-10 0 -0.044990792006510377 -1.0816340152623953e-06 0 -0.044999962322370066 4.7429482779920425e-09 0 -0.042394098610392186 -0.00014343316564098245 0 -0.044202147807427927 0.0001021778387247643 0 -0.044998709975045313 -2.7489533013142162e-05 0 -0.045000063215780699 -1.5680212775278987e-08 0 -0.044999897679042472 1.7302909273854558e-09 0 -0.043046762144957333 -9.8374639611151996e-05 0 -0.043428178817033071 -0.00026547723485092963 0 -0.043360130501278633 0.00029804147165478974 0 -0.044114220252527259 2.795348246160516e-05 0 -0.044202147807427927 0.0001021778387247643 0 -0.044998709975045313 -2.7489533013142162e-05 0 -0.044999897679042472 1.7302909273854558e-09 0 -0.044957451608028082 -2.5369888312852439e-05 0 -0.044999966356552012 -4.3536044862487395e-08 0 -0.045004694739438425 3.5097097593229443e-05 0 -0.044998911990113348 -1.2711204992449826e-06 0 -0.044999581988063211 -9.8633691820488188e-07 0 -0.044999989623677884 -2.043630574486713e-09 0 -0.045000005152617539 1.1175891423886812e-10 0 -0.044999581988063211 -9.8633691820488188e-07 0 -0.044999989623677884 -2.043630574486713e-09 0 -0.044957451608028082 -2.5369888312852439e-05 0 -0.044923740957408635 -6.663142363031455e-05 0 -0.044958826430374341 -8.3325299375222427e-05 0 -0.045004694739438425 3.5097097593229443e-05 0 -0.044697650069075674 -0.00030946943269279266 0 -0.044998911990113348 -1.2711204992449826e-06 0 -0.044999581988063211 -9.8633691820488188e-07 0 -0.044997795629315052 -3.1041620880999892e-06 0 -0.044697650069075674 -0.00030946943269279266 0 -0.043212622020557166 -0.0006339618433491332 0 -0.044114220252527259 2.795348246160516e-05 0 -0.043212622020557166 -0.0006339618433491332 0 -0.043046762144957333 -9.8374639611151996e-05 0 -0.042742136839707942 -0.00050011304560606921 0 -0.042781098810910009 -0.00051797766712038463 0 -0.044998709975045313 -2.7489533013142162e-05 0 -0.044957451608028082 -2.5369888312852439e-05 0 -0.044958826430374341 -8.3325299375222427e-05 0 -0.045000025689848018 2.5497929337712696e-09 0 -0.044998741895348721 -1.2666798425901533e-06 0 -0.044999172684456537 -1.4074538298988396e-06 0 -0.045000025689848018 2.5497929337712696e-09 0 -0.044999989623677884 -2.043630574486713e-09 0 -0.044998741895348721 -1.2666798425901533e-06 0 -0.044912272889879541 8.2700488515667877e-06 0 -0.044911608887146855 -1.2228065037294092e-05 0 -0.044998911990113348 -1.2711204992449826e-06 0 -0.044999989623677884 -2.043630574486713e-09 0 -0.044998741895348721 -1.2666798425901533e-06 0 -0.044788021088604447 -1.1030120357468161e-05 0 -0.044786170674042905 -1.3209634924821583e-05 0 -0.044786358281289206 -1.146431447758839e-05 0 -0.044786170674042905 -1.3209634924821583e-05 0 -0.044790200490080846 -7.2386636773711767e-06 0 -0.044786358281289206 -1.146431447758839e-05 0 -0.044697650069075674 -0.00030946943269279266 0 -0.044912272889879541 8.2700488515667877e-06 0 -0.044998911990113348 -1.2711204992449826e-06 0 -0.044997795629315052 -3.1041620880999892e-06 0 -0.044998741895348721 -1.2666798425901533e-06 0 -0.044786170674042905 -1.3209634924821583e-05 0 -0.044804260803740927 -6.2735276821486979e-06 0 -0.044823232786822813 -3.4210692836006231e-05 0 -0.044786170674042905 -1.3209634924821583e-05 0 -0.044790200490080846 -7.2386636773711767e-06 0 -0.044804260803740927 -6.2735276821486979e-06 0 -0.044790200490080846 -7.2386636773711767e-06 0 -0.044804260803740927 -6.2735276821486979e-06 0 -0.044796110674991521 -3.575790815534136e-06 0 -0.044804260803740927 -6.2735276821486979e-06 0 -0.044796110674991521 -3.575790815534136e-06 0 -0.044810062638040438 1.7387740050234323e-06 0 -0.044804260803740927 -6.2735276821486979e-06 0 -0.044828402468470245 -5.5561273765286852e-06 0 -0.044810062638040438 1.7387740050234323e-06 0 -0.044804260803740927 -6.2735276821486979e-06 0 -0.044828402468470245 -5.5561273765286852e-06 0 -0.044823232786822813 -3.4210692836006231e-05 0 -0.044793919207899498 -2.1634121425324183e-06 0 -0.044796110674991521 -3.575790815534136e-06 0 -0.044810062638040438 1.7387740050234323e-06 0 -0.044790200490080846 -7.2386636773711767e-06 0 -0.044796110674991521 -3.575790815534136e-06 0 -0.044785801849827465 -8.9769285524414971e-06 0 -0.044793919207899498 -2.1634121425324183e-06 0 -0.044796110674991521 -3.575790815534136e-06 0 -0.044785801849827465 -8.9769285524414971e-06 0 -0.044793919207899498 -2.1634121425324183e-06 0 -0.044785801849827465 -8.9769285524414971e-06 0 -0.04477394680053165 -2.1726366653479542e-05 0 -0.044785801849827465 -8.9769285524414971e-06 0 -0.044786128628866342 -1.9500885999831122e-05 0 -0.04477394680053165 -2.1726366653479542e-05 0 -0.044788021088604447 -1.1030120357468161e-05 0 -0.044786358281289206 -1.146431447758839e-05 0 -0.044786128628866342 -1.9500885999831122e-05 0 -0.044785801849827465 -8.9769285524414971e-06 0 -0.044786358281289206 -1.146431447758839e-05 0 -0.044786128628866342 -1.9500885999831122e-05 0 -0.044790200490080846 -7.2386636773711767e-06 0 -0.044785801849827465 -8.9769285524414971e-06 0 -0.044786358281289206 -1.146431447758839e-05 0 -0.044415643431686927 -0.00052116032846634094 0 -0.044194246388892779 -0.00031903996413945471 0 -0.044712620186419881 -2.9423881687153838e-05 0 -0.044786128628866342 -1.9500885999831122e-05 0 -0.04477394680053165 -2.1726366653479542e-05 0 -0.044754698343308703 -2.8038095875392374e-05 0 -0.044786128628866342 -1.9500885999831122e-05 0 -0.044754698343308703 -2.8038095875392374e-05 0 -0.044712620186419881 -2.9423881687153838e-05 0 -0.044556359988366073 -0.00032178845817774882 0 -0.044726867406323853 -1.8657553284189488e-05 0 -0.04477394680053165 -2.1726366653479542e-05 0 -0.044754698343308703 -2.8038095875392374e-05 0 -0.044771007238509915 -3.1860846433720176e-05 0 -0.04477394680053165 -2.1726366653479542e-05 0 -0.044771007238509915 -3.1860846433720176e-05 0 -0.044794237217429568 -2.167361388626887e-05 0 -0.044793919207899498 -2.1634121425324183e-06 0 -0.04477394680053165 -2.1726366653479542e-05 0 -0.044794237217429568 -2.167361388626887e-05 0 -0.040121858872093796 -0.00059477354908597053 0 -0.040145690200031794 -0.00059343316509972023 0 -0.040115543091938953 -0.00053209295962850097 0 -0.040046841134695539 -0.00056702373701335578 0 -0.040084793156436968 -0.00055330231722696516 0 -0.040121858872093796 -0.00059477354908597053 0 -0.040084793156436968 -0.00055330231722696516 0 -0.040121858872093796 -0.00059477354908597053 0 -0.040115543091938953 -0.00053209295962850097 0 -0.044107748369234402 -0.0010562770608377435 0 -0.043738094810149002 -0.00089043811591117423 0 -0.043777456155370612 -0.00083893653672085947 0 -0.043212622020557166 -0.0006339618433491332 0 -0.042042375576091889 -0.00064244447862174634 0 -0.040121858872093796 -0.00059477354908597053 0 -0.04013005524817146 -0.00059838250685294878 0 -0.040145690200031794 -0.00059343316509972023 0 -0.041876665770575944 -0.00058818637624987575 0 -0.042042375576091889 -0.00064244447862174634 0 -0.042042375576091889 -0.00064244447862174634 0 -0.042745543044544553 -0.00079014825034890844 0 -0.043212622020557166 -0.0006339618433491332 0 -0.042745543044544553 -0.00079014825034890844 0 -0.042963622993457129 -0.0004565034849779735 0 -0.043259038781539923 -0.00059132678720028996 0 -0.04270071721206678 -0.00080811383621993819 0 -0.044107748369234402 -0.0010562770608377435 0 -0.044415643431686927 -0.00052116032846634094 0 -0.044162504816212721 -0.00069711548083874609 0 -0.043756758672250012 -0.00084212650624657624 0 -0.044162504816212721 -0.00069711548083874609 0 -0.044194246388892779 -0.00031903996413945471 0 -0.044107748369234402 -0.0010562770608377435 0 -0.043777456155370612 -0.00083893653672085947 0 -0.044162504816212721 -0.00069711548083874609 0 -0.042745543044544553 -0.00079014825034890844 0 -0.042060978087234704 -0.0004721848153768439 0 -0.044697650069075674 -0.00030946943269279266 0 -0.044556359988366073 -0.00032178845817774882 0 -0.042745543044544553 -0.00079014825034890844 0 -0.044362999613553798 -0.00058646329316314823 0 -0.040145690200031794 -0.00059343316509972023 0 -0.040222489897250219 -0.0005004069703783365 0 -0.040115543091938953 -0.00053209295962850097 0 -0.040222489897250219 -0.0005004069703783365 0 -0.040115543091938953 -0.00053209295962850097 0 -0.040124723642053946 -0.00046049858917071064 0 -0.044415643431686927 -0.00052116032846634094 0 -0.044162504816212721 -0.00069711548083874609 0 -0.044194246388892779 -0.00031903996413945471 0 -0.040055207471938872 -0.00051725701561146386 0 -0.040084793156436968 -0.00055330231722696516 0 -0.040115543091938953 -0.00053209295962850097 0 -0.040055207471938872 -0.00051725701561146386 0 -0.040115543091938953 -0.00053209295962850097 0 -0.040067209025437457 -0.00047128465096777337 0 -0.040115543091938953 -0.00053209295962850097 0 -0.040067209025437457 -0.00047128465096777337 0 -0.040124723642053946 -0.00046049858917071064 0 -0.040031655841628239 -0.00040963915987676515 0 -0.040067209025437457 -0.00047128465096777337 0 -0.04008136044543148 -0.00043416314099159042 0 -0.040067209025437457 -0.00047128465096777337 0 -0.04008136044543148 -0.00043416314099159042 0 -0.040124723642053946 -0.00046049858917071064 0 -0.04008136044543148 -0.00043416314099159042 0 -0.040124723642053946 -0.00046049858917071064 0 -0.040097465176941828 -0.00039791865392512361 0 -0.040124723642053946 -0.00046049858917071064 0 -0.040097465176941828 -0.00039791865392512361 0 -0.040163286265354592 -0.00042182812576741668 0 -0.040097465176941828 -0.00039791865392512361 0 -0.040140276294681136 -0.00035518868561433266 0 -0.040163286265354592 -0.00042182812576741668 0 -0.040031655841628239 -0.00040963915987676515 0 -0.04008136044543148 -0.00043416314099159042 0 -0.040097465176941828 -0.00039791865392512361 0 -0.040031655841628239 -0.00040963915987676515 0 -0.040097465176941828 -0.00039791865392512361 0 -0.040023920829899688 -0.00032747668812521533 0 -0.034127445318472185 -0.00073379215355926961 0 -0.034127019775551638 -0.00076899302772643534 0 -0.034108048233592939 -0.00075005254645266434 0 -0.035765910189404025 -0.0005707494569775404 0 -0.037177444183177151 -0.00058667653826841081 0 -0.040097465176941828 -0.00039791865392512361 0 -0.040023920829899688 -0.00032747668812521533 0 -0.040140276294681136 -0.00035518868561433266 0 -0.040023920829899688 -0.00032747668812521533 0 -0.04013934143734265 -0.00028597770096289502 0 -0.040140276294681136 -0.00035518868561433266 0 -0.033938631626088726 -0.0007681880366335207 0 -0.033972411485053831 -0.0008178738875948752 0 -0.03400868684332798 -0.00074372838537504506 0 -0.035765910189404025 -0.0005707494569775404 0 -0.033685186055382288 -0.0010197857514137381 0 -0.033972411485053831 -0.0008178738875948752 0 -0.03400868684332798 -0.00074372838537504506 0 -0.034108048233592939 -0.00075005254645266434 0 -0.04013934143734265 -0.00028597770096289502 0 -0.040202327387430854 -0.00031892340883549718 0 -0.040301222399051748 -0.00023853833315608849 0 -0.037177444183177151 -0.00058667653826841081 0 -0.038562679213736059 -0.00044048614346613261 0 -0.04013934143734265 -0.00028597770096289502 0 -0.040140276294681136 -0.00035518868561433266 0 -0.040202327387430854 -0.00031892340883549718 0 -0.040202327387430854 -0.00031892340883549718 0 -0.040226036862459354 -0.00038678404411189593 0 -0.040268846634611319 -0.00033565442526903798 0 -0.040140276294681136 -0.00035518868561433266 0 -0.040202327387430854 -0.00031892340883549718 0 -0.040226036862459354 -0.00038678404411189593 0 -0.040222489897250219 -0.0005004069703783365 0 -0.040226036862459354 -0.00038678404411189593 0 -0.040163286265354592 -0.00042182812576741668 0 -0.040140276294681136 -0.00035518868561433266 0 -0.040226036862459354 -0.00038678404411189593 0 -0.040163286265354592 -0.00042182812576741668 0 -0.040222489897250219 -0.0005004069703783365 0 -0.040124723642053946 -0.00046049858917071064 0 -0.040163286265354592 -0.00042182812576741668 0 -0.042060978087234704 -0.0004721848153768439 0 -0.042671946957044862 -1.18987100561891e-05 0 -0.040222489897250219 -0.0005004069703783365 0 -0.040226036862459354 -0.00038678404411189593 0 -0.040342067763470629 -0.00037953784936659203 0 -0.044194246388892779 -0.00031903996413945471 0 -0.04460921403585074 9.2243611077861954e-05 0 -0.044712620186419881 -2.9423881687153838e-05 0 -0.044771007238509915 -3.1860846433720176e-05 0 -0.044733882153209066 7.108809408283524e-05 0 -0.044805928237356296 9.5377030063517883e-05 0 -0.044754698343308703 -2.8038095875392374e-05 0 -0.044771007238509915 -3.1860846433720176e-05 0 -0.044712620186419881 -2.9423881687153838e-05 0 -0.04460921403585074 9.2243611077861954e-05 0 -0.044712620186419881 -2.9423881687153838e-05 0 -0.044733882153209066 7.108809408283524e-05 0 -0.044771007238509915 -3.1860846433720176e-05 0 -0.044712620186419881 -2.9423881687153838e-05 0 -0.044733882153209066 7.108809408283524e-05 0 -0.044733882153209066 7.108809408283524e-05 0 -0.044746277507376003 0.00021819310802954485 0 -0.044805928237356296 9.5377030063517883e-05 0 -0.04460921403585074 9.2243611077861954e-05 0 -0.044733882153209066 7.108809408283524e-05 0 -0.044746277507376003 0.00021819310802954485 0 -0.042671946957044862 -1.18987100561891e-05 0 -0.041522556165987844 -0.00037318111875133921 0 -0.041522556165987844 -0.00037318111875133921 0 -0.044979886371110153 -0.00040902325111009393 0 -0.040342067763470629 -0.00037953784936659203 0 -0.040268846634611319 -0.00033565442526903798 0 -0.040301222399051748 -0.00023853833315608849 0 -0.040342067763470629 -0.00037953784936659203 0 -0.040301222399051748 -0.00023853833315608849 0 -0.040493078025619758 -0.00020585212030685133 0 -0.040226036862459354 -0.00038678404411189593 0 -0.040342067763470629 -0.00037953784936659203 0 -0.040268846634611319 -0.00033565442526903798 0 -0.040202327387430854 -0.00031892340883549718 0 -0.040268846634611319 -0.00033565442526903798 0 -0.040301222399051748 -0.00023853833315608849 0 -0.037228137158388908 -0.00059438053991853223 0 -0.036922022335294742 0.00027420726733905183 0 -0.038697324005536556 0.00027126552451593191 0 -0.034902681506436543 7.7568545227896387e-05 0 -0.03709052445168412 -0.00046646713728651617 0 -0.038562679213736059 -0.00044048614346613261 0 -0.041522556165987844 -0.00037318111875133921 0 -0.037228137158388908 -0.00059438053991853223 0 -0.038819049101464276 -0.00031022519517924724 0 -0.038697324005536556 0.00027126552451593191 0 -0.041522556165987844 -0.00037318111875133921 0 -0.038810082556377141 -0.00093686805360589619 0 -0.041522556165987844 -0.00037318111875133921 0 -0.03709052445168412 -0.00046646713728651617 0 -0.035646237968576092 -0.0013033682887713316 0 -0.036128098883788193 -0.00099988605544647983 0 -0.035890734528784274 -0.00047935505533486451 0 -0.035646237968576092 -0.0013033682887713316 0 -0.036128098883788193 -0.00099988605544647983 0 -0.036299103212004004 -0.0013088654553795288 0 -0.03709052445168412 -0.00046646713728651617 0 -0.038810082556377141 -0.00093686805360589619 0 -0.039562371483923907 -0.0005231951291703032 0 -0.039665146673253743 -0.0010775881237587933 0 -0.039141442796665503 -0.0010782780595907189 0 -0.03709052445168412 -0.00046646713728651617 0 -0.034215505403583181 0.00017958663376499166 0 -0.033276530927130177 -0.00021249008227998959 0 -0.033449417085562851 -0.00022580636186717723 0 -0.033380220238017767 -0.00010806888294189802 0 -0.035646237968576092 -0.0013033682887713316 0 -0.035890734528784274 -0.00047935505533486451 0 -0.035119469284641963 0.00027168629811597021 0 -0.036128098883788193 -0.00099988605544647983 0 -0.035890734528784274 -0.00047935505533486451 0 -0.036449970979812459 -0.00067572446755889649 0 -0.035890734528784274 -0.00047935505533486451 0 -0.035119469284641963 0.00027168629811597021 0 -0.036276264367415358 0.0002749230223087622 0 -0.033276530927130177 -0.00021249008227998959 0 -0.033380220238017767 -0.00010806888294189802 0 -0.033257546918757923 -8.5314176021978192e-05 0 -0.033196090856994452 -0.00012761860080644057 0 -0.033179157728427978 -5.3765036298454406e-05 0 -0.033257546918757923 -8.5314176021978192e-05 0 -0.033276530927130177 -0.00021249008227998959 0 -0.033196090856994452 -0.00012761860080644057 0 -0.033257546918757923 -8.5314176021978192e-05 0 -0.033919601859232588 -0.00064413362396162073 0 -0.034002869676315557 -0.00067586038192630528 0 -0.033921826849021404 -0.00049175329644181645 0 -0.034058768270328083 -0.00067425394928418043 0 -0.034002869676315557 -0.00067586038192630528 0 -0.033921826849021404 -0.00049175329644181645 0 -0.033196090856994452 -0.00012761860080644057 0 -0.033147420054201557 -0.00019765602014042337 0 -0.033103004823248641 -4.5054990917456202e-05 0 -0.034156279920749377 -0.00013593561864159062 0 -0.033448791423474934 -0.00031678919464175719 0 -0.034156279920749377 -0.00013593561864159062 0 -0.034043759171729027 -0.00034171593819400082 0 -0.034090935971928721 -0.00068079248145631139 0 -0.034002869676315557 -0.00067586038192630528 0 -0.034060563222308715 -0.00072120096516936172 0 -0.033958536948293726 -0.00071046007099029903 0 -0.033919601859232588 -0.00064413362396162073 0 -0.034002869676315557 -0.00067586038192630528 0 -0.033958536948293726 -0.00071046007099029903 0 -0.033938631626088726 -0.0007681880366335207 0 -0.03400868684332798 -0.00074372838537504506 0 -0.033958536948293726 -0.00071046007099029903 0 -0.034002869676315557 -0.00067586038192630528 0 -0.03400868684332798 -0.00074372838537504506 0 -0.034002869676315557 -0.00067586038192630528 0 -0.03400868684332798 -0.00074372838537504506 0 -0.034060563222308715 -0.00072120096516936172 0 -0.03400868684332798 -0.00074372838537504506 0 -0.034108048233592939 -0.00075005254645266434 0 -0.034060563222308715 -0.00072120096516936172 0 -0.034127019775551638 -0.00076899302772643534 0 -0.034090935971928721 -0.00068079248145631139 0 -0.034108048233592939 -0.00075005254645266434 0 -0.034090935971928721 -0.00068079248145631139 0 -0.034108048233592939 -0.00075005254645266434 0 -0.034060563222308715 -0.00072120096516936172 0 -0.033276530927130177 -0.00021249008227998959 0 -0.033196090856994452 -0.00012761860080644057 0 -0.033147420054201557 -0.00019765602014042337 0 -0.037177444183177151 -0.00058667653826841081 0 -0.034156279920749377 -0.00013593561864159062 0 -0.034902681506436543 7.7568545227896387e-05 0 -0.034156279920749377 -0.00013593561864159062 0 -0.035651706399066521 -0.00087820549005293395 0 -0.037228137158388908 -0.00059438053991853223 0 -0.036922022335294742 0.00027420726733905183 0 -0.035651706399066521 -0.00087820549005293395 0 -0.036922022335294742 0.00027420726733905183 0 -0.035162965150062966 0.00027517188827805609 0 -0.038586814182984708 -0.0026613543610980585 0 -0.042660335555158205 -0.0015402549772570453 0 -0.042507724471338854 -0.0013137120439880889 0 -0.041006783284432011 -0.0017529045246261364 0 -0.042661058485060521 -0.0016560895789284147 0 -0.04358591001196073 -0.0013269674027042073 0 -0.044004236055463872 -0.0014336142708398284 0 -0.042660335555158205 -0.0015402549772570453 0 -0.04358591001196073 -0.0013269674027042073 0 -0.044004236055463872 -0.0014336142708398284 0 -0.044342000218603676 -0.0013331826255816048 0 -0.04358591001196073 -0.0013269674027042073 0 -0.043988253453229945 -0.0011192940904881535 0 -0.04374931454886849 -0.0010867245322226202 0 -0.04374931454886849 -0.0010867245322226202 0 -0.043504395913084172 -0.00089251653378915794 0 -0.043963182927627062 -0.0008785135187382953 0 -0.04358591001196073 -0.0013269674027042073 0 -0.043988253453229945 -0.0011192940904881535 0 -0.044342000218603676 -0.0013331826255816048 0 -0.043988253453229945 -0.0011192940904881535 0 -0.04374931454886849 -0.0010867245322226202 0 -0.043963182927627062 -0.0008785135187382953 0 -0.04358591001196073 -0.0013269674027042073 0 -0.04311971879327179 -0.001193961079202163 0 -0.043010265677142959 -0.001330099621119897 0 -0.04358591001196073 -0.0013269674027042073 0 -0.043493111865772503 -0.001122572068451408 0 -0.04311971879327179 -0.001193961079202163 0 -0.04374931454886849 -0.0010867245322226202 0 -0.043493111865772503 -0.001122572068451408 0 -0.043504395913084172 -0.00089251653378915794 0 -0.04358591001196073 -0.0013269674027042073 0 -0.04374931454886849 -0.0010867245322226202 0 -0.043493111865772503 -0.001122572068451408 0 -0.043493111865772503 -0.001122572068451408 0 -0.04311971879327179 -0.001193961079202163 0 -0.043504395913084172 -0.00089251653378915794 0 -0.04311971879327179 -0.001193961079202163 0 -0.042764348136172602 -0.0010019459177945083 0 -0.042719314687104305 -0.0012806291521224806 0 -0.04311971879327179 -0.001193961079202163 0 -0.042764348136172602 -0.0010019459177945083 0 -0.043504395913084172 -0.00089251653378915794 0 -0.04311971879327179 -0.001193961079202163 0 -0.042719314687104305 -0.0012806291521224806 0 -0.043010265677142959 -0.001330099621119897 0 -0.042764348136172602 -0.0010019459177945083 0 -0.042719314687104305 -0.0012806291521224806 0 -0.042448114735024974 -0.0012842303716055982 0 -0.042719314687104305 -0.0012806291521224806 0 -0.042533545335275681 -0.001431109948311395 0 -0.042448114735024974 -0.0012842303716055982 0 -0.042719314687104305 -0.0012806291521224806 0 -0.042533545335275681 -0.001431109948311395 0 -0.042660335555158205 -0.0015402549772570453 0 -0.042533545335275681 -0.001431109948311395 0 -0.042660335555158205 -0.0015402549772570453 0 -0.042507724471338854 -0.0013137120439880889 0 -0.04358591001196073 -0.0013269674027042073 0 -0.043010265677142959 -0.001330099621119897 0 -0.042660335555158205 -0.0015402549772570453 0 -0.042719314687104305 -0.0012806291521224806 0 -0.043010265677142959 -0.001330099621119897 0 -0.042660335555158205 -0.0015402549772570453 0 -0.031953275911635506 0.00048888799866055022 0 -0.031781876303258197 0.00038589638626558863 0 -0.031993529978777302 0.00038457040383090853 0 -0.032046389130692285 0.00059287590586226528 0 -0.031953275911635506 0.00048888799866055022 0 -0.032108214000770068 0.0004864610048429297 0 -0.032046389130692285 0.00059287590586226528 0 -0.031953275911635506 0.00048888799866055022 0 -0.031874178490297604 0.00053580704005424748 0 -0.032108214000770068 0.0004864610048429297 0 -0.032190036156805421 0.00042308413536381288 0 -0.031993529978777302 0.00038457040383090853 0 -0.031953275911635506 0.00048888799866055022 0 -0.032108214000770068 0.0004864610048429297 0 -0.031993529978777302 0.00038457040383090853 0 -0.038586814182984708 -0.0026613543610980585 0 -0.042507724471338854 -0.0013137120439880889 0 -0.037377903652878866 -0.00017752170538758678 0 -0.032046389130692285 0.00059287590586226528 0 -0.032108214000770068 0.0004864610048429297 0 -0.032426186088586308 0.00054827145156771434 0 -0.037046148827153159 -0.00022674355346147398 0 -0.034953305366614937 0.00012168237537365878 0 -0.032108214000770068 0.0004864610048429297 0 -0.032426186088586308 0.00054827145156771434 0 -0.032190036156805421 0.00042308413536381288 0 -0.032426186088586308 0.00054827145156771434 0 -0.032377041803258746 0.00040485170188070809 0 -0.032190036156805421 0.00042308413536381288 0 -0.032426186088586308 0.00054827145156771434 0 -0.032562070792514441 0.0003482904369214598 0 -0.032377041803258746 0.00040485170188070809 0 -0.033073273185768498 0.00029857407186226854 0 -0.034953305366614937 0.00012168237537365878 0 -0.032968539718972352 0.00024509791030319665 0 -0.032426186088586308 0.00054827145156771434 0 -0.032562070792514441 0.0003482904369214598 0 -0.034478046159090205 0.00021998051657224846 0 -0.038769530834134307 -0.0011311039544150338 0 -0.037377903652878866 -0.00017752170538758678 0 -0.03308277318780125 0.0001424563528187304 0 -0.036057114848384975 -0.0024950233397543244 0 -0.032968539718972352 0.00024509791030319665 0 -0.037377903652878866 -0.00017752170538758678 0 -0.03308277318780125 0.0001424563528187304 0 -0.036276264367415358 0.0002749230223087622 0 -0.036449970979812459 -0.00067572446755889649 0 -0.037978962422506701 -0.0013122643040170299 0 -0.035890734528784274 -0.00047935505533486451 0 -0.036276264367415358 0.0002749230223087622 0 -0.036449970979812459 -0.00067572446755889649 0 -0.045308034633067047 -0.00099010381390334835 0 -0.044660054117699119 -0.00098964578508473284 0 -0.044808924031678209 -0.00082567427118744379 0 -0.041522556165987844 -0.00037318111875133921 0 -0.041604415278791156 -0.0014779508909260222 0 -0.045308034633067047 -0.00099010381390334835 0 -0.04449697396958719 -0.0012510536811577335 0 -0.044660054117699119 -0.00098964578508473284 0 -0.038810082556377141 -0.00093686805360589619 0 -0.038769530834134307 -0.0011311039544150338 0 -0.040560885663974817 -0.0007731175830224743 0 -0.040420184368504274 -0.00095927923895481313 0 -0.039979433361104454 -0.000967256740128193 0 -0.040560885663974817 -0.0007731175830224743 0 -0.039979433361104454 -0.000967256740128193 0 -0.03991883429530009 -0.00090321037036212334 0 -0.036449970979812459 -0.00067572446755889649 0 -0.036299103212004004 -0.0013088654553795288 0 -0.037978962422506701 -0.0013122643040170299 0 -0.036128098883788193 -0.00099988605544647983 0 -0.036449970979812459 -0.00067572446755889649 0 -0.036299103212004004 -0.0013088654553795288 0 -0.041212099641945943 -0.0015791467322973051 0 -0.040832190129084921 -0.0016403762299801315 0 -0.040404420127267603 -0.0015311493848528873 0 -0.041006783284432011 -0.0017529045246261364 0 -0.038769530834134307 -0.0011311039544150338 0 -0.038586814182984708 -0.0026613543610980585 0 -0.037377903652878866 -0.00017752170538758678 0 -0.036057114848384975 -0.0024950233397543244 0 -0.041006783284432011 -0.0017529045246261364 0 -0.042195155805598218 -0.0014693861658790432 0 -0.038769530834134307 -0.0011311039544150338 0 -0.041604415278791156 -0.0014779508909260222 0 -0.042195155805598218 -0.0014693861658790432 0 -0.041604415278791156 -0.0014779508909260222 0 -0.040832190129084921 -0.0016403762299801315 0 -0.040404420127267603 -0.0015311493848528873 0 -0.040551496309148727 -0.0016859094966037765 0 -0.044342000218603676 -0.0013331826255816048 0 -0.04449697396958719 -0.0012510536811577335 0 -0.044660054117699119 -0.00098964578508473284 0 -0.044342000218603676 -0.0013331826255816048 0 -0.044660054117699119 -0.00098964578508473284 0 -0.044288664012159001 -0.0010030583959212628 0 -0.044660054117699119 -0.00098964578508473284 0 -0.044288664012159001 -0.0010030583959212628 0 -0.044524850141412629 -0.0008143590198259258 0 -0.043988253453229945 -0.0011192940904881535 0 -0.044342000218603676 -0.0013331826255816048 0 -0.044288664012159001 -0.0010030583959212628 0 -0.043988253453229945 -0.0011192940904881535 0 -0.044288664012159001 -0.0010030583959212628 0 -0.043963182927627062 -0.0008785135187382953 0 -0.044288664012159001 -0.0010030583959212628 0 -0.044316748575388254 -0.00062726591995694038 0 -0.044524850141412629 -0.0008143590198259258 0 -0.044288664012159001 -0.0010030583959212628 0 -0.044316748575388254 -0.00062726591995694038 0 -0.043963182927627062 -0.0008785135187382953 0 -0.044316748575388254 -0.00062726591995694038 0 -0.044700168333369594 -0.00040490963673146943 0 -0.044430480769848839 1.2799727623424966e-05 0 -0.044316748575388254 -0.00062726591995694038 0 -0.044524850141412629 -0.0008143590198259258 0 -0.044700168333369594 -0.00040490963673146943 0 -0.044660054117699119 -0.00098964578508473284 0 -0.044524850141412629 -0.0008143590198259258 0 -0.044808924031678209 -0.00082567427118744379 0 -0.045308034633067047 -0.00099010381390334835 0 -0.044808924031678209 -0.00082567427118744379 0 -0.045099622452358774 -0.00047795295273315048 0 -0.044524850141412629 -0.0008143590198259258 0 -0.044808924031678209 -0.00082567427118744379 0 -0.044700168333369594 -0.00040490963673146943 0 -0.044808924031678209 -0.00082567427118744379 0 -0.044700168333369594 -0.00040490963673146943 0 -0.045099622452358774 -0.00047795295273315048 0 -0.044979886371110153 -0.00040902325111009393 0 -0.044849810375607223 2.8492166588093021e-06 0 -0.044700168333369594 -0.00040490963673146943 0 -0.044843096028151348 -3.7585853267160135e-05 0 -0.044666592957980623 1.1125910628626172e-06 0 -0.044771007238509915 -3.1860846433720176e-05 0 -0.044805928237356296 9.5377030063517883e-05 0 -0.044843096028151348 -3.7585853267160135e-05 0 -0.044700168333369594 -0.00040490963673146943 0 -0.045099622452358774 -0.00047795295273315048 0 -0.044843096028151348 -3.7585853267160135e-05 0 -0.044700168333369594 -0.00040490963673146943 0 -0.044430480769848839 1.2799727623424966e-05 0 -0.044666592957980623 1.1125910628626172e-06 0 -0.044365782467788162 2.8144185629185665e-05 0 -0.043974929088165707 -7.0720430832782782e-06 0 -0.044430480769848839 1.2799727623424966e-05 0 -0.043769374932602023 -0.0005269551622610161 0 -0.043106472482328566 -7.1479686049881941e-05 0 -0.044430480769848839 1.2799727623424966e-05 0 -0.044794026751364693 9.666627473898876e-05 0 -0.044777015013431343 -1.0741073670150122e-05 0 -0.044316748575388254 -0.00062726591995694038 0 -0.044430480769848839 1.2799727623424966e-05 0 -0.043769374932602023 -0.0005269551622610161 0 -0.043769374932602023 -0.0005269551622610161 0 -0.043504395913084172 -0.00089251653378915794 0 -0.0431409588249849 -0.00061667364786590414 0 -0.044316748575388254 -0.00062726591995694038 0 -0.043769374932602023 -0.0005269551622610161 0 -0.043963182927627062 -0.0008785135187382953 0 -0.043769374932602023 -0.0005269551622610161 0 -0.043504395913084172 -0.00089251653378915794 0 -0.043963182927627062 -0.0008785135187382953 0 -0.042662197455389218 -0.00062991544429987021 0 -0.043106472482328566 -7.1479686049881941e-05 0 -0.042132683299373495 -0.000334759821159997 0 -0.042764348136172602 -0.0010019459177945083 0 -0.0431409588249849 -0.00061667364786590414 0 -0.042662197455389218 -0.00062991544429987021 0 -0.042764348136172602 -0.0010019459177945083 0 -0.043504395913084172 -0.00089251653378915794 0 -0.0431409588249849 -0.00061667364786590414 0 -0.0431409588249849 -0.00061667364786590414 0 -0.042662197455389218 -0.00062991544429987021 0 -0.043106472482328566 -7.1479686049881941e-05 0 -0.043769374932602023 -0.0005269551622610161 0 -0.0431409588249849 -0.00061667364786590414 0 -0.043106472482328566 -7.1479686049881941e-05 0 -0.043974929088165707 -7.0720430832782782e-06 0 -0.043427213626440739 -0.00015366119603861257 0 -0.044794026751364693 9.666627473898876e-05 0 -0.044865651964199456 7.9096512078027361e-06 0 -0.044916628334624384 2.6364895383435002e-05 0 -0.044794026751364693 9.666627473898876e-05 0 -0.044865651964199456 7.9096512078027361e-06 0 -0.044777015013431343 -1.0741073670150122e-05 0 -0.04487270202199025 -3.2037143722920343e-05 0 -0.044777015013431343 -1.0741073670150122e-05 0 -0.044767267136564891 -3.2803179688575777e-05 0 -0.044865651964199456 7.9096512078027361e-06 0 -0.04487270202199025 -3.2037143722920343e-05 0 -0.044777015013431343 -1.0741073670150122e-05 0 -0.044430480769848839 1.2799727623424966e-05 0 -0.044777015013431343 -1.0741073670150122e-05 0 -0.044767267136564891 -3.2803179688575777e-05 0 -0.044430480769848839 1.2799727623424966e-05 0 -0.044767267136564891 -3.2803179688575777e-05 0 -0.044699932654410184 4.6599602120782171e-06 0 -0.044767267136564891 -3.2803179688575777e-05 0 -0.044836113688457954 -2.3340284462930753e-05 0 -0.044897087474011221 -4.1000333319451041e-05 0 -0.044767267136564891 -3.2803179688575777e-05 0 -0.044836113688457954 -2.3340284462930753e-05 0 -0.044699932654410184 4.6599602120782171e-06 0 -0.04487270202199025 -3.2037143722920343e-05 0 -0.044767267136564891 -3.2803179688575777e-05 0 -0.044897087474011221 -4.1000333319451041e-05 0 -0.044843096028151348 -3.7585853267160135e-05 0 -0.044794237217429568 -2.167361388626887e-05 0 -0.044758147577317914 1.4259527139022466e-05 0 -0.044843096028151348 -3.7585853267160135e-05 0 -0.044666592957980623 1.1125910628626172e-06 0 -0.044758147577317914 1.4259527139022466e-05 0 -0.044793919207899498 -2.1634121425324183e-06 0 -0.044794237217429568 -2.167361388626887e-05 0 -0.044758147577317914 1.4259527139022466e-05 0 -0.044771007238509915 -3.1860846433720176e-05 0 -0.044843096028151348 -3.7585853267160135e-05 0 -0.044794237217429568 -2.167361388626887e-05 0 -0.044430480769848839 1.2799727623424966e-05 0 -0.044666592957980623 1.1125910628626172e-06 0 -0.044699932654410184 4.6599602120782171e-06 0 -0.044666592957980623 1.1125910628626172e-06 0 -0.044758147577317914 1.4259527139022466e-05 0 -0.044699932654410184 4.6599602120782171e-06 0 -0.044836113688457954 -2.3340284462930753e-05 0 -0.044699932654410184 4.6599602120782171e-06 0 -0.044797671064908909 4.0890032526419592e-06 0 -0.044836113688457954 -2.3340284462930753e-05 0 -0.044797671064908909 4.0890032526419592e-06 0 -0.044875277361285423 -1.1192986176752184e-05 0 -0.044758147577317914 1.4259527139022466e-05 0 -0.044699932654410184 4.6599602120782171e-06 0 -0.044797671064908909 4.0890032526419592e-06 0 -0.044758147577317914 1.4259527139022466e-05 0 -0.044797671064908909 4.0890032526419592e-06 0 -0.044798692022379058 5.2516072751847269e-06 0 -0.044797671064908909 4.0890032526419592e-06 0 -0.044798692022379058 5.2516072751847269e-06 0 -0.04483384674870592 3.1202367960583257e-06 0 -0.044793919207899498 -2.1634121425324183e-06 0 -0.044798692022379058 5.2516072751847269e-06 0 -0.044810062638040438 1.7387740050234323e-06 0 -0.044793919207899498 -2.1634121425324183e-06 0 -0.044758147577317914 1.4259527139022466e-05 0 -0.044798692022379058 5.2516072751847269e-06 0 -0.044828402468470245 -5.5561273765286852e-06 0 -0.044863429742678998 -6.4692879705533177e-06 0 -0.044823232786822813 -3.4210692836006231e-05 0 -0.044798692022379058 5.2516072751847269e-06 0 -0.044810062638040438 1.7387740050234323e-06 0 -0.04483384674870592 3.1202367960583257e-06 0 -0.044828402468470245 -5.5561273765286852e-06 0 -0.044810062638040438 1.7387740050234323e-06 0 -0.04483384674870592 3.1202367960583257e-06 0 -0.044828402468470245 -5.5561273765286852e-06 0 -0.04483384674870592 3.1202367960583257e-06 0 -0.044863429742678998 -6.4692879705533177e-06 0 -0.04483384674870592 3.1202367960583257e-06 0 -0.044863429742678998 -6.4692879705533177e-06 0 -0.044891372471343442 -6.2923999052624541e-06 0 -0.04483384674870592 3.1202367960583257e-06 0 -0.044891372471343442 -6.2923999052624541e-06 0 -0.044875277361285423 -1.1192986176752184e-05 0 -0.044797671064908909 4.0890032526419592e-06 0 -0.04483384674870592 3.1202367960583257e-06 0 -0.044875277361285423 -1.1192986176752184e-05 0 -0.044875277361285423 -1.1192986176752184e-05 0 -0.044937294907851803 -1.049274273678249e-05 0 -0.044924790070882265 -2.1989423007370277e-05 0 -0.044891372471343442 -6.2923999052624541e-06 0 -0.044875277361285423 -1.1192986176752184e-05 0 -0.044937294907851803 -1.049274273678249e-05 0 -0.044937294907851803 -1.049274273678249e-05 0 -0.044999809926833972 -4.9458974801765771e-08 0 -0.044924790070882265 -2.1989423007370277e-05 0 -0.044937294907851803 -1.049274273678249e-05 0 -0.044999809926833972 -4.9458974801765771e-08 0 -0.044993399309028709 -4.9396456591530087e-06 0 -0.044937294907851803 -1.049274273678249e-05 0 -0.044993399309028709 -4.9396456591530087e-06 0 -0.044916153320312707 -9.377382224285778e-06 0 -0.044891372471343442 -6.2923999052624541e-06 0 -0.044937294907851803 -1.049274273678249e-05 0 -0.044916153320312707 -9.377382224285778e-06 0 -0.044976679859653652 -1.0533378826657602e-05 0 -0.044911608887146855 -1.2228065037294092e-05 0 -0.044993399309028709 -4.9396456591530087e-06 0 -0.044916153320312707 -9.377382224285778e-06 0 -0.044823232786822813 -3.4210692836006231e-05 0 -0.045000025689848018 2.5497929337712696e-09 0 -0.044999809926833972 -4.9458974801765771e-08 0 -0.044993399309028709 -4.9396456591530087e-06 0 -0.045000025689848018 2.5497929337712696e-09 0 -0.044993399309028709 -4.9396456591530087e-06 0 -0.044999172684456537 -1.4074538298988396e-06 0 -0.044863429742678998 -6.4692879705533177e-06 0 -0.044891372471343442 -6.2923999052624541e-06 0 -0.044916153320312707 -9.377382224285778e-06 0 -0.044863429742678998 -6.4692879705533177e-06 0 -0.044916153320312707 -9.377382224285778e-06 0 -0.044823232786822813 -3.4210692836006231e-05 0 -0.044897087474011221 -4.1000333319451041e-05 0 -0.044924790070882265 -2.1989423007370277e-05 0 -0.044958049829338792 -2.2457629276555701e-05 0 -0.044836113688457954 -2.3340284462930753e-05 0 -0.044875277361285423 -1.1192986176752184e-05 0 -0.044924790070882265 -2.1989423007370277e-05 0 -0.044836113688457954 -2.3340284462930753e-05 0 -0.044897087474011221 -4.1000333319451041e-05 0 -0.044924790070882265 -2.1989423007370277e-05 0 -0.044999809926833972 -4.9458974801765771e-08 0 -0.044924790070882265 -2.1989423007370277e-05 0 -0.044999926130790832 -1.810562006516623e-08 0 -0.044924790070882265 -2.1989423007370277e-05 0 -0.044999926130790832 -1.810562006516623e-08 0 -0.044958049829338792 -2.2457629276555701e-05 0 -0.044999926130790832 -1.810562006516623e-08 0 -0.044958049829338792 -2.2457629276555701e-05 0 -0.044999949246596047 -2.6812516849152132e-08 0 -0.044958049829338792 -2.2457629276555701e-05 0 -0.044953153163122234 -3.052322324852672e-05 0 -0.044999949246596047 -2.6812516849152132e-08 0 -0.044897087474011221 -4.1000333319451041e-05 0 -0.044958049829338792 -2.2457629276555701e-05 0 -0.044953153163122234 -3.052322324852672e-05 0 -0.044953153163122234 -3.052322324852672e-05 0 -0.044999949246596047 -2.6812516849152132e-08 0 -0.04496561535595809 -2.2148279258625791e-05 0 -0.0449999229421724 7.8987103314552274e-09 0 -0.044951731255925186 -7.0160292135312972e-07 0 -0.044957066955138458 -5.3682174352886929e-06 0 -0.044999949246596047 -2.6812516849152132e-08 0 -0.044999963296787217 -1.248069058797809e-09 0 -0.04496561535595809 -2.2148279258625791e-05 0 -0.044999982480347672 -3.2125196443827082e-09 0 -0.044963130530999346 -1.4115315382650361e-05 0 -0.0449999229421724 7.8987103314552274e-09 0 -0.044951731255925186 -7.0160292135312972e-07 0 -0.044999891372073136 1.4608460152520806e-08 0 -0.044951731255925186 -7.0160292135312972e-07 0 -0.044957066955138458 -5.3682174352886929e-06 0 -0.044889412564539516 -2.2774297614805697e-05 0 -0.044957066955138458 -5.3682174352886929e-06 0 -0.04490398069151031 -6.9219290316319666e-05 0 -0.044954908851084142 -6.9157456487067129e-05 0 -0.044963130530999346 -1.4115315382650361e-05 0 -0.044946157139561134 -5.2532788977732401e-05 0 -0.044889412564539516 -2.2774297614805697e-05 0 -0.04490398069151031 -6.9219290316319666e-05 0 -0.044801305052686168 -0.00010069862943347008 0 -0.044957066955138458 -5.3682174352886929e-06 0 -0.044889412564539516 -2.2774297614805697e-05 0 -0.04490398069151031 -6.9219290316319666e-05 0 -0.04490398069151031 -6.9219290316319666e-05 0 -0.044801305052686168 -0.00010069862943347008 0 -0.044905396276187712 -0.00016819471332051351 0 -0.04490398069151031 -6.9219290316319666e-05 0 -0.044954908851084142 -6.9157456487067129e-05 0 -0.044905396276187712 -0.00016819471332051351 0 -0.044954908851084142 -6.9157456487067129e-05 0 -0.044942722995738892 -0.00011187538120791098 0 -0.044905396276187712 -0.00016819471332051351 0 -0.044944764096035122 -5.7697865814885804e-05 0 -0.044935256830466473 -4.4117257567223488e-05 0 -0.04493623663912303 -3.2516994558235008e-05 0 -0.044946157139561134 -5.2532788977732401e-05 0 -0.04494516516723189 -0.00010612044890756221 0 -0.044944764096035122 -5.7697865814885804e-05 0 -0.04493623663912303 -3.2516994558235008e-05 0 -0.044942722995738892 -0.00011187538120791098 0 -0.04487270202199025 -3.2037143722920343e-05 0 -0.044935256830466473 -4.4117257567223488e-05 0 -0.044933118925403727 -2.7891062074598084e-05 0 -0.044944764096035122 -5.7697865814885804e-05 0 -0.044935256830466473 -4.4117257567223488e-05 0 -0.044933118925403727 -2.7891062074598084e-05 0 -0.044865651964199456 7.9096512078027361e-06 0 -0.04487270202199025 -3.2037143722920343e-05 0 -0.044933118925403727 -2.7891062074598084e-05 0 -0.044897087474011221 -4.1000333319451041e-05 0 -0.044953153163122234 -3.052322324852672e-05 0 -0.044935256830466473 -4.4117257567223488e-05 0 -0.04487270202199025 -3.2037143722920343e-05 0 -0.044897087474011221 -4.1000333319451041e-05 0 -0.044935256830466473 -4.4117257567223488e-05 0 -0.044953153163122234 -3.052322324852672e-05 0 -0.044935256830466473 -4.4117257567223488e-05 0 -0.04493623663912303 -3.2516994558235008e-05 0 -0.044953153163122234 -3.052322324852672e-05 0 -0.04496561535595809 -2.2148279258625791e-05 0 -0.04493623663912303 -3.2516994558235008e-05 0 -0.044311783588520129 0.00017792898255539931 0 -0.0449996980589479 1.4142913162195555e-07 0 -0.044873407343501745 -1.1028343946842204e-05 0 -0.04499995861417657 4.8645603420369561e-09 0 -0.044999836271329273 -1.6991711045842536e-08 0 -0.043723851233613185 0.00028240976947638215 0 -0.044998054774915676 -3.2523332117958595e-08 0 -0.044452802544956808 7.9570357573882788e-05 0 -0.044873407343501745 -1.1028343946842204e-05 0 -0.044999836271329273 -1.6991711045842536e-08 0 -0.044869309554467322 -7.1592929490555839e-06 0 -0.044999836271329273 -1.6991711045842536e-08 0 -0.044869309554467322 -7.1592929490555839e-06 0 -0.044999891372073136 1.4608460152520806e-08 0 -0.044951731255925186 -7.0160292135312972e-07 0 -0.044869309554467322 -7.1592929490555839e-06 0 -0.044999891372073136 1.4608460152520806e-08 0 -0.044951731255925186 -7.0160292135312972e-07 0 -0.044889412564539516 -2.2774297614805697e-05 0 -0.044869309554467322 -7.1592929490555839e-06 0 -0.044889412564539516 -2.2774297614805697e-05 0 -0.044801305052686168 -0.00010069862943347008 0 -0.044754818162881078 -5.0401474739774037e-05 0 -0.044889412564539516 -2.2774297614805697e-05 0 -0.044869309554467322 -7.1592929490555839e-06 0 -0.044754818162881078 -5.0401474739774037e-05 0 -0.044801305052686168 -0.00010069862943347008 0 -0.044608482261730024 -0.00012136258628108283 0 -0.044754818162881078 -5.0401474739774037e-05 0 -0.044801305052686168 -0.00010069862943347008 0 -0.044608482261730024 -0.00012136258628108283 0 -0.044709250496303928 -0.00019200024444231394 0 -0.044608482261730024 -0.00012136258628108283 0 -0.044754818162881078 -5.0401474739774037e-05 0 -0.044655043262908881 -4.8768545809839191e-05 0 -0.044869309554467322 -7.1592929490555839e-06 0 -0.044754818162881078 -5.0401474739774037e-05 0 -0.044655043262908881 -4.8768545809839191e-05 0 -0.044873407343501745 -1.1028343946842204e-05 0 -0.044869309554467322 -7.1592929490555839e-06 0 -0.044655043262908881 -4.8768545809839191e-05 0 -0.044311783588520129 0.00017792898255539931 0 -0.04408055421760583 0.0001376803117318002 0 -0.043455957452419869 0.0004094326725704229 0 -0.04312493348771404 0.00028260534944774066 0 -0.042904459438558758 -0.00013076371614549229 0 -0.043723851233613185 0.00028240976947638215 0 -0.04312493348771404 0.00028260534944774066 0 -0.043155975686075369 0.00027991024307984669 0 -0.043723851233613185 0.00028240976947638215 0 -0.043455957452419869 0.0004094326725704229 0 -0.04312493348771404 0.00028260534944774066 0 -0.043455957452419869 0.0004094326725704229 0 -0.043481356295283255 -0.00056136321542715739 0 -0.044219700187876014 -0.00035920791469187737 0 -0.043455957452419869 0.0004094326725704229 0 -0.042904459438558758 -0.00013076371614549229 0 -0.043481356295283255 -0.00056136321542715739 0 -0.042809923250960821 -0.00069007460125356879 0 -0.043481356295283255 -0.00056136321542715739 0 -0.04301455401289847 -0.0016912638364729438 0 -0.042809923250960821 -0.00069007460125356879 0 -0.04301455401289847 -0.0016912638364729438 0 -0.041914349047408601 -0.0005990314908416492 0 -0.042809923250960821 -0.00069007460125356879 0 -0.042904459438558758 -0.00013076371614549229 0 -0.043481356295283255 -0.00056136321542715739 0 -0.042809923250960821 -0.00069007460125356879 0 -0.042904459438558758 -0.00013076371614549229 0 -0.041914349047408601 -0.0005990314908416492 0 -0.04312493348771404 0.00028260534944774066 0 -0.042904459438558758 -0.00013076371614549229 0 -0.042276943313821286 -7.7677134413097523e-05 0 -0.04408055421760583 0.0001376803117318002 0 -0.044230517956734564 -0.00036807325512677763 0 -0.043481356295283255 -0.00056136321542715739 0 -0.044259029547749171 -0.00087241289032892401 0 -0.044033154155977861 -0.00096422815729324248 0 -0.043481356295283255 -0.00056136321542715739 0 -0.044033154155977861 -0.00096422815729324248 0 -0.04301455401289847 -0.0016912638364729438 0 -0.043481356295283255 -0.00056136321542715739 0 -0.044348303178383723 -0.00063072876838284693 0 -0.044219700187876014 -0.00035920791469187737 0 -0.043470387707428108 -0.00055933607542039032 0 -0.044531169272348126 -0.00078722450048159713 0 -0.044348303178383723 -0.00063072876838284693 0 -0.044599624472598083 -0.00033761822586144129 0 -0.044684148508022901 -0.00053537019382234345 0 -0.044259029547749171 -0.00087241289032892401 0 -0.044617469536691989 -0.00096706086763765308 0 -0.044205282450098457 -0.0010927991375841496 0 -0.044531169272348126 -0.00078722450048159713 0 -0.042933149934337361 -0.00095139404027017168 0 -0.044259029547749171 -0.00087241289032892401 0 -0.044033154155977861 -0.00096422815729324248 0 -0.044205282450098457 -0.0010927991375841496 0 -0.044348303178383723 -0.00063072876838284693 0 -0.044219700187876014 -0.00035920791469187737 0 -0.044599624472598083 -0.00033761822586144129 0 -0.044608482261730024 -0.00012136258628108283 0 -0.044219700187876014 -0.00035920791469187737 0 -0.044599624472598083 -0.00033761822586144129 0 -0.044608482261730024 -0.00012136258628108283 0 -0.044655043262908881 -4.8768545809839191e-05 0 -0.044219700187876014 -0.00035920791469187737 0 -0.044801305052686168 -0.00010069862943347008 0 -0.044709250496303928 -0.00019200024444231394 0 -0.044803442757902344 -0.00024717810390685867 0 -0.044608482261730024 -0.00012136258628108283 0 -0.044709250496303928 -0.00019200024444231394 0 -0.044599624472598083 -0.00033761822586144129 0 -0.044709250496303928 -0.00019200024444231394 0 -0.044599624472598083 -0.00033761822586144129 0 -0.044803442757902344 -0.00024717810390685867 0 -0.044599624472598083 -0.00033761822586144129 0 -0.044684148508022901 -0.00053537019382234345 0 -0.044803442757902344 -0.00024717810390685867 0 -0.039824964930961333 -0.0016406487274779904 0 -0.039822730395493548 -0.0016017102560585033 0 -0.039892312040178839 -0.0016283198610876723 0 -0.039822730395493548 -0.0016017102560585033 0 -0.039803673807172868 -0.0015522804873359553 0 -0.039892312040178839 -0.0016283198610876723 0 -0.039824964930961333 -0.0016406487274779904 0 -0.039822730395493548 -0.0016017102560585033 0 -0.039772716778248021 -0.001586020931128375 0 -0.03666947318289844 -0.0020818288608081452 0 -0.038299547603823016 -0.001426549878639604 0 -0.039822730395493548 -0.0016017102560585033 0 -0.039803673807172868 -0.0015522804873359553 0 -0.039772716778248021 -0.001586020931128375 0 -0.034877573132848387 -0.0027630414112623154 0 -0.03469856148916093 -0.002910350544843278 0 -0.034690885094539943 -0.0021742332730858684 0 -0.036688752668723658 -0.001360027367043614 0 -0.036698867384213595 -0.001350816196957663 0 -0.036691872146819203 -0.0013571135550009387 0 -0.036688752668723658 -0.001360027367043614 0 -0.036691872146819203 -0.0013571135550009387 0 -0.036680654678826689 -0.0013614173282509247 0 -0.034877573132848387 -0.0027630414112623154 0 -0.034676552339515859 -0.0029106069594441379 0 -0.035286603969443872 -0.0030847624819170375 0 -0.035723132758936606 -0.0027053523529358041 0 -0.03666947318289844 -0.0020818288608081452 0 -0.034676552339515859 -0.0029106069594441379 0 -0.035286603969443872 -0.0030847624819170375 0 -0.035675549979865363 -0.0040853586861018679 0 -0.034877573132848387 -0.0027630414112623154 0 -0.035286603969443872 -0.0030847624819170375 0 -0.035393968590375767 -0.0026782570119141696 0 -0.034877573132848387 -0.0027630414112623154 0 -0.035393968590375767 -0.0026782570119141696 0 -0.035058665259706995 -0.0024139166313721112 0 -0.035286603969443872 -0.0030847624819170375 0 -0.035393968590375767 -0.0026782570119141696 0 -0.035816910806274603 -0.0030555868016456582 0 -0.035393968590375767 -0.0026782570119141696 0 -0.035816910806274603 -0.0030555868016456582 0 -0.035952310612896707 -0.0026095922347740396 0 -0.042933149934337361 -0.00095139404027017168 0 -0.040420170446038316 -0.0018517888421549005 0 -0.03666947318289844 -0.0020818288608081452 0 -0.040420170446038316 -0.0018517888421549005 0 -0.035286603969443872 -0.0030847624819170375 0 -0.035816910806274603 -0.0030555868016456582 0 -0.035675549979865363 -0.0040853586861018679 0 -0.042309394948949357 -0.0021842104200322288 0 -0.040420170446038316 -0.0018517888421549005 0 -0.040420170446038316 -0.0018517888421549005 0 -0.039964801621338045 -0.0027429816913133276 0 -0.035675549979865363 -0.0040853586861018679 0 -0.036678789407086028 -0.0029228359417299145 0 -0.037265724783185947 -0.0037190569674733077 0 -0.035816910806274603 -0.0030555868016456582 0 -0.035675549979865363 -0.0040853586861018679 0 -0.036678789407086028 -0.0029228359417299145 0 -0.044033154155977861 -0.00096422815729324248 0 -0.044261179437975577 -0.001247060333488212 0 -0.04301455401289847 -0.0016912638364729438 0 -0.035952310612896707 -0.0026095922347740396 0 -0.036678789407086028 -0.0029228359417299145 0 -0.036389966191799371 -0.0022490996924790043 0 -0.035816910806274603 -0.0030555868016456582 0 -0.035952310612896707 -0.0026095922347740396 0 -0.036678789407086028 -0.0029228359417299145 0 -0.036678789407086028 -0.0029228359417299145 0 -0.037308650128651706 -0.0022628898441809661 0 -0.036389966191799371 -0.0022490996924790043 0 -0.036678789407086028 -0.0029228359417299145 0 -0.038099556409960815 -0.0024431910240557209 0 -0.037265724783185947 -0.0037190569674733077 0 -0.036678789407086028 -0.0029228359417299145 0 -0.038099556409960815 -0.0024431910240557209 0 -0.037308650128651706 -0.0022628898441809661 0 -0.038099556409960815 -0.0024431910240557209 0 -0.037265724783185947 -0.0037190569674733077 0 -0.039754342336683582 -0.0021990679806127905 0 -0.04301455401289847 -0.0016912638364729438 0 -0.041914349047408601 -0.0005990314908416492 0 -0.041045476111941051 -0.0010852147484082411 0 -0.041617996309820611 -0.0010240004816165146 0 -0.041086262485933049 -0.00056189015015685418 0 -0.041009176743265555 -0.0014698390641029572 0 -0.041617996309820611 -0.0010240004816165146 0 -0.042132683299373495 -0.000334759821159997 0 -0.041086262485933049 -0.00056189015015685418 0 -0.043427213626440739 -0.00015366119603861257 0 -0.043482595407533582 -0.00033541059764159438 0 -0.041617996309820611 -0.0010240004816165146 0 -0.042132683299373495 -0.000334759821159997 0 -0.042220233952314279 -0.0010884779922971401 0 -0.042662197455389218 -0.00062991544429987021 0 -0.042132683299373495 -0.000334759821159997 0 -0.042220233952314279 -0.0010884779922971401 0 -0.042764348136172602 -0.0010019459177945083 0 -0.042662197455389218 -0.00062991544429987021 0 -0.042220233952314279 -0.0010884779922971401 0 -0.044865651964199456 7.9096512078027361e-06 0 -0.044916628334624384 2.6364895383435002e-05 0 -0.044933118925403727 -2.7891062074598084e-05 0 -0.044933118925403727 -2.7891062074598084e-05 0 -0.044942722995738892 -0.00011187538120791098 0 -0.044951313606329306 -0.00022520228115405477 0 -0.045452763646551639 0.00016610397032596079 0 -0.043482595407533582 -0.00033541059764159438 0 -0.044944764096035122 -5.7697865814885804e-05 0 -0.044933118925403727 -2.7891062074598084e-05 0 -0.044942722995738892 -0.00011187538120791098 0 -0.044916628334624384 2.6364895383435002e-05 0 -0.044933118925403727 -2.7891062074598084e-05 0 -0.044943597537431733 3.1892631705766309e-05 0 -0.044942722995738892 -0.00011187538120791098 0 -0.044905396276187712 -0.00016819471332051351 0 -0.044951313606329306 -0.00022520228115405477 0 -0.044905396276187712 -0.00016819471332051351 0 -0.044803442757902344 -0.00024717810390685867 0 -0.044872501702286273 -0.00035177471487328504 0 -0.044801305052686168 -0.00010069862943347008 0 -0.044905396276187712 -0.00016819471332051351 0 -0.044803442757902344 -0.00024717810390685867 0 -0.04209128099419493 -0.00084810731319958244 0 -0.04232451355291468 -0.0007853662818164942 0 -0.042353652652991396 -0.00091044988117186965 0 -0.044684148508022901 -0.00053537019382234345 0 -0.044803442757902344 -0.00024717810390685867 0 -0.044872501702286273 -0.00035177471487328504 0 -0.042933149934337361 -0.00095139404027017168 0 -0.043725618453109578 -0.00054363635129662212 0 -0.043725618453109578 -0.00054363635129662212 0 -0.043482595407533582 -0.00033541059764159438 0 -0.04232451355291468 -0.0007853662818164942 0 -0.042591419534776263 -0.00071466527612862557 0 -0.042353652652991396 -0.00091044988117186965 0 -0.044905396276187712 -0.00016819471332051351 0 -0.044872501702286273 -0.00035177471487328504 0 -0.044951313606329306 -0.00022520228115405477 0 -0.043482595407533582 -0.00033541059764159438 0 -0.039555532241687813 -0.0013573608025218306 0 -0.041086262485933049 -0.00056189015015685418 0 -0.041009176743265555 -0.0014698390641029572 0 -0.040209424221460441 -0.0012875283671122846 0 -0.036719849296558617 -0.001344367553696025 0 -0.03671663663280067 -0.0013432229320262177 0 -0.036699774363432469 -0.0013541936276515809 0 -0.038955945540030894 -0.0014262141666986602 0 -0.039555532241687813 -0.0013573608025218306 0 -0.03671663663280067 -0.0013432229320262177 0 -0.036698867384213595 -0.001350816196957663 0 -0.036699774363432469 -0.0013541936276515809 0 -0.042933149934337361 -0.00095139404027017168 0 -0.039555532241687813 -0.0013573608025218306 0 -0.039824964930961333 -0.0016406487274779904 0 -0.039735323863230615 -0.001618001647423485 0 -0.039772716778248021 -0.001586020931128375 0 -0.039555532241687813 -0.0013573608025218306 0 -0.038299547603823016 -0.001426549878639604 0 -0.036699774363432469 -0.0013541936276515809 0 -0.036691872146819203 -0.0013571135550009387 0 -0.036680654678826689 -0.0013614173282509247 0 -0.036698867384213595 -0.001350816196957663 0 -0.036699774363432469 -0.0013541936276515809 0 -0.036691872146819203 -0.0013571135550009387 0 -0.036699774363432469 -0.0013541936276515809 0 -0.036693546507425928 -0.0013589875616193065 0 -0.036680654678826689 -0.0013614173282509247 0 -0.036719849296558617 -0.001344367553696025 0 -0.036699774363432469 -0.0013541936276515809 0 -0.036693546507425928 -0.0013589875616193065 0 -0.031718148266961156 0.00064828034070733885 0 -0.031781876303258197 0.00038589638626558863 0 -0.031483579319046912 0.00036989204493728369 0 -0.036719849296558617 -0.001344367553696025 0 -0.036730741011336138 -0.0013440132400282989 0 -0.036693546507425928 -0.0013589875616193065 0 -0.037612012258208961 -0.0012368484191709799 0 -0.033686692576084976 -0.00040569822652701987 0 -0.038955945540030894 -0.0014262141666986602 0 -0.037612012258208961 -0.0012368484191709799 0 -0.041617996309820611 -0.0010240004816165146 0 -0.041009176743265555 -0.0014698390641029572 0 -0.041802790780402846 -0.0016568532258863216 0 -0.042533545335275681 -0.001431109948311395 0 -0.042507724471338854 -0.0013137120439880889 0 -0.042232827897432414 -0.0014706383956973109 0 -0.037046148827153159 -0.00022674355346147398 0 -0.037612012258208961 -0.0012368484191709799 0 -0.042533545335275681 -0.001431109948311395 0 -0.042232827897432414 -0.0014706383956973109 0 -0.042448114735024974 -0.0012842303716055982 0 -0.042764348136172602 -0.0010019459177945083 0 -0.042448114735024974 -0.0012842303716055982 0 -0.042220233952314279 -0.0010884779922971401 0 -0.041617996309820611 -0.0010240004816165146 0 -0.041802790780402846 -0.0016568532258863216 0 -0.042220233952314279 -0.0010884779922971401 0 -0.037612012258208961 -0.0012368484191709799 0 -0.041955774567504489 -0.00032582147420880288 0 -0.042232827897432414 -0.0014706383956973109 0 -0.042448114735024974 -0.0012842303716055982 0 -0.042220233952314279 -0.0010884779922971401 0 -0.032046389130692285 0.00059287590586226528 0 -0.031718148266961156 0.00064828034070733885 0 -0.031874178490297604 0.00053580704005424748 0 -0.031718148266961156 0.00064828034070733885 0 -0.031874178490297604 0.00053580704005424748 0 -0.031781876303258197 0.00038589638626558863 0 -0.031953275911635506 0.00048888799866055022 0 -0.031874178490297604 0.00053580704005424748 0 -0.031781876303258197 0.00038589638626558863 0 -0.031781876303258197 0.00038589638626558863 0 -0.031651262795127089 0.00012713863570461571 0 -0.031878800534085747 0.00018235807546431042 0 -0.031651262795127089 0.00012713863570461571 0 -0.031878800534085747 0.00018235807546431042 0 -0.03171654926528128 -0.00011181774102383805 0 -0.031651262795127089 0.00012713863570461571 0 -0.031473814245903627 0.00011242536383490835 0 -0.031556880940974218 -6.2615270156546557e-05 0 -0.031781876303258197 0.00038589638626558863 0 -0.031651262795127089 0.00012713863570461571 0 -0.031483579319046912 0.00036989204493728369 0 -0.031651262795127089 0.00012713863570461571 0 -0.031473814245903627 0.00011242536383490835 0 -0.031483579319046912 0.00036989204493728369 0 -0.033686692576084976 -0.00040569822652701987 0 -0.033787823696883192 -0.0010411228708877241 0 -0.036693546507425928 -0.0013589875616193065 0 -0.036680654678826689 -0.0013614173282509247 0 -0.036664437929719601 -0.0013622391882703328 0 -0.034063031268600059 -0.0022465118003694657 0 -0.033533792327435259 -0.0016552392244657233 0 -0.034290452297864739 -0.0016098032231244242 0 -0.033533792327435259 -0.0016552392244657233 0 -0.033888361908900135 -0.0010564352428973839 0 -0.034290452297864739 -0.0016098032231244242 0 -0.035443753895663621 -0.0018913124771344049 0 -0.033787823696883192 -0.0010411228708877241 0 -0.031473814245903627 0.00011242536383490835 0 -0.031483579319046912 0.00036989204493728369 0 -0.031301859047849427 0.00010132886740842417 0 -0.031473814245903627 0.00011242536383490835 0 -0.031301859047849427 0.00010132886740842417 0 -0.031423964922098424 -6.5724161417014395e-05 0 -0.033787823696883192 -0.0010411228708877241 0 -0.031435386168415499 -0.00043777567942744356 0 -0.031868433700374434 -0.0011465364394159152 0 -0.032307995960719114 -0.00083943160392779901 0 -0.031502807933672036 -0.00023942875826147447 0 -0.032421985811258922 -0.0019004787446975427 0 -0.031868433700374434 -0.0011465364394159152 0 -0.032307995960719114 -0.00083943160392779901 0 -0.032421985811258922 -0.0019004787446975427 0 -0.032999441414013349 -0.0012107890921331261 0 -0.032307995960719114 -0.00083943160392779901 0 -0.033787823696883192 -0.0010411228708877241 0 -0.03331717233542867 -0.0012726551599782513 0 -0.032999441414013349 -0.0012107890921331261 0 -0.032307995960719114 -0.00083943160392779901 0 -0.033787309227628404 -0.00052189557282329984 0 -0.032307995960719114 -0.00083943160392779901 0 -0.033787309227628404 -0.00052189557282329984 0 -0.032178402713577213 -0.00022814851046984368 0 -0.032307995960719114 -0.00083943160392779901 0 -0.031502807933672036 -0.00023942875826147447 0 -0.032178402713577213 -0.00022814851046984368 0 -0.031502807933672036 -0.00023942875826147447 0 -0.031462319545874445 5.3982296425536643e-05 0 -0.03171654926528128 -0.00011181774102383805 0 -0.031502807933672036 -0.00023942875826147447 0 -0.031556880940974218 -6.2615270156546557e-05 0 -0.03171654926528128 -0.00011181774102383805 0 -0.031651262795127089 0.00012713863570461571 0 -0.031556880940974218 -6.2615270156546557e-05 0 -0.03171654926528128 -0.00011181774102383805 0 -0.031423964922098424 -6.5724161417014395e-05 0 -0.031502807933672036 -0.00023942875826147447 0 -0.031556880940974218 -6.2615270156546557e-05 0 -0.031473814245903627 0.00011242536383490835 0 -0.031423964922098424 -6.5724161417014395e-05 0 -0.031556880940974218 -6.2615270156546557e-05 0 -0.031435386168415499 -0.00043777567942744356 0 -0.031584285258547472 -0.00038072068808846633 0 -0.036838773590354305 -0.0014538825053858045 0 -0.037491242930019382 -0.0017075138381189309 0 -0.037750039433590073 -0.001548116820735737 0 -0.036838773590354305 -0.0014538825053858045 0 -0.037013632048728512 -0.0018865340416110831 0 -0.036084942382067539 -0.0017649958003662554 0 -0.036838773590354305 -0.0014538825053858045 0 -0.037491242930019382 -0.0017075138381189309 0 -0.037013632048728512 -0.0018865340416110831 0 -0.037491242930019382 -0.0017075138381189309 0 -0.037013632048728512 -0.0018865340416110831 0 -0.038093616553971844 -0.0019848296996491464 0 -0.038099556409960815 -0.0024431910240557209 0 -0.037308650128651706 -0.0022628898441809661 0 -0.038093616553971844 -0.0019848296996491464 0 -0.037308650128651706 -0.0022628898441809661 0 -0.037013632048728512 -0.0018865340416110831 0 -0.038093616553971844 -0.0019848296996491464 0 -0.037308650128651706 -0.0022628898441809661 0 -0.037013632048728512 -0.0018865340416110831 0 -0.036389966191799371 -0.0022490996924790043 0 -0.036389966191799371 -0.0022490996924790043 0 -0.036084942382067539 -0.0017649958003662554 0 -0.035403771470600698 -0.002186512056948078 0 -0.035952310612896707 -0.0026095922347740396 0 -0.036389966191799371 -0.0022490996924790043 0 -0.035403771470600698 -0.002186512056948078 0 -0.037013632048728512 -0.0018865340416110831 0 -0.036389966191799371 -0.0022490996924790043 0 -0.036084942382067539 -0.0017649958003662554 0 -0.036838773590354305 -0.0014538825053858045 0 -0.036084942382067539 -0.0017649958003662554 0 -0.035787888103596517 -0.0012467404297373534 0 -0.036084942382067539 -0.0017649958003662554 0 -0.035096308516501903 -0.001652485554215491 0 -0.035787888103596517 -0.0012467404297373534 0 -0.036084942382067539 -0.0017649958003662554 0 -0.035096308516501903 -0.001652485554215491 0 -0.035403771470600698 -0.002186512056948078 0 -0.035393968590375767 -0.0026782570119141696 0 -0.035952310612896707 -0.0026095922347740396 0 -0.035403771470600698 -0.002186512056948078 0 -0.035393968590375767 -0.0026782570119141696 0 -0.035403771470600698 -0.002186512056948078 0 -0.035058665259706995 -0.0024139166313721112 0 -0.035403771470600698 -0.002186512056948078 0 -0.035058665259706995 -0.0024139166313721112 0 -0.034690885094539943 -0.0021742332730858684 0 -0.035096308516501903 -0.001652485554215491 0 -0.035403771470600698 -0.002186512056948078 0 -0.034690885094539943 -0.0021742332730858684 0 -0.03469856148916093 -0.002910350544843278 0 -0.034063031268600059 -0.0022465118003694657 0 -0.034690885094539943 -0.0021742332730858684 0 -0.034063031268600059 -0.0022465118003694657 0 -0.034690885094539943 -0.0021742332730858684 0 -0.034290452297864739 -0.0016098032231244242 0 -0.034877573132848387 -0.0027630414112623154 0 -0.035058665259706995 -0.0024139166313721112 0 -0.034690885094539943 -0.0021742332730858684 0 -0.03666947318289844 -0.0020818288608081452 0 -0.035443753895663621 -0.0018913124771344049 0 -0.035096308516501903 -0.001652485554215491 0 -0.034290452297864739 -0.0016098032231244242 0 -0.034582391511622547 -0.0011100515577722018 0 -0.035096308516501903 -0.001652485554215491 0 -0.034690885094539943 -0.0021742332730858684 0 -0.034290452297864739 -0.0016098032231244242 0 -0.033888361908900135 -0.0010564352428973839 0 -0.034582391511622547 -0.0011100515577722018 0 -0.033787309227628404 -0.00052189557282329984 0 -0.033888361908900135 -0.0010564352428973839 0 -0.034290452297864739 -0.0016098032231244242 0 -0.034582391511622547 -0.0011100515577722018 0 -0.03331717233542867 -0.0012726551599782513 0 -0.033841908752800548 -0.0004769096939999502 0 -0.033787309227628404 -0.00052189557282329984 0 -0.035235358141272564 -0.00064918521745185073 0 -0.034654859233502984 2.6151506717399964e-05 0 -0.034582391511622547 -0.0011100515577722018 0 -0.033787309227628404 -0.00052189557282329984 0 -0.035235358141272564 -0.00064918521745185073 0 -0.035096308516501903 -0.001652485554215491 0 -0.034582391511622547 -0.0011100515577722018 0 -0.035787888103596517 -0.0012467404297373534 0 -0.034582391511622547 -0.0011100515577722018 0 -0.035235358141272564 -0.00064918521745185073 0 -0.035787888103596517 -0.0012467404297373534 0 -0.035235358141272564 -0.00064918521745185073 0 -0.035787888103596517 -0.0012467404297373534 0 -0.036681326507117924 -0.00086428205603542182 0 -0.035235358141272564 -0.00064918521745185073 0 -0.035885418029750281 -0.00015784954537174841 0 -0.034654859233502984 2.6151506717399964e-05 0 -0.035235358141272564 -0.00064918521745185073 0 -0.036681326507117924 -0.00086428205603542182 0 -0.035885418029750281 -0.00015784954537174841 0 -0.036681326507117924 -0.00086428205603542182 0 -0.036839001544867744 -0.00016055996835377567 0 -0.035885418029750281 -0.00015784954537174841 0 -0.036838773590354305 -0.0014538825053858045 0 -0.036681326507117924 -0.00086428205603542182 0 -0.037750039433590073 -0.001548116820735737 0 -0.036838773590354305 -0.0014538825053858045 0 -0.035787888103596517 -0.0012467404297373534 0 -0.036681326507117924 -0.00086428205603542182 0 -0.033257193629302434 0.00021061752793615727 0 -0.0333635907382532 4.459700713045504e-05 0 -0.032973315393438368 -0.0002553558914828278 0 -0.036157966496867477 0.00081348837114501036 0 -0.036839001544867744 -0.00016055996835377567 0 -0.037652210756480287 0.00045867800555740042 0 -0.036157966496867477 0.00081348837114501036 0 -0.036839001544867744 -0.00016055996835377567 0 -0.035885418029750281 -0.00015784954537174841 0 -0.036157966496867477 0.00081348837114501036 0 -0.035885418029750281 -0.00015784954537174841 0 -0.034654859233502984 2.6151506717399964e-05 0 -0.033257193629302434 0.00021061752793615727 0 -0.034074327802074769 0.00076019243066845297 0 -0.0333635907382532 4.459700713045504e-05 0 -0.034692037694118022 0.00047938890061512509 0 -0.034170575677621322 0.00073278107599649886 0 -0.036157966496867477 0.00081348837114501036 0 -0.034074327802074769 0.00076019243066845297 0 -0.034654859233502984 2.6151506717399964e-05 0 -0.034074327802074769 0.00076019243066845297 0 -0.034654859233502984 2.6151506717399964e-05 0 -0.033246906020272207 0.00021637059062001437 0 -0.033787309227628404 -0.00052189557282329984 0 -0.034654859233502984 2.6151506717399964e-05 0 -0.033246906020272207 0.00021637059062001437 0 -0.033246906020272207 0.00021637059062001437 0 -0.033517342903483474 0.0006254848721539949 0 -0.031808179589519814 0.00072603580116489157 0 -0.034074327802074769 0.00076019243066845297 0 -0.033246906020272207 0.00021637059062001437 0 -0.033517342903483474 0.0006254848721539949 0 -0.033517342903483474 0.0006254848721539949 0 -0.033816485322382142 0.00098776149674611275 0 -0.031808179589519814 0.00072603580116489157 0 -0.034074327802074769 0.00076019243066845297 0 -0.033517342903483474 0.0006254848721539949 0 -0.033816485322382142 0.00098776149674611275 0 -0.030247347872134154 0.00068193451827865039 0 -0.030355097608565872 0.00026886513004393306 0 -0.031084872235605319 0.00035632766226324802 0 -0.030247347872134154 0.00068193451827865039 0 -0.030355097608565872 0.00026886513004393306 0 -0.029932777927339244 0.00033996186464204981 0 -0.030355097608565872 0.00026886513004393306 0 -0.029993300770515739 1.3307547020904632e-05 0 -0.030635835879092705 1.6562719627756854e-05 0 -0.030355097608565872 0.00026886513004393306 0 -0.029993300770515739 1.3307547020904632e-05 0 -0.029932777927339244 0.00033996186464204981 0 -0.029993300770515739 1.3307547020904632e-05 0 -0.029552595811602727 0.00038036236494195895 0 -0.029499885976158605 -0.00028821858144280083 0 -0.029993300770515739 1.3307547020904632e-05 0 -0.029932777927339244 0.00033996186464204981 0 -0.029552595811602727 0.00038036236494195895 0 -0.033816485322382142 0.00098776149674611275 0 -0.033709155454943983 9.6851431566044049e-05 0 -0.033713672792068883 4.8413871993815031e-05 0 -0.031979332788146297 0.0007938723994273491 0 -0.031642401930507116 -0.0001407321965269093 0 -0.030247347872134154 0.00068193451827865039 0 -0.029932777927339244 0.00033996186464204981 0 -0.029552595811602727 0.00038036236494195895 0 -0.034074327802074769 0.00076019243066845297 0 -0.033816485322382142 0.00098776149674611275 0 -0.033709155454943983 9.6851431566044049e-05 0 -0.034074327802074769 0.00076019243066845297 0 -0.0333635907382532 4.459700713045504e-05 0 -0.033709155454943983 9.6851431566044049e-05 0 -0.0333635907382532 4.459700713045504e-05 0 -0.033696480182565519 2.4477647586769866e-05 0 -0.033263905036276312 -0.00032327541314750924 0 -0.0333635907382532 4.459700713045504e-05 0 -0.033709155454943983 9.6851431566044049e-05 0 -0.033696480182565519 2.4477647586769866e-05 0 -0.031712125193295096 -0.00011353451614871634 0 -0.031642401930507116 -0.0001407321965269093 0 -0.031012343316808008 -0.00076505441718908399 0 -0.031087685052120638 -0.00064458675353097064 0 -0.030991635444439322 -0.00057388035287423117 0 -0.031642401930507116 -0.0001407321965269093 0 -0.030121056182607509 -0.00039518563491668313 0 -0.031642401930507116 -0.0001407321965269093 0 -0.03234950089619399 -0.00044815729260332506 0 -0.031012343316808008 -0.00076505441718908399 0 -0.031117992769066082 -0.00072768317477823769 0 -0.031087685052120638 -0.00064458675353097064 0 -0.031117992769066082 -0.00072768317477823769 0 -0.031232035949018092 -0.00068939318095057923 0 -0.031087685052120638 -0.00064458675353097064 0 -0.033263905036276312 -0.00032327541314750924 0 -0.03306781599199779 -0.00025380501969680486 0 -0.033023928920003075 -0.00042231090285514363 0 -0.03234950089619399 -0.00044815729260332506 0 -0.031843071609288794 -0.0011379926148763785 0 -0.0333635907382532 4.459700713045504e-05 0 -0.033263905036276312 -0.00032327541314750924 0 -0.03306781599199779 -0.00025380501969680486 0 -0.0333635907382532 4.459700713045504e-05 0 -0.03306781599199779 -0.00025380501969680486 0 -0.032973315393438368 -0.0002553558914828278 0 -0.031450704213116569 0.00025414816922384131 0 -0.031608901290055696 6.3865586837341226e-05 0 -0.031768902748204764 0.00030325778711236457 0 -0.031450704213116569 0.00025414816922384131 0 -0.031462319545874445 5.3982296425536643e-05 0 -0.031379633138566107 0.00018124393677249864 0 -0.031502807933672036 -0.00023942875826147447 0 -0.031462319545874445 5.3982296425536643e-05 0 -0.031608901290055696 6.3865586837341226e-05 0 -0.031450704213116569 0.00025414816922384131 0 -0.031462319545874445 5.3982296425536643e-05 0 -0.031608901290055696 6.3865586837341226e-05 0 -0.031502807933672036 -0.00023942875826147447 0 -0.031608901290055696 6.3865586837341226e-05 0 -0.032178402713577213 -0.00022814851046984368 0 -0.031608901290055696 6.3865586837341226e-05 0 -0.032178402713577213 -0.00022814851046984368 0 -0.031768902748204764 0.00030325778711236457 0 -0.033787309227628404 -0.00052189557282329984 0 -0.033246906020272207 0.00021637059062001437 0 -0.032178402713577213 -0.00022814851046984368 0 -0.033246906020272207 0.00021637059062001437 0 -0.032178402713577213 -0.00022814851046984368 0 -0.031768902748204764 0.00030325778711236457 0 -0.033246906020272207 0.00021637059062001437 0 -0.031808179589519814 0.00072603580116489157 0 -0.031768902748204764 0.00030325778711236457 0 -0.031450704213116569 0.00025414816922384131 0 -0.031768902748204764 0.00030325778711236457 0 -0.031515839040414995 0.00045902445909011248 0 -0.031808179589519814 0.00072603580116489157 0 -0.031768902748204764 0.00030325778711236457 0 -0.031515839040414995 0.00045902445909011248 0 -0.031515839040414995 0.00045902445909011248 0 -0.031084872235605319 0.00035632766226324802 0 -0.031252837131298436 0.00024754389228747923 0 -0.031979332788146297 0.0007938723994273491 0 -0.031772311730580954 0.00071959535293383435 0 -0.030247347872134154 0.00068193451827865039 0 -0.031808179589519814 0.00072603580116489157 0 -0.031084872235605319 0.00035632766226324802 0 -0.031808179589519814 0.00072603580116489157 0 -0.031515839040414995 0.00045902445909011248 0 -0.031084872235605319 0.00035632766226324802 0 -0.030355097608565872 0.00026886513004393306 0 -0.031084872235605319 0.00035632766226324802 0 -0.030635835879092705 1.6562719627756854e-05 0 -0.030635835879092705 1.6562719627756854e-05 0 -0.031252837131298436 0.00024754389228747923 0 -0.030825672776481142 -0.0001655062570270956 0 -0.031084872235605319 0.00035632766226324802 0 -0.030635835879092705 1.6562719627756854e-05 0 -0.031252837131298436 0.00024754389228747923 0 -0.031450704213116569 0.00025414816922384131 0 -0.031515839040414995 0.00045902445909011248 0 -0.031252837131298436 0.00024754389228747923 0 -0.031450704213116569 0.00025414816922384131 0 -0.031252837131298436 0.00024754389228747923 0 -0.031379633138566107 0.00018124393677249864 0 -0.031252837131298436 0.00024754389228747923 0 -0.031379633138566107 0.00018124393677249864 0 -0.031301575109458614 6.5381015731664929e-05 0 -0.031252837131298436 0.00024754389228747923 0 -0.031301575109458614 6.5381015731664929e-05 0 -0.031159533650841207 -7.3744860717758965e-05 0 -0.031301575109458614 6.5381015731664929e-05 0 -0.031317319572866188 -0.00010111272303283145 0 -0.031159533650841207 -7.3744860717758965e-05 0 -0.031301575109458614 6.5381015731664929e-05 0 -0.031402022604827766 4.6482468782947207e-05 0 -0.031317319572866188 -0.00010111272303283145 0 -0.031402022604827766 4.6482468782947207e-05 0 -0.031471229836694779 -0.00019152309445585999 0 -0.031317319572866188 -0.00010111272303283145 0 -0.031402022604827766 4.6482468782947207e-05 0 -0.031545997636195679 5.7624798471803686e-05 0 -0.031471229836694779 -0.00019152309445585999 0 -0.031402022604827766 4.6482468782947207e-05 0 -0.031442239934375928 0.00013429234211338593 0 -0.031545997636195679 5.7624798471803686e-05 0 -0.031379633138566107 0.00018124393677249864 0 -0.031402022604827766 4.6482468782947207e-05 0 -0.031442239934375928 0.00013429234211338593 0 -0.031379633138566107 0.00018124393677249864 0 -0.031301575109458614 6.5381015731664929e-05 0 -0.031402022604827766 4.6482468782947207e-05 0 -0.031462319545874445 5.3982296425536643e-05 0 -0.031379633138566107 0.00018124393677249864 0 -0.031442239934375928 0.00013429234211338593 0 -0.031442239934375928 0.00013429234211338593 0 -0.031558061187813277 0.00017247338732915516 0 -0.031545997636195679 5.7624798471803686e-05 0 -0.031988216122327738 -0.0001239433076077276 0 -0.031813294580650187 -0.00011975677077726105 0 -0.031442239934375928 0.00013429234211338593 0 -0.031558061187813277 0.00017247338732915516 0 -0.031472453183077224 7.2065337715059228e-05 0 -0.031462319545874445 5.3982296425536643e-05 0 -0.031442239934375928 0.00013429234211338593 0 -0.031472453183077224 7.2065337715059228e-05 0 -0.032590557396172781 -0.00024725186451132118 0 -0.032564339206560031 -0.00037512334932835313 0 -0.032677883774435326 -0.00034243630880379113 0 -0.032590557396172781 -0.00024725186451132118 0 -0.032444688111879803 -0.00029809870354316503 0 -0.032564339206560031 -0.00037512334932835313 0 -0.032444688111879803 -0.00029809870354316503 0 -0.032414261676126044 -0.00041094964050035867 0 -0.032564339206560031 -0.00037512334932835313 0 -0.032444688111879803 -0.00029809870354316503 0 -0.032414261676126044 -0.00041094964050035867 0 -0.032154342106161686 -0.00032746881830190776 0 -0.031988216122327738 -0.0001239433076077276 0 -0.032204440367579225 -0.00018508391350675221 0 -0.032414261676126044 -0.00041094964050035867 0 -0.032564339206560031 -0.00037512334932835313 0 -0.032590830216325903 -0.00047358697755618706 0 -0.032564339206560031 -0.00037512334932835313 0 -0.032590830216325903 -0.00047358697755618706 0 -0.032690536822135505 -0.00043640058353469001 0 -0.031558061187813277 0.00017247338732915516 0 -0.031818265001428508 0.00010957888574015487 0 -0.031545997636195679 5.7624798471803686e-05 0 -0.031818265001428508 0.00010957888574015487 0 -0.031545997636195679 5.7624798471803686e-05 0 -0.031712529920608884 -0.00012334267401841904 0 -0.031545997636195679 5.7624798471803686e-05 0 -0.031712529920608884 -0.00012334267401841904 0 -0.031471229836694779 -0.00019152309445585999 0 -0.031818265001428508 0.00010957888574015487 0 -0.031712529920608884 -0.00012334267401841904 0 -0.032152736443393906 -9.3959174506038823e-05 0 -0.032204440367579225 -0.00018508391350675221 0 -0.032424332737394465 -0.00030655371691953024 0 -0.032695285891205954 -0.00050172580091104794 0 -0.032766944861363695 -0.00045170882031016001 0 -0.032714500042852986 -0.00048050842692445297 0 -0.032695285891205954 -0.00050172580091104794 0 -0.032766944861363695 -0.00045170882031016001 0 -0.032690536822135505 -0.00043640058353469001 0 -0.032590830216325903 -0.00047358697755618706 0 -0.032695285891205954 -0.00050172580091104794 0 -0.032690536822135505 -0.00043640058353469001 0 -0.032916290508268449 -0.00041250869727668356 0 -0.032756863698280084 -0.00047512119806020626 0 -0.032813748212873806 -0.00061597809556469395 0 -0.032874993089459112 -0.00043242889855784846 0 -0.032916290508268449 -0.00041250869727668356 0 -0.032925633837586045 -0.00047263836501835945 0 -0.032867545236881977 -0.00029481900585298827 0 -0.032916290508268449 -0.00041250869727668356 0 -0.032920889313702573 -0.00027892100077950234 0 -0.032916290508268449 -0.00041250869727668356 0 -0.032756863698280084 -0.00047512119806020626 0 -0.032843465983028945 -0.00044607750656935235 0 -0.032766944861363695 -0.00045170882031016001 0 -0.032714500042852986 -0.00048050842692445297 0 -0.032843465983028945 -0.00044607750656935235 0 -0.032756863698280084 -0.00047512119806020626 0 -0.032714500042852986 -0.00048050842692445297 0 -0.032843465983028945 -0.00044607750656935235 0 -0.032756863698280084 -0.00047512119806020626 0 -0.032714500042852986 -0.00048050842692445297 0 -0.032681983703141494 -0.00047411192961180966 0 -0.032766944861363695 -0.00045170882031016001 0 -0.032843465983028945 -0.00044607750656935235 0 -0.032887644447420379 -0.00042785519031627954 0 -0.032843465983028945 -0.00044607750656935235 0 -0.032887644447420379 -0.00042785519031627954 0 -0.032925633837586045 -0.00047263836501835945 0 -0.032916290508268449 -0.00041250869727668356 0 -0.032843465983028945 -0.00044607750656935235 0 -0.032925633837586045 -0.00047263836501835945 0 -0.032887644447420379 -0.00042785519031627954 0 -0.032925633837586045 -0.00047263836501835945 0 -0.03297643963674849 -0.00044843743021709057 0 -0.03297643963674849 -0.00044843743021709057 0 -0.032931198439839597 -0.00037005733961099907 0 -0.033046578091721707 -0.00032798932422664542 0 -0.032887644447420379 -0.00042785519031627954 0 -0.03297643963674849 -0.00044843743021709057 0 -0.032931198439839597 -0.00037005733961099907 0 -0.032887644447420379 -0.00042785519031627954 0 -0.032931198439839597 -0.00037005733961099907 0 -0.032830356638617268 -0.00035785548567179089 0 -0.032766944861363695 -0.00045170882031016001 0 -0.032887644447420379 -0.00042785519031627954 0 -0.032830356638617268 -0.00035785548567179089 0 -0.032931198439839597 -0.00037005733961099907 0 -0.032830356638617268 -0.00035785548567179089 0 -0.032929087131137617 -0.00027737585959796053 0 -0.032830356638617268 -0.00035785548567179089 0 -0.032929087131137617 -0.00027737585959796053 0 -0.032869379031891008 -0.00018661274915268179 0 -0.032929087131137617 -0.00027737585959796053 0 -0.033046578091721707 -0.00032798932422664542 0 -0.03303051103219657 -0.00017774127290058457 0 -0.033153506662404374 -0.00020488235180685026 0 -0.033046578091721707 -0.00032798932422664542 0 -0.03303051103219657 -0.00017774127290058457 0 -0.032931198439839597 -0.00037005733961099907 0 -0.032929087131137617 -0.00027737585959796053 0 -0.033046578091721707 -0.00032798932422664542 0 -0.032564339206560031 -0.00037512334932835313 0 -0.032690536822135505 -0.00043640058353469001 0 -0.032677883774435326 -0.00034243630880379113 0 -0.032766944861363695 -0.00045170882031016001 0 -0.032690536822135505 -0.00043640058353469001 0 -0.032830356638617268 -0.00035785548567179089 0 -0.032690536822135505 -0.00043640058353469001 0 -0.032830356638617268 -0.00035785548567179089 0 -0.032677883774435326 -0.00034243630880379113 0 -0.032830356638617268 -0.00035785548567179089 0 -0.032747772146922524 -0.0002327136962786866 0 -0.032869379031891008 -0.00018661274915268179 0 -0.032830356638617268 -0.00035785548567179089 0 -0.032747772146922524 -0.0002327136962786866 0 -0.032677883774435326 -0.00034243630880379113 0 -0.032590557396172781 -0.00024725186451132118 0 -0.032747772146922524 -0.0002327136962786866 0 -0.032677883774435326 -0.00034243630880379113 0 -0.032747772146922524 -0.0002327136962786866 0 -0.032693833195906588 -0.00012140485057549732 0 -0.032790230969980232 -8.2528607752649903e-05 0 -0.032590557396172781 -0.00024725186451132118 0 -0.032747772146922524 -0.0002327136962786866 0 -0.032693833195906588 -0.00012140485057549732 0 -0.032590557396172781 -0.00024725186451132118 0 -0.032693833195906588 -0.00012140485057549732 0 -0.032592452414410174 -7.5011970930447225e-05 0 -0.032790230969980232 -8.2528607752649903e-05 0 -0.032869379031891008 -0.00018661274915268179 0 -0.032895662976627625 -1.3260490440989417e-05 0 -0.032747772146922524 -0.0002327136962786866 0 -0.032790230969980232 -8.2528607752649903e-05 0 -0.032869379031891008 -0.00018661274915268179 0 -0.032790230969980232 -8.2528607752649903e-05 0 -0.032807122959720374 4.0522647999808071e-05 0 -0.032707555921481862 1.5896414232792658e-05 0 -0.032790230969980232 -8.2528607752649903e-05 0 -0.032807122959720374 4.0522647999808071e-05 0 -0.032895662976627625 -1.3260490440989417e-05 0 -0.032807122959720374 4.0522647999808071e-05 0 -0.032895662976627625 -1.3260490440989417e-05 0 -0.032903853764910243 0.00014528894991630188 0 -0.032707555921481862 1.5896414232792658e-05 0 -0.032698751985966536 0.00013398832294930489 0 -0.032757642058226101 0.00013605616767514453 0 -0.032807122959720374 4.0522647999808071e-05 0 -0.032707555921481862 1.5896414232792658e-05 0 -0.032757642058226101 0.00013605616767514453 0 -0.032707555921481862 1.5896414232792658e-05 0 -0.032592452414410174 -7.5011970930447225e-05 0 -0.032635428458702265 6.9831792692923972e-05 0 -0.032707555921481862 1.5896414232792658e-05 0 -0.032698751985966536 0.00013398832294930489 0 -0.032635428458702265 6.9831792692923972e-05 0 -0.032693833195906588 -0.00012140485057549732 0 -0.032707555921481862 1.5896414232792658e-05 0 -0.032592452414410174 -7.5011970930447225e-05 0 -0.032693833195906588 -0.00012140485057549732 0 -0.032790230969980232 -8.2528607752649903e-05 0 -0.032707555921481862 1.5896414232792658e-05 0 -0.03303051103219657 -0.00017774127290058457 0 -0.033053920907910116 -1.2771924278364054e-05 0 -0.033130074759134799 -7.4457015786734776e-05 0 -0.033153506662404374 -0.00020488235180685026 0 -0.03303051103219657 -0.00017774127290058457 0 -0.033130074759134799 -7.4457015786734776e-05 0 -0.032929087131137617 -0.00027737585959796053 0 -0.03303051103219657 -0.00017774127290058457 0 -0.032869379031891008 -0.00018661274915268179 0 -0.03303051103219657 -0.00017774127290058457 0 -0.032869379031891008 -0.00018661274915268179 0 -0.033053920907910116 -1.2771924278364054e-05 0 -0.032869379031891008 -0.00018661274915268179 0 -0.032895662976627625 -1.3260490440989417e-05 0 -0.033053920907910116 -1.2771924278364054e-05 0 -0.032895662976627625 -1.3260490440989417e-05 0 -0.033053920907910116 -1.2771924278364054e-05 0 -0.032903853764910243 0.00014528894991630188 0 -0.033068650037334744 5.8346417762651075e-07 0 -0.033021146312309367 5.5118301728598957e-05 0 -0.033053920907910116 -1.2771924278364054e-05 0 -0.033113230108621827 -6.6137414193217365e-06 0 -0.03312082742902675 1.5854112825465945e-06 0 -0.033053920907910116 -1.2771924278364054e-05 0 -0.033113230108621827 -6.6137414193217365e-06 0 -0.033130074759134799 -7.4457015786734776e-05 0 -0.033160897342926987 2.4598830058402723e-05 0 -0.033113230108621827 -6.6137414193217365e-06 0 -0.03312082742902675 1.5854112825465945e-06 0 -0.033160897342926987 2.4598830058402723e-05 0 -0.03312082742902675 1.5854112825465945e-06 0 -0.033103004823248641 -4.5054990917456202e-05 0 -0.033053920907910116 -1.2771924278364054e-05 0 -0.03312082742902675 1.5854112825465945e-06 0 -0.033182748275148923 1.8073733079203442e-05 0 -0.03312082742902675 1.5854112825465945e-06 0 -0.033182748275148923 1.8073733079203442e-05 0 -0.033215683692331077 -2.1102509852206961e-05 0 -0.033196090856994452 -0.00012761860080644057 0 -0.033179157728427978 -5.3765036298454406e-05 0 -0.033103004823248641 -4.5054990917456202e-05 0 -0.03312082742902675 1.5854112825465945e-06 0 -0.033179157728427978 -5.3765036298454406e-05 0 -0.033215683692331077 -2.1102509852206961e-05 0 -0.033179157728427978 -5.3765036298454406e-05 0 -0.033215683692331077 -2.1102509852206961e-05 0 -0.033257546918757923 -8.5314176021978192e-05 0 -0.03312082742902675 1.5854112825465945e-06 0 -0.033179157728427978 -5.3765036298454406e-05 0 -0.033103004823248641 -4.5054990917456202e-05 0 -0.032715856885073433 0.00024751797546856638 0 -0.032767091817092898 0.00023058231464967162 0 -0.032639205529037506 0.00033984720562244789 0 -0.032715856885073433 0.00024751797546856638 0 -0.032757642058226101 0.00013605616767514453 0 -0.032767091817092898 0.00023058231464967162 0 -0.032715856885073433 0.00024751797546856638 0 -0.032756897166693222 0.00024676140215051012 0 -0.032691379736505433 0.00017788755207341614 0 -0.032715856885073433 0.00024751797546856638 0 -0.032698751985966536 0.00013398832294930489 0 -0.032691379736505433 0.00017788755207341614 0 -0.032698751985966536 0.00013398832294930489 0 -0.032691379736505433 0.00017788755207341614 0 -0.032635428458702265 6.9831792692923972e-05 0 -0.032715856885073433 0.00024751797546856638 0 -0.032698751985966536 0.00013398832294930489 0 -0.032757642058226101 0.00013605616767514453 0 -0.032757642058226101 0.00013605616767514453 0 -0.032903853764910243 0.00014528894991630188 0 -0.032767091817092898 0.00023058231464967162 0 -0.032807122959720374 4.0522647999808071e-05 0 -0.032757642058226101 0.00013605616767514453 0 -0.032903853764910243 0.00014528894991630188 0 -0.033021146312309367 5.5118301728598957e-05 0 -0.033498505573224049 0.00061833108647054932 0 -0.033182748275148923 1.8073733079203442e-05 0 -0.033310544165714467 -1.4901347979717556e-05 0 -0.033215683692331077 -2.1102509852206961e-05 0 -0.032903853764910243 0.00014528894991630188 0 -0.032767091817092898 0.00023058231464967162 0 -0.032743237308949659 0.00032239103923486286 0 -0.033191565081281252 0.00040321439378023774 0 -0.033498505573224049 0.00061833108647054932 0 -0.033380220238017767 -0.00010806888294189802 0 -0.033310544165714467 -1.4901347979717556e-05 0 -0.033257546918757923 -8.5314176021978192e-05 0 -0.033310544165714467 -1.4901347979717556e-05 0 -0.033215683692331077 -2.1102509852206961e-05 0 -0.033257546918757923 -8.5314176021978192e-05 0 -0.034478046159090205 0.00021998051657224846 0 -0.033498505573224049 0.00061833108647054932 0 -0.032968539718972352 0.00024509791030319665 0 -0.03308277318780125 0.0001424563528187304 0 -0.032639205529037506 0.00033984720562244789 0 -0.035119469284641963 0.00027168629811597021 0 -0.036276264367415358 0.0002749230223087622 0 -0.034591998290717921 0.0018293244905184837 0 -0.034215505403583181 0.00017958663376499166 0 -0.033498505573224049 0.00061833108647054932 0 -0.032968539718972352 0.00024509791030319665 0 -0.032639205529037506 0.00033984720562244789 0 -0.0327809985387102 0.00028465684333683726 0 -0.032715856885073433 0.00024751797546856638 0 -0.032639205529037506 0.00033984720562244789 0 -0.0327809985387102 0.00028465684333683726 0 -0.032715856885073433 0.00024751797546856638 0 -0.032756897166693222 0.00024676140215051012 0 -0.0327809985387102 0.00028465684333683726 0 -0.032756897166693222 0.00024676140215051012 0 -0.0327809985387102 0.00028465684333683726 0 -0.032832700355290637 0.00026246134778006795 0 -0.032968539718972352 0.00024509791030319665 0 -0.0327809985387102 0.00028465684333683726 0 -0.032832700355290637 0.00026246134778006795 0 -0.032832700355290637 0.00026246134778006795 0 -0.032744431642394323 0.00026728252798903192 0 -0.032758295999969475 0.00024826276068234905 0 -0.032968539718972352 0.00024509791030319665 0 -0.032832700355290637 0.00026246134778006795 0 -0.032744431642394323 0.00026728252798903192 0 -0.032968539718972352 0.00024509791030319665 0 -0.032744431642394323 0.00026728252798903192 0 -0.032562070792514441 0.0003482904369214598 0 -0.032744431642394323 0.00026728252798903192 0 -0.032603220634434153 0.00027087316836545583 0 -0.032562070792514441 0.0003482904369214598 0 -0.032744431642394323 0.00026728252798903192 0 -0.032603220634434153 0.00027087316836545583 0 -0.032758295999969475 0.00024826276068234905 0 -0.032603220634434153 0.00027087316836545583 0 -0.032669905605496354 0.00020333163646169098 0 -0.03251079896658144 0.00016959493178129423 0 -0.032603220634434153 0.00027087316836545583 0 -0.032758295999969475 0.00024826276068234905 0 -0.032669905605496354 0.00020333163646169098 0 -0.032756897166693222 0.00024676140215051012 0 -0.032758295999969475 0.00024826276068234905 0 -0.032669905605496354 0.00020333163646169098 0 -0.032756897166693222 0.00024676140215051012 0 -0.032832700355290637 0.00026246134778006795 0 -0.032758295999969475 0.00024826276068234905 0 -0.032669905605496354 0.00020333163646169098 0 -0.032691379736505433 0.00017788755207341614 0 -0.032606424898675823 0.00012984271024017542 0 -0.032756897166693222 0.00024676140215051012 0 -0.032669905605496354 0.00020333163646169098 0 -0.032691379736505433 0.00017788755207341614 0 -0.032669905605496354 0.00020333163646169098 0 -0.032606424898675823 0.00012984271024017542 0 -0.03251079896658144 0.00016959493178129423 0 -0.032606424898675823 0.00012984271024017542 0 -0.032635428458702265 6.9831792692923972e-05 0 -0.032487379150936933 2.4172269599869141e-05 0 -0.032606424898675823 0.00012984271024017542 0 -0.03251079896658144 0.00016959493178129423 0 -0.032487379150936933 2.4172269599869141e-05 0 -0.032691379736505433 0.00017788755207341614 0 -0.032606424898675823 0.00012984271024017542 0 -0.032635428458702265 6.9831792692923972e-05 0 -0.03251079896658144 0.00016959493178129423 0 -0.032352905951408967 0.00029758316400385512 0 -0.032292179045002763 0.00011347359668042144 0 -0.03251079896658144 0.00016959493178129423 0 -0.032292179045002763 0.00011347359668042144 0 -0.032487379150936933 2.4172269599869141e-05 0 -0.032603220634434153 0.00027087316836545583 0 -0.03251079896658144 0.00016959493178129423 0 -0.032352905951408967 0.00029758316400385512 0 -0.032603220634434153 0.00027087316836545583 0 -0.032352905951408967 0.00029758316400385512 0 -0.032562070792514441 0.0003482904369214598 0 -0.032352905951408967 0.00029758316400385512 0 -0.032562070792514441 0.0003482904369214598 0 -0.032377041803258746 0.00040485170188070809 0 -0.032352905951408967 0.00029758316400385512 0 -0.032190036156805421 0.00042308413536381288 0 -0.032122698473143738 0.00025692162596426953 0 -0.032352905951408967 0.00029758316400385512 0 -0.032377041803258746 0.00040485170188070809 0 -0.032190036156805421 0.00042308413536381288 0 -0.032190036156805421 0.00042308413536381288 0 -0.032122698473143738 0.00025692162596426953 0 -0.031993529978777302 0.00038457040383090853 0 -0.032122698473143738 0.00025692162596426953 0 -0.031993529978777302 0.00038457040383090853 0 -0.031878800534085747 0.00018235807546431042 0 -0.031781876303258197 0.00038589638626558863 0 -0.031993529978777302 0.00038457040383090853 0 -0.031878800534085747 0.00018235807546431042 0 -0.032122698473143738 0.00025692162596426953 0 -0.032027580023024152 6.1086640309847317e-05 0 -0.031878800534085747 0.00018235807546431042 0 -0.032027580023024152 6.1086640309847317e-05 0 -0.031878800534085747 0.00018235807546431042 0 -0.03171654926528128 -0.00011181774102383805 0 -0.032352905951408967 0.00029758316400385512 0 -0.032122698473143738 0.00025692162596426953 0 -0.032292179045002763 0.00011347359668042144 0 -0.032122698473143738 0.00025692162596426953 0 -0.032027580023024152 6.1086640309847317e-05 0 -0.032292179045002763 0.00011347359668042144 0 -0.032027580023024152 6.1086640309847317e-05 0 -0.032292179045002763 0.00011347359668042144 0 -0.032227418771284481 -8.0492814576775282e-05 0 -0.032027580023024152 6.1086640309847317e-05 0 -0.032227418771284481 -8.0492814576775282e-05 0 -0.03171654926528128 -0.00011181774102383805 0 -0.031717317815192395 -9.9372301460163862e-05 0 -0.031813294580650187 -0.00011975677077726105 0 -0.031462319545874445 5.3982296425536643e-05 0 -0.03171654926528128 -0.00011181774102383805 0 -0.031472453183077224 7.2065337715059228e-05 0 -0.032227418771284481 -8.0492814576775282e-05 0 -0.03171654926528128 -0.00011181774102383805 0 -0.032154342106161686 -0.00032746881830190776 0 -0.032227418771284481 -8.0492814576775282e-05 0 -0.032154342106161686 -0.00032746881830190776 0 -0.032428979184209172 -0.00016522013091529216 0 -0.032444688111879803 -0.00029809870354316503 0 -0.032154342106161686 -0.00032746881830190776 0 -0.032428979184209172 -0.00016522013091529216 0 -0.032590557396172781 -0.00024725186451132118 0 -0.032444688111879803 -0.00029809870354316503 0 -0.032428979184209172 -0.00016522013091529216 0 -0.032590557396172781 -0.00024725186451132118 0 -0.032428979184209172 -0.00016522013091529216 0 -0.032592452414410174 -7.5011970930447225e-05 0 -0.032428979184209172 -0.00016522013091529216 0 -0.032592452414410174 -7.5011970930447225e-05 0 -0.032487379150936933 2.4172269599869141e-05 0 -0.032592452414410174 -7.5011970930447225e-05 0 -0.032635428458702265 6.9831792692923972e-05 0 -0.032487379150936933 2.4172269599869141e-05 0 -0.032227418771284481 -8.0492814576775282e-05 0 -0.032428979184209172 -0.00016522013091529216 0 -0.032487379150936933 2.4172269599869141e-05 0 -0.032292179045002763 0.00011347359668042144 0 -0.032227418771284481 -8.0492814576775282e-05 0 -0.032487379150936933 2.4172269599869141e-05 0 -0.034591935709009779 -0.00071673139624481579 0 -0.037495351102127643 2.9122296080893571e-05 0 -0.037014691095473916 -8.0777305305229854e-06 0 -0.035548051149849172 -3.5423798822981913e-07 0 -0.034591935709009779 -0.00071673139624481579 0 -0.037014691095473916 -8.0777305305229854e-06 0 -0.035548051149849172 -3.5423798822981913e-07 0 -0.034591935709009779 -0.00071673139624481579 0 -0.033222055849136289 -5.9553512858458488e-07 0 -0.034591935709009779 -0.00071673139624481579 0 -0.037334455583287157 -0.00056867124489879068 0 -0.037495351102127643 2.9122296080893571e-05 0 -0.034460174564402743 -0.00078890364153846263 0 -0.034143260310552564 -0.0010838473387770496 0 -0.034591935709009779 -0.00071673139624481579 0 -0.037334455583287157 -0.00056867124489879068 0 -0.037176251927050506 -0.0013749461905272797 0 -0.037334455583287157 -0.00056867124489879068 0 -0.037813691315308373 -0.00079049830878577217 0 -0.037176251927050506 -0.0013749461905272797 0 -0.037334455583287157 -0.00056867124489879068 0 -0.037495351102127643 2.9122296080893571e-05 0 -0.037816591235781565 -0.00031732501648656914 0 -0.037495351102127643 2.9122296080893571e-05 0 -0.037892882267557437 -4.0010607548433496e-05 0 -0.037816591235781565 -0.00031732501648656914 0 -0.037495351102127643 2.9122296080893571e-05 0 -0.038538441095229019 7.7119563684056468e-06 0 -0.038116498554403036 7.6922212611845945e-06 0 -0.037495351102127643 2.9122296080893571e-05 0 -0.038538441095229019 7.7119563684056468e-06 0 -0.037014691095473916 -8.0777305305229854e-06 0 -0.037495351102127643 2.9122296080893571e-05 0 -0.037892882267557437 -4.0010607548433496e-05 0 -0.038116498554403036 7.6922212611845945e-06 0 -0.037892882267557437 -4.0010607548433496e-05 0 -0.038116498554403036 7.6922212611845945e-06 0 -0.037996329127158897 -7.7570142223977323e-05 0 -0.038116498554403036 7.6922212611845945e-06 0 -0.038437188737844498 -0.00014715337668166163 0 -0.037996329127158897 -7.7570142223977323e-05 0 -0.038538441095229019 7.7119563684056468e-06 0 -0.038116498554403036 7.6922212611845945e-06 0 -0.038437188737844498 -0.00014715337668166163 0 -0.038538441095229019 7.7119563684056468e-06 0 -0.038437188737844498 -0.00014715337668166163 0 -0.040183876039883035 -0.00069226821006692968 0 -0.038538441095229019 7.7119563684056468e-06 0 -0.039032375546775425 -0.00012992100767217747 0 -0.040183876039883035 -0.00069226821006692968 0 -0.038538441095229019 7.7119563684056468e-06 0 -0.039032375546775425 -0.00012992100767217747 0 -0.037014691095473916 -8.0777305305229854e-06 0 -0.035548051149849172 -3.5423798822981913e-07 0 -0.037014691095473916 -8.0777305305229854e-06 0 -0.037875544043653418 4.992938363260877e-08 0 -0.039032375546775425 -0.00012992100767217747 0 -0.037014691095473916 -8.0777305305229854e-06 0 -0.037875544043653418 4.992938363260877e-08 0 -0.039032375546775425 -0.00012992100767217747 0 -0.037875544043653418 4.992938363260877e-08 0 -0.040202044423702982 -3.9500766798000663e-07 0 -0.039032375546775425 -0.00012992100767217747 0 -0.040202044423702982 -3.9500766798000663e-07 0 -0.040642545305785246 -0.0001210113313992241 0 -0.039032375546775425 -0.00012992100767217747 0 -0.040642545305785246 -0.0001210113313992241 0 -0.040183876039883035 -0.00069226821006692968 0 -0.040642545305785246 -0.0001210113313992241 0 -0.041831521056446136 -4.9210942422394401e-05 0 -0.040183876039883035 -0.00069226821006692968 0 -0.040642545305785246 -0.0001210113313992241 0 -0.041831521056446136 -4.9210942422394401e-05 0 -0.042528837169337433 9.1202162636087204e-07 0 -0.040202044423702982 -3.9500766798000663e-07 0 -0.040642545305785246 -0.0001210113313992241 0 -0.042528837169337433 9.1202162636087204e-07 0 -0.041831521056446136 -4.9210942422394401e-05 0 -0.042528837169337433 9.1202162636087204e-07 0 -0.042786806533128191 0.00016645165718912836 0 -0.045035611116308376 1.1658861844804229e-05 0 -0.044997882397101736 2.9696228699752409e-07 0 -0.044998749688068045 7.6663615472325672e-08 0 -0.041831521056446136 -4.9210942422394401e-05 0 -0.042786806533128191 0.00016645165718912836 0 -0.042695812007455598 2.180174397704012e-05 0 -0.042786806533128191 0.00016645165718912836 0 -0.042695812007455598 2.180174397704012e-05 0 -0.042489267128537365 5.4978824649099788e-05 0 -0.043829863450262616 8.0370928993536535e-05 0 -0.044855450913712847 -1.6783615047929157e-08 0 -0.042528837169337433 9.1202162636087204e-07 0 -0.042786806533128191 0.00016645165718912836 0 -0.044852248576820283 -1.3445138981002883e-06 0 -0.045035611116308376 1.1658861844804229e-05 0 -0.044859952974494979 -4.9970109352040741e-07 0 -0.044997882397101736 2.9696228699752409e-07 0 -0.042786806533128191 0.00016645165718912836 0 -0.042489267128537365 5.4978824649099788e-05 0 -0.044852248576820283 -1.3445138981002883e-06 0 -0.044338989419687912 0.00027107457602329531 0 -0.044997671173799048 8.3543943733312058e-07 0 -0.044263700887069692 0.0001576616250842895 0 -0.044998749688068045 7.6663615472325672e-08 0 -0.044338989419687912 0.00027107457602329531 0 -0.044997671173799048 8.3543943733312058e-07 0 -0.044338989419687912 0.00027107457602329531 0 -0.043344674306126256 8.2231641700102566e-05 0 -0.044263700887069692 0.0001576616250842895 0 -0.043829863450262616 8.0370928993536535e-05 0 -0.04429489333689815 0.00019656958173065641 0 -0.042695812007455598 2.180174397704012e-05 0 -0.042489267128537365 5.4978824649099788e-05 0 -0.044338989419687912 0.00027107457602329531 0 -0.045035611116308376 1.1658861844804229e-05 0 -0.044998749688068045 7.6663615472325672e-08 0 -0.044338989419687912 0.00027107457602329531 0 -0.042695812007455598 2.180174397704012e-05 0 -0.044338989419687912 0.00027107457602329531 0 -0.043344674306126256 8.2231641700102566e-05 0 -0.041831521056446136 -4.9210942422394401e-05 0 -0.043344674306126256 8.2231641700102566e-05 0 -0.043161174931503059 -7.6646040866022369e-05 0 -0.041831521056446136 -4.9210942422394401e-05 0 -0.042695812007455598 2.180174397704012e-05 0 -0.043344674306126256 8.2231641700102566e-05 0 -0.043344674306126256 8.2231641700102566e-05 0 -0.043161174931503059 -7.6646040866022369e-05 0 -0.044263700887069692 0.0001576616250842895 0 -0.041831521056446136 -4.9210942422394401e-05 0 -0.043161174931503059 -7.6646040866022369e-05 0 -0.040183876039883035 -0.00069226821006692968 0 -0.038437188737844498 -0.00014715337668166163 0 -0.040183876039883035 -0.00069226821006692968 0 -0.038107894494172893 -0.00086693007636781476 0 -0.040230930092197373 -0.00077331901755709539 0 -0.040848904214148871 -0.00098076012117036346 0 -0.043161174931503059 -7.6646040866022369e-05 0 -0.040183876039883035 -0.00069226821006692968 0 -0.043314570925235135 -0.0011964031979207047 0 -0.040848904214148871 -0.00098076012117036346 0 -0.040503613354220147 -0.00065477233843419199 0 -0.043314570925235135 -0.0011964031979207047 0 -0.044568628953977694 -0.00097419925659500656 0 -0.043986698215913132 -0.00061100371951274099 0 -0.038107894494172893 -0.00086693007636781476 0 -0.037816045341447016 -0.00059629439005903177 0 -0.037597168098703428 -0.00072664845047928505 0 -0.038107894494172893 -0.00086693007636781476 0 -0.037816045341447016 -0.00059629439005903177 0 -0.037962473996323028 -0.00037617064161223594 0 -0.036320685081676685 -0.00099295524643138876 0 -0.036340574194412903 -0.0010273627864557469 0 -0.036307336465640626 -0.00094442818818465772 0 -0.036320685081676685 -0.00099295524643138876 0 -0.036323695119468827 -0.0010107183383527734 0 -0.036340574194412903 -0.0010273627864557469 0 -0.036323695119468827 -0.0010107183383527734 0 -0.036335294040593255 -0.0010311477268660457 0 -0.036281761000018078 -0.00099444250226560552 0 -0.036300717122282354 -0.00098881641456498759 0 -0.036323695119468827 -0.0010107183383527734 0 -0.036281761000018078 -0.00099444250226560552 0 -0.036300717122282354 -0.00098881641456498759 0 -0.036320685081676685 -0.00099295524643138876 0 -0.036323695119468827 -0.0010107183383527734 0 -0.039718403484063469 -0.00042803427957314978 0 -0.040503613354220147 -0.00065477233843419199 0 -0.037816045341447016 -0.00059629439005903177 0 -0.037670839194053132 -0.00054220076234686582 0 -0.037597168098703428 -0.00072664845047928505 0 -0.040503613354220147 -0.00065477233843419199 0 -0.043172596669949978 -0.00057165808833932723 0 -0.04486348969895021 -0.00010544526707511419 0 -0.04493597892691753 -5.3500250132428963e-05 0 -0.044937411221643291 -5.510554051978378e-05 0 -0.04486348969895021 -0.00010544526707511419 0 -0.04493597892691753 -5.3500250132428963e-05 0 -0.044942351934615009 -4.0880058342596035e-05 0 -0.041130739495636254 6.885247536980069e-06 0 -0.040962585567124968 -0.0015815085884156471 0 -0.040423185054469457 -0.00064236683511876462 0 -0.044568628953977694 -0.00097419925659500656 0 -0.043986698215913132 -0.00061100371951274099 0 -0.044279203086281985 0.00012167945543198937 0 -0.040503613354220147 -0.00065477233843419199 0 -0.045211810759731609 -3.2778712637273096e-05 0 -0.043530390776315375 -0.0005820802757720299 0 -0.043172596669949978 -0.00057165808833932723 0 -0.043161174931503059 -7.6646040866022369e-05 0 -0.043314570925235135 -0.0011964031979207047 0 -0.043986698215913132 -0.00061100371951274099 0 -0.043161174931503059 -7.6646040866022369e-05 0 -0.043986698215913132 -0.00061100371951274099 0 -0.044279203086281985 0.00012167945543198937 0 -0.043161174931503059 -7.6646040866022369e-05 0 -0.044279203086281985 0.00012167945543198937 0 -0.044263700887069692 0.0001576616250842895 0 -0.04493597892691753 -5.3500250132428963e-05 0 -0.044942351934615009 -4.0880058342596035e-05 0 -0.044993337313911502 -8.6415330660559733e-06 0 -0.043172596669949978 -0.00057165808833932723 0 -0.044454644879529395 -0.00015388944623236228 0 -0.04493597892691753 -5.3500250132428963e-05 0 -0.044939907964809241 -5.4779310011524852e-05 0 -0.044993337313911502 -8.6415330660559733e-06 0 -0.044999674322923532 -2.2950291074870023e-06 0 -0.044999929133676946 -2.5755710621304336e-09 0 -0.045002276734337592 -1.870347293520239e-08 0 -0.044942351934615009 -4.0880058342596035e-05 0 -0.044999929133676946 -2.5755710621304336e-09 0 -0.044993337313911502 -8.6415330660559733e-06 0 -0.044999674322923532 -2.2950291074870023e-06 0 -0.044999929133676946 -2.5755710621304336e-09 0 -0.044993337313911502 -8.6415330660559733e-06 0 -0.044585377374202678 -0.00015437844181997125 0 -0.044454644879529395 -0.00015388944623236228 0 -0.044999674322923532 -2.2950291074870023e-06 0 -0.045002276734337592 -1.870347293520239e-08 0 -0.04499972237789205 -7.0648500967736292e-06 0 -0.045211810759731609 -3.2778712637273096e-05 0 -0.044999408169560919 4.2963044582893846e-07 0 -0.044279203086281985 0.00012167945543198937 0 -0.044997671173799048 8.3543943733312058e-07 0 -0.044263700887069692 0.0001576616250842895 0 -0.044999961281526113 4.3357907225566621e-09 0 -0.044985450795392359 3.6219635395903384e-07 0 -0.044970060566069787 3.3361644080892353e-06 0 -0.044999961281526113 4.3357907225566621e-09 0 -0.04500224811193565 -5.817109075609722e-09 0 -0.044985450795392359 3.6219635395903384e-07 0 -0.04500224811193565 -5.817109075609722e-09 0 -0.044995999252026943 2.6066136722314171e-07 0 -0.044985450795392359 3.6219635395903384e-07 0 -0.045001549361981107 3.535041847902315e-09 0 -0.044454644879529395 -0.00015388944623236228 0 -0.044995999252026943 2.6066136722314171e-07 0 -0.044985450795392359 3.6219635395903384e-07 0 -0.044977724815066858 5.3246491961670944e-07 0 -0.044454644879529395 -0.00015388944623236228 0 -0.043983981016082675 -0.00038637070447373464 0 -0.044985450795392359 3.6219635395903384e-07 0 -0.044977724815066858 5.3246491961670944e-07 0 -0.044965059985511965 1.7838690582179672e-06 0 -0.04316900618862337 -0.00043491553284160311 0 -0.04315518162416658 -0.00066479439341383039 0 -0.043083378046873108 -0.00053901566086337509 0 -0.04316900618862337 -0.00043491553284160311 0 -0.043083378046873108 -0.00053901566086337509 0 -0.043007358601824211 -0.00041028551009829838 0 -0.044977724815066858 5.3246491961670944e-07 0 -0.044965059985511965 1.7838690582179672e-06 0 -0.044955649269556482 7.4436672390120108e-06 0 -0.043983981016082675 -0.00038637070447373464 0 -0.04102426066954569 -0.0009543229557834672 0 -0.044970060566069787 3.3361644080892353e-06 0 -0.044948077358327773 1.303070642361764e-06 0 -0.044978503001273019 3.5986357922258846e-06 0 -0.044965059985511965 1.7838690582179672e-06 0 -0.044970060566069787 3.3361644080892353e-06 0 -0.044942006680631467 5.4027885432185055e-06 0 -0.044965059985511965 1.7838690582179672e-06 0 -0.044942006680631467 5.4027885432185055e-06 0 -0.044955649269556482 7.4436672390120108e-06 0 -0.044970060566069787 3.3361644080892353e-06 0 -0.044948077358327773 1.303070642361764e-06 0 -0.044942006680631467 5.4027885432185055e-06 0 -0.044985450795392359 3.6219635395903384e-07 0 -0.044965059985511965 1.7838690582179672e-06 0 -0.044970060566069787 3.3361644080892353e-06 0 -0.041386612366663612 -0.00019070970028550927 0 -0.04365152164961094 -0.00078884476479704787 0 -0.044915076982290983 1.930496057989201e-05 0 -0.044942006680631467 5.4027885432185055e-06 0 -0.044955649269556482 7.4436672390120108e-06 0 -0.041386612366663612 -0.00019070970028550927 0 -0.04102426066954569 -0.0009543229557834672 0 -0.04102426066954569 -0.0009543229557834672 0 -0.036840188604147686 -0.00056821367532998662 0 -0.036423522942933287 -0.0011372332373547824 0 -0.036667077813445942 -0.001179904224316862 0 -0.036500267113085912 -0.00090638696079986363 0 -0.036423522942933287 -0.0011372332373547824 0 -0.036500267113085912 -0.00090638696079986363 0 -0.036301491469624386 -0.00095394843279803464 0 -0.043172596669949978 -0.00057165808833932723 0 -0.04102426066954569 -0.0009543229557834672 0 -0.040962585567124968 -0.0015815085884156471 0 -0.040423185054469457 -0.00064236683511876462 0 -0.039718485001740599 -0.001381300284967436 0 -0.040423185054469457 -0.00064236683511876462 0 -0.039718485001740599 -0.001381300284967436 0 -0.039160288619813993 -0.00022628407131625034 0 -0.036335294040593255 -0.0010311477268660457 0 -0.036217466984269829 -0.001000855691907439 0 -0.036281761000018078 -0.00099444250226560552 0 -0.041130739495636254 6.885247536980069e-06 0 -0.040423185054469457 -0.00064236683511876462 0 -0.039160288619813993 -0.00022628407131625034 0 -0.040503613354220147 -0.00065477233843419199 0 -0.036840188604147686 -0.00056821367532998662 0 -0.036335294040593255 -0.0010311477268660457 0 -0.036217466984269829 -0.001000855691907439 0 -0.03619513533033103 -0.001044280529326901 0 -0.036217466984269829 -0.001000855691907439 0 -0.03619513533033103 -0.001044280529326901 0 -0.036155149671050983 -0.00097175607858123706 0 -0.036840188604147686 -0.00056821367532998662 0 -0.036201909747590057 -0.0009582245795015298 0 -0.036327673398434485 -0.00094526982585673022 0 -0.036237038946736778 -0.00087831229353479675 0 -0.036301491469624386 -0.00095394843279803464 0 -0.036840188604147686 -0.00056821367532998662 0 -0.036249291776297515 -0.00085225914115694341 0 -0.036155149671050983 -0.00097175607858123706 0 -0.036186284215889826 -0.00094506706099801584 0 -0.036130062322735142 -0.00089517446642005741 0 -0.036217466984269829 -0.001000855691907439 0 -0.036155149671050983 -0.00097175607858123706 0 -0.036186284215889826 -0.00094506706099801584 0 -0.036186284215889826 -0.00094506706099801584 0 -0.036169824348574235 -0.00091299095444262695 0 -0.036130062322735142 -0.00089517446642005741 0 -0.036186284215889826 -0.00094506706099801584 0 -0.036169824348574235 -0.00091299095444262695 0 -0.036219078765405775 -0.00093499151790837063 0 -0.036169824348574235 -0.00091299095444262695 0 -0.036204080716530807 -0.00091059252979826298 0 -0.036165471531511055 -0.00089974800332966718 0 -0.036169824348574235 -0.00091299095444262695 0 -0.036165471531511055 -0.00089974800332966718 0 -0.03612320448492249 -0.00090379464210962445 0 -0.036169824348574235 -0.00091299095444262695 0 -0.03612320448492249 -0.00090379464210962445 0 -0.036130062322735142 -0.00089517446642005741 0 -0.036204080716530807 -0.00091059252979826298 0 -0.036252237815360744 -0.00092971072251002722 0 -0.036228638361164245 -0.00089600999253746554 0 -0.036169824348574235 -0.00091299095444262695 0 -0.036204080716530807 -0.00091059252979826298 0 -0.036219078765405775 -0.00093499151790837063 0 -0.036204080716530807 -0.00091059252979826298 0 -0.036252237815360744 -0.00092971072251002722 0 -0.036219078765405775 -0.00093499151790837063 0 -0.036252237815360744 -0.00092971072251002722 0 -0.036266134635217856 -0.00095165209344309732 0 -0.036219078765405775 -0.00093499151790837063 0 -0.036266134635217856 -0.00095165209344309732 0 -0.036219078765405775 -0.00093499151790837063 0 -0.036239240891105869 -0.00096494059776923771 0 -0.036252237815360744 -0.00092971072251002722 0 -0.036266134635217856 -0.00095165209344309732 0 -0.036283002008018365 -0.00094936747544981223 0 -0.036186284215889826 -0.00094506706099801584 0 -0.036219078765405775 -0.00093499151790837063 0 -0.036239240891105869 -0.00096494059776923771 0 -0.036217466984269829 -0.001000855691907439 0 -0.036186284215889826 -0.00094506706099801584 0 -0.036239240891105869 -0.00096494059776923771 0 -0.036217466984269829 -0.001000855691907439 0 -0.036281761000018078 -0.00099444250226560552 0 -0.036239240891105869 -0.00096494059776923771 0 -0.036266134635217856 -0.00095165209344309732 0 -0.036279212874288411 -0.00097197437942756859 0 -0.036289084878927534 -0.0009616220288757864 0 -0.036266134635217856 -0.00095165209344309732 0 -0.036239240891105869 -0.00096494059776923771 0 -0.036279212874288411 -0.00097197437942756859 0 -0.036281761000018078 -0.00099444250226560552 0 -0.036239240891105869 -0.00096494059776923771 0 -0.036279212874288411 -0.00097197437942756859 0 -0.036300717122282354 -0.00098881641456498759 0 -0.036281761000018078 -0.00099444250226560552 0 -0.036279212874288411 -0.00097197437942756859 0 -0.036300717122282354 -0.00098881641456498759 0 -0.036320685081676685 -0.00099295524643138876 0 -0.036299097171145801 -0.00097556034862891154 0 -0.040503613354220147 -0.00065477233843419199 0 -0.037212035029677126 -0.00057548213038242696 0 -0.036300717122282354 -0.00098881641456498759 0 -0.036279212874288411 -0.00097197437942756859 0 -0.036299097171145801 -0.00097556034862891154 0 -0.036320685081676685 -0.00099295524643138876 0 -0.036301536959373729 -0.00096436534363113506 0 -0.036307336465640626 -0.00094442818818465772 0 -0.037670839194053132 -0.00054220076234686582 0 -0.037597168098703428 -0.00072664845047928505 0 -0.037694353238631975 -0.00029557783818690177 0 -0.036279212874288411 -0.00097197437942756859 0 -0.036299097171145801 -0.00097556034862891154 0 -0.036289084878927534 -0.0009616220288757864 0 -0.036289084878927534 -0.0009616220288757864 0 -0.036301536959373729 -0.00096436534363113506 0 -0.036283002008018365 -0.00094936747544981223 0 -0.036299097171145801 -0.00097556034862891154 0 -0.036289084878927534 -0.0009616220288757864 0 -0.036301536959373729 -0.00096436534363113506 0 -0.036320685081676685 -0.00099295524643138876 0 -0.036299097171145801 -0.00097556034862891154 0 -0.036301536959373729 -0.00096436534363113506 0 -0.037670839194053132 -0.00054220076234686582 0 -0.037700640800067638 -0.00044211193785685627 0 -0.037694353238631975 -0.00029557783818690177 0 -0.037670839194053132 -0.00054220076234686582 0 -0.037700640800067638 -0.00044211193785685627 0 -0.037788912686870922 -0.00042209970439874414 0 -0.037816045341447016 -0.00059629439005903177 0 -0.037670839194053132 -0.00054220076234686582 0 -0.037788912686870922 -0.00042209970439874414 0 -0.037700640800067638 -0.00044211193785685627 0 -0.037788912686870922 -0.00042209970439874414 0 -0.037715436631662082 -0.00033902751891683847 0 -0.037700640800067638 -0.00044211193785685627 0 -0.037715436631662082 -0.00033902751891683847 0 -0.037694353238631975 -0.00029557783818690177 0 -0.037715436631662082 -0.00033902751891683847 0 -0.037725253615500158 -0.0002801770969538628 0 -0.03780749031214399 -0.00026351659996505647 0 -0.037788912686870922 -0.00042209970439874414 0 -0.037715436631662082 -0.00033902751891683847 0 -0.03780749031214399 -0.00026351659996505647 0 -0.037788912686870922 -0.00042209970439874414 0 -0.03780749031214399 -0.00026351659996505647 0 -0.037877161370499998 -0.00021889905217782981 0 -0.037237525537307685 -0.00056129936009292371 0 -0.037212035029677126 -0.00057548213038242696 0 -0.03780749031214399 -0.00026351659996505647 0 -0.037877161370499998 -0.00021889905217782981 0 -0.0378667754775922 -0.00014109918198694884 0 -0.037725253615500158 -0.0002801770969538628 0 -0.03780749031214399 -0.00026351659996505647 0 -0.0378667754775922 -0.00014109918198694884 0 -0.037212035029677126 -0.00057548213038242696 0 -0.037469211403636626 -0.00019925667349774011 0 -0.036252237815360744 -0.00092971072251002722 0 -0.036307336465640626 -0.00094442818818465772 0 -0.036283002008018365 -0.00094936747544981223 0 -0.036266134635217856 -0.00095165209344309732 0 -0.036289084878927534 -0.0009616220288757864 0 -0.036283002008018365 -0.00094936747544981223 0 -0.036301536959373729 -0.00096436534363113506 0 -0.036307336465640626 -0.00094442818818465772 0 -0.036283002008018365 -0.00094936747544981223 0 -0.038437188737844498 -0.00014715337668166163 0 -0.038107894494172893 -0.00086693007636781476 0 -0.037962473996323028 -0.00037617064161223594 0 -0.037816045341447016 -0.00059629439005903177 0 -0.037788912686870922 -0.00042209970439874414 0 -0.037962473996323028 -0.00037617064161223594 0 -0.037788912686870922 -0.00042209970439874414 0 -0.037962473996323028 -0.00037617064161223594 0 -0.037877161370499998 -0.00021889905217782981 0 -0.037962473996323028 -0.00037617064161223594 0 -0.037877161370499998 -0.00021889905217782981 0 -0.037996329127158897 -7.7570142223977323e-05 0 -0.038437188737844498 -0.00014715337668166163 0 -0.037962473996323028 -0.00037617064161223594 0 -0.037996329127158897 -7.7570142223977323e-05 0 -0.037877161370499998 -0.00021889905217782981 0 -0.037996329127158897 -7.7570142223977323e-05 0 -0.037906156283246138 -0.00013219046644497693 0 -0.037996329127158897 -7.7570142223977323e-05 0 -0.037906156283246138 -0.00013219046644497693 0 -0.037909993502519536 -0.00014054873259561571 0 -0.037906156283246138 -0.00013219046644497693 0 -0.037909993502519536 -0.00014054873259561571 0 -0.037932314895585344 -0.00018128204051908982 0 -0.037892882267557437 -4.0010607548433496e-05 0 -0.037996329127158897 -7.7570142223977323e-05 0 -0.037909993502519536 -0.00014054873259561571 0 -0.037846858321408244 -7.3913407584326704e-05 0 -0.0378667754775922 -0.00014109918198694884 0 -0.038093510503387301 -0.00026051498429580122 0 -0.037212035029677126 -0.00057548213038242696 0 -0.037149974215838572 -0.00059334202547459526 0 -0.036252237815360744 -0.00092971072251002722 0 -0.036307336465640626 -0.00094442818818465772 0 -0.036228638361164245 -0.00089600999253746554 0 -0.037906156283246138 -0.00013219046644497693 0 -0.0378667754775922 -0.00014109918198694884 0 -0.037932314895585344 -0.00018128204051908982 0 -0.037877161370499998 -0.00021889905217782981 0 -0.037906156283246138 -0.00013219046644497693 0 -0.0378667754775922 -0.00014109918198694884 0 -0.0378667754775922 -0.00014109918198694884 0 -0.037932314895585344 -0.00018128204051908982 0 -0.038093510503387301 -0.00026051498429580122 0 -0.037936362360247805 -0.00030891554783811368 0 -0.038004316179070706 -0.00054483956623644703 0 -0.038093510503387301 -0.00026051498429580122 0 -0.037932314895585344 -0.00018128204051908982 0 -0.037936362360247805 -0.00030891554783811368 0 -0.038093510503387301 -0.00026051498429580122 0 -0.037936362360247805 -0.00030891554783811368 0 -0.037816591235781565 -0.00031732501648656914 0 -0.038004316179070706 -0.00054483956623644703 0 -0.037892882267557437 -4.0010607548433496e-05 0 -0.037909993502519536 -0.00014054873259561571 0 -0.037816591235781565 -0.00031732501648656914 0 -0.037909993502519536 -0.00014054873259561571 0 -0.037932314895585344 -0.00018128204051908982 0 -0.037936362360247805 -0.00030891554783811368 0 -0.037909993502519536 -0.00014054873259561571 0 -0.037936362360247805 -0.00030891554783811368 0 -0.037816591235781565 -0.00031732501648656914 0 -0.037816591235781565 -0.00031732501648656914 0 -0.037813691315308373 -0.00079049830878577217 0 -0.038004316179070706 -0.00054483956623644703 0 -0.037334455583287157 -0.00056867124489879068 0 -0.037816591235781565 -0.00031732501648656914 0 -0.037813691315308373 -0.00079049830878577217 0 -0.037813691315308373 -0.00079049830878577217 0 -0.038004316179070706 -0.00054483956623644703 0 -0.038061473713576502 -0.00085982631993954106 0 -0.038004316179070706 -0.00054483956623644703 0 -0.03820320773728466 -0.00065687616955022166 0 -0.038061473713576502 -0.00085982631993954106 0 -0.036181399180202717 -0.00088003167633798603 0 -0.036088312457485484 -0.00091425091344409177 0 -0.036104234345669915 -0.0008726356931268275 0 -0.036165471531511055 -0.00089974800332966718 0 -0.03612320448492249 -0.00090379464210962445 0 -0.036088312457485484 -0.00091425091344409177 0 -0.036181399180202717 -0.00088003167633798603 0 -0.036165471531511055 -0.00089974800332966718 0 -0.036088312457485484 -0.00091425091344409177 0 -0.037118308582242909 -0.00067834868109200382 0 -0.037149974215838572 -0.00059334202547459526 0 -0.036181399180202717 -0.00088003167633798603 0 -0.036165471531511055 -0.00089974800332966718 0 -0.036228638361164245 -0.00089600999253746554 0 -0.036204080716530807 -0.00091059252979826298 0 -0.036165471531511055 -0.00089974800332966718 0 -0.036228638361164245 -0.00089600999253746554 0 -0.038004316179070706 -0.00054483956623644703 0 -0.03820320773728466 -0.00065687616955022166 0 -0.038093510503387301 -0.00026051498429580122 0 -0.036069173861990204 -0.00089995111007157064 0 -0.036088312457485484 -0.00091425091344409177 0 -0.035950347129110813 -0.0010489982015460246 0 -0.036069173861990204 -0.00089995111007157064 0 -0.035950347129110813 -0.0010489982015460246 0 -0.036074276284517898 -0.0008415917967131162 0 -0.036069173861990204 -0.00089995111007157064 0 -0.03612320448492249 -0.00090379464210962445 0 -0.036088312457485484 -0.00091425091344409177 0 -0.036088312457485484 -0.00091425091344409177 0 -0.036037890763210505 -0.00090030662965663686 0 -0.036104234345669915 -0.0008726356931268275 0 -0.036088312457485484 -0.00091425091344409177 0 -0.035950347129110813 -0.0010489982015460246 0 -0.036037890763210505 -0.00090030662965663686 0 -0.035950347129110813 -0.0010489982015460246 0 -0.036087920993279031 -0.001066059890367863 0 -0.036139521292875607 -0.0014354984559497984 0 -0.036087920993279031 -0.001066059890367863 0 -0.036987342035899609 -0.0010108257359157449 0 -0.036139521292875607 -0.0014354984559497984 0 -0.036087920993279031 -0.001066059890367863 0 -0.036245241131227277 -0.00068952339952238863 0 -0.036987342035899609 -0.0010108257359157449 0 -0.036087920993279031 -0.001066059890367863 0 -0.036245241131227277 -0.00068952339952238863 0 -0.036074276284517898 -0.0008415917967131162 0 -0.035950347129110813 -0.0010489982015460246 0 -0.036087920993279031 -0.001066059890367863 0 -0.036074276284517898 -0.0008415917967131162 0 -0.035997627562364451 -0.00075418237906168975 0 -0.038840226123716855 -0.00021434658010837653 0 -0.036245241131227277 -0.00068952339952238863 0 -0.036074276284517898 -0.0008415917967131162 0 -0.036171160856978274 -0.00078058632649040751 0 -0.036245241131227277 -0.00068952339952238863 0 -0.036171160856978274 -0.00078058632649040751 0 -0.036187534523078886 -0.00077114213154139198 0 -0.038576387262020881 -0.0004599105431916013 0 -0.038840226123716855 -0.00021434658010837653 0 -0.04089476429451494 -1.0828987072800868e-05 0 -0.040912848695499271 -9.7283395878871266e-06 0 -0.040904971188562129 -2.6166881652131032e-05 0 -0.036171160856978274 -0.00078058632649040751 0 -0.036148697258926422 -0.00081521357049974192 0 -0.036187534523078886 -0.00077114213154139198 0 -0.036074276284517898 -0.0008415917967131162 0 -0.036171160856978274 -0.00078058632649040751 0 -0.036148697258926422 -0.00081521357049974192 0 -0.036074276284517898 -0.0008415917967131162 0 -0.036129840064055306 -0.00085778488804745371 0 -0.036148697258926422 -0.00081521357049974192 0 -0.036069173861990204 -0.00089995111007157064 0 -0.036074276284517898 -0.0008415917967131162 0 -0.036129840064055306 -0.00085778488804745371 0 -0.036069173861990204 -0.00089995111007157064 0 -0.036129840064055306 -0.00085778488804745371 0 -0.036130062322735142 -0.00089517446642005741 0 -0.036069173861990204 -0.00089995111007157064 0 -0.03612320448492249 -0.00090379464210962445 0 -0.036130062322735142 -0.00089517446642005741 0 -0.036129840064055306 -0.00085778488804745371 0 -0.036130062322735142 -0.00089517446642005741 0 -0.036187652592030835 -0.00087759796888280442 0 -0.036201909747590057 -0.0009582245795015298 0 -0.036146277312878269 -0.00089365687267539467 0 -0.036237038946736778 -0.00087831229353479675 0 -0.036130062322735142 -0.00089517446642005741 0 -0.036187652592030835 -0.00087759796888280442 0 -0.036237038946736778 -0.00087831229353479675 0 -0.036187652592030835 -0.00087759796888280442 0 -0.036301491469624386 -0.00095394843279803464 0 -0.036129840064055306 -0.00085778488804745371 0 -0.036187652592030835 -0.00087759796888280442 0 -0.036142714248819714 -0.00092044781791797729 0 -0.036187652592030835 -0.00087759796888280442 0 -0.036301491469624386 -0.00095394843279803464 0 -0.036142714248819714 -0.00092044781791797729 0 -0.036129840064055306 -0.00085778488804745371 0 -0.036142714248819714 -0.00092044781791797729 0 -0.036148697258926422 -0.00081521357049974192 0 -0.038017776328892715 -0.00041344029970963954 0 -0.038576387262020881 -0.0004599105431916013 0 -0.040904914209589881 -1.2022010911851176e-05 0 -0.040911227390104762 -2.0149317064775801e-05 0 -0.040910385949649436 -5.8472212704578069e-06 0 -0.036423522942933287 -0.0011372332373547824 0 -0.036301491469624386 -0.00095394843279803464 0 -0.036142714248819714 -0.00092044781791797729 0 -0.041386612366663612 -0.00019070970028550927 0 -0.038017776328892715 -0.00041344029970963954 0 -0.040951764756227041 -4.2705686339092796e-05 0 -0.040904914209589881 -1.2022010911851176e-05 0 -0.040911227390104762 -2.0149317064775801e-05 0 -0.041386612366663612 -0.00019070970028550927 0 -0.043279385578589652 -1.191135088221706e-05 0 -0.044948077358327773 1.303070642361764e-06 0 -0.044963665173790884 4.4491208548656148e-07 0 -0.044978503001273019 3.5986357922258846e-06 0 -0.044963665173790884 4.4491208548656148e-07 0 -0.044978503001273019 3.5986357922258846e-06 0 -0.044981028317471243 2.0173219099348219e-06 0 -0.044978503001273019 3.5986357922258846e-06 0 -0.044999975543699229 3.2169560132582473e-09 0 -0.044981028317471243 2.0173219099348219e-06 0 -0.044999961281526113 4.3357907225566621e-09 0 -0.044978503001273019 3.5986357922258846e-06 0 -0.044999975543699229 3.2169560132582473e-09 0 -0.044999961281526113 4.3357907225566621e-09 0 -0.044970060566069787 3.3361644080892353e-06 0 -0.044978503001273019 3.5986357922258846e-06 0 -0.044999975543699229 3.2169560132582473e-09 0 -0.044999974716362509 1.0201799472001536e-09 0 -0.044981028317471243 2.0173219099348219e-06 0 -0.044999974716362509 1.0201799472001536e-09 0 -0.044981028317471243 2.0173219099348219e-06 0 -0.044978008143983346 1.8463986960017006e-06 0 -0.044978008143983346 1.8463986960017006e-06 0 -0.044963640926937769 3.3893856364026444e-06 0 -0.044957873764394723 5.1984934422432441e-06 0 -0.044981028317471243 2.0173219099348219e-06 0 -0.044978008143983346 1.8463986960017006e-06 0 -0.044963640926937769 3.3893856364026444e-06 0 -0.043279385578589652 -1.191135088221706e-05 0 -0.042853662991565303 -2.7937518471450479e-05 0 -0.044963665173790884 4.4491208548656148e-07 0 -0.044981028317471243 2.0173219099348219e-06 0 -0.044963640926937769 3.3893856364026444e-06 0 -0.040904914209589881 -1.2022010911851176e-05 0 -0.040910385949649436 -5.8472212704578069e-06 0 -0.04089476429451494 -1.0828987072800868e-05 0 -0.042853662991565303 -2.7937518471450479e-05 0 -0.043029983531191036 0.00028109124677105625 0 -0.040910385949649436 -5.8472212704578069e-06 0 -0.04089476429451494 -1.0828987072800868e-05 0 -0.040912848695499271 -9.7283395878871266e-06 0 -0.040910385949649436 -5.8472212704578069e-06 0 -0.040912848695499271 -9.7283395878871266e-06 0 -0.040938067225277076 -2.1714752107973869e-07 0 -0.040912848695499271 -9.7283395878871266e-06 0 -0.040938067225277076 -2.1714752107973869e-07 0 -0.040904971188562129 -2.6166881652131032e-05 0 -0.043029983531191036 0.00028109124677105625 0 -0.038840226123716855 -0.00021434658010837653 0 -0.043029983531191036 0.00028109124677105625 0 -0.042761033250726298 0.00031105840602970483 0 -0.042864082212075973 0.00027883045087616869 0 -0.042400081452987459 5.9500119342956087e-06 0 -0.04205288087705069 -0.00023680398921108528 0 -0.041724764764281455 0.00039803615950352112 0 -0.042864082212075973 0.00027883045087616869 0 -0.04205288087705069 -0.00023680398921108528 0 -0.043753789049680879 0.0003025361872364875 0 -0.042864082212075973 0.00027883045087616869 0 -0.043576592127751973 0.00011963625566873174 0 -0.043753789049680879 0.0003025361872364875 0 -0.043576592127751973 0.00011963625566873174 0 -0.044018773758942517 2.5243734822273676e-05 0 -0.043029983531191036 0.00028109124677105625 0 -0.04466761690180801 -2.3583645886366046e-05 0 -0.044978008143983346 1.8463986960017006e-06 0 -0.044957873764394723 5.1984934422432441e-06 0 -0.044980193645138701 1.4677747848818343e-06 0 -0.044999974716362509 1.0201799472001536e-09 0 -0.044978008143983346 1.8463986960017006e-06 0 -0.044980193645138701 1.4677747848818343e-06 0 -0.043576592127751973 0.00011963625566873174 0 -0.044018773758942517 2.5243734822273676e-05 0 -0.04434161288604644 6.4968791552343479e-05 0 -0.04466761690180801 -2.3583645886366046e-05 0 -0.044999671306859383 -1.8940362264443418e-07 0 -0.044018773758942517 2.5243734822273676e-05 0 -0.044998663034137153 6.4599464661896569e-08 0 -0.04434161288604644 6.4968791552343479e-05 0 -0.044999974716362509 1.0201799472001536e-09 0 -0.044980193645138701 1.4677747848818343e-06 0 -0.044999983706235987 2.11919777644933e-10 0 -0.044998054774915676 -3.2523332117958595e-08 0 -0.044452802544956808 7.9570357573882788e-05 0 -0.044999612937965991 6.1751971129899395e-08 0 -0.044998663034137153 6.4599464661896569e-08 0 -0.044999612937965991 6.1751971129899395e-08 0 -0.04434161288604644 6.4968791552343479e-05 0 -0.044452802544956808 7.9570357573882788e-05 0 -0.044999612937965991 6.1751971129899395e-08 0 -0.04434161288604644 6.4968791552343479e-05 0 -0.043576592127751973 0.00011963625566873174 0 -0.04434161288604644 6.4968791552343479e-05 0 -0.043920450969088615 0.00016250329443940828 0 -0.044452802544956808 7.9570357573882788e-05 0 -0.04434161288604644 6.4968791552343479e-05 0 -0.043920450969088615 0.00016250329443940828 0 -0.043723851233613185 0.00028240976947638215 0 -0.044452802544956808 7.9570357573882788e-05 0 -0.043920450969088615 0.00016250329443940828 0 -0.043723851233613185 0.00028240976947638215 0 -0.043920450969088615 0.00016250329443940828 0 -0.043155975686075369 0.00027991024307984669 0 -0.042864082212075973 0.00027883045087616869 0 -0.043576592127751973 0.00011963625566873174 0 -0.043155975686075369 0.00027991024307984669 0 -0.043576592127751973 0.00011963625566873174 0 -0.043920450969088615 0.00016250329443940828 0 -0.043155975686075369 0.00027991024307984669 0 -0.042864082212075973 0.00027883045087616869 0 -0.043155975686075369 0.00027991024307984669 0 -0.042400081452987459 5.9500119342956087e-06 0 -0.043155975686075369 0.00027991024307984669 0 -0.042276943313821286 -7.7677134413097523e-05 0 -0.042400081452987459 5.9500119342956087e-06 0 -0.04312493348771404 0.00028260534944774066 0 -0.043155975686075369 0.00027991024307984669 0 -0.042276943313821286 -7.7677134413097523e-05 0 -0.042904459438558758 -0.00013076371614549229 0 -0.042276943313821286 -7.7677134413097523e-05 0 -0.041914349047408601 -0.0005990314908416492 0 -0.042276943313821286 -7.7677134413097523e-05 0 -0.041256368250215551 -0.00054588954687752528 0 -0.041914349047408601 -0.0005990314908416492 0 -0.042276943313821286 -7.7677134413097523e-05 0 -0.041256368250215551 -0.00054588954687752528 0 -0.041575159995746756 -0.0004108936212669686 0 -0.041256368250215551 -0.00054588954687752528 0 -0.041914349047408601 -0.0005990314908416492 0 -0.041045476111941051 -0.0010852147484082411 0 -0.039796367361380626 -0.00020803682794676324 0 -0.040208772306511542 -0.00078977174079001395 0 -0.041575159995746756 -0.0004108936212669686 0 -0.041766672273045251 -0.00040101215715430727 0 -0.040113980250987988 -0.00085574004020561012 0 -0.041256368250215551 -0.00054588954687752528 0 -0.041575159995746756 -0.0004108936212669686 0 -0.040113980250987988 -0.00085574004020561012 0 -0.041575159995746756 -0.0004108936212669686 0 -0.042400081452987459 5.9500119342956087e-06 0 -0.04205288087705069 -0.00023680398921108528 0 -0.042276943313821286 -7.7677134413097523e-05 0 -0.041575159995746756 -0.0004108936212669686 0 -0.042400081452987459 5.9500119342956087e-06 0 -0.041575159995746756 -0.0004108936212669686 0 -0.04205288087705069 -0.00023680398921108528 0 -0.041766672273045251 -0.00040101215715430727 0 -0.04205288087705069 -0.00023680398921108528 0 -0.041581442541154694 -0.00036397780880523505 0 -0.041766672273045251 -0.00040101215715430727 0 -0.041724764764281455 0.00039803615950352112 0 -0.04205288087705069 -0.00023680398921108528 0 -0.041581442541154694 -0.00036397780880523505 0 -0.038840226123716855 -0.00021434658010837653 0 -0.039796367361380626 -0.00020803682794676324 0 -0.036245241131227277 -0.00068952339952238863 0 -0.036550169506311285 0.00062636574797018474 0 -0.037767038505264444 9.212207753892039e-05 0 -0.037767038505264444 9.212207753892039e-05 0 -0.036987342035899609 -0.0010108257359157449 0 -0.03868178321739689 -0.001786607107346964 0 -0.036245241131227277 -0.00068952339952238863 0 -0.037767038505264444 9.212207753892039e-05 0 -0.036987342035899609 -0.0010108257359157449 0 -0.036987342035899609 -0.0010108257359157449 0 -0.037376967863915221 -0.0017092506361583121 0 -0.036139521292875607 -0.0014354984559497984 0 -0.036987342035899609 -0.0010108257359157449 0 -0.037376967863915221 -0.0017092506361583121 0 -0.03868178321739689 -0.001786607107346964 0 -0.037376967863915221 -0.0017092506361583121 0 -0.03868178321739689 -0.001786607107346964 0 -0.038451105566228147 -0.0021021291017236546 0 -0.03868178321739689 -0.001786607107346964 0 -0.038901491033903099 -0.0021735765172867013 0 -0.038451105566228147 -0.0021021291017236546 0 -0.03868178321739689 -0.001786607107346964 0 -0.038901491033903099 -0.0021735765172867013 0 -0.039754342336683582 -0.0021990679806127905 0 -0.038099556409960815 -0.0024431910240557209 0 -0.038901491033903099 -0.0021735765172867013 0 -0.038093616553971844 -0.0019848296996491464 0 -0.038099556409960815 -0.0024431910240557209 0 -0.038901491033903099 -0.0021735765172867013 0 -0.039754342336683582 -0.0021990679806127905 0 -0.039964801621338045 -0.0027429816913133276 0 -0.039819536873273213 -0.0022995829378927848 0 -0.04301455401289847 -0.0016912638364729438 0 -0.039754342336683582 -0.0021990679806127905 0 -0.041045476111941051 -0.0010852147484082411 0 -0.041256368250215551 -0.00054588954687752528 0 -0.041045476111941051 -0.0010852147484082411 0 -0.040113980250987988 -0.00085574004020561012 0 -0.039754342336683582 -0.0021990679806127905 0 -0.041045476111941051 -0.0010852147484082411 0 -0.040113980250987988 -0.00085574004020561012 0 -0.037767038505264444 9.212207753892039e-05 0 -0.03868178321739689 -0.001786607107346964 0 -0.040113980250987988 -0.00085574004020561012 0 -0.03868178321739689 -0.001786607107346964 0 -0.039754342336683582 -0.0021990679806127905 0 -0.040113980250987988 -0.00085574004020561012 0 -0.038205454128563965 -0.0018363769631703196 0 -0.038396187542067417 -0.0019831769704283324 0 -0.038195592501360114 -0.0013790182685912127 0 -0.038205454128563965 -0.0018363769631703196 0 -0.037750039433590073 -0.001548116820735737 0 -0.038195592501360114 -0.0013790182685912127 0 -0.038205454128563965 -0.0018363769631703196 0 -0.037750039433590073 -0.001548116820735737 0 -0.038093616553971844 -0.0019848296996491464 0 -0.037491242930019382 -0.0017075138381189309 0 -0.037750039433590073 -0.001548116820735737 0 -0.038093616553971844 -0.0019848296996491464 0 -0.038901491033903099 -0.0021735765172867013 0 -0.038093616553971844 -0.0019848296996491464 0 -0.038451105566228147 -0.0021021291017236546 0 -0.038205454128563965 -0.0018363769631703196 0 -0.038093616553971844 -0.0019848296996491464 0 -0.038451105566228147 -0.0021021291017236546 0 -0.038205454128563965 -0.0018363769631703196 0 -0.038451105566228147 -0.0021021291017236546 0 -0.038396187542067417 -0.0019831769704283324 0 -0.037319162317060027 -0.0015584486927671306 0 -0.037006449677521515 -0.0015242616278377389 0 -0.037376967863915221 -0.0017092506361583121 0 -0.038451105566228147 -0.0021021291017236546 0 -0.038396187542067417 -0.0019831769704283324 0 -0.037376967863915221 -0.0017092506361583121 0 -0.035643167788335817 -0.0012658956169623425 0 -0.036139521292875607 -0.0014354984559497984 0 -0.035643167788335817 -0.0012658956169623425 0 -0.035507250780807749 -0.0010442574404963768 0 -0.036139521292875607 -0.0014354984559497984 0 -0.035643167788335817 -0.0012658956169623425 0 -0.034900360168888145 -0.00054480925060845157 0 -0.035507250780807749 -0.0010442574404963768 0 -0.038396187542067417 -0.0019831769704283324 0 -0.038749532148728276 -0.00095757495721051115 0 -0.038195592501360114 -0.0013790182685912127 0 -0.037006449677521515 -0.0015242616278377389 0 -0.036995323452582538 -0.00056035293368000545 0 -0.035643167788335817 -0.0012658956169623425 0 -0.034745044197562254 -0.00040808793929176076 0 -0.034900360168888145 -0.00054480925060845157 0 -0.034745044197562254 -0.00040808793929176076 0 -0.034450826242179128 -0.00030851164512822512 0 -0.034730712260995 -0.00073815865922858745 0 -0.034745044197562254 -0.00040808793929176076 0 -0.034900360168888145 -0.00054480925060845157 0 -0.034450826242179128 -0.00030851164512822512 0 -0.036995323452582538 -0.00056035293368000545 0 -0.034884553882017284 -0.00082108989789548095 0 -0.038749532148728276 -0.00095757495721051115 0 -0.038135575750004008 -0.00033287608574911448 0 -0.038807763654145497 0.00014676692426599997 0 -0.038749532148728276 -0.00095757495721051115 0 -0.038135575750004008 -0.00033287608574911448 0 -0.038195592501360114 -0.0013790182685912127 0 -0.038135575750004008 -0.00033287608574911448 0 -0.038195592501360114 -0.0013790182685912127 0 -0.037624160587514645 -0.00081814931772734769 0 -0.038135575750004008 -0.00033287608574911448 0 -0.037624160587514645 -0.00081814931772734769 0 -0.037567546777186649 -0.00021330095688664179 0 -0.037750039433590073 -0.001548116820735737 0 -0.038195592501360114 -0.0013790182685912127 0 -0.037624160587514645 -0.00081814931772734769 0 -0.036681326507117924 -0.00086428205603542182 0 -0.037750039433590073 -0.001548116820735737 0 -0.037624160587514645 -0.00081814931772734769 0 -0.036681326507117924 -0.00086428205603542182 0 -0.036839001544867744 -0.00016055996835377567 0 -0.037624160587514645 -0.00081814931772734769 0 -0.036839001544867744 -0.00016055996835377567 0 -0.037624160587514645 -0.00081814931772734769 0 -0.037567546777186649 -0.00021330095688664179 0 -0.036839001544867744 -0.00016055996835377567 0 -0.037567546777186649 -0.00021330095688664179 0 -0.037652210756480287 0.00045867800555740042 0 -0.035462549133510671 4.4361418655212851e-05 0 -0.034884553882017284 -0.00082108989789548095 0 -0.038135575750004008 -0.00033287608574911448 0 -0.037567546777186649 -0.00021330095688664179 0 -0.037652210756480287 0.00045867800555740042 0 -0.038135575750004008 -0.00033287608574911448 0 -0.037652210756480287 0.00045867800555740042 0 -0.038807763654145497 0.00014676692426599997 0 -0.032859686247901726 -0.0005046050848802519 0 -0.032720965937828729 -0.00083037007991386836 0 -0.032634868974520621 -0.00085718777994750353 0 -0.032859686247901726 -0.0005046050848802519 0 -0.032720965937828729 -0.00083037007991386836 0 -0.032973315393438368 -0.0002553558914828278 0 -0.03262531433850193 -0.00077078745374272112 0 -0.032579344951396375 -0.00084662107530834711 0 -0.032720965937828729 -0.00083037007991386836 0 -0.032973315393438368 -0.0002553558914828278 0 -0.032915678406447969 -0.00032933168135585957 0 -0.033257193629302434 0.00021061752793615727 0 -0.032859686247901726 -0.0005046050848802519 0 -0.032973315393438368 -0.0002553558914828278 0 -0.034692037694118022 0.00047938890061512509 0 -0.035462549133510671 4.4361418655212851e-05 0 -0.03306781599199779 -0.00025380501969680486 0 -0.032973315393438368 -0.0002553558914828278 0 -0.032915678406447969 -0.00032933168135585957 0 -0.03306781599199779 -0.00025380501969680486 0 -0.032915678406447969 -0.00032933168135585957 0 -0.033023928920003075 -0.00042231090285514363 0 -0.032720965937828729 -0.00083037007991386836 0 -0.032182272347901671 -0.0013989315044511531 0 -0.032362494601284271 -0.001322659948745458 0 -0.032182272347901671 -0.0013989315044511531 0 -0.031946558447198771 -0.0015110567213008522 0 -0.032362494601284271 -0.001322659948745458 0 -0.031946558447198771 -0.0015110567213008522 0 -0.032150462934016411 -0.0014276721682252498 0 -0.031792522113644681 -0.0015421161107015788 0 -0.031946558447198771 -0.0015110567213008522 0 -0.032150462934016411 -0.0014276721682252498 0 -0.032362494601284271 -0.001322659948745458 0 -0.032150462934016411 -0.0014276721682252498 0 -0.031864120327004301 -0.0014226847674179632 0 -0.031792522113644681 -0.0015421161107015788 0 -0.031946558447198771 -0.0015110567213008522 0 -0.031647421732601815 -0.0017093168331060258 0 -0.031792522113644681 -0.0015421161107015788 0 -0.031946558447198771 -0.0015110567213008522 0 -0.031647421732601815 -0.0017093168331060258 0 -0.031805365789643499 -0.0016201419076077672 0 -0.032579344951396375 -0.00084662107530834711 0 -0.031843071609288794 -0.0011379926148763785 0 -0.032182272347901671 -0.0013989315044511531 0 -0.031946558447198771 -0.0015110567213008522 0 -0.031805365789643499 -0.0016201419076077672 0 -0.031470290685636546 -0.0016098005363029202 0 -0.031843071609288794 -0.0011379926148763785 0 -0.03252366486639361 -0.0013462462436240456 0 -0.032150462934016411 -0.0014276721682252498 0 -0.032638899232773549 -0.0013797826600070609 0 -0.03252366486639361 -0.0013462462436240456 0 -0.032150462934016411 -0.0014276721682252498 0 -0.031864120327004301 -0.0014226847674179632 0 -0.032150462934016411 -0.0014276721682252498 0 -0.032362494601284271 -0.001322659948745458 0 -0.032638899232773549 -0.0013797826600070609 0 -0.032362494601284271 -0.001322659948745458 0 -0.032638899232773549 -0.0013797826600070609 0 -0.032726689387703588 -0.0011184258227257848 0 -0.032638899232773549 -0.0013797826600070609 0 -0.032726689387703588 -0.0011184258227257848 0 -0.033060067682368313 -0.0013121675591920366 0 -0.033231134951054238 -0.0010826864934670281 0 -0.032726689387703588 -0.0011184258227257848 0 -0.033060067682368313 -0.0013121675591920366 0 -0.033231134951054238 -0.0010826864934670281 0 -0.032726689387703588 -0.0011184258227257848 0 -0.033055450148370726 -0.0012192270017172074 0 -0.033231134951054238 -0.0010826864934670281 0 -0.033844714654639937 -0.00077551727432360418 0 -0.033060067682368313 -0.0013121675591920366 0 -0.032720965937828729 -0.00083037007991386836 0 -0.032362494601284271 -0.001322659948745458 0 -0.032726689387703588 -0.0011184258227257848 0 -0.032720965937828729 -0.00083037007991386836 0 -0.032726689387703588 -0.0011184258227257848 0 -0.032634868974520621 -0.00085718777994750353 0 -0.032762550879638336 -0.0011552266422500252 0 -0.034884553882017284 -0.00082108989789548095 0 -0.033231134951054238 -0.0010826864934670281 0 -0.033055450148370726 -0.0012192270017172074 0 -0.033844714654639937 -0.00077551727432360418 0 -0.034884553882017284 -0.00082108989789548095 0 -0.033441434525499719 -0.00077790721798944289 0 -0.034450826242179128 -0.00030851164512822512 0 -0.034730712260995 -0.00073815865922858745 0 -0.033844714654639937 -0.00077551727432360418 0 -0.033844714654639937 -0.00077551727432360418 0 -0.032804177396503577 -0.00091523300924126693 0 -0.034195855106390352 7.6356960051877717e-05 0 -0.033844714654639937 -0.00077551727432360418 0 -0.032804177396503577 -0.00091523300924126693 0 -0.033060067682368313 -0.0013121675591920366 0 -0.032804177396503577 -0.00091523300924126693 0 -0.030578698131048992 0.00028686216758964201 0 -0.031900189677282358 0.001709549896346933 0 -0.032804177396503577 -0.00091523300924126693 0 -0.03274260091435259 -0.0017145477639011007 0 -0.031450622265077791 -0.0016186363425822056 0 -0.032804177396503577 -0.00091523300924126693 0 -0.033060067682368313 -0.0013121675591920366 0 -0.03274260091435259 -0.0017145477639011007 0 -0.032638899232773549 -0.0013797826600070609 0 -0.033060067682368313 -0.0013121675591920366 0 -0.03274260091435259 -0.0017145477639011007 0 -0.031102453180367116 -0.00093246801234498548 0 -0.030063149324334727 -0.00066021244398030649 0 -0.02952847162526925 -0.00014052062314926894 0 -0.028933930532387752 -0.00040360733366263344 0 -0.028758746432499756 0.00019452812778244163 0 -0.02952847162526925 -0.00014052062314926894 0 -0.028933930532387752 -0.00040360733366263344 0 -0.029460956406781619 -0.00096343879120027451 0 -0.030446262018219608 -0.00058817841138681466 0 -0.02952847162526925 -0.00014052062314926894 0 -0.029460956406781619 -0.00096343879120027451 0 -0.03252366486639361 -0.0013462462436240456 0 -0.032638899232773549 -0.0013797826600070609 0 -0.03274260091435259 -0.0017145477639011007 0 -0.031492822901407265 -0.0010104807657752744 0 -0.031102453180367116 -0.00093246801234498548 0 -0.028388374561449412 -0.00035053552915640599 0 -0.027810607610988212 -0.00027707989412941445 0 -0.027775763713806856 -0.0011086475098861601 0 -0.028388374561449412 -0.00035053552915640599 0 -0.027775763713806856 -0.0011086475098861601 0 -0.028586365443765905 -0.00092277805640097446 0 -0.028933930532387752 -0.00040360733366263344 0 -0.028388374561449412 -0.00035053552915640599 0 -0.028586365443765905 -0.00092277805640097446 0 -0.028933930532387752 -0.00040360733366263344 0 -0.028586365443765905 -0.00092277805640097446 0 -0.029460956406781619 -0.00096343879120027451 0 -0.028933930532387752 -0.00040360733366263344 0 -0.028388374561449412 -0.00035053552915640599 0 -0.028758746432499756 0.00019452812778244163 0 -0.028388374561449412 -0.00035053552915640599 0 -0.028303702422443622 7.1016271360101706e-05 0 -0.028758746432499756 0.00019452812778244163 0 -0.028388374561449412 -0.00035053552915640599 0 -0.028303702422443622 7.1016271360101706e-05 0 -0.027810607610988212 -0.00027707989412941445 0 -0.028303702422443622 7.1016271360101706e-05 0 -0.0285765756793416 0.00017912052140309307 0 -0.028118005418048753 0.00020914435113010554 0 -0.028303702422443622 7.1016271360101706e-05 0 -0.028758746432499756 0.00019452812778244163 0 -0.0285765756793416 0.00017912052140309307 0 -0.031450622265077791 -0.0016186363425822056 0 -0.030578698131048992 0.00028686216758964201 0 -0.0285765756793416 0.00017912052140309307 0 -0.032804177396503577 -0.00091523300924126693 0 -0.031450622265077791 -0.0016186363425822056 0 -0.030578698131048992 0.00028686216758964201 0 -0.030063149324334727 -0.00066021244398030649 0 -0.028677895475318904 0.00016578799530198547 0 -0.0285765756793416 0.00017912052140309307 0 -0.028128397545153273 0.00030426664803130362 0 -0.028118005418048753 0.00020914435113010554 0 -0.030578698131048992 0.00028686216758964201 0 -0.029101666294089421 0.00063908294427138842 0 -0.0285765756793416 0.00017912052140309307 0 -0.029101666294089421 0.00063908294427138842 0 -0.0285765756793416 0.00017912052140309307 0 -0.028298730073872562 0.00035776810350119731 0 -0.0285765756793416 0.00017912052140309307 0 -0.028298730073872562 0.00035776810350119731 0 -0.028128397545153273 0.00030426664803130362 0 -0.028298730073872562 0.00035776810350119731 0 -0.028193851152419451 0.00064385534503650439 0 -0.028299710273672243 0.00079122041778203979 0 -0.028298730073872562 0.00035776810350119731 0 -0.028193851152419451 0.00064385534503650439 0 -0.028047795747506776 0.00055672471462127175 0 -0.028298730073872562 0.00035776810350119731 0 -0.029395746680688215 0.0014129628752200872 0 -0.029717129172394011 0.0028042586954885079 0 -0.027335460529523833 0.00069827867533422711 0 -0.032641813426899202 0.0005156781544115893 0 -0.029101666294089421 0.00063908294427138842 0 -0.028298730073872562 0.00035776810350119731 0 -0.029395746680688215 0.0014129628752200872 0 -0.030578698131048992 0.00028686216758964201 0 -0.029101666294089421 0.00063908294427138842 0 -0.029395746680688215 0.0014129628752200872 0 -0.027686246198590694 0.001400436870304291 0 -0.032691843024019555 -7.2833197893800859e-05 0 -0.032641813426899202 0.0005156781544115893 0 -0.032691843024019555 -7.2833197893800859e-05 0 -0.028193851152419451 0.00064385534503650439 0 -0.028299710273672243 0.00079122041778203979 0 -0.028173964625260013 0.00082254799657225785 0 -0.03627081670415408 -0.00064698246818622671 0 -0.035779328287147499 -0.00032783498608121581 0 -0.035744718463417494 -0.00091877692570774673 0 -0.032641813426899202 0.0005156781544115893 0 -0.033831921798321396 0.00068703020470669163 0 -0.030578698131048992 0.00028686216758964201 0 -0.029395746680688215 0.0014129628752200872 0 -0.031900189677282358 0.001709549896346933 0 -0.029395746680688215 0.0014129628752200872 0 -0.029717129172394011 0.0028042586954885079 0 -0.031900189677282358 0.001709549896346933 0 -0.033831921798321396 0.00068703020470669163 0 -0.034167622788567893 0.00020000120650216384 0 -0.032804177396503577 -0.00091523300924126693 0 -0.031900189677282358 0.001709549896346933 0 -0.034195855106390352 7.6356960051877717e-05 0 -0.035779328287147499 -0.00032783498608121581 0 -0.034195855106390352 7.6356960051877717e-05 0 -0.035178266479846267 -0.00063781565678154074 0 -0.034450826242179128 -0.00030851164512822512 0 -0.033844714654639937 -0.00077551727432360418 0 -0.034195855106390352 7.6356960051877717e-05 0 -0.034900360168888145 -0.00054480925060845157 0 -0.034450826242179128 -0.00030851164512822512 0 -0.034195855106390352 7.6356960051877717e-05 0 -0.034900360168888145 -0.00054480925060845157 0 -0.035178266479846267 -0.00063781565678154074 0 -0.035507250780807749 -0.0010442574404963768 0 -0.034900360168888145 -0.00054480925060845157 0 -0.034195855106390352 7.6356960051877717e-05 0 -0.035178266479846267 -0.00063781565678154074 0 -0.035178266479846267 -0.00063781565678154074 0 -0.035744718463417494 -0.00091877692570774673 0 -0.035507250780807749 -0.0010442574404963768 0 -0.035779328287147499 -0.00032783498608121581 0 -0.035178266479846267 -0.00063781565678154074 0 -0.035744718463417494 -0.00091877692570774673 0 -0.035744718463417494 -0.00091877692570774673 0 -0.035857325118493287 -0.001245825213878051 0 -0.035946513052974964 -0.0012187846604193346 0 -0.035744718463417494 -0.00091877692570774673 0 -0.035507250780807749 -0.0010442574404963768 0 -0.035857325118493287 -0.001245825213878051 0 -0.035507250780807749 -0.0010442574404963768 0 -0.036139521292875607 -0.0014354984559497984 0 -0.035857325118493287 -0.001245825213878051 0 -0.035950347129110813 -0.0010489982015460246 0 -0.036139521292875607 -0.0014354984559497984 0 -0.035857325118493287 -0.001245825213878051 0 -0.035950347129110813 -0.0010489982015460246 0 -0.035857325118493287 -0.001245825213878051 0 -0.035946513052974964 -0.0012187846604193346 0 -0.035950347129110813 -0.0010489982015460246 0 -0.035964583879224146 -0.00080765928064938314 0 -0.036037890763210505 -0.00090030662965663686 0 -0.035831166211918015 -0.0010239345901790562 0 -0.03642331045749006 -0.0011229341806822998 0 -0.036037890763210505 -0.00090030662965663686 0 -0.03605890190774598 -0.00079348547305806735 0 -0.036104234345669915 -0.0008726356931268275 0 -0.035964583879224146 -0.00080765928064938314 0 -0.036037890763210505 -0.00090030662965663686 0 -0.03605890190774598 -0.00079348547305806735 0 -0.035982486240850931 -0.00065132952137689204 0 -0.03605890190774598 -0.00079348547305806735 0 -0.036084756022933699 -0.00069280053956498257 0 -0.035982486240850931 -0.00065132952137689204 0 -0.035964583879224146 -0.00080765928064938314 0 -0.03605890190774598 -0.00079348547305806735 0 -0.03627081670415408 -0.00064698246818622671 0 -0.035744718463417494 -0.00091877692570774673 0 -0.035946513052974964 -0.0012187846604193346 0 -0.032641813426899202 0.0005156781544115893 0 -0.03642331045749006 -0.0011229341806822998 0 -0.037647674338323667 -0.0011897750908262026 0 -0.032691843024019555 -7.2833197893800859e-05 0 -0.032988301199855047 -0.00038917323862439713 0 -0.032691843024019555 -7.2833197893800859e-05 0 -0.038064447894840842 -0.00096798512671160202 0 -0.038136311930529201 -0.00091417931487917188 0 -0.038048464135009265 -0.0009256589264453267 0 -0.03605890190774598 -0.00079348547305806735 0 -0.036150784327573682 -0.00082273698704751698 0 -0.036084756022933699 -0.00069280053956498257 0 -0.03605890190774598 -0.00079348547305806735 0 -0.036150784327573682 -0.00082273698704751698 0 -0.036104234345669915 -0.0008726356931268275 0 -0.036181399180202717 -0.00088003167633798603 0 -0.036150784327573682 -0.00082273698704751698 0 -0.036104234345669915 -0.0008726356931268275 0 -0.038064447894840842 -0.00096798512671160202 0 -0.038136311930529201 -0.00091417931487917188 0 -0.038061473713576502 -0.00085982631993954106 0 -0.03820320773728466 -0.00065687616955022166 0 -0.038136311930529201 -0.00091417931487917188 0 -0.038061473713576502 -0.00085982631993954106 0 -0.037118308582242909 -0.00067834868109200382 0 -0.037647674338323667 -0.0011897750908262026 0 -0.038064447894840842 -0.00096798512671160202 0 -0.038061473713576502 -0.00085982631993954106 0 -0.037858809378951551 -0.001074031455845762 0 -0.037813691315308373 -0.00079049830878577217 0 -0.038061473713576502 -0.00085982631993954106 0 -0.037858809378951551 -0.001074031455845762 0 -0.037813691315308373 -0.00079049830878577217 0 -0.037858809378951551 -0.001074031455845762 0 -0.037176251927050506 -0.0013749461905272797 0 -0.033339171355956584 -0.0008363636463088721 0 -0.034143260310552564 -0.0010838473387770496 0 -0.028842932773927125 -0.00066284965477728336 0 -0.028370511990151958 0.00035937033173004238 0 -0.03040256731232973 0.00011367721046810181 0 -0.027727985473231246 0.00026864088110512143 0 -0.028842932773927125 -0.00066284965477728336 0 -0.028370511990151958 0.00035937033173004238 0 -0.032988301199855047 -0.00038917323862439713 0 -0.033339171355956584 -0.0008363636463088721 0 -0.027841202271396862 0.00072795413961998729 0 -0.028370511990151958 0.00035937033173004238 0 -0.028004305569870956 0.0010958342902345152 0 -0.027727985473231246 0.00026864088110512143 0 -0.027841202271396862 0.00072795413961998729 0 -0.028370511990151958 0.00035937033173004238 0 -0.028370511990151958 0.00035937033173004238 0 -0.028004305569870956 0.0010958342902345152 0 -0.03040256731232973 0.00011367721046810181 0 -0.028004305569870956 0.0010958342902345152 0 -0.027655507842107997 0.00080236365716594216 0 -0.026863483154920702 0.00050811484798528295 0 -0.027655507842107997 0.00080236365716594216 0 -0.027719645686960288 0.00068939063408125984 0 -0.027532903062154446 0.00055725586067872598 0 -0.027841202271396862 0.00072795413961998729 0 -0.027655507842107997 0.00080236365716594216 0 -0.027719645686960288 0.00068939063408125984 0 -0.027841202271396862 0.00072795413961998729 0 -0.028004305569870956 0.0010958342902345152 0 -0.027655507842107997 0.00080236365716594216 0 -0.027719645686960288 0.00068939063408125984 0 -0.027876060586877582 0.00059729943069076845 0 -0.027787482684651098 0.00042766952839722483 0 -0.027841202271396862 0.00072795413961998729 0 -0.027719645686960288 0.00068939063408125984 0 -0.027770817988662391 0.00065551293769327917 0 -0.027719645686960288 0.00068939063408125984 0 -0.027770817988662391 0.00065551293769327917 0 -0.027876060586877582 0.00059729943069076845 0 -0.027727985473231246 0.00026864088110512143 0 -0.027841202271396862 0.00072795413961998729 0 -0.027770817988662391 0.00065551293769327917 0 -0.028193851152419451 0.00064385534503650439 0 -0.027877474717697779 0.00069391557970366379 0 -0.027941877094917758 0.00064564167623705373 0 -0.027727985473231246 0.00026864088110512143 0 -0.027770817988662391 0.00065551293769327917 0 -0.027877474717697779 0.00069391557970366379 0 -0.027770817988662391 0.00065551293769327917 0 -0.027877474717697779 0.00069391557970366379 0 -0.027941877094917758 0.00064564167623705373 0 -0.027941877094917758 0.00064564167623705373 0 -0.027876060586877582 0.00059729943069076845 0 -0.028047795747506776 0.00055672471462127175 0 -0.028193851152419451 0.00064385534503650439 0 -0.027941877094917758 0.00064564167623705373 0 -0.028047795747506776 0.00055672471462127175 0 -0.027770817988662391 0.00065551293769327917 0 -0.027941877094917758 0.00064564167623705373 0 -0.027876060586877582 0.00059729943069076845 0 -0.027876060586877582 0.00059729943069076845 0 -0.028047795747506776 0.00055672471462127175 0 -0.027974038625392689 0.00044114179569534369 0 -0.027974038625392689 0.00044114179569534369 0 -0.027787482684651098 0.00042766952839722483 0 -0.028128397545153273 0.00030426664803130362 0 -0.028298730073872562 0.00035776810350119731 0 -0.028047795747506776 0.00055672471462127175 0 -0.027974038625392689 0.00044114179569534369 0 -0.028298730073872562 0.00035776810350119731 0 -0.027974038625392689 0.00044114179569534369 0 -0.028128397545153273 0.00030426664803130362 0 -0.027876060586877582 0.00059729943069076845 0 -0.027974038625392689 0.00044114179569534369 0 -0.027787482684651098 0.00042766952839722483 0 -0.027787482684651098 0.00042766952839722483 0 -0.028128397545153273 0.00030426664803130362 0 -0.028118005418048753 0.00020914435113010554 0 -0.027719645686960288 0.00068939063408125984 0 -0.027787482684651098 0.00042766952839722483 0 -0.027532903062154446 0.00055725586067872598 0 -0.027787482684651098 0.00042766952839722483 0 -0.027532903062154446 0.00055725586067872598 0 -0.02727501428397423 0.00020478104757378542 0 -0.027787482684651098 0.00042766952839722483 0 -0.02727501428397423 0.00020478104757378542 0 -0.027779627546342407 0.0001023077594295588 0 -0.028303702422443622 7.1016271360101706e-05 0 -0.027779627546342407 0.0001023077594295588 0 -0.028118005418048753 0.00020914435113010554 0 -0.027787482684651098 0.00042766952839722483 0 -0.027779627546342407 0.0001023077594295588 0 -0.028118005418048753 0.00020914435113010554 0 -0.027779627546342407 0.0001023077594295588 0 -0.027810607610988212 -0.00027707989412941445 0 -0.026972031668689864 -0.00024290366472173636 0 -0.028303702422443622 7.1016271360101706e-05 0 -0.027779627546342407 0.0001023077594295588 0 -0.027810607610988212 -0.00027707989412941445 0 -0.02727501428397423 0.00020478104757378542 0 -0.026972031668689864 -0.00024290366472173636 0 -0.02682378198401331 0.00014727654918602804 0 -0.02727501428397423 0.00020478104757378542 0 -0.027779627546342407 0.0001023077594295588 0 -0.026972031668689864 -0.00024290366472173636 0 -0.026972031668689864 -0.00024290366472173636 0 -0.026539322835381456 -0.00051223080824229885 0 -0.026303981347264044 -0.00064987958185662583 0 -0.027810607610988212 -0.00027707989412941445 0 -0.026972031668689864 -0.00024290366472173636 0 -0.027775763713806856 -0.0011086475098861601 0 -0.026939013664320877 -0.00025892632071789601 0 -0.02716706763030614 -0.00078137300900626018 0 -0.026332774282804405 -3.9593603052226122e-05 0 -0.025574038998228712 -9.5877675871361025e-05 0 -0.025969627703952818 -0.00051270372059069669 0 -0.026972031668689864 -0.00024290366472173636 0 -0.026332774282804405 -3.9593603052226122e-05 0 -0.025969627703952818 -0.00051270372059069669 0 -0.026972031668689864 -0.00024290366472173636 0 -0.026332774282804405 -3.9593603052226122e-05 0 -0.02682378198401331 0.00014727654918602804 0 -0.026332774282804405 -3.9593603052226122e-05 0 -0.025758546376233135 0.00018719404972175065 0 -0.025574038998228712 -9.5877675871361025e-05 0 -0.026332774282804405 -3.9593603052226122e-05 0 -0.026462428678833423 0.00029366386169264475 0 -0.025758546376233135 0.00018719404972175065 0 -0.026332774282804405 -3.9593603052226122e-05 0 -0.026462428678833423 0.00029366386169264475 0 -0.02682378198401331 0.00014727654918602804 0 -0.026462428678833423 0.00029366386169264475 0 -0.02682378198401331 0.00014727654918602804 0 -0.027126160495565564 0.00044393811588014619 0 -0.02727501428397423 0.00020478104757378542 0 -0.02682378198401331 0.00014727654918602804 0 -0.027126160495565564 0.00044393811588014619 0 -0.027655507842107997 0.00080236365716594216 0 -0.027532903062154446 0.00055725586067872598 0 -0.027126160495565564 0.00044393811588014619 0 -0.027532903062154446 0.00055725586067872598 0 -0.02727501428397423 0.00020478104757378542 0 -0.027126160495565564 0.00044393811588014619 0 -0.026462428678833423 0.00029366386169264475 0 -0.027126160495565564 0.00044393811588014619 0 -0.026863483154920702 0.00050811484798528295 0 -0.027655507842107997 0.00080236365716594216 0 -0.027126160495565564 0.00044393811588014619 0 -0.026863483154920702 0.00050811484798528295 0 -0.026462428678833423 0.00029366386169264475 0 -0.026863483154920702 0.00050811484798528295 0 -0.025927068926579328 0.00034275550734041342 0 -0.026863483154920702 0.00050811484798528295 0 -0.025927068926579328 0.00034275550734041342 0 -0.026253593557584696 0.0007399049415833897 0 -0.025927068926579328 0.00034275550734041342 0 -0.025758546376233135 0.00018719404972175065 0 -0.025437287736328716 0.00026990373975172293 0 -0.026462428678833423 0.00029366386169264475 0 -0.025927068926579328 0.00034275550734041342 0 -0.025758546376233135 0.00018719404972175065 0 -0.025105473821414329 0.00016370705753902839 0 -0.024895125590391982 0.00023357218646433375 0 -0.025437287736328716 0.00026990373975172293 0 -0.025758546376233135 0.00018719404972175065 0 -0.025105473821414329 0.00016370705753902839 0 -0.025437287736328716 0.00026990373975172293 0 -0.025105473821414329 0.00016370705753902839 0 -0.024400643172255407 0.00020703586780934313 0 -0.024761161588025125 -7.5328144942724822e-05 0 -0.025105473821414329 0.00016370705753902839 0 -0.025574038998228712 -9.5877675871361025e-05 0 -0.024761161588025125 -7.5328144942724822e-05 0 -0.025758546376233135 0.00018719404972175065 0 -0.025105473821414329 0.00016370705753902839 0 -0.025574038998228712 -9.5877675871361025e-05 0 -0.022928724390469189 1.1897989428792863e-06 0 -0.022926120128105219 -6.3081579292876068e-06 0 -0.025550127455119961 -7.4869499201206235e-07 0 -0.0248434110165992 0.00031467925559968546 0 -0.024488403774613761 0.00026751514364918078 0 -0.025056219291896407 0.00018732318899041325 0 -0.0248434110165992 0.00031467925559968546 0 -0.024488403774613761 0.00026751514364918078 0 -0.023770939817799732 0.0002797880061537399 0 -0.025105473821414329 0.00016370705753902839 0 -0.024400643172255407 0.00020703586780934313 0 -0.024895125590391982 0.00023357218646433375 0 -0.024488403774613761 0.00026751514364918078 0 -0.024400643172255407 0.00020703586780934313 0 -0.023770939817799732 0.0002797880061537399 0 -0.024488403774613761 0.00026751514364918078 0 -0.024400643172255407 0.00020703586780934313 0 -0.024895125590391982 0.00023357218646433375 0 -0.024488403774613761 0.00026751514364918078 0 -0.024895125590391982 0.00023357218646433375 0 -0.025056219291896407 0.00018732318899041325 0 -0.024895125590391982 0.00023357218646433375 0 -0.025359506562389944 0.00017884103410909885 0 -0.025056219291896407 0.00018732318899041325 0 -0.024895125590391982 0.00023357218646433375 0 -0.025437287736328716 0.00026990373975172293 0 -0.025359506562389944 0.00017884103410909885 0 -0.0248434110165992 0.00031467925559968546 0 -0.025056219291896407 0.00018732318899041325 0 -0.025552856435225133 3.540247926143791e-07 0 -0.025359506562389944 0.00017884103410909885 0 -0.025056219291896407 0.00018732318899041325 0 -0.025552856435225133 3.540247926143791e-07 0 -0.023838951235958878 0.00017159615910158907 0 -0.025550210562779896 3.6562167016477637e-07 0 -0.025359506562389944 0.00017884103410909885 0 -0.025552856435225133 3.540247926143791e-07 0 -0.025993679496269625 0.00028249854522203419 0 -0.025552856435225133 3.540247926143791e-07 0 -0.025993679496269625 0.00028249854522203419 0 -0.027058974002616767 1.0632157524370834e-06 0 -0.025927068926579328 0.00034275550734041342 0 -0.025437287736328716 0.00026990373975172293 0 -0.025993679496269625 0.00028249854522203419 0 -0.025437287736328716 0.00026990373975172293 0 -0.025359506562389944 0.00017884103410909885 0 -0.025993679496269625 0.00028249854522203419 0 -0.025927068926579328 0.00034275550734041342 0 -0.025993679496269625 0.00028249854522203419 0 -0.026624548218365636 0.00025358665612719894 0 -0.025927068926579328 0.00034275550734041342 0 -0.026624548218365636 0.00025358665612719894 0 -0.0261803157808028 -6.0989818202150321e-05 0 -0.025993679496269625 0.00028249854522203419 0 -0.026624548218365636 0.00025358665612719894 0 -0.027058974002616767 1.0632157524370834e-06 0 -0.026624548218365636 0.00025358665612719894 0 -0.027058974002616767 1.0632157524370834e-06 0 -0.028564106155887347 -1.6562033308998672e-06 0 -0.028571473688533185 -1.582056479446879e-06 0 -0.030748004752514706 0.0002963618355427715 0 -0.031337305999568271 0.00018631937071350691 0 -0.026624548218365636 0.00025358665612719894 0 -0.028564106155887347 -1.6562033308998672e-06 0 -0.0261803157808028 -6.0989818202150321e-05 0 -0.028567687433593409 -1.0646052963603547e-08 0 -0.028743584988721586 0.0001572019156003136 0 -0.028571473688533185 -1.582056479446879e-06 0 -0.030748004752514706 0.0002963618355427715 0 -0.030894788095560226 1.2621840442708662e-06 0 -0.030748004752514706 0.0002963618355427715 0 -0.030894788095560226 1.2621840442708662e-06 0 -0.031886262286286014 0.00033389568896014996 0 -0.030748004752514706 0.0002963618355427715 0 -0.031337305999568271 0.00018631937071350691 0 -0.031886262286286014 0.00033389568896014996 0 -0.028743584988721586 0.0001572019156003136 0 -0.028467841031297878 0.00086370234103246317 0 -0.025927068926579328 0.00034275550734041342 0 -0.0261803157808028 -6.0989818202150321e-05 0 -0.026253593557584696 0.0007399049415833897 0 -0.028004305569870956 0.0010958342902345152 0 -0.026863483154920702 0.00050811484798528295 0 -0.026253593557584696 0.0007399049415833897 0 -0.028042577965349681 0.0010744453399899937 0 -0.028467841031297878 0.00086370234103246317 0 -0.028004305569870956 0.0010958342902345152 0 -0.030713820565365618 0.0011501314096065856 0 -0.03040256731232973 0.00011367721046810181 0 -0.030713820565365618 0.0011501314096065856 0 -0.03040256731232973 0.00011367721046810181 0 -0.031886262286286014 0.00033389568896014996 0 -0.031337305999568271 0.00018631937071350691 0 -0.030713820565365618 0.0011501314096065856 0 -0.031886262286286014 0.00033389568896014996 0 -0.031245905902763584 -0.00097330515896073676 0 -0.03318019073003959 -9.6022948810831264e-05 0 -0.031886262286286014 0.00033389568896014996 0 -0.03040256731232973 0.00011367721046810181 0 -0.031245905902763584 -0.00097330515896073676 0 -0.031886262286286014 0.00033389568896014996 0 -0.028842932773927125 -0.00066284965477728336 0 -0.03040256731232973 0.00011367721046810181 0 -0.031245905902763584 -0.00097330515896073676 0 -0.034591935709009779 -0.00071673139624481579 0 -0.031245905902763584 -0.00097330515896073676 0 -0.03318019073003959 -9.6022948810831264e-05 0 -0.034591935709009779 -0.00071673139624481579 0 -0.03318019073003959 -9.6022948810831264e-05 0 -0.033222055849136289 -5.9553512858458488e-07 0 -0.030894788095560226 1.2621840442708662e-06 0 -0.03318019073003959 -9.6022948810831264e-05 0 -0.033222055849136289 -5.9553512858458488e-07 0 -0.030894788095560226 1.2621840442708662e-06 0 -0.03318019073003959 -9.6022948810831264e-05 0 -0.031886262286286014 0.00033389568896014996 0 -0.013793681677800519 -1.1094380777001233e-05 0 -0.014956085822017288 -0.00054810847514951148 0 -0.015006477000768084 0.00016385219633038674 0 -0.013793681677800519 -1.1094380777001233e-05 0 -0.015006477000768084 0.00016385219633038674 0 -0.01481724533565946 0.00012620362437833731 0 -0.013793681677800519 -1.1094380777001233e-05 0 -0.012444688229681465 -5.8048066250809042e-07 0 -0.015065625890011251 1.0005701818298392e-06 0 -0.013793681677800519 -1.1094380777001233e-05 0 -0.011013966070077312 -9.3117481443103249e-05 0 -0.011057752034770605 -8.2122677020578201e-05 0 -0.013944681036680671 -0.00039373424266551981 0 -0.010699217638414091 0.00066383233638684226 0 -0.013793681677800519 -1.1094380777001233e-05 0 -0.012444688229681465 -5.8048066250809042e-07 0 -0.011057752034770605 -8.2122677020578201e-05 0 -0.013793681677800519 -1.1094380777001233e-05 0 -0.014956085822017288 -0.00054810847514951148 0 -0.01399323726014211 -0.0011088509133365175 0 -0.014956085822017288 -0.00054810847514951148 0 -0.015563589801461278 -0.00068886631591465316 0 -0.015666437186390502 -6.7588321984386477e-05 0 -0.014956085822017288 -0.00054810847514951148 0 -0.015563589801461278 -0.00068886631591465316 0 -0.015147611667202869 -0.0013606193019686168 0 -0.015563589801461278 -0.00068886631591465316 0 -0.015666437186390502 -6.7588321984386477e-05 0 -0.016186106171122046 -0.00078920186688841674 0 -0.015563589801461278 -0.00068886631591465316 0 -0.016186106171122046 -0.00078920186688841674 0 -0.015747542923799315 -0.0011255153006716736 0 -0.014956085822017288 -0.00054810847514951148 0 -0.015666437186390502 -6.7588321984386477e-05 0 -0.015006477000768084 0.00016385219633038674 0 -0.015666437186390502 -6.7588321984386477e-05 0 -0.015275114885999246 0.0003026478887949463 0 -0.015006477000768084 0.00016385219633038674 0 -0.020102555005598283 -0.0017246884027242769 0 -0.019577540164259458 -0.0011521658727625644 0 -0.02429481895555213 -0.0026421306039302195 0 -0.024346275902908266 -0.002668348845580224 0 -0.02396283480581388 -0.0027794700458758049 0 -0.024346275902908266 -0.002668348845580224 0 -0.02396283480581388 -0.0027794700458758049 0 -0.024333859316863143 -0.0024035545337697433 0 -0.024346275902908266 -0.002668348845580224 0 -0.024333859316863143 -0.0024035545337697433 0 -0.024559175156716399 -0.0025659429674461747 0 -0.02396283480581388 -0.0027794700458758049 0 -0.022908056672049652 -0.0025109703396106707 0 -0.024333859316863143 -0.0024035545337697433 0 -0.015275114885999246 0.0003026478887949463 0 -0.015592704830331655 0.00025817321530617198 0 -0.016298595285976561 -0.00010675832647969783 0 -0.019577540164259458 -0.0011521658727625644 0 -0.019604558255809878 -0.0011541988171954547 0 -0.015592704830331655 0.00025817321530617198 0 -0.015006477000768084 0.00016385219633038674 0 -0.01481724533565946 0.00012620362437833731 0 -0.015275114885999246 0.0003026478887949463 0 -0.015592704830331655 0.00025817321530617198 0 -0.015006477000768084 0.00016385219633038674 0 -0.015592704830331655 0.00025817321530617198 0 -0.015065625890011251 1.0005701818298392e-06 0 -0.01481724533565946 0.00012620362437833731 0 -0.013793681677800519 -1.1094380777001233e-05 0 -0.015065625890011251 1.0005701818298392e-06 0 -0.01481724533565946 0.00012620362437833731 0 -0.015592704830331655 0.00025817321530617198 0 -0.015065625890011251 1.0005701818298392e-06 0 -0.017686195089531752 -3.851688440572114e-07 0 -0.015592704830331655 0.00025817321530617198 0 -0.017686195089531752 -3.851688440572114e-07 0 -0.016298595285976561 -0.00010675832647969783 0 -0.022908056672049652 -0.0025109703396106707 0 -0.023032017076798909 -0.00076451155557827474 0 -0.01995470737149135 -0.00034448088563189208 0 -0.022908056672049652 -0.0025109703396106707 0 -0.023032017076798909 -0.00076451155557827474 0 -0.023969846256319441 -0.0016247690246993466 0 -0.019604558255809878 -0.0011541988171954547 0 -0.01972244168593347 -0.00030016224955981138 0 -0.017686195089531752 -3.851688440572114e-07 0 -0.016298595285976561 -0.00010675832647969783 0 -0.01995470737149135 -0.00034448088563189208 0 -0.017686195089531752 -3.851688440572114e-07 0 -0.01995470737149135 -0.00034448088563189208 0 -0.020309911059138167 -1.3514338572192792e-06 0 -0.023032017076798909 -0.00076451155557827474 0 -0.01995470737149135 -0.00034448088563189208 0 -0.022213697173877958 0.00013634438086395739 0 -0.01995470737149135 -0.00034448088563189208 0 -0.020309911059138167 -1.3514338572192792e-06 0 -0.022213697173877958 0.00013634438086395739 0 -0.023032017076798909 -0.00076451155557827474 0 -0.022213697173877958 0.00013634438086395739 0 -0.023794227417599716 2.0790281459557456e-05 0 -0.022213697173877958 0.00013634438086395739 0 -0.023794227417599716 2.0790281459557456e-05 0 -0.023770939817799732 0.0002797880061537399 0 -0.024400643172255407 0.00020703586780934313 0 -0.023794227417599716 2.0790281459557456e-05 0 -0.023770939817799732 0.0002797880061537399 0 -0.023838951235958878 0.00017159615910158907 0 -0.022514005559058754 6.2923412619522948e-05 0 -0.022928724390469189 1.1897989428792863e-06 0 -0.022926120128105219 -6.3081579292876068e-06 0 -0.022213697173877958 0.00013634438086395739 0 -0.022928724390469189 1.1897989428792863e-06 0 -0.020309911059138167 -1.3514338572192792e-06 0 -0.022213697173877958 0.00013634438086395739 0 -0.0248434110165992 0.00031467925559968546 0 -0.022213697173877958 0.00013634438086395739 0 -0.023770939817799732 0.0002797880061537399 0 -0.025574038998228712 -9.5877675871361025e-05 0 -0.024761161588025125 -7.5328144942724822e-05 0 -0.025267627662435718 -0.00057538172225998459 0 -0.023794227417599716 2.0790281459557456e-05 0 -0.024761161588025125 -7.5328144942724822e-05 0 -0.02433947374055799 -0.0006584630258326537 0 -0.024400643172255407 0.00020703586780934313 0 -0.023794227417599716 2.0790281459557456e-05 0 -0.024761161588025125 -7.5328144942724822e-05 0 -0.023032017076798909 -0.00076451155557827474 0 -0.023794227417599716 2.0790281459557456e-05 0 -0.02433947374055799 -0.0006584630258326537 0 -0.024761161588025125 -7.5328144942724822e-05 0 -0.02433947374055799 -0.0006584630258326537 0 -0.025267627662435718 -0.00057538172225998459 0 -0.02433947374055799 -0.0006584630258326537 0 -0.025267627662435718 -0.00057538172225998459 0 -0.024841595414004155 -0.0015498146137854392 0 -0.02433947374055799 -0.0006584630258326537 0 -0.024841595414004155 -0.0015498146137854392 0 -0.023969846256319441 -0.0016247690246993466 0 -0.023032017076798909 -0.00076451155557827474 0 -0.02433947374055799 -0.0006584630258326537 0 -0.023969846256319441 -0.0016247690246993466 0 -0.022908056672049652 -0.0025109703396106707 0 -0.023969846256319441 -0.0016247690246993466 0 -0.024333859316863143 -0.0024035545337697433 0 -0.024841595414004155 -0.0015498146137854392 0 -0.024333859316863143 -0.0024035545337697433 0 -0.024559175156716399 -0.0025659429674461747 0 -0.02479281073214579 -0.001568271056446415 0 -0.024843445757982734 -0.0021261382314711245 0 -0.024841595414004155 -0.0015498146137854392 0 -0.023969846256319441 -0.0016247690246993466 0 -0.024333859316863143 -0.0024035545337697433 0 -0.024841595414004155 -0.0015498146137854392 0 -0.025481708566445337 -0.0016358620162178115 0 -0.025157446782992837 -0.0017984436511181612 0 -0.025481708566445337 -0.0016358620162178115 0 -0.025756920940675051 -0.001213587578629488 0 -0.025431798153197006 -0.0011317560917519158 0 -0.025481708566445337 -0.0016358620162178115 0 -0.025756920940675051 -0.001213587578629488 0 -0.025793836843359785 -0.0014601747190233008 0 -0.024841595414004155 -0.0015498146137854392 0 -0.025481708566445337 -0.0016358620162178115 0 -0.025431798153197006 -0.0011317560917519158 0 -0.025267627662435718 -0.00057538172225998459 0 -0.025431798153197006 -0.0011317560917519158 0 -0.025969627703952818 -0.00051270372059069669 0 -0.025267627662435718 -0.00057538172225998459 0 -0.024841595414004155 -0.0015498146137854392 0 -0.025431798153197006 -0.0011317560917519158 0 -0.025756920940675051 -0.001213587578629488 0 -0.025431798153197006 -0.0011317560917519158 0 -0.025969627703952818 -0.00051270372059069669 0 -0.025756920940675051 -0.001213587578629488 0 -0.025969627703952818 -0.00051270372059069669 0 -0.026303981347264044 -0.00064987958185662583 0 -0.025574038998228712 -9.5877675871361025e-05 0 -0.025267627662435718 -0.00057538172225998459 0 -0.025969627703952818 -0.00051270372059069669 0 -0.026539322835381456 -0.00051223080824229885 0 -0.026303981347264044 -0.00064987958185662583 0 -0.026085474520339005 -0.0011192566520607759 0 -0.026972031668689864 -0.00024290366472173636 0 -0.025969627703952818 -0.00051270372059069669 0 -0.026303981347264044 -0.00064987958185662583 0 -0.025756920940675051 -0.001213587578629488 0 -0.026303981347264044 -0.00064987958185662583 0 -0.026085474520339005 -0.0011192566520607759 0 -0.026539322835381456 -0.00051223080824229885 0 -0.026085474520339005 -0.0011192566520607759 0 -0.026290516856766474 -0.0013913367061050934 0 -0.026290516856766474 -0.0013913367061050934 0 -0.02601374908622904 -0.0014869915527666829 0 -0.025842045511245249 -0.0015759168365410174 0 -0.026085474520339005 -0.0011192566520607759 0 -0.026290516856766474 -0.0013913367061050934 0 -0.02601374908622904 -0.0014869915527666829 0 -0.025756920940675051 -0.001213587578629488 0 -0.026085474520339005 -0.0011192566520607759 0 -0.025793836843359785 -0.0014601747190233008 0 -0.026085474520339005 -0.0011192566520607759 0 -0.02601374908622904 -0.0014869915527666829 0 -0.025793836843359785 -0.0014601747190233008 0 -0.025481708566445337 -0.0016358620162178115 0 -0.025793836843359785 -0.0014601747190233008 0 -0.025604729615545139 -0.0016155587629241683 0 -0.025793836843359785 -0.0014601747190233008 0 -0.025604729615545139 -0.0016155587629241683 0 -0.025759580524529244 -0.0015797338870787618 0 -0.025604729615545139 -0.0016155587629241683 0 -0.025759580524529244 -0.0015797338870787618 0 -0.025566443335772449 -0.0016610386579967481 0 -0.025481708566445337 -0.0016358620162178115 0 -0.025604729615545139 -0.0016155587629241683 0 -0.025419778698549032 -0.0017100098589995379 0 -0.02601374908622904 -0.0014869915527666829 0 -0.02580098128771726 -0.0015817999509803976 0 -0.025842045511245249 -0.0015759168365410174 0 -0.02601374908622904 -0.0014869915527666829 0 -0.025793836843359785 -0.0014601747190233008 0 -0.025759580524529244 -0.0015797338870787618 0 -0.02601374908622904 -0.0014869915527666829 0 -0.025759580524529244 -0.0015797338870787618 0 -0.02580098128771726 -0.0015817999509803976 0 -0.025759580524529244 -0.0015797338870787618 0 -0.02580098128771726 -0.0015817999509803976 0 -0.025662965729268877 -0.00163257475123657 0 -0.02580098128771726 -0.0015817999509803976 0 -0.025737119012151002 -0.0016064789216724865 0 -0.025842045511245249 -0.0015759168365410174 0 -0.02580098128771726 -0.0015817999509803976 0 -0.025737119012151002 -0.0016064789216724865 0 -0.025662965729268877 -0.00163257475123657 0 -0.025737119012151002 -0.0016064789216724865 0 -0.025664070139378523 -0.001636820422961992 0 -0.025662965729268877 -0.00163257475123657 0 -0.025759580524529244 -0.0015797338870787618 0 -0.025662965729268877 -0.00163257475123657 0 -0.025566443335772449 -0.0016610386579967481 0 -0.025662965729268877 -0.00163257475123657 0 -0.02552380664255826 -0.0016881917266467917 0 -0.025566443335772449 -0.0016610386579967481 0 -0.02552380664255826 -0.0016881917266467917 0 -0.025558861151124341 -0.0016849207731481385 0 -0.025390842835428681 -0.0017497035236085272 0 -0.025662965729268877 -0.00163257475123657 0 -0.02552380664255826 -0.0016881917266467917 0 -0.025558861151124341 -0.0016849207731481385 0 -0.025664070139378523 -0.001636820422961992 0 -0.025662965729268877 -0.00163257475123657 0 -0.025558861151124341 -0.0016849207731481385 0 -0.025664070139378523 -0.001636820422961992 0 -0.025558861151124341 -0.0016849207731481385 0 -0.025608174311610814 -0.0016843367224665597 0 -0.025446855573690016 -0.0017675034313866704 0 -0.025509729659831521 -0.001801932972998972 0 -0.025608174311610814 -0.0016843367224665597 0 -0.025558861151124341 -0.0016849207731481385 0 -0.025446855573690016 -0.0017675034313866704 0 -0.025608174311610814 -0.0016843367224665597 0 -0.025558861151124341 -0.0016849207731481385 0 -0.025446855573690016 -0.0017675034313866704 0 -0.025390842835428681 -0.0017497035236085272 0 -0.025446855573690016 -0.0017675034313866704 0 -0.025390842835428681 -0.0017497035236085272 0 -0.025199446020139193 -0.0018425173521941015 0 -0.025446855573690016 -0.0017675034313866704 0 -0.025199446020139193 -0.0018425173521941015 0 -0.025306595016021026 -0.001904251927403743 0 -0.025446855573690016 -0.0017675034313866704 0 -0.025306595016021026 -0.001904251927403743 0 -0.025509729659831521 -0.001801932972998972 0 -0.025083280174788166 -0.0018576420390628299 0 -0.025199446020139193 -0.0018425173521941015 0 -0.025243213678450116 -0.0017986411007094966 0 -0.025083280174788166 -0.0018576420390628299 0 -0.025199446020139193 -0.0018425173521941015 0 -0.024939795601393082 -0.0019590515181538148 0 -0.025390842835428681 -0.0017497035236085272 0 -0.025199446020139193 -0.0018425173521941015 0 -0.025243213678450116 -0.0017986411007094966 0 -0.025390842835428681 -0.0017497035236085272 0 -0.025243213678450116 -0.0017986411007094966 0 -0.025381225667816552 -0.0017398887266473601 0 -0.025243213678450116 -0.0017986411007094966 0 -0.025231964238264692 -0.0017991206525538261 0 -0.025381225667816552 -0.0017398887266473601 0 -0.025083280174788166 -0.0018576420390628299 0 -0.025243213678450116 -0.0017986411007094966 0 -0.025231964238264692 -0.0017991206525538261 0 -0.025231964238264692 -0.0017991206525538261 0 -0.025381225667816552 -0.0017398887266473601 0 -0.025419778698549032 -0.0017100098589995379 0 -0.02552380664255826 -0.0016881917266467917 0 -0.025381225667816552 -0.0017398887266473601 0 -0.025566443335772449 -0.0016610386579967481 0 -0.025381225667816552 -0.0017398887266473601 0 -0.025566443335772449 -0.0016610386579967481 0 -0.025419778698549032 -0.0017100098589995379 0 -0.02552380664255826 -0.0016881917266467917 0 -0.025390842835428681 -0.0017497035236085272 0 -0.025381225667816552 -0.0017398887266473601 0 -0.025604729615545139 -0.0016155587629241683 0 -0.025566443335772449 -0.0016610386579967481 0 -0.025419778698549032 -0.0017100098589995379 0 -0.025481708566445337 -0.0016358620162178115 0 -0.025219705153666488 -0.0018009519249044309 0 -0.025157446782992837 -0.0017984436511181612 0 -0.025481708566445337 -0.0016358620162178115 0 -0.025419778698549032 -0.0017100098589995379 0 -0.025219705153666488 -0.0018009519249044309 0 -0.025231964238264692 -0.0017991206525538261 0 -0.025419778698549032 -0.0017100098589995379 0 -0.025219705153666488 -0.0018009519249044309 0 -0.025219705153666488 -0.0018009519249044309 0 -0.025157446782992837 -0.0017984436511181612 0 -0.025079997619840599 -0.0018569098868031005 0 -0.02429481895555213 -0.0026421306039302195 0 -0.024346275902908266 -0.002668348845580224 0 -0.024230654105749427 -0.0026074435134558083 0 -0.024843445757982734 -0.0021261382314711245 0 -0.024618169381412397 -0.0022630010596340535 0 -0.024559175156716399 -0.0025659429674461747 0 -0.024230654105749427 -0.0026074435134558083 0 -0.024167004123145142 -0.002606733038329746 0 -0.024346275902908266 -0.002668348845580224 0 -0.024559175156716399 -0.0025659429674461747 0 -0.024230654105749427 -0.0026074435134558083 0 -0.025219705153666488 -0.0018009519249044309 0 -0.02511697228738291 -0.0018466044529913863 0 -0.025079997619840599 -0.0018569098868031005 0 -0.025231964238264692 -0.0017991206525538261 0 -0.025219705153666488 -0.0018009519249044309 0 -0.02511697228738291 -0.0018466044529913863 0 -0.025083280174788166 -0.0018576420390628299 0 -0.025231964238264692 -0.0017991206525538261 0 -0.02511697228738291 -0.0018466044529913863 0 -0.025083280174788166 -0.0018576420390628299 0 -0.02511697228738291 -0.0018466044529913863 0 -0.024898268631742434 -0.0019338880118584794 0 -0.02511697228738291 -0.0018466044529913863 0 -0.025079997619840599 -0.0018569098868031005 0 -0.024898268631742434 -0.0019338880118584794 0 -0.024618169381412397 -0.0022630010596340535 0 -0.024345966444027874 -0.0023252893787567741 0 -0.024230654105749427 -0.0026074435134558083 0 -0.024167004123145142 -0.002606733038329746 0 -0.024126885232207459 -0.0024785103562765119 0 -0.024167004123145142 -0.002606733038329746 0 -0.024126885232207459 -0.0024785103562765119 0 -0.024256788358264805 -0.0022939948599309153 0 -0.025079997619840599 -0.0018569098868031005 0 -0.024898268631742434 -0.0019338880118584794 0 -0.024256788358264805 -0.0022939948599309153 0 -0.02429481895555213 -0.0026421306039302195 0 -0.024230654105749427 -0.0026074435134558083 0 -0.024170024874015903 -0.0024531818398624847 0 -0.024230654105749427 -0.0026074435134558083 0 -0.024126885232207459 -0.0024785103562765119 0 -0.024163126094856175 -0.0024314961379198852 0 -0.025378724642319557 -0.0036308433724345874 0 -0.019821689695137371 0.00017784689989133561 0 -0.020102555005598283 -0.0017246884027242769 0 -0.019821689695137371 0.00017784689989133561 0 -0.023834506704299329 -0.0024636434115405275 0 -0.024256788358264805 -0.0022939948599309153 0 -0.023502652102651782 -0.0024882997346815814 0 -0.024126885232207459 -0.0024785103562765119 0 -0.024048876524276341 -0.0024426299343858321 0 -0.024256788358264805 -0.0022939948599309153 0 -0.024126885232207459 -0.0024785103562765119 0 -0.024163126094856175 -0.0024314961379198852 0 -0.024048876524276341 -0.0024426299343858321 0 -0.024163126094856175 -0.0024314961379198852 0 -0.024048876524276341 -0.0024426299343858321 0 -0.023834506704299329 -0.0024636434115405275 0 -0.024048876524276341 -0.0024426299343858321 0 -0.023834506704299329 -0.0024636434115405275 0 -0.024256788358264805 -0.0022939948599309153 0 -0.024256788358264805 -0.0022939948599309153 0 -0.0250328845407192 -0.0021571437538229717 0 -0.024682331840992607 -0.0026613215479981776 0 -0.025318810391417163 -0.0025388875128532166 0 -0.0250328845407192 -0.0021571437538229717 0 -0.025519793148961092 -0.002020844746063454 0 -0.025318810391417163 -0.0025388875128532166 0 -0.0250328845407192 -0.0021571437538229717 0 -0.024682331840992607 -0.0026613215479981776 0 -0.0250328845407192 -0.0021571437538229717 0 -0.025306595016021026 -0.001904251927403743 0 -0.025519793148961092 -0.002020844746063454 0 -0.0250328845407192 -0.0021571437538229717 0 -0.025306595016021026 -0.001904251927403743 0 -0.024939795601393082 -0.0019590515181538148 0 -0.025306595016021026 -0.001904251927403743 0 -0.025519793148961092 -0.002020844746063454 0 -0.025509729659831521 -0.001801932972998972 0 -0.024898268631742434 -0.0019338880118584794 0 -0.024256788358264805 -0.0022939948599309153 0 -0.024939795601393082 -0.0019590515181538148 0 -0.025199446020139193 -0.0018425173521941015 0 -0.025306595016021026 -0.001904251927403743 0 -0.024939795601393082 -0.0019590515181538148 0 -0.024256788358264805 -0.0022939948599309153 0 -0.0250328845407192 -0.0021571437538229717 0 -0.024939795601393082 -0.0019590515181538148 0 -0.025083280174788166 -0.0018576420390628299 0 -0.024898268631742434 -0.0019338880118584794 0 -0.024939795601393082 -0.0019590515181538148 0 -0.024799678397406322 -0.00076316130919554107 0 -0.024714647091973345 -0.0013984543258793939 0 -0.025254681675245569 -0.0012166926121222432 0 -0.024799678397406322 -0.00076316130919554107 0 -0.025687262972437667 -0.00072463509165974593 0 -0.025011146303538626 -5.5213766215692153e-05 0 -0.024799678397406322 -0.00076316130919554107 0 -0.025687262972437667 -0.00072463509165974593 0 -0.025254681675245569 -0.0012166926121222432 0 -0.020541308666571011 -0.0017772375098094671 0 -0.018886695109352283 0.0006563608101021371 0 -0.020541308666571011 -0.0017772375098094671 0 -0.025913523510219194 -0.0011111144605887994 0 -0.025809677835147003 0.00014505762864496736 0 -0.025687262972437667 -0.00072463509165974593 0 -0.025011146303538626 -5.5213766215692153e-05 0 -0.018886695109352283 0.0006563608101021371 0 -0.013810202558384495 0.0017735625019887086 0 -0.011845193625890668 0.0010778776448936759 0 -0.013156471551208221 0.0014595737539873724 0 -0.012330408196458881 -0.00037894641264906099 0 -0.024799678397406322 -0.00076316130919554107 0 -0.025011146303538626 -5.5213766215692153e-05 0 -0.024108531214971241 -0.00024968366684071633 0 -0.0086304624758781895 0.0021011890723208583 0 -0.0097896072431847957 0.0016091811228070789 0 -0.0089374291071005873 0.00047340214765285467 0 -0.013810202558384495 0.0017735625019887086 0 -0.008906686418306867 0.0015027833635507094 0 -0.0086304624758781895 0.0021011890723208583 0 -0.0097896072431847957 0.0016091811228070789 0 -0.0095986867764401226 0.0022691716953348378 0 -0.010209675297814826 0.00090652221047712411 0 -0.011266236304198587 0.00080847922033134125 0 -0.011082023649272537 0.00020847212501546851 0 -0.010209675297814826 0.00090652221047712411 0 -0.010184304536599065 0.0021713451644088649 0 -0.011266236304198587 0.00080847922033134125 0 -0.0097896072431847957 0.0016091811228070789 0 -0.0095986867764401226 0.0022691716953348378 0 -0.0097347836402332556 0.0030799158396544171 0 -0.024096164950387994 0.00075681670814681191 0 -0.024462028809338232 0.00087512840662931277 0 -0.024583956443632558 0.00014598597444892176 0 -0.015906860675728662 0.0016788510383120732 0 -0.019966993526616933 0.00074959512372579234 0 -0.0096957099073427949 0.0015000263246639515 0 -0.015906860675728662 0.0016788510383120732 0 -0.0089130427911390288 0.0020606718482927165 0 -0.0097347836402332556 0.0030799158396544171 0 -0.0094919182307453241 0.0033961300148645686 0 -0.024799678397406322 -0.00076316130919554107 0 -0.024108531214971241 -0.00024968366684071633 0 -0.023727346711776218 -0.0011544969350180557 0 -0.024799678397406322 -0.00076316130919554107 0 -0.023727346711776218 -0.0011544969350180557 0 -0.024714647091973345 -0.0013984543258793939 0 -0.013810202558384495 0.0017735625019887086 0 -0.019116734753535314 -7.8036900201011792e-05 0 -0.0089130427911390288 0.0020606718482927165 0 -0.0095986867764401226 0.0022691716953348378 0 -0.0097347836402332556 0.0030799158396544171 0 -0.015906860675728662 0.0016788510383120732 0 -0.019116734753535314 -7.8036900201011792e-05 0 -0.024159814872364981 -0.00054751126175634889 0 -0.024115876285271443 -0.00068349182366059344 0 -0.024437943489902896 -0.00086410566121705474 0 -0.023727346711776218 -0.0011544969350180557 0 -0.024428404198318744 -0.0019997307026767973 0 -0.024714647091973345 -0.0013984543258793939 0 -0.019116734753535314 -7.8036900201011792e-05 0 -0.026354952082388316 -0.002401037209820231 0 -0.024115876285271443 -0.00068349182366059344 0 -0.024130239211005305 -0.00076183202314955437 0 -0.024437943489902896 -0.00086410566121705474 0 -0.019116734753535314 -7.8036900201011792e-05 0 -0.021692792041808778 0.00042961754383096662 0 -0.024087364203035411 0.0010846163950354577 0 -0.024358668349680892 0.0016404761887571164 0 -0.02455826437276256 0.001226276493401795 0 -0.02411908947224873 -0.00068470053890214979 0 -0.024130239211005305 -0.00076183202314955437 0 -0.024001980565837359 -0.0010403964871588635 0 -0.024462028809338232 0.00087512840662931277 0 -0.024087364203035411 0.0010846163950354577 0 -0.02455826437276256 0.001226276493401795 0 -0.015906860675728662 0.0016788510383120732 0 -0.021692792041808778 0.00042961754383096662 0 -0.01883215629390873 0.0010369333580137984 0 -0.019104610246840945 0.00071751515346088924 0 -0.018920744951021952 0.00023913260384173185 0 -0.024096164950387994 0.00075681670814681191 0 -0.024462028809338232 0.00087512840662931277 0 -0.024087364203035411 0.0010846163950354577 0 -0.021692792041808778 0.00042961754383096662 0 -0.022092673482251787 -0.00016709570488652174 0 -0.021692792041808778 0.00042961754383096662 0 -0.027065146696298989 -0.0015258922868268067 0 -0.028740035111066986 -0.00426662344921349 0 -0.029222362086992977 -0.0034671329984577305 0 -0.028675418972332303 -0.0027583509314392206 0 -0.027065146696298989 -0.0015258922868268067 0 -0.026354952082388316 -0.002401037209820231 0 -0.024130239211005305 -0.00076183202314955437 0 -0.024001980565837359 -0.0010403964871588635 0 -0.024437943489902896 -0.00086410566121705474 0 -0.030030164985603763 -0.0036328110538451225 0 -0.028740035111066986 -0.00426662344921349 0 -0.029222362086992977 -0.0034671329984577305 0 -0.026354952082388316 -0.002401037209820231 0 -0.026776649159801953 -0.0024114636983232291 0 -0.025472389824318712 -0.0015927985446752969 0 -0.025523239572392661 -0.0015967805416909418 0 -0.025396690737871146 -0.0015604273239634469 0 -0.025472389824318712 -0.0015927985446752969 0 -0.025523239572392661 -0.0015967805416909418 0 -0.025685118463695582 -0.0016322815843946054 0 -0.025523239572392661 -0.0015967805416909418 0 -0.025661535576822377 -0.0016076826528171788 0 -0.025685118463695582 -0.0016322815843946054 0 -0.024428404198318744 -0.0019997307026767973 0 -0.024714647091973345 -0.0013984543258793939 0 -0.025396690737871146 -0.0015604273239634469 0 -0.026354952082388316 -0.002401037209820231 0 -0.024997556465440104 -0.001698849792079637 0 -0.024714647091973345 -0.0013984543258793939 0 -0.025254681675245569 -0.0012166926121222432 0 -0.025396690737871146 -0.0015604273239634469 0 -0.025913523510219194 -0.0011111144605887994 0 -0.02556991463156329 -0.0016989285615195929 0 -0.025687262972437667 -0.00072463509165974593 0 -0.025254681675245569 -0.0012166926121222432 0 -0.025519406116716704 -0.0015854843640427606 0 -0.025519793148961092 -0.002020844746063454 0 -0.025509729659831521 -0.001801932972998972 0 -0.025665097896794484 -0.001714273090111632 0 -0.025254681675245569 -0.0012166926121222432 0 -0.025519406116716704 -0.0015854843640427606 0 -0.025396690737871146 -0.0015604273239634469 0 -0.025523239572392661 -0.0015967805416909418 0 -0.025519406116716704 -0.0015854843640427606 0 -0.025396690737871146 -0.0015604273239634469 0 -0.025509729659831521 -0.001801932972998972 0 -0.025665097896794484 -0.001714273090111632 0 -0.025608174311610814 -0.0016843367224665597 0 -0.02556991463156329 -0.0016989285615195929 0 -0.025647832150606089 -0.0016036940755737709 0 -0.025665097896794484 -0.001714273090111632 0 -0.025608174311610814 -0.0016843367224665597 0 -0.025688366465689644 -0.0016194993565170894 0 -0.025665097896794484 -0.001714273090111632 0 -0.025661535576822377 -0.0016076826528171788 0 -0.025688366465689644 -0.0016194993565170894 0 -0.025523239572392661 -0.0015967805416909418 0 -0.025519406116716704 -0.0015854843640427606 0 -0.025661535576822377 -0.0016076826528171788 0 -0.025664070139378523 -0.001636820422961992 0 -0.025608174311610814 -0.0016843367224665597 0 -0.025688366465689644 -0.0016194993565170894 0 -0.025737119012151002 -0.0016064789216724865 0 -0.025664070139378523 -0.001636820422961992 0 -0.025688366465689644 -0.0016194993565170894 0 -0.025661535576822377 -0.0016076826528171788 0 -0.025688366465689644 -0.0016194993565170894 0 -0.025842045511245249 -0.0015759168365410174 0 -0.026290516856766474 -0.0013913367061050934 0 -0.025842045511245249 -0.0015759168365410174 0 -0.025685118463695582 -0.0016322815843946054 0 -0.025737119012151002 -0.0016064789216724865 0 -0.025688366465689644 -0.0016194993565170894 0 -0.025842045511245249 -0.0015759168365410174 0 -0.025661535576822377 -0.0016076826528171788 0 -0.025842045511245249 -0.0015759168365410174 0 -0.025685118463695582 -0.0016322815843946054 0 -0.028740035111066986 -0.00426662344921349 0 -0.027543170142218215 -0.003007856137646783 0 -0.028675418972332303 -0.0027583509314392206 0 -0.028675418972332303 -0.0027583509314392206 0 -0.028857264980489947 -0.0020687379244946793 0 -0.028287836333867708 -0.0018351499730026601 0 -0.02864245696424083 -0.0027050041373365935 0 -0.027748876594895069 -0.0015152002025612269 0 -0.027543170142218215 -0.003007856137646783 0 -0.028675418972332303 -0.0027583509314392206 0 -0.02716298555488594 -0.0010997939938973877 0 -0.026191078141034781 -0.0013862376005267312 0 -0.026776649159801953 -0.0024114636983232291 0 -0.026290516856766474 -0.0013913367061050934 0 -0.027543170142218215 -0.003007856137646783 0 -0.02716298555488594 -0.0010997939938973877 0 -0.02716706763030614 -0.00078137300900626018 0 -0.027748876594895069 -0.0015152002025612269 0 -0.026539322835381456 -0.00051223080824229885 0 -0.026290516856766474 -0.0013913367061050934 0 -0.02716298555488594 -0.0010997939938973877 0 -0.028857264980489947 -0.0020687379244946793 0 -0.028287836333867708 -0.0018351499730026601 0 -0.02878950995044105 -0.001481510438857866 0 -0.028287836333867708 -0.0018351499730026601 0 -0.02878950995044105 -0.001481510438857866 0 -0.028308096529590206 -0.001309222217181067 0 -0.02878950995044105 -0.001481510438857866 0 -0.028586365443765905 -0.00092277805640097446 0 -0.029460956406781619 -0.00096343879120027451 0 -0.02878950995044105 -0.001481510438857866 0 -0.028586365443765905 -0.00092277805640097446 0 -0.028308096529590206 -0.001309222217181067 0 -0.027775763713806856 -0.0011086475098861601 0 -0.028287836333867708 -0.0018351499730026601 0 -0.028308096529590206 -0.001309222217181067 0 -0.027775763713806856 -0.0011086475098861601 0 -0.028586365443765905 -0.00092277805640097446 0 -0.028308096529590206 -0.001309222217181067 0 -0.030446262018219608 -0.00058817841138681466 0 -0.029460956406781619 -0.00096343879120027451 0 -0.029930204175652609 -0.0014842616269396007 0 -0.028857264980489947 -0.0020687379244946793 0 -0.02878950995044105 -0.001481510438857866 0 -0.02935617118878079 -0.0018008282942794623 0 -0.02878950995044105 -0.001481510438857866 0 -0.029460956406781619 -0.00096343879120027451 0 -0.02935617118878079 -0.0018008282942794623 0 -0.029460956406781619 -0.00096343879120027451 0 -0.02935617118878079 -0.0018008282942794623 0 -0.029930204175652609 -0.0014842616269396007 0 -0.02935617118878079 -0.0018008282942794623 0 -0.029930204175652609 -0.0014842616269396007 0 -0.030031638609317929 -0.0022707727014352869 0 -0.029930204175652609 -0.0014842616269396007 0 -0.030031638609317929 -0.0022707727014352869 0 -0.030517294311175495 -0.0018540260870811207 0 -0.030031638609317929 -0.0022707727014352869 0 -0.029367544013780611 -0.0024117549488393733 0 -0.02966330887913109 -0.002963710195441947 0 -0.028675418972332303 -0.0027583509314392206 0 -0.028857264980489947 -0.0020687379244946793 0 -0.029367544013780611 -0.0024117549488393733 0 -0.028857264980489947 -0.0020687379244946793 0 -0.02935617118878079 -0.0018008282942794623 0 -0.029367544013780611 -0.0024117549488393733 0 -0.02935617118878079 -0.0018008282942794623 0 -0.030031638609317929 -0.0022707727014352869 0 -0.029367544013780611 -0.0024117549488393733 0 -0.029222362086992977 -0.0034671329984577305 0 -0.028675418972332303 -0.0027583509314392206 0 -0.02966330887913109 -0.002963710195441947 0 -0.028675418972332303 -0.0027583509314392206 0 -0.029367544013780611 -0.0024117549488393733 0 -0.02966330887913109 -0.002963710195441947 0 -0.030031638609317929 -0.0022707727014352869 0 -0.030286126653600198 -0.0029181277275971049 0 -0.02966330887913109 -0.002963710195441947 0 -0.030030164985603763 -0.0036328110538451225 0 -0.029222362086992977 -0.0034671329984577305 0 -0.02966330887913109 -0.002963710195441947 0 -0.030030164985603763 -0.0036328110538451225 0 -0.030286126653600198 -0.0029181277275971049 0 -0.02966330887913109 -0.002963710195441947 0 -0.027065146696298989 -0.0015258922868268067 0 -0.029925849091223193 -0.003135216199035036 0 -0.027065146696298989 -0.0015258922868268067 0 -0.029358811187302526 -0.00020883897521659417 0 -0.02999120434839847 -0.0035585153589995128 0 -0.030286126653600198 -0.0029181277275971049 0 -0.031293453898082892 -0.0030474562385897517 0 -0.030286126653600198 -0.0029181277275971049 0 -0.031293453898082892 -0.0030474562385897517 0 -0.030818930652077831 -0.0023673511234495502 0 -0.031808648003573317 -0.00060359193661743801 0 -0.031552280811324863 -0.00071365088968672753 0 -0.031721260965341655 -0.0010686859985179411 0 -0.029358811187302526 -0.00020883897521659417 0 -0.031530982478477063 -0.0018397204581698566 0 -0.031522005637513194 -0.00037917881831249349 0 -0.031904541645052679 -0.00057734798795625974 0 -0.031552280811324863 -0.00071365088968672753 0 -0.031522005637513194 -0.00037917881831249349 0 -0.031904541645052679 -0.00057734798795625974 0 -0.031702391480231872 -2.8649057552883255e-05 0 -0.029358811187302526 -0.00020883897521659417 0 -0.031601389450965946 -0.0001176154292818786 0 -0.031293453898082892 -0.0030474562385897517 0 -0.031518884194382944 -0.0023254083607435086 0 -0.030818930652077831 -0.0023673511234495502 0 -0.031721260965341655 -0.0010686859985179411 0 -0.031699916324549861 -0.0015016160432821995 0 -0.031449454769351251 -0.0012132970416810281 0 -0.031530982478477063 -0.0018397204581698566 0 -0.031692318042150884 -0.0014872191223063379 0 -0.031518884194382944 -0.0023254083607435086 0 -0.030818930652077831 -0.0023673511234495502 0 -0.031187555784529437 -0.0017473432744723179 0 -0.030031638609317929 -0.0022707727014352869 0 -0.030286126653600198 -0.0029181277275971049 0 -0.030818930652077831 -0.0023673511234495502 0 -0.030031638609317929 -0.0022707727014352869 0 -0.030818930652077831 -0.0023673511234495502 0 -0.030517294311175495 -0.0018540260870811207 0 -0.030818930652077831 -0.0023673511234495502 0 -0.030517294311175495 -0.0018540260870811207 0 -0.031187555784529437 -0.0017473432744723179 0 -0.029930204175652609 -0.0014842616269396007 0 -0.030517294311175495 -0.0018540260870811207 0 -0.030725637764044824 -0.0014117573361517976 0 -0.030517294311175495 -0.0018540260870811207 0 -0.030725637764044824 -0.0014117573361517976 0 -0.031187555784529437 -0.0017473432744723179 0 -0.031518884194382944 -0.0023254083607435086 0 -0.031187555784529437 -0.0017473432744723179 0 -0.031699916324549861 -0.0015016160432821995 0 -0.030725637764044824 -0.0014117573361517976 0 -0.031187555784529437 -0.0017473432744723179 0 -0.031700929938509211 -0.0013101729843187273 0 -0.031699916324549861 -0.0015016160432821995 0 -0.031700929938509211 -0.0013101729843187273 0 -0.031702651658399493 -0.0014277583889072722 0 -0.031187555784529437 -0.0017473432744723179 0 -0.031699916324549861 -0.0015016160432821995 0 -0.031700929938509211 -0.0013101729843187273 0 -0.03252366486639361 -0.0013462462436240456 0 -0.031700929938509211 -0.0013101729843187273 0 -0.031864120327004301 -0.0014226847674179632 0 -0.031700929938509211 -0.0013101729843187273 0 -0.031864120327004301 -0.0014226847674179632 0 -0.031702651658399493 -0.0014277583889072722 0 -0.030446262018219608 -0.00058817841138681466 0 -0.029930204175652609 -0.0014842616269396007 0 -0.030725637764044824 -0.0014117573361517976 0 -0.030446262018219608 -0.00058817841138681466 0 -0.030725637764044824 -0.0014117573361517976 0 -0.031700929938509211 -0.0013101729843187273 0 -0.031492822901407265 -0.0010104807657752744 0 -0.031733127452126302 -0.0013041192708774848 0 -0.031169843826430992 -0.0019543836374531841 0 -0.031419112196958129 -0.0015740003685679488 0 -0.0309470382406727 -0.0015391480806644913 0 -0.031647421732601815 -0.0017093168331060258 0 -0.031419112196958129 -0.0015740003685679488 0 -0.031792522113644681 -0.0015421161107015788 0 -0.031647421732601815 -0.0017093168331060258 0 -0.031169843826430992 -0.0019543836374531841 0 -0.031419112196958129 -0.0015740003685679488 0 -0.031419112196958129 -0.0015740003685679488 0 -0.031620380619011366 -0.0014892558914012788 0 -0.031370030418207948 -0.0013854686884124017 0 -0.031419112196958129 -0.0015740003685679488 0 -0.031792522113644681 -0.0015421161107015788 0 -0.031620380619011366 -0.0014892558914012788 0 -0.031864120327004301 -0.0014226847674179632 0 -0.031792522113644681 -0.0015421161107015788 0 -0.031620380619011366 -0.0014892558914012788 0 -0.031864120327004301 -0.0014226847674179632 0 -0.031620380619011366 -0.0014892558914012788 0 -0.031702651658399493 -0.0014277583889072722 0 -0.031699916324549861 -0.0015016160432821995 0 -0.031702651658399493 -0.0014277583889072722 0 -0.031370030418207948 -0.0013854686884124017 0 -0.031620380619011366 -0.0014892558914012788 0 -0.031702651658399493 -0.0014277583889072722 0 -0.031370030418207948 -0.0013854686884124017 0 -0.031699916324549861 -0.0015016160432821995 0 -0.031370030418207948 -0.0013854686884124017 0 -0.031449454769351251 -0.0012132970416810281 0 -0.031370030418207948 -0.0013854686884124017 0 -0.0309470382406727 -0.0015391480806644913 0 -0.030384932171553688 -0.0011858662038884383 0 -0.031419112196958129 -0.0015740003685679488 0 -0.031370030418207948 -0.0013854686884124017 0 -0.0309470382406727 -0.0015391480806644913 0 -0.031370030418207948 -0.0013854686884124017 0 -0.031012438303215924 -0.0010829131581325346 0 -0.030384932171553688 -0.0011858662038884383 0 -0.031012438303215924 -0.0010829131581325346 0 -0.030554309379811601 -0.00087324552634158396 0 -0.030384932171553688 -0.0011858662038884383 0 -0.031370030418207948 -0.0013854686884124017 0 -0.031012438303215924 -0.0010829131581325346 0 -0.031449454769351251 -0.0012132970416810281 0 -0.031012438303215924 -0.0010829131581325346 0 -0.031278469707550209 -0.00091604145815170476 0 -0.030874605667894912 -0.00068039253067669002 0 -0.031012438303215924 -0.0010829131581325346 0 -0.031449454769351251 -0.0012132970416810281 0 -0.031278469707550209 -0.00091604145815170476 0 -0.031721260965341655 -0.0010686859985179411 0 -0.031449454769351251 -0.0012132970416810281 0 -0.031278469707550209 -0.00091604145815170476 0 -0.031552280811324863 -0.00071365088968672753 0 -0.031721260965341655 -0.0010686859985179411 0 -0.031278469707550209 -0.00091604145815170476 0 -0.031552280811324863 -0.00071365088968672753 0 -0.031278469707550209 -0.00091604145815170476 0 -0.031234926888437917 -0.0004830563406706952 0 -0.031278469707550209 -0.00091604145815170476 0 -0.031234926888437917 -0.0004830563406706952 0 -0.030874605667894912 -0.00068039253067669002 0 -0.031234926888437917 -0.0004830563406706952 0 -0.030874605667894912 -0.00068039253067669002 0 -0.030768163300681089 -0.00028095496624710829 0 -0.031522005637513194 -0.00037917881831249349 0 -0.031552280811324863 -0.00071365088968672753 0 -0.031234926888437917 -0.0004830563406706952 0 -0.030554309379811601 -0.00087324552634158396 0 -0.030874605667894912 -0.00068039253067669002 0 -0.03036164781419879 -0.00055278413156656598 0 -0.030554309379811601 -0.00087324552634158396 0 -0.03036164781419879 -0.00055278413156656598 0 -0.030077579060766205 -0.00082661035508595107 0 -0.031012438303215924 -0.0010829131581325346 0 -0.030554309379811601 -0.00087324552634158396 0 -0.030874605667894912 -0.00068039253067669002 0 -0.030874605667894912 -0.00068039253067669002 0 -0.03036164781419879 -0.00055278413156656598 0 -0.030768163300681089 -0.00028095496624710829 0 -0.03036164781419879 -0.00055278413156656598 0 -0.030768163300681089 -0.00028095496624710829 0 -0.030176476593909273 -6.9336567104664784e-05 0 -0.030768163300681089 -0.00028095496624710829 0 -0.030176476593909273 -6.9336567104664784e-05 0 -0.030719667178983934 0.00025770623450694329 0 -0.030176476593909273 -6.9336567104664784e-05 0 -0.030719667178983934 0.00025770623450694329 0 -0.029858990662662548 0.00072483467873651702 0 -0.030719667178983934 0.00025770623450694329 0 -0.030671940598303124 0.0010548554958720981 0 -0.029858990662662548 0.00072483467873651702 0 -0.030671940598303124 0.0010548554958720981 0 -0.031257024938300688 0.00049704103597566682 0 -0.031348549581965743 0.0014603741197170297 0 -0.031257024938300688 0.00049704103597566682 0 -0.031824613406226894 0.00062064900683410319 0 -0.031348549581965743 0.0014603741197170297 0 -0.030719667178983934 0.00025770623450694329 0 -0.030671940598303124 0.0010548554958720981 0 -0.031257024938300688 0.00049704103597566682 0 -0.031257024938300688 0.00049704103597566682 0 -0.031219808935381448 -7.0238808136515837e-05 0 -0.031702391480231872 -2.8649057552883255e-05 0 -0.030768163300681089 -0.00028095496624710829 0 -0.030719667178983934 0.00025770623450694329 0 -0.031219808935381448 -7.0238808136515837e-05 0 -0.030719667178983934 0.00025770623450694329 0 -0.031257024938300688 0.00049704103597566682 0 -0.031219808935381448 -7.0238808136515837e-05 0 -0.031234926888437917 -0.0004830563406706952 0 -0.030768163300681089 -0.00028095496624710829 0 -0.031219808935381448 -7.0238808136515837e-05 0 -0.031522005637513194 -0.00037917881831249349 0 -0.031234926888437917 -0.0004830563406706952 0 -0.031219808935381448 -7.0238808136515837e-05 0 -0.031522005637513194 -0.00037917881831249349 0 -0.031219808935381448 -7.0238808136515837e-05 0 -0.031702391480231872 -2.8649057552883255e-05 0 -0.031904541645052679 -0.00057734798795625974 0 -0.031702391480231872 -2.8649057552883255e-05 0 -0.032082882259250128 0.00032401939864270933 0 -0.031702391480231872 -2.8649057552883255e-05 0 -0.032082882259250128 0.00032401939864270933 0 -0.031824613406226894 0.00062064900683410319 0 -0.029358811187302526 -0.00020883897521659417 0 -0.02845593600584383 0.00091148094064742973 0 -0.024358668349680892 0.0016404761887571164 0 -0.025271103344343557 0.0019820004936029491 0 -0.025046072656822516 0.00134805781132825 0 -0.024358668349680892 0.0016404761887571164 0 -0.025046072656822516 0.00134805781132825 0 -0.02455826437276256 0.001226276493401795 0 -0.02845593600584383 0.00091148094064742973 0 -0.029058795953024536 0.00099590223832125174 0 -0.025046072656822516 0.00134805781132825 0 -0.02455826437276256 0.001226276493401795 0 -0.024810201369056012 0.00074313390819694158 0 -0.024462028809338232 0.00087512840662931277 0 -0.02455826437276256 0.001226276493401795 0 -0.024810201369056012 0.00074313390819694158 0 -0.032082882259250128 0.00032401939864270933 0 -0.031824613406226894 0.00062064900683410319 0 -0.03197350591840941 0.00083384515643915324 0 -0.031257024938300688 0.00049704103597566682 0 -0.031702391480231872 -2.8649057552883255e-05 0 -0.031824613406226894 0.00062064900683410319 0 -0.032468631607926603 0.0020924051902287757 0 -0.031515172043705235 0.0029739661680939825 0 -0.031348549581965743 0.0014603741197170297 0 -0.031824613406226894 0.00062064900683410319 0 -0.031798376501021915 0.000975170528685591 0 -0.03197350591840941 0.00083384515643915324 0 -0.031648621200341287 0.00042585830714228235 0 -0.033069578837865668 0.0021117372605863657 0 -0.031824613406226894 0.00062064900683410319 0 -0.032468631607926603 0.0020924051902287757 0 -0.031348549581965743 0.0014603741197170297 0 -0.029058795953024536 0.00099590223832125174 0 -0.019966993526616933 0.00074959512372579234 0 -0.024462028809338232 0.00087512840662931277 0 -0.024810201369056012 0.00074313390819694158 0 -0.024583956443632558 0.00014598597444892176 0 -0.031798376501021915 0.000975170528685591 0 -0.03197350591840941 0.00083384515643915324 0 -0.03187171809735781 0.0010907137234570851 0 -0.031798376501021915 0.000975170528685591 0 -0.03187171809735781 0.0010907137234570851 0 -0.03173025073814939 0.0012115464980521861 0 -0.019966993526616933 0.00074959512372579234 0 -0.014657238978908959 -0.00068782014862045471 0 -0.032468631607926603 0.0020924051902287757 0 -0.031515172043705235 0.0029739661680939825 0 -0.033097561798685796 0.0039662549776045344 0 -0.033069578837865668 0.0021117372605863657 0 -0.023316928161324416 0.0012799013139914253 0 -0.031515172043705235 0.0029739661680939825 0 -0.030417372465212957 0.0024193260412848812 0 -0.030442934391054059 0.0037707643263524921 0 -0.031515172043705235 0.0029739661680939825 0 -0.030417372465212957 0.0024193260412848812 0 -0.031348549581965743 0.0014603741197170297 0 -0.030417372465212957 0.0024193260412848812 0 -0.030442934391054059 0.0037707643263524921 0 -0.029453288994459616 0.003490994789834714 0 -0.030671940598303124 0.0010548554958720981 0 -0.029858990662662548 0.00072483467873651702 0 -0.029728681295142504 0.0019784286772710864 0 -0.030671940598303124 0.0010548554958720981 0 -0.030417372465212957 0.0024193260412848812 0 -0.029728681295142504 0.0019784286772710864 0 -0.030671940598303124 0.0010548554958720981 0 -0.030417372465212957 0.0024193260412848812 0 -0.031348549581965743 0.0014603741197170297 0 -0.03135080122166746 0.0064357988947852437 0 -0.028197937950252945 0.0064273751893888648 0 -0.030442934391054059 0.0037707643263524921 0 0.0075128649465062173 0.0049417038661289988 0 0.0070861436948381736 0.0050721583314299965 0 0.0074996509692985434 0.0048264401948078656 0 -0.008533773885233898 0.0032557627338797817 0 -0.011340984962574676 0.0061228858428777457 0 -0.030373171014135652 0.0037869609441942044 0 -0.028316588389832024 0.0039949214614889853 0 -0.028197937950252945 0.0064273751893888648 0 -0.030442934391054059 0.0037707643263524921 0 -0.02704940855980233 0.0043927212908347543 0 -0.03135080122166746 0.0064357988947852437 0 -0.030442934391054059 0.0037707643263524921 0 -0.031630154077101187 0.0043680671428783808 0 -0.031515172043705235 0.0029739661680939825 0 -0.030442934391054059 0.0037707643263524921 0 -0.031630154077101187 0.0043680671428783808 0 -0.031515172043705235 0.0029739661680939825 0 -0.031630154077101187 0.0043680671428783808 0 -0.033097561798685796 0.0039662549776045344 0 -0.03135080122166746 0.0064357988947852437 0 -0.031630154077101187 0.0043680671428783808 0 -0.033097561798685796 0.0039662549776045344 0 -0.011320777462290019 0.00092423908854819524 0 -0.011082023649272537 0.00020847212501546851 0 -0.012067329895022041 1.3068791487956995e-05 0 -0.019966993526616933 0.00074959512372579234 0 -0.023316928161324416 0.0012799013139914253 0 -0.011082023649272537 0.00020847212501546851 0 -0.012067329895022041 1.3068791487956995e-05 0 -0.011077714030294856 -0.00078055698441765954 0 -0.023316928161324416 0.0012799013139914253 0 0.0011916396315895523 0.0016512676174953334 0 -0.011077714030294856 -0.00078055698441765954 0 -0.011430026745051418 -0.0021114797248078638 0 -0.010672340049961664 -0.0014339960975720536 0 -0.012067329895022041 1.3068791487956995e-05 0 -0.011077714030294856 -0.00078055698441765954 0 -0.011430026745051418 -0.0021114797248078638 0 -0.008533773885233898 0.0032557627338797817 0 0.0011916396315895523 0.0016512676174953334 0 -0.010151201813099635 0.0017460960023035987 0 -0.010113916645386658 0.0018812266742369316 0 -0.0099465799131703385 0.0017123608372443839 0 -0.008533773885233898 0.0032557627338797817 0 -0.023316928161324416 0.0012799013139914253 0 0.0075588393780107238 0.0053297949389520226 0 0.008249850210953728 0.004922608068594291 0 0.0078318710854983521 0.0047606699889913007 0 0.0075588393780107238 0.0053297949389520226 0 0.008249850210953728 0.004922608068594291 0 0.0095943858170100139 0.0052398665012780201 0 0.008249850210953728 0.004922608068594291 0 0.0092819174436725212 0.003972363366289553 0 0.0084646118985724356 0.0033928100033176496 0 0.008249850210953728 0.004922608068594291 0 0.0078318710854983521 0.0047606699889913007 0 0.0081586126849496361 0.0044297747944783278 0 0.0082360240585259824 0.0047655277091925097 0 0.0083113558887394079 0.004041019535922198 0 0.0011916396315895523 0.0016512676174953334 0 0.011698669441878709 0.0024659195211403791 0 0.0095943858170100139 0.0052398665012780201 0 0.0092819174436725212 0.003972363366289553 0 0.010517307387104368 0.0032863589503821563 0 0.008249850210953728 0.004922608068594291 0 0.0095943858170100139 0.0052398665012780201 0 0.0092819174436725212 0.003972363366289553 0 0.0097389220258002965 0.0028015748012942391 0 0.0084646118985724356 0.0033928100033176496 0 0.0087660003896815279 0.0016901249135021972 0 0.0092819174436725212 0.003972363366289553 0 0.010517307387104368 0.0032863589503821563 0 0.0097389220258002965 0.0028015748012942391 0 0.0092819174436725212 0.003972363366289553 0 0.0097389220258002965 0.0028015748012942391 0 0.0084646118985724356 0.0033928100033176496 0 0.010517307387104368 0.0032863589503821563 0 0.0097389220258002965 0.0028015748012942391 0 0.010117170548438859 0.0015541214650811395 0 0.0083113558887394079 0.004041019535922198 0 0.0089448636284031029 0.0023830951680277267 0 0.0081586126849496361 0.0044297747944783278 0 0.0079596642990147695 0.0042856644861993072 0 0.0081562211704109041 0.0041325454531681355 0 0.0081586126849496361 0.0044297747944783278 0 0.0079596642990147695 0.0042856644861993072 0 0.0077910540060174421 0.004516006212248372 0 0.0078318710854983521 0.0047606699889913007 0 0.0081586126849496361 0.0044297747944783278 0 0.0077910540060174421 0.004516006212248372 0 0.0079596642990147695 0.0042856644861993072 0 0.007748661233349009 0.004316093975021214 0 0.0077910540060174421 0.004516006212248372 0 0.007748661233349009 0.004316093975021214 0 0.0075592415826164078 0.0045230669671133929 0 0.0075792371092216629 0.0043375639009776415 0 0.007748661233349009 0.004316093975021214 0 0.0075592415826164078 0.0045230669671133929 0 0.0077910540060174421 0.004516006212248372 0 0.0078318710854983521 0.0047606699889913007 0 0.0077910540060174421 0.004516006212248372 0 0.0074996509692985434 0.0048264401948078656 0 0.0075592415826164078 0.0045230669671133929 0 0.0077910540060174421 0.004516006212248372 0 0.0074996509692985434 0.0048264401948078656 0 -0.008533773885233898 0.0032557627338797817 0 0.0060620834304452908 0.0085917743321137809 0 0.0075588393780107238 0.0053297949389520226 0 0.0078318710854983521 0.0047606699889913007 0 0.0074996509692985434 0.0048264401948078656 0 0.0075592415826164078 0.0045230669671133929 0 0.0074996509692985434 0.0048264401948078656 0 0.00730306052371716 0.0045865956625786297 0 0.0070861436948381736 0.0050721583314299965 0 0.0074996509692985434 0.0048264401948078656 0 0.00730306052371716 0.0045865956625786297 0 0.00730306052371716 0.0045865956625786297 0 0.0075792371092216629 0.0043375639009776415 0 0.0075719669289250691 0.0041335527653102609 0 0.0075592415826164078 0.0045230669671133929 0 0.00730306052371716 0.0045865956625786297 0 0.0075792371092216629 0.0043375639009776415 0 0.00730306052371716 0.0045865956625786297 0 0.0075719669289250691 0.0041335527653102609 0 0.007410772421564525 0.0040596837173541463 0 0.0075792371092216629 0.0043375639009776415 0 0.0075719669289250691 0.0041335527653102609 0 0.0077139485249465159 0.0041545236935296714 0 0.0075719669289250691 0.0041335527653102609 0 0.0077139485249465159 0.0041545236935296714 0 0.0077580235576976122 0.0039652772153851027 0 0.007748661233349009 0.004316093975021214 0 0.0077139485249465159 0.0041545236935296714 0 0.0079156527117817607 0.004108054016927291 0 0.0079596642990147695 0.0042856644861993072 0 0.007748661233349009 0.004316093975021214 0 0.0079156527117817607 0.004108054016927291 0 0.007748661233349009 0.004316093975021214 0 0.0075792371092216629 0.0043375639009776415 0 0.0077139485249465159 0.0041545236935296714 0 0.0077139485249465159 0.0041545236935296714 0 0.0079156527117817607 0.004108054016927291 0 0.0077580235576976122 0.0039652772153851027 0 0.0078613663235226547 0.0039420910654081867 0 0.0077580235576976122 0.0039652772153851027 0 0.0078316451237856535 0.0037481239828983221 0 0.0090424930735647762 0.0042385164376089364 0 0.0075736740359851574 0.0041288393649857738 0 0.0079156527117817607 0.004108054016927291 0 0.0079175095554121621 0.0039075050453139335 0 0.0077580235576976122 0.0039652772153851027 0 0.0075719669289250691 0.0041335527653102609 0 0.0077580235576976122 0.0039652772153851027 0 0.0076720395039232966 0.0038873497384233277 0 0.0077580235576976122 0.0039652772153851027 0 0.0078316451237856535 0.0037481239828983221 0 0.0076720395039232966 0.0038873497384233277 0 0.0090424930735647762 0.0042385164376089364 0 0.0085527641740236523 0.0043799671296224337 0 0.010242181626252555 0.0059053836185183079 0 0.0092098374786211568 0.0047779930979374918 0 0.010481930041010839 0.0049320293671146053 0 0.0092098374786211568 0.0047779930979374918 0 0.010237116470296886 0.0039374586564178537 0 0.0092761249744333207 0.0034998626760690522 0 0.0092098374786211568 0.0047779930979374918 0 0.010237116470296886 0.0039374586564178537 0 0.010481930041010839 0.0049320293671146053 0 0.0092098374786211568 0.0047779930979374918 0 0.0081225745599412414 0.0035453277890335855 0 0.0092761249744333207 0.0034998626760690522 0 0.0085527641740236523 0.0043799671296224337 0 0.0080907761109212349 0.0035223336471135783 0 0.012608909468884504 0.0033635513995567486 0 0.016038434524192687 0.0016050901876227463 0 0.014191332115846122 0.0014158759004968787 0 0.014848124118917906 0.0012333798025918794 0 0.014354109965666127 0.00068892904516604779 0 0.010237116470296886 0.0039374586564178537 0 0.011418535179537361 0.0044795725370602351 0 0.010481930041010839 0.0049320293671146053 0 0.010237116470296886 0.0039374586564178537 0 0.011418535179537361 0.0044795725370602351 0 0.010900643776179988 0.0034285272719804497 0 0.011418535179537361 0.0044795725370602351 0 0.010481930041010839 0.0049320293671146053 0 0.011182758561150693 0.0056467958446487863 0 0.012608909468884504 0.0033635513995567486 0 0.011262270582216101 0.0023717382541955812 0 0.014191332115846122 0.0014158759004968787 0 0.014020096385178872 0.0021754392547545603 0 0.014699778463927999 0.0019827945078332012 0 0.011262270582216101 0.0023717382541955812 0 0.0089448636284031029 0.0023830951680277267 0 0.0090863591631919274 -0.001606598160303354 0 0.010151172794963999 -0.0002993899999884646 0 0.011760854562333176 -0.0024080276498531488 0 0.0090863591631919274 -0.001606598160303354 0 0.010151172794963999 -0.0002993899999884646 0 0.0085301905573180025 0.0013704704924052118 0 0.011262270582216101 0.0023717382541955812 0 0.013162670457792234 -0.00034095065715779402 0 0.009651192169729492 0.0029262758084799678 0 0.0098034901426947655 0.0028807305075441423 0 0.0097632881435355517 0.0030499768386105216 0 0.010242181626252555 0.0059053836185183079 0 0.010481930041010839 0.0049320293671146053 0 0.011182758561150693 0.0056467958446487863 0 0.0090424930735647762 0.0042385164376089364 0 0.011262270582216101 0.0023717382541955812 0 0.0079156527117817607 0.004108054016927291 0 0.0079175095554121621 0.0039075050453139335 0 0.0081562211704109041 0.0041325454531681355 0 0.0090424930735647762 0.0042385164376089364 0 0.0089448636284031029 0.0023830951680277267 0 0.0079596642990147695 0.0042856644861993072 0 0.0079156527117817607 0.004108054016927291 0 0.0081562211704109041 0.0041325454531681355 0 0.010517307387104368 0.0032863589503821563 0 0.010117170548438859 0.0015541214650811395 0 0.011621581069619105 0.00053058606775075704 0 0.010151172794963999 -0.0002993899999884646 0 0.010117170548438859 0.0015541214650811395 0 0.011621581069619105 0.00053058606775075704 0 0.010151172794963999 -0.0002993899999884646 0 0.0085301905573180025 0.0013704704924052118 0 0.010117170548438859 0.0015541214650811395 0 0.009390693336014928 0.0024662689445991296 0 0.0089448636284031029 0.0023830951680277267 0 0.0097389220258002965 0.0028015748012942391 0 0.0085301905573180025 0.0013704704924052118 0 0.010117170548438859 0.0015541214650811395 0 0.011621581069619105 0.00053058606775075704 0 0.011987070897697037 0.0013030527145733879 0 0.012380727782399207 0.001223772793685406 0 0.011627433907417717 0.001556228601392548 0 0.011621581069619105 0.00053058606775075704 0 0.011987070897697037 0.0013030527145733879 0 0.011698669441878709 0.0024659195211403791 0 0.011493762261611451 0.00064258310879809234 0 0.011621581069619105 0.00053058606775075704 0 0.012904847527344245 0.00084501970699028556 0 0.012380727782399207 0.001223772793685406 0 0.011621581069619105 0.00053058606775075704 0 0.012904847527344245 0.00084501970699028556 0 0.013256912332718156 0.00033259489487869054 0 0.01323399025422731 0.00096607781096468286 0 0.012904847527344245 0.00084501970699028556 0 0.013282264702473344 0.00062257241401737372 0 0.01323399025422731 0.00096607781096468286 0 0.012904847527344245 0.00084501970699028556 0 0.012906343082219331 0.0014267251453475597 0 0.01323399025422731 0.00096607781096468286 0 0.013282264702473344 0.00062257241401737372 0 0.01344446681649524 0.00071595969471825336 0 0.012904847527344245 0.00084501970699028556 0 0.013256912332718156 0.00033259489487869054 0 0.013282264702473344 0.00062257241401737372 0 0.013256912332718156 0.00033259489487869054 0 0.013282264702473344 0.00062257241401737372 0 0.013461614827070752 0.00041179565476570998 0 0.013498102104200525 0.00026162122065161029 0 0.015723297955625427 -0.0010049914490155008 0 0.013256912332718156 0.00033259489487869054 0 0.014242040926586645 -0.0017770206148279163 0 0.016968263800146606 -0.0019928462493763537 0 0.013256912332718156 0.00033259489487869054 0 0.016968263800146606 -0.0019928462493763537 0 0.01810324664554919 -0.0021456799098782558 0 0.013256912332718156 0.00033259489487869054 0 0.013592636553914522 0.00011566129899253409 0 0.013461614827070752 0.00041179565476570998 0 0.011621581069619105 0.00053058606775075704 0 0.013256912332718156 0.00033259489487869054 0 0.011760854562333176 -0.0024080276498531488 0 0.010151172794963999 -0.0002993899999884646 0 0.011621581069619105 0.00053058606775075704 0 0.011760854562333176 -0.0024080276498531488 0 0.013256912332718156 0.00033259489487869054 0 0.014242040926586645 -0.0017770206148279163 0 0.011760854562333176 -0.0024080276498531488 0 0.014699778463927999 0.0019827945078332012 0 0.01536519934049411 0.0017875916667361639 0 0.014848124118917906 0.0012333798025918794 0 0.014191332115846122 0.0014158759004968787 0 0.014699778463927999 0.0019827945078332012 0 0.014848124118917906 0.0012333798025918794 0 0.013162670457792234 -0.00034095065715779402 0 0.016472981799619677 -0.00097394264092217362 0 0.014242040926586645 -0.0017770206148279163 0 0.011760854562333176 -0.0024080276498531488 0 0.015167813933323763 -0.0036947519284042697 0 0.014242040926586645 -0.0017770206148279163 0 0.015167813933323763 -0.0036947519284042697 0 0.016968263800146606 -0.0019928462493763537 0 0.016472981799619677 -0.00097394264092217362 0 0.016441326867183484 -0.0021524657799038322 0 0.016472981799619677 -0.00097394264092217362 0 0.018243002902248767 -0.0019934711011691023 0 0.019028644086792824 -0.0026870991812044699 0 0.019021678952774401 -0.0017748726765366857 0 0.017980253558398697 -0.0023166400332350606 0 0.019028644086792824 -0.0026870991812044699 0 0.019021678952774401 -0.0017748726765366857 0 0.020542176700112637 -0.0012754138601008336 0 0.019021678952774401 -0.0017748726765366857 0 0.019178643684493762 -0.0011849497460375115 0 0.020542176700112637 -0.0012754138601008336 0 0.019178643684493762 -0.0011849497460375115 0 0.020542176700112637 -0.0012754138601008336 0 0.019617532882081141 -0.00027698632276452047 0 0.016472981799619677 -0.00097394264092217362 0 0.01800617015966427 3.0050109883368997e-05 0 0.019021678952774401 -0.0017748726765366857 0 0.019178643684493762 -0.0011849497460375115 0 0.018338944972998268 -0.0015378192110782497 0 0.017362244892536047 -0.001070558039102279 0 0.017851536256038084 -0.0018219822712094069 0 0.017156080707333991 -0.0019446646611276284 0 0.017362244892536047 -0.001070558039102279 0 0.018020871751756186 -0.00098158562717347493 0 0.017851536256038084 -0.0018219822712094069 0 0.019178643684493762 -0.0011849497460375115 0 0.018338944972998268 -0.0015378192110782497 0 0.018719951485331281 -0.00083868570345613626 0 0.018020871751756186 -0.00098158562717347493 0 0.018338944972998268 -0.0015378192110782497 0 0.018719951485331281 -0.00083868570345613626 0 0.019021678952774401 -0.0017748726765366857 0 0.018338944972998268 -0.0015378192110782497 0 0.017980253558398697 -0.0023166400332350606 0 0.018020871751756186 -0.00098158562717347493 0 0.018338944972998268 -0.0015378192110782497 0 0.017851536256038084 -0.0018219822712094069 0 0.018338944972998268 -0.0015378192110782497 0 0.017851536256038084 -0.0018219822712094069 0 0.017980253558398697 -0.0023166400332350606 0 0.017851536256038084 -0.0018219822712094069 0 0.017980253558398697 -0.0023166400332350606 0 0.01810324664554919 -0.0021456799098782558 0 0.017292897935985235 -0.0022531191322834772 0 0.017980253558398697 -0.0023166400332350606 0 0.016968263800146606 -0.0019928462493763537 0 0.017980253558398697 -0.0023166400332350606 0 0.016968263800146606 -0.0019928462493763537 0 0.01810324664554919 -0.0021456799098782558 0 0.0144241423256885 -0.00045960991514694914 0 0.014013741498503998 0.00016428008911043216 0 0.014472929168150073 -7.8428791336141005e-07 0 0.015804076490665238 -0.0011605718543549731 0 0.015723297955625427 -0.0010049914490155008 0 0.017851536256038084 -0.0018219822712094069 0 0.017156080707333991 -0.0019446646611276284 0 0.01810324664554919 -0.0021456799098782558 0 0.0144241423256885 -0.00045960991514694914 0 0.014013741498503998 0.00016428008911043216 0 0.013592636553914522 0.00011566129899253409 0 0.014013741498503998 0.00016428008911043216 0 0.014213604945111707 0.00044972929268967263 0 0.014472929168150073 -7.8428791336141005e-07 0 0.014013741498503998 0.00016428008911043216 0 0.013848169360200658 0.00046148770146760011 0 0.013663511476965163 0.00034803107307785058 0 0.014013741498503998 0.00016428008911043216 0 0.013848169360200658 0.00046148770146760011 0 0.014213604945111707 0.00044972929268967263 0 0.014013741498503998 0.00016428008911043216 0 0.013592636553914522 0.00011566129899253409 0 0.013663511476965163 0.00034803107307785058 0 0.013848169360200658 0.00046148770146760011 0 0.013663511476965163 0.00034803107307785058 0 0.013645152936002668 0.00058677270000433829 0 0.013663511476965163 0.00034803107307785058 0 0.013461614827070752 0.00041179565476570998 0 0.013645152936002668 0.00058677270000433829 0 0.013592636553914522 0.00011566129899253409 0 0.013663511476965163 0.00034803107307785058 0 0.013461614827070752 0.00041179565476570998 0 0.013461614827070752 0.00041179565476570998 0 0.01344446681649524 0.00071595969471825336 0 0.013645152936002668 0.00058677270000433829 0 0.013282264702473344 0.00062257241401737372 0 0.013461614827070752 0.00041179565476570998 0 0.01344446681649524 0.00071595969471825336 0 0.01344446681649524 0.00071595969471825336 0 0.013645152936002668 0.00058677270000433829 0 0.013628904001417802 0.00087958749091648621 0 0.013645152936002668 0.00058677270000433829 0 0.013628904001417802 0.00087958749091648621 0 0.013849782770707477 0.00074496828851781656 0 0.013848169360200658 0.00046148770146760011 0 0.013645152936002668 0.00058677270000433829 0 0.013849782770707477 0.00074496828851781656 0 0.013628904001417802 0.00087958749091648621 0 0.013849782770707477 0.00074496828851781656 0 0.013782885247593241 0.00093020572162706499 0 0.013628904001417802 0.00087958749091648621 0 0.013782885247593241 0.00093020572162706499 0 0.013725589607358077 0.0011014994456077988 0 0.013628904001417802 0.00087958749091648621 0 0.013553469897915522 0.0010907012470489537 0 0.013725589607358077 0.0011014994456077988 0 0.013628904001417802 0.00087958749091648621 0 0.013440441177040741 0.00098852890732308929 0 0.013553469897915522 0.0010907012470489537 0 0.01344446681649524 0.00071595969471825336 0 0.013628904001417802 0.00087958749091648621 0 0.013440441177040741 0.00098852890732308929 0 0.01323399025422731 0.00096607781096468286 0 0.01344446681649524 0.00071595969471825336 0 0.013440441177040741 0.00098852890732308929 0 0.014213604945111707 0.00044972929268967263 0 0.013849782770707477 0.00074496828851781656 0 0.014229773883815893 0.00082868864412990149 0 0.013848169360200658 0.00046148770146760011 0 0.014213604945111707 0.00044972929268967263 0 0.013849782770707477 0.00074496828851781656 0 0.013849782770707477 0.00074496828851781656 0 0.013926533552158614 0.00099973684100248964 0 0.014229773883815893 0.00082868864412990149 0 0.013849782770707477 0.00074496828851781656 0 0.013782885247593241 0.00093020572162706499 0 0.013926533552158614 0.00099973684100248964 0 0.013782885247593241 0.00093020572162706499 0 0.013926533552158614 0.00099973684100248964 0 0.013725589607358077 0.0011014994456077988 0 0.013926533552158614 0.00099973684100248964 0 0.014229773883815893 0.00082868864412990149 0 0.014111249737970991 0.0011876707664784326 0 0.013926533552158614 0.00099973684100248964 0 0.014111249737970991 0.0011876707664784326 0 0.013872314148082508 0.001206437545987344 0 0.014111249737970991 0.0011876707664784326 0 0.013872314148082508 0.001206437545987344 0 0.013876260400789925 0.0013870140022974866 0 0.013926533552158614 0.00099973684100248964 0 0.013872314148082508 0.001206437545987344 0 0.013725589607358077 0.0011014994456077988 0 0.013872314148082508 0.001206437545987344 0 0.013715208393616708 0.0013590420026390044 0 0.013725589607358077 0.0011014994456077988 0 0.013872314148082508 0.001206437545987344 0 0.013876260400789925 0.0013870140022974866 0 0.013715208393616708 0.0013590420026390044 0 0.013876260400789925 0.0013870140022974866 0 0.013758203719453781 0.0015564225175094708 0 0.013715208393616708 0.0013590420026390044 0 0.013876260400789925 0.0013870140022974866 0 0.013758203719453781 0.0015564225175094708 0 0.013966665044017685 0.0015255382989379739 0 0.014111249737970991 0.0011876707664784326 0 0.013876260400789925 0.0013870140022974866 0 0.013966665044017685 0.0015255382989379739 0 0.014111249737970991 0.0011876707664784326 0 0.013966665044017685 0.0015255382989379739 0 0.014264992621510148 0.0013914698347580188 0 0.0015527525113290469 -0.00031051531353202551 0 -0.00646550989592187 -0.002038391236882034 0 0.013966665044017685 0.0015255382989379739 0 0.013719339929301761 0.001785111551146091 0 0.014383312502825981 0.0016619314238397432 0 0.013719339929301761 0.001785111551146091 0 0.013684374489943937 0.0018427409519652222 0 0.014383312502825981 0.0016619314238397432 0 0.013758203719453781 0.0015564225175094708 0 0.013966665044017685 0.0015255382989379739 0 0.013719339929301761 0.001785111551146091 0 0.0022539166108056126 -0.00052128428532535829 0 0.0015527525113290469 -0.00031051531353202551 0 0.013695535173507524 0.0018696895311931363 0 0.0134734855220137 0.0016223973016123566 0 0.012640269775716867 0.0022572310176811054 0 0.0015527525113290469 -0.00031051531353202551 0 0.0020659985712708859 -0.00032681522826719453 0 0.013719339929301761 0.001785111551146091 0 0.013695535173507524 0.0018696895311931363 0 0.0134734855220137 0.0016223973016123566 0 0.013758203719453781 0.0015564225175094708 0 0.013719339929301761 0.001785111551146091 0 0.0134734855220137 0.0016223973016123566 0 0.0134734855220137 0.0016223973016123566 0 0.013568397196992503 0.001273505946088133 0 0.01336539082921554 0.0012561048524794057 0 0.0134734855220137 0.0016223973016123566 0 0.01336539082921554 0.0012561048524794057 0 0.012906343082219331 0.0014267251453475597 0 0.013758203719453781 0.0015564225175094708 0 0.0134734855220137 0.0016223973016123566 0 0.013715208393616708 0.0013590420026390044 0 0.0134734855220137 0.0016223973016123566 0 0.013715208393616708 0.0013590420026390044 0 0.013568397196992503 0.001273505946088133 0 0.013715208393616708 0.0013590420026390044 0 0.013568397196992503 0.001273505946088133 0 0.013725589607358077 0.0011014994456077988 0 0.013568397196992503 0.001273505946088133 0 0.013553469897915522 0.0010907012470489537 0 0.013725589607358077 0.0011014994456077988 0 0.013568397196992503 0.001273505946088133 0 0.013553469897915522 0.0010907012470489537 0 0.01336539082921554 0.0012561048524794057 0 0.013440441177040741 0.00098852890732308929 0 0.013553469897915522 0.0010907012470489537 0 0.01336539082921554 0.0012561048524794057 0 0.01323399025422731 0.00096607781096468286 0 0.013440441177040741 0.00098852890732308929 0 0.01336539082921554 0.0012561048524794057 0 0.01323399025422731 0.00096607781096468286 0 0.01336539082921554 0.0012561048524794057 0 0.012906343082219331 0.0014267251453475597 0 0.012904847527344245 0.00084501970699028556 0 0.012906343082219331 0.0014267251453475597 0 0.012380727782399207 0.001223772793685406 0 0.011987070897697037 0.0013030527145733879 0 0.012380727782399207 0.001223772793685406 0 0.01219578959333947 0.0017793604085393408 0 0.012906343082219331 0.0014267251453475597 0 0.012380727782399207 0.001223772793685406 0 0.01219578959333947 0.0017793604085393408 0 0.011627433907417717 0.001556228601392548 0 0.011987070897697037 0.0013030527145733879 0 0.01219578959333947 0.0017793604085393408 0 -0.011430026745051418 -0.0021114797248078638 0 -0.0099787440450329837 -0.0021488643437295204 0 -0.0089160723124285506 -0.0024741900330772261 0 0.0011916396315895523 0.0016512676174953334 0 0.0020659985712708859 -0.00032681522826719453 0 0.011268621436886768 0.0025182028728073101 0 0.011627433907417717 0.001556228601392548 0 0.01219578959333947 0.0017793604085393408 0 0.011268621436886768 0.0025182028728073101 0 0.01219578959333947 0.0017793604085393408 0 0.012640269775716867 0.0022572310176811054 0 0.012906343082219331 0.0014267251453475597 0 0.01219578959333947 0.0017793604085393408 0 0.012640269775716867 0.0022572310176811054 0 0.0134734855220137 0.0016223973016123566 0 0.012906343082219331 0.0014267251453475597 0 0.012640269775716867 0.0022572310176811054 0 -0.0099787440450329837 -0.0021488643437295204 0 -0.0089160723124285506 -0.0024741900330772261 0 -0.0089773844780823096 -0.00090078687855711496 0 -0.0089160723124285506 -0.0024741900330772261 0 -0.0089773844780823096 -0.00090078687855711496 0 -0.0074163409372431021 -0.00026939412222861449 0 -0.010009621149295605 -0.0019766403410412495 0 -0.010018191349579582 -0.00046678587836403954 0 -0.011430026745051418 -0.0021114797248078638 0 -0.0099787440450329837 -0.0021488643437295204 0 -0.010672340049961664 -0.0014339960975720536 0 -0.0099787440450329837 -0.0021488643437295204 0 -0.010672340049961664 -0.0014339960975720536 0 -0.010131459537084195 -0.0004873692793129381 0 -0.0099787440450329837 -0.0021488643437295204 0 -0.0089773844780823096 -0.00090078687855711496 0 -0.0098779547807666627 -0.00024113883647035328 0 -0.011077714030294856 -0.00078055698441765954 0 -0.010672340049961664 -0.0014339960975720536 0 -0.010131459537084195 -0.0004873692793129381 0 -0.010209675297814826 0.00090652221047712411 0 -0.011082023649272537 0.00020847212501546851 0 -0.010131459537084195 -0.0004873692793129381 0 -0.0096957099073427949 0.0015000263246639515 0 -0.010018191349579582 -0.00046678587836403954 0 -0.0097896072431847957 0.0016091811228070789 0 -0.0098779547807666627 -0.00024113883647035328 0 -0.0089374291071005873 0.00047340214765285467 0 -0.011082023649272537 0.00020847212501546851 0 -0.011077714030294856 -0.00078055698441765954 0 -0.010131459537084195 -0.0004873692793129381 0 -0.0086304624758781895 0.0021011890723208583 0 -0.0089374291071005873 0.00047340214765285467 0 -0.0074163409372431021 -0.00026939412222861449 0 -0.0089773844780823096 -0.00090078687855711496 0 -0.0089374291071005873 0.00047340214765285467 0 -0.0074163409372431021 -0.00026939412222861449 0 -0.013810202558384495 0.0017735625019887086 0 -0.010893478187615222 -0.00055946567841898081 0 -0.0089773844780823096 -0.00090078687855711496 0 -0.0098779547807666627 -0.00024113883647035328 0 -0.0089374291071005873 0.00047340214765285467 0 -0.011845193625890668 0.0010778776448936759 0 -0.012330408196458881 -0.00037894641264906099 0 -0.011162904627325707 -0.00027346098132713576 0 -0.010566536568528117 0.00069200648527095439 0 -0.011845193625890668 0.0010778776448936759 0 -0.011162904627325707 -0.00027346098132713576 0 -0.010566536568528117 0.00069200648527095439 0 -0.011162904627325707 -0.00027346098132713576 0 -0.010131281140779906 -0.00086503891211414349 0 -0.01146372082822732 -0.0021931150519582114 0 -0.011162904627325707 -0.00027346098132713576 0 -0.010131281140779906 -0.00086503891211414349 0 -0.01146372082822732 -0.0021931150519582114 0 -0.012330408196458881 -0.00037894641264906099 0 -0.011162904627325707 -0.00027346098132713576 0 -0.0061946278851304735 -0.0028261551129190295 0 -0.0089160723124285506 -0.0024741900330772261 0 -0.0074163409372431021 -0.00026939412222861449 0 0.0015527525113290469 -0.00031051531353202551 0 -0.010893478187615222 -0.00055946567841898081 0 -0.021889701617159397 -0.0014566944088028808 0 -0.023562114714881129 -0.0018383854577476795 0 -0.021098366545901439 -0.0010883719706421464 0 -0.021889701617159397 -0.0014566944088028808 0 -0.022317499153368957 -0.0020645093046665845 0 -0.023562114714881129 -0.0018383854577476795 0 -0.021889701617159397 -0.0014566944088028808 0 -0.021316748200945018 -0.0016036063569344959 0 -0.022317499153368957 -0.0020645093046665845 0 -0.021889701617159397 -0.0014566944088028808 0 -0.021316748200945018 -0.0016036063569344959 0 -0.021967133855686761 -0.0011285210599184358 0 -0.020541308666571011 -0.0017772375098094671 0 -0.023672529846494993 -0.0025725183112526632 0 -0.02090448591433226 -0.0030481981530096048 0 -0.021316748200945018 -0.0016036063569344959 0 -0.021887171021636714 -0.0027871829046818052 0 -0.020541308666571011 -0.0017772375098094671 0 -0.016182672552328223 -0.00099984199198912887 0 -0.021316748200945018 -0.0016036063569344959 0 -0.021887171021636714 -0.0027871829046818052 0 -0.022317499153368957 -0.0020645093046665845 0 -0.021887171021636714 -0.0027871829046818052 0 -0.022317499153368957 -0.0020645093046665845 0 -0.023502652102651782 -0.0024882997346815814 0 -0.024256788358264805 -0.0022939948599309153 0 -0.024682331840992607 -0.0026613215479981776 0 -0.023502652102651782 -0.0024882997346815814 0 -0.023672529846494993 -0.0025725183112526632 0 -0.023419015374158574 -0.0025713537776204907 0 -0.023834506704299329 -0.0024636434115405275 0 -0.023502652102651782 -0.0024882997346815814 0 -0.023562114714881129 -0.0018383854577476795 0 -0.022317499153368957 -0.0020645093046665845 0 -0.023502652102651782 -0.0024882997346815814 0 -0.023562114714881129 -0.0018383854577476795 0 -0.019821689695137371 0.00017784689989133561 0 -0.020093757418646451 0.0015817851154552535 0 -0.024163126094856175 -0.0024314961379198852 0 -0.023834506704299329 -0.0024636434115405275 0 -0.023562114714881129 -0.0018383854577476795 0 -0.01417285186322193 0.0081046143810359732 0 -0.013202997733510621 0.0028443303506778118 0 -0.017159506491352602 0.0041405614396121289 0 -0.016186106171122046 -0.00078920186688841674 0 -0.016006801928656306 -0.0015918053321733478 0 -0.015747542923799315 -0.0011255153006716736 0 -0.019821689695137371 0.00017784689989133561 0 -0.012821730534839452 0.0023524557558505426 0 -0.012821730534839452 0.0023524557558505426 0 -0.016564410872772356 0.0014119287916780077 0 -0.020093757418646451 0.0015817851154552535 0 -0.021320623492574436 -0.0011816510530221044 0 -0.017159506491352602 0.0041405614396121289 0 -0.017122825163952145 0.0011569065937485148 0 -0.018968098721326744 -0.00048324673647265635 0 -0.013202997733510621 0.0028443303506778118 0 -0.017159506491352602 0.0041405614396121289 0 -0.017122825163952145 0.0011569065937485148 0 -0.017159506491352602 0.0041405614396121289 0 -0.018968098721326744 -0.00048324673647265635 0 -0.021098366545901439 -0.0010883719706421464 0 -0.017122825163952145 0.0011569065937485148 0 -0.018968098721326744 -0.00048324673647265635 0 -0.015533922113574281 -0.0013102142016525745 0 -0.015533922113574281 -0.0013102142016525745 0 -0.019359017604931385 -0.0027439189923169419 0 -0.011957441109374497 -0.0034229955487600958 0 -0.018968098721326744 -0.00048324673647265635 0 -0.015533922113574281 -0.0013102142016525745 0 -0.019359017604931385 -0.0027439189923169419 0 -0.012821730534839452 0.0023524557558505426 0 -0.010438955488450828 -0.00078037687017842167 0 -0.011565365214390088 0.0030115300749188208 0 -0.017122825163952145 0.0011569065937485148 0 -0.015533922113574281 -0.0013102142016525745 0 -0.011565365214390088 0.0030115300749188208 0 -0.010796605938445131 -0.0034388818299183788 0 -0.011957441109374497 -0.0034229955487600958 0 -0.011565365214390088 0.0030115300749188208 0 -0.015533922113574281 -0.0013102142016525745 0 -0.011957441109374497 -0.0034229955487600958 0 -0.010796605938445131 -0.0034388818299183788 0 -0.011191723220631574 -0.0034219778430325683 0 -0.010797646579959713 -0.0032170842145869652 0 -0.010796605938445131 -0.0034388818299183788 0 -0.011957441109374497 -0.0034229955487600958 0 -0.011191723220631574 -0.0034219778430325683 0 -0.011957441109374497 -0.0034229955487600958 0 -0.011191723220631574 -0.0034219778430325683 0 -0.011126804829356055 -0.0033556121214934442 0 -0.010760924566940566 -0.003763460296405972 0 -0.011126804829356055 -0.0033556121214934442 0 -0.010716248767026593 -0.0033079491125961743 0 -0.010760924566940566 -0.003763460296405972 0 -0.011957441109374497 -0.0034229955487600958 0 -0.011126804829356055 -0.0033556121214934442 0 -0.016893365632870673 -0.0030276505206248338 0 -0.011470441050343802 -0.0035390550387847169 0 -0.010760924566940566 -0.003763460296405972 0 -0.01049795042630812 -0.0035308741928922588 0 -0.010190437847020714 -0.0037639324763505647 0 -0.010760924566940566 -0.003763460296405972 0 -0.010716248767026593 -0.0033079491125961743 0 -0.01049795042630812 -0.0035308741928922588 0 -0.01049795042630812 -0.0035308741928922588 0 -0.010190437847020714 -0.0037639324763505647 0 -0.01042509424173004 -0.0031971604389501832 0 -0.010716248767026593 -0.0033079491125961743 0 -0.01049795042630812 -0.0035308741928922588 0 -0.01042509424173004 -0.0031971604389501832 0 -0.019359017604931385 -0.0027439189923169419 0 -0.021098366545901439 -0.0010883719706421464 0 -0.021967133855686761 -0.0011285210599184358 0 -0.016893365632870673 -0.0030276505206248338 0 -0.00646550989592187 -0.002038391236882034 0 -0.021889701617159397 -0.0014566944088028808 0 -0.021098366545901439 -0.0010883719706421464 0 -0.021967133855686761 -0.0011285210599184358 0 -0.018968098721326744 -0.00048324673647265635 0 -0.019359017604931385 -0.0027439189923169419 0 -0.021098366545901439 -0.0010883719706421464 0 -0.016182672552328223 -0.00099984199198912887 0 -0.00646550989592187 -0.002038391236882034 0 -0.01146372082822732 -0.0021931150519582114 0 -0.010131281140779906 -0.00086503891211414349 0 -0.0097035206904131886 -0.002417525836492906 0 -0.00646550989592187 -0.002038391236882034 0 0.0032198648151763386 -0.0011624774093929873 0 0.014383312502825981 0.0016619314238397432 0 0.014264992621510148 0.0013914698347580188 0 0.014756760913985664 0.00086313474837191771 0 0.013966665044017685 0.0015255382989379739 0 0.014383312502825981 0.0016619314238397432 0 0.014264992621510148 0.0013914698347580188 0 0.014111249737970991 0.0011876707664784326 0 0.014264992621510148 0.0013914698347580188 0 0.014756760913985664 0.00086313474837191771 0 0.014213604945111707 0.00044972929268967263 0 0.014229773883815893 0.00082868864412990149 0 0.014756760913985664 0.00086313474837191771 0 0.014229773883815893 0.00082868864412990149 0 0.014111249737970991 0.0011876707664784326 0 0.014756760913985664 0.00086313474837191771 0 -0.010716248767026593 -0.0033079491125961743 0 -0.01042509424173004 -0.0031971604389501832 0 -0.010635421246545217 -0.0031261755573568665 0 0.0032198648151763386 -0.0011624774093929873 0 0.0020846234893991005 -0.0016563864155283621 0 -0.01042509424173004 -0.0031971604389501832 0 -0.01060702518422609 -0.0031627631684407369 0 -0.010635421246545217 -0.0031261755573568665 0 0.014756760913985664 0.00086313474837191771 0 0.014472929168150073 -7.8428791336141005e-07 0 0.015156575878730044 -7.201649588925175e-05 0 0.014213604945111707 0.00044972929268967263 0 0.014756760913985664 0.00086313474837191771 0 0.014472929168150073 -7.8428791336141005e-07 0 0.0144241423256885 -0.00045960991514694914 0 0.014472929168150073 -7.8428791336141005e-07 0 0.015156575878730044 -7.201649588925175e-05 0 0.0144241423256885 -0.00045960991514694914 0 0.015156575878730044 -7.201649588925175e-05 0 0.015566670341209119 -0.00085427325987446582 0 -0.01060702518422609 -0.0031627631684407369 0 -0.010560163367411422 -0.0033162847762921552 0 -0.010635421246545217 -0.0031261755573568665 0 -0.01060702518422609 -0.0031627631684407369 0 -0.010635398433178003 -0.0035499904772213265 0 -0.010560163367411422 -0.0033162847762921552 0 0.0020846234893991005 -0.0016563864155283621 0 0.0030995690751594385 -0.0019442251769349239 0 0.015156575878730044 -7.201649588925175e-05 0 0.015449522379636397 -0.00087283059554139788 0 0.015566670341209119 -0.00085427325987446582 0 -0.010635398433178003 -0.0035499904772213265 0 -0.010627716342149929 -0.0036020184877078097 0 -0.010560163367411422 -0.0033162847762921552 0 0.0030995690751594385 -0.0019442251769349239 0 0.00057635437525399992 -0.0022833294287286613 0 0.015566670341209119 -0.00085427325987446582 0 0.016541476206722836 -0.00090997491518426867 0 0.016078857855329375 -0.00066466699615705686 0 0.017362244892536047 -0.001070558039102279 0 0.017156080707333991 -0.0019446646611276284 0 0.016541476206722836 -0.00090997491518426867 0 0.015804076490665238 -0.0011605718543549731 0 0.015546837909631636 -0.00088646616606672952 0 0.017156080707333991 -0.0019446646611276284 0 0.015566670341209119 -0.00085427325987446582 0 0.016541476206722836 -0.00090997491518426867 0 -0.010305050839684284 -0.0036118653807658573 0 -0.010420756743136859 -0.0033241727871060685 0 -0.010003987990846175 -0.0036033338596161623 0 -0.010305050839684284 -0.0036118653807658573 0 -0.010003987990846175 -0.0036033338596161623 0 -0.0099944987931409306 -0.0038922808078340762 0 -0.010305050839684284 -0.0036118653807658573 0 -0.010216234581708287 -0.0038483689773849881 0 -0.0099944987931409306 -0.0038922808078340762 0 -0.010305050839684284 -0.0036118653807658573 0 -0.010359143583381004 -0.0037715732789076993 0 -0.010216234581708287 -0.0038483689773849881 0 -0.010305050839684284 -0.0036118653807658573 0 -0.010433433827612391 -0.0036034316562813303 0 -0.010359143583381004 -0.0037715732789076993 0 -0.010305050839684284 -0.0036118653807658573 0 -0.010433433827612391 -0.0036034316562813303 0 -0.010458907529091703 -0.0034652904127947083 0 -0.010433433827612391 -0.0036034316562813303 0 -0.010474847961202136 -0.0037384606936259231 0 -0.010359143583381004 -0.0037715732789076993 0 -0.010627716342149929 -0.0036020184877078097 0 -0.010523256760898056 -0.0035301121549020037 0 -0.010474847961202136 -0.0037384606936259231 0 -0.010433433827612391 -0.0036034316562813303 0 -0.010523256760898056 -0.0035301121549020037 0 -0.010474847961202136 -0.0037384606936259231 0 -0.010627716342149929 -0.0036020184877078097 0 -0.010523256760898056 -0.0035301121549020037 0 -0.010560163367411422 -0.0033162847762921552 0 -0.010523256760898056 -0.0035301121549020037 0 -0.010458907529091703 -0.0034652904127947083 0 -0.010560163367411422 -0.0033162847762921552 0 -0.010433433827612391 -0.0036034316562813303 0 -0.010523256760898056 -0.0035301121549020037 0 -0.010458907529091703 -0.0034652904127947083 0 -0.010305050839684284 -0.0036118653807658573 0 -0.010458907529091703 -0.0034652904127947083 0 -0.010420756743136859 -0.0033241727871060685 0 -0.010458907529091703 -0.0034652904127947083 0 -0.010560163367411422 -0.0033162847762921552 0 -0.010420756743136859 -0.0033241727871060685 0 -0.010560163367411422 -0.0033162847762921552 0 -0.010420756743136859 -0.0033241727871060685 0 -0.010571307091519759 -0.0031322890500364575 0 -0.01033449507114775 -0.0031076536116441005 0 -0.010420756743136859 -0.0033241727871060685 0 -0.010571307091519759 -0.0031322890500364575 0 -0.01033449507114775 -0.0031076536116441005 0 -0.010420756743136859 -0.0033241727871060685 0 -0.010003987990846175 -0.0036033338596161623 0 -0.010571307091519759 -0.0031322890500364575 0 -0.010881852031143533 -0.0032227310724089898 0 -0.010797646579959713 -0.0032170842145869652 0 -0.01033449507114775 -0.0031076536116441005 0 -0.010571307091519759 -0.0031322890500364575 0 -0.010797646579959713 -0.0032170842145869652 0 -0.010560163367411422 -0.0033162847762921552 0 -0.010571307091519759 -0.0031322890500364575 0 -0.010635421246545217 -0.0031261755573568665 0 -0.010571307091519759 -0.0031322890500364575 0 -0.010635421246545217 -0.0031261755573568665 0 -0.010881852031143533 -0.0032227310724089898 0 -0.010716248767026593 -0.0033079491125961743 0 -0.010635421246545217 -0.0031261755573568665 0 -0.010881852031143533 -0.0032227310724089898 0 -0.011126804829356055 -0.0033556121214934442 0 -0.010716248767026593 -0.0033079491125961743 0 -0.010881852031143533 -0.0032227310724089898 0 -0.011191723220631574 -0.0034219778430325683 0 -0.010881852031143533 -0.0032227310724089898 0 -0.010797646579959713 -0.0032170842145869652 0 -0.011191723220631574 -0.0034219778430325683 0 -0.011126804829356055 -0.0033556121214934442 0 -0.010881852031143533 -0.0032227310724089898 0 -0.010229615260948221 -0.00069498516008886476 0 -0.0090379771541853112 -2.3646640695020668e-05 0 -0.009480316328401189 0.00079409691191003457 0 -0.010229615260948221 -0.00069498516008886476 0 -0.0090379771541853112 -2.3646640695020668e-05 0 -0.008253747337643785 -0.00093067936232654682 0 -0.0090379771541853112 -2.3646640695020668e-05 0 -0.0078941056531389303 0.0002477094730480708 0 -0.008425156197431739 0.00094815474828050179 0 -0.0090379771541853112 -2.3646640695020668e-05 0 -0.008253747337643785 -0.00093067936232654682 0 -0.0078941056531389303 0.0002477094730480708 0 -0.010229615260948221 -0.00069498516008886476 0 -0.008253747337643785 -0.00093067936232654682 0 -0.0086578221673036457 -0.0023825019411361642 0 -0.01033449507114775 -0.0031076536116441005 0 -0.010797646579959713 -0.0032170842145869652 0 -0.0099275047443968534 -0.002982868495920798 0 -0.010229615260948221 -0.00069498516008886476 0 -0.0099275047443968534 -0.002982868495920798 0 -0.0086578221673036457 -0.0023825019411361642 0 -0.010470403315958591 -0.0020465498311189405 0 -0.010015268718857721 -0.0029622680156758114 0 -0.01033449507114775 -0.0031076536116441005 0 -0.0099275047443968534 -0.002982868495920798 0 -0.010003987990846175 -0.0036033338596161623 0 -0.0099275047443968534 -0.002982868495920798 0 -0.0083136458112809848 -0.0035085450880443566 0 -0.010003987990846175 -0.0036033338596161623 0 -0.0099275047443968534 -0.002982868495920798 0 -0.0086578221673036457 -0.0023825019411361642 0 -0.0083136458112809848 -0.0035085450880443566 0 -0.00016363706495741665 0.00030307260768073146 0 -0.00069880076650218948 4.1208208092856458e-08 0 -1.2031327985644183e-05 -6.6297491725313874e-05 0 -0.0041251993512224413 -0.0014758819930938175 0 -0.0058070003175244231 -0.002370399697482756 0 -0.0083136458112809848 -0.0035085450880443566 0 -0.010003987990846175 -0.0036033338596161623 0 -0.0093816380534710829 -0.004065690266392293 0 -0.010003987990846175 -0.0036033338596161623 0 -0.0093816380534710829 -0.004065690266392293 0 -0.0099944987931409306 -0.0038922808078340762 0 -0.00058495807480376128 0.00018818318075704434 0 0.0004363913427979426 0.00013871604379415484 0 0.0008195581119149161 -8.5045633663002422e-07 0 -0.00058495807480376128 0.00018818318075704434 0 -0.0018803094816615905 1.039710716018869e-06 0 0.0008195581119149161 -8.5045633663002422e-07 0 -0.00016363706495741665 0.00030307260768073146 0 -0.00058495807480376128 0.00018818318075704434 0 0.0004363913427979426 0.00013871604379415484 0 -0.00016363706495741665 0.00030307260768073146 0 0.0004363913427979426 0.00013871604379415484 0 -1.2031327985644183e-05 -6.6297491725313874e-05 0 -0.0041251993512224413 -0.0014758819930938175 0 -0.0040520222394947623 -0.0010418300038990338 0 -0.0086578221673036457 -0.0023825019411361642 0 -0.0083136458112809848 -0.0035085450880443566 0 -0.0065912315536273093 -0.002157326232183448 0 -0.00016363706495741665 0.00030307260768073146 0 -0.00058495807480376128 0.00018818318075704434 0 -0.0014782254769587972 -0.00021314952656226397 0 -0.00058495807480376128 0.00018818318075704434 0 -0.0018803094816615905 1.039710716018869e-06 0 -0.0014782254769587972 -0.00021314952656226397 0 -0.0018803094816615905 1.039710716018869e-06 0 -0.0014782254769587972 -0.00021314952656226397 0 -0.0045770566094834224 -1.8591557985532767e-06 0 -0.0040520222394947623 -0.0010418300038990338 0 -0.0045792308846561653 -6.9578500178213327e-08 0 -0.008253747337643785 -0.00093067936232654682 0 -0.0065912315536273093 -0.002157326232183448 0 -0.0063525038911771432 0.00018214149560682059 0 -0.008253747337643785 -0.00093067936232654682 0 -0.0086578221673036457 -0.0023825019411361642 0 -0.0065912315536273093 -0.002157326232183448 0 -0.008253747337643785 -0.00093067936232654682 0 -0.0078941056531389303 0.0002477094730480708 0 -0.0063525038911771432 0.00018214149560682059 0 -0.0065912315536273093 -0.002157326232183448 0 -0.0063525038911771432 0.00018214149560682059 0 -0.0045834913351467006 -2.0735474554756967e-06 0 -0.0063525038911771432 0.00018214149560682059 0 -0.0045834913351467006 -2.0735474554756967e-06 0 -0.006372186797781826 0.00014322766309930379 0 -0.0063525038911771432 0.00018214149560682059 0 -0.006372186797781826 0.00014322766309930379 0 -0.0071781611056187184 0.00010586061254658647 0 -0.0064868532361907092 0.00029617342139499355 0 -0.0069354822051107268 0.00089743391912644802 0 -0.0045834913351467006 -2.0735474554756967e-06 0 -0.006372186797781826 0.00014322766309930379 0 -0.007200800288873925 1.1742145978106629e-06 0 -0.006372186797781826 0.00014322766309930379 0 -0.007200800288873925 1.1742145978106629e-06 0 -0.0071781611056187184 0.00010586061254658647 0 -0.007200800288873925 1.1742145978106629e-06 0 -0.0071781611056187184 0.00010586061254658647 0 -0.0082723578825086869 3.5343064185472323e-05 0 -0.0069354822051107268 0.00089743391912644802 0 -0.0076496049134875217 0.0020863860807003314 0 -0.0071781611056187184 0.00010586061254658647 0 -0.0082723578825086869 3.5343064185472323e-05 0 -0.0089084407970605895 2.3147002283563116e-05 0 -0.0066008350191315429 0.0017400093637899058 0 -0.0073776864752999475 0.0024747950281212155 0 -0.0066741880053546535 0.0032190642738442968 0 -0.0066008350191315429 0.0017400093637899058 0 -0.0073776864752999475 0.0024747950281212155 0 -0.0078181729872494349 0.0017006339582706391 0 -0.0073776864752999475 0.0024747950281212155 0 -0.0082775048945921276 0.0023663446649392606 0 -0.0077527684149691616 0.0032248019132963919 0 -0.0073776864752999475 0.0024747950281212155 0 -0.0078181729872494349 0.0017006339582706391 0 -0.0082775048945921276 0.0023663446649392606 0 -0.0063525038911771432 0.00018214149560682059 0 -0.0066008350191315429 0.0017400093637899058 0 -0.007301196054145009 0.00098955650621830745 0 -0.0066008350191315429 0.0017400093637899058 0 -0.0078181729872494349 0.0017006339582706391 0 -0.007301196054145009 0.00098955650621830745 0 -0.0078181729872494349 0.0017006339582706391 0 -0.007301196054145009 0.00098955650621830745 0 -0.008425156197431739 0.00094815474828050179 0 -0.0078941056531389303 0.0002477094730480708 0 -0.0063525038911771432 0.00018214149560682059 0 -0.007301196054145009 0.00098955650621830745 0 -0.0078941056531389303 0.0002477094730480708 0 -0.007301196054145009 0.00098955650621830745 0 -0.008425156197431739 0.00094815474828050179 0 -0.0090379771541853112 -2.3646640695020668e-05 0 -0.008425156197431739 0.00094815474828050179 0 -0.009480316328401189 0.00079409691191003457 0 -0.008425156197431739 0.00094815474828050179 0 -0.009480316328401189 0.00079409691191003457 0 -0.0088046699374662515 0.0016319388735470625 0 -0.0078181729872494349 0.0017006339582706391 0 -0.008425156197431739 0.00094815474828050179 0 -0.0088046699374662515 0.0016319388735470625 0 -0.010438955488450828 -0.00078037687017842167 0 -0.010470403315958591 -0.0020465498311189405 0 -0.010424177815774175 0.0013789959339895045 0 -0.010229615260948221 -0.00069498516008886476 0 -0.009480316328401189 0.00079409691191003457 0 -0.009480316328401189 0.00079409691191003457 0 -0.0096218471562631407 0.001695064415594258 0 -0.0088046699374662515 0.0016319388735470625 0 -0.010424177815774175 0.0013789959339895045 0 -0.009480316328401189 0.00079409691191003457 0 -0.0096218471562631407 0.001695064415594258 0 -0.010685500388507983 0.0032974810078625614 0 -0.010424177815774175 0.0013789959339895045 0 -0.0098060919084977886 0.0023426488133851302 0 -0.010424177815774175 0.0013789959339895045 0 -0.0096218471562631407 0.001695064415594258 0 -0.0098060919084977886 0.0023426488133851302 0 -0.0096218471562631407 0.001695064415594258 0 -0.0092250242077246709 0.0022330284515193677 0 -0.0088046699374662515 0.0016319388735470625 0 -0.0096218471562631407 0.001695064415594258 0 -0.0092250242077246709 0.0022330284515193677 0 -0.0098060919084977886 0.0023426488133851302 0 -0.0092250242077246709 0.0022330284515193677 0 -0.0098060919084977886 0.0023426488133851302 0 -0.0090501038331926749 0.0029152833474387161 0 -0.0078181729872494349 0.0017006339582706391 0 -0.0088046699374662515 0.0016319388735470625 0 -0.0082775048945921276 0.0023663446649392606 0 -0.0092250242077246709 0.0022330284515193677 0 -0.0088046699374662515 0.0016319388735470625 0 -0.0082775048945921276 0.0023663446649392606 0 -0.0092250242077246709 0.0022330284515193677 0 -0.0082775048945921276 0.0023663446649392606 0 -0.0090501038331926749 0.0029152833474387161 0 -0.0090501038331926749 0.0029152833474387161 0 -0.008590365861110125 0.0040055535089053226 0 -0.0077527684149691616 0.0032248019132963919 0 -0.0082775048945921276 0.0023663446649392606 0 -0.0090501038331926749 0.0029152833474387161 0 -0.0077527684149691616 0.0032248019132963919 0 -0.010685500388507983 0.0032974810078625614 0 -0.0090501038331926749 0.0029152833474387161 0 -0.008590365861110125 0.0040055535089053226 0 -0.012821730534839452 0.0023524557558505426 0 -0.011905129099487568 0.0012571267395549222 0 -0.010685500388507983 0.0032974810078625614 0 -0.0098060919084977886 0.0023426488133851302 0 -0.0090501038331926749 0.0029152833474387161 0 -0.016006801928656306 -0.0015918053321733478 0 -0.015747542923799315 -0.0011255153006716736 0 -0.015147611667202869 -0.0013606193019686168 0 -0.015563589801461278 -0.00068886631591465316 0 -0.015747542923799315 -0.0011255153006716736 0 -0.015147611667202869 -0.0013606193019686168 0 -0.011905129099487568 0.0012571267395549222 0 -0.010699217638414091 0.00066383233638684226 0 -0.008590365861110125 0.0040055535089053226 0 -0.0066539073684501425 0.0046357373614957162 0 -0.0074146298370658678 0.0037701665614620623 0 -0.014956085822017288 -0.00054810847514951148 0 -0.015147611667202869 -0.0013606193019686168 0 -0.01399323726014211 -0.0011088509133365175 0 -0.010720998862706405 -4.8389683164604674e-05 0 -0.0098224934252117684 -2.0591202846944418e-07 0 -0.0089084407970605895 2.3147002283563116e-05 0 -0.012444688229681465 -5.8048066250809042e-07 0 -0.011057752034770605 -8.2122677020578201e-05 0 -0.0098224934252117684 -2.0591202846944418e-07 0 -0.0066539073684501425 0.0046357373614957162 0 -0.0066741880053546535 0.0032190642738442968 0 -0.0074146298370658678 0.0037701665614620623 0 -0.010699217638414091 0.00066383233638684226 0 -0.0076496049134875217 0.0020863860807003314 0 -0.010699217638414091 0.00066383233638684226 0 -0.010913690594218386 0.00047467804364068609 0 -0.010720998862706405 -4.8389683164604674e-05 0 -0.011057752034770605 -8.2122677020578201e-05 0 -0.0098224934252117684 -2.0591202846944418e-07 0 -0.0082723578825086869 3.5343064185472323e-05 0 -0.0098224934252117684 -2.0591202846944418e-07 0 -0.0089084407970605895 2.3147002283563116e-05 0 -0.007200800288873925 1.1742145978106629e-06 0 -0.0082723578825086869 3.5343064185472323e-05 0 -0.0098224934252117684 -2.0591202846944418e-07 0 -0.008590365861110125 0.0040055535089053226 0 -0.0077527684149691616 0.0032248019132963919 0 -0.0074146298370658678 0.0037701665614620623 0 -0.0073776864752999475 0.0024747950281212155 0 -0.0066741880053546535 0.0032190642738442968 0 -0.0077527684149691616 0.0032248019132963919 0 -0.0066741880053546535 0.0032190642738442968 0 -0.0077527684149691616 0.0032248019132963919 0 -0.0074146298370658678 0.0037701665614620623 0 -0.018479074779022841 -0.00049418104847816669 0 -0.014569344379011421 -0.0005037670762386338 0 -0.016216886103500156 0.0014007579906229418 0 -0.026367481914269769 0.0016724262372244511 0 -0.023815334200164736 0.001620233079655316 0 -0.025016943790944095 -0.00010010852723398515 0 -0.022878766737787409 0.00054915283064869069 0 -0.016640724763590773 0.0018043153525845574 0 -0.018479074779022841 -0.00049418104847816669 0 -0.016216886103500156 0.0014007579906229418 0 -0.018372523668809596 0.0017796838089293616 0 -0.012396216855076345 0.0027908337971570803 0 -0.011911862543227065 0.0023157005686569084 0 -0.012695137615696715 0.0023726358815060037 0 -0.016640724763590773 0.0018043153525845574 0 -0.014282976115134191 0.0024881889566293865 0 -0.023815334200164736 0.001620233079655316 0 -0.025016943790944095 -0.00010010852723398515 0 -0.022418665541275033 -3.6794455010877772e-05 0 -0.025016943790944095 -0.00010010852723398515 0 -0.022418665541275033 -3.6794455010877772e-05 0 -0.023490441217646419 -0.0012622758080420783 0 -0.016640724763590773 0.0018043153525845574 0 -0.018042695249846138 0.0017535717629260609 0 -0.025016943790944095 -0.00010010852723398515 0 -0.027483841496617461 0.00035668166200147021 0 -0.026460127635413361 -0.00081329457501327787 0 -0.026367481914269769 0.0016724262372244511 0 -0.025016943790944095 -0.00010010852723398515 0 -0.027483841496617461 0.00035668166200147021 0 -0.027483841496617461 0.00035668166200147021 0 -0.026460127635413361 -0.00081329457501327787 0 -0.028149161038747018 -0.0014566582175779121 0 -0.027483841496617461 0.00035668166200147021 0 -0.029313844502845954 -0.00012062285939174873 0 -0.028967007343964509 0.0016935013518078982 0 -0.026082199528798811 -0.00013255180427219749 0 -0.029814690691857441 -0.00054897640369884872 0 -0.029313844502845954 -0.00012062285939174873 0 -0.028967007343964509 0.0016935013518078982 0 -0.030864595810387828 -0.00036087140419532377 0 -0.029313844502845954 -0.00012062285939174873 0 -0.028149161038747018 -0.0014566582175779121 0 -0.030890548816323315 -0.00060731130129714655 0 -0.027483841496617461 0.00035668166200147021 0 -0.029313844502845954 -0.00012062285939174873 0 -0.028149161038747018 -0.0014566582175779121 0 -0.026082199528798811 -0.00013255180427219749 0 -0.022247217289585199 0.00037223958683999176 0 -0.022878766737787409 0.00054915283064869069 0 -0.026082199528798811 -0.00013255180427219749 0 -0.018479074779022841 -0.00049418104847816669 0 -0.02256543304351951 -0.00046703349524130331 0 -0.020643955074984354 0.0014104551253283498 0 -0.026367481914269769 0.0016724262372244511 0 -0.027483841496617461 0.00035668166200147021 0 -0.028967007343964509 0.0016935013518078982 0 -0.018479074779022841 -0.00049418104847816669 0 -0.020643955074984354 0.0014104551253283498 0 -0.018372523668809596 0.0017796838089293616 0 -0.020643955074984354 0.0014104551253283498 0 -0.018719740884644551 0.0032352868129593396 0 -0.018372523668809596 0.0017796838089293616 0 0.0077532855448829265 -0.0025263852506283296 0 -0.00088876109175456072 -0.003926557290783503 0 0.0036649855522021125 -0.0013910314558707013 0 -0.023361990201821729 0.00058171719309982437 0 -0.021383072962489161 0.0024601060071062514 0 -0.025438727673001465 0.0017803064808750283 0 -0.010446664968937419 0.0010019567241724603 0 -0.01232886179336848 -0.0011096768857392708 0 0.0077532855448829265 -0.0025263852506283296 0 0.0064030932773026196 -0.00074860340823059313 0 0.0095436482372975601 -0.0023276486461816775 0 -0.022247217289585199 0.00037223958683999176 0 -0.010446664968937419 0.0010019567241724603 0 -0.025212620564480329 -0.00097563742993235481 0 -0.025438727673001465 0.0017803064808750283 0 -0.02685227212532899 0.00032988060539696466 0 -0.025212620564480329 -0.00097563742993235481 0 -0.023361990201821729 0.00058171719309982437 0 -0.025438727673001465 0.0017803064808750283 0 -0.00088876109175456072 -0.003926557290783503 0 0.0014636273908553315 -0.00049500805917767157 0 0.0036649855522021125 -0.0013910314558707013 0 -0.00088876109175456072 -0.003926557290783503 0 -0.00094804053245497425 -0.00015315294486899607 0 -0.0048735101992935679 -0.001531551241332259 0 -0.00094804053245497425 -0.00015315294486899607 0 -0.0016899622525863751 0.0030292939140296495 0 -0.0048735101992935679 -0.001531551241332259 0 -0.00088876109175456072 -0.003926557290783503 0 -0.00094804053245497425 -0.00015315294486899607 0 0.0014636273908553315 -0.00049500805917767157 0 -0.00094804053245497425 -0.00015315294486899607 0 0.0014636273908553315 -0.00049500805917767157 0 0.0011795907799004596 0.0020964384163932601 0 0.0014636273908553315 -0.00049500805917767157 0 0.0011795907799004596 0.0020964384163932601 0 0.0035694216932907665 0.00074238816470757849 0 0.0011795907799004596 0.0020964384163932601 0 0.0034793567758909577 0.0052556608073263998 0 -0.00031940853898146425 0.004930657250013664 0 -0.00094804053245497425 -0.00015315294486899607 0 0.0011795907799004596 0.0020964384163932601 0 -0.0016899622525863751 0.0030292939140296495 0 0.0011795907799004596 0.0020964384163932601 0 -0.0016899622525863751 0.0030292939140296495 0 -0.00031940853898146425 0.004930657250013664 0 0.0064030932773026196 -0.00074860340823059313 0 0.0095436482372975601 -0.0023276486461816775 0 0.0034793567758909577 0.0052556608073263998 0 0.0036297267591316918 0.0057384734301708096 0 0.0036203585299868584 0.0054878849571794114 0 0.0034793567758909577 0.0052556608073263998 0 -0.0046512050828985685 0.0021347654020804734 0 0.007168244567726593 0.0039061337927738565 0 0.0064030932773026196 -0.00074860340823059313 0 0.0035694216932907665 0.00074238816470757849 0 0.0034793567758909577 0.0052556608073263998 0 0.0077532855448829265 -0.0025263852506283296 0 0.0064030932773026196 -0.00074860340823059313 0 0.0036649855522021125 -0.0013910314558707013 0 0.0064030932773026196 -0.00074860340823059313 0 0.0036649855522021125 -0.0013910314558707013 0 0.0035694216932907665 0.00074238816470757849 0 0.0014636273908553315 -0.00049500805917767157 0 0.0036649855522021125 -0.0013910314558707013 0 0.0035694216932907665 0.00074238816470757849 0 0.0011795907799004596 0.0020964384163932601 0 0.0035694216932907665 0.00074238816470757849 0 0.0034793567758909577 0.0052556608073263998 0 0.0036168852839837131 0.0055559875798879112 0 0.0036297267591316918 0.0057384734301708096 0 0.0036203585299868584 0.0054878849571794114 0 0.0036168852839837131 0.0055559875798879112 0 0.0034785990511982455 0.0056385036856731515 0 0.003593567070150518 0.0055496893845856923 0 0.0036168852839837131 0.0055559875798879112 0 0.0036297267591316918 0.0057384734301708096 0 0.0034785990511982455 0.0056385036856731515 0 -0.010446664968937419 0.0010019567241724603 0 -0.0046512050828985685 0.0021347654020804734 0 -0.018719740884644551 0.0032352868129593396 0 -0.017853240099197233 0.0033398558379108619 0 -0.018372523668809596 0.0017796838089293616 0 -0.0046512050828985685 0.0021347654020804734 0 -0.014282976115134191 0.0024881889566293865 0 -0.017853240099197233 0.0033398558379108619 0 -0.016216886103500156 0.0014007579906229418 0 -0.018372523668809596 0.0017796838089293616 0 -0.011406318411964215 0.0018054011620224882 0 -0.011911862543227065 0.0023157005686569084 0 -0.01260038644973973 0.0017093418636032424 0 -0.011911862543227065 0.0023157005686569084 0 -0.012695137615696715 0.0023726358815060037 0 -0.01260038644973973 0.0017093418636032424 0 0.0031825824157680903 0.0058664973933191108 0 0.0034785990511982455 0.0056385036856731515 0 0.0031052538953160653 0.0055156947739078031 0 -0.0046512050828985685 0.0021347654020804734 0 -0.0045898341284479885 0.0039824616806775617 0 0.0036297267591316918 0.0057384734301708096 0 0.0031825824157680903 0.0058664973933191108 0 0.0034785990511982455 0.0056385036856731515 0 -0.0045898341284479885 0.0039824616806775617 0 -0.0052334042078511743 0.0037997436932897537 0 0.0031825824157680903 0.0058664973933191108 0 0.0025550437958103255 0.0059226293719287408 0 0.0031052538953160653 0.0055156947739078031 0 -0.013769162569493539 0.0021939432651235922 0 -0.013369985330084291 0.0023511563686165662 0 -0.01393960836917371 0.0025044737848242981 0 -0.013560961692506635 0.0016803083234354171 0 -0.013769162569493539 0.0021939432651235922 0 -0.013369985330084291 0.0023511563686165662 0 -0.013560961692506635 0.0016803083234354171 0 -0.013769162569493539 0.0021939432651235922 0 -0.013995894110706508 0.0019745526999673207 0 -0.01260038644973973 0.0017093418636032424 0 -0.013560961692506635 0.0016803083234354171 0 -0.013369985330084291 0.0023511563686165662 0 -0.012695137615696715 0.0023726358815060037 0 -0.01260038644973973 0.0017093418636032424 0 -0.013369985330084291 0.0023511563686165662 0 -0.0066660317369524134 0.0041638941763261174 0 -0.0074078394684339958 0.004059991102263477 0 -0.0070262243253807677 0.0044365812087971759 0 -0.01219977961088625 0.0033656366770892102 0 -0.0077029930494307147 0.0037076351653970185 0 -0.015086447063109581 0.0015697772880209958 0 -0.014641221920258017 0.0018785975586401154 0 -0.014377708269283458 0.0016434925271868138 0 -0.0077029930494307147 0.0037076351653970185 0 -0.0022221157963948131 0.0056642414192224306 0 -0.014377708269283458 0.0016434925271868138 0 -0.01441888595723104 0.001866606073400565 0 -0.014260228823083223 0.0017472707452026231 0 -0.01441888595723104 0.001866606073400565 0 -0.014260228823083223 0.0017472707452026231 0 -0.014289598895043802 0.0020136154217915781 0 -0.0077029930494307147 0.0037076351653970185 0 -0.010932737213988922 0.0015604348446611551 0 -0.014641221920258017 0.0018785975586401154 0 -0.014377708269283458 0.0016434925271868138 0 -0.01441888595723104 0.001866606073400565 0 -0.013560961692506635 0.0016803083234354171 0 -0.014363654411536319 0.0016517687814076977 0 -0.014260228823083223 0.0017472707452026231 0 0.0025550437958103255 0.0059226293719287408 0 0.0017981725550023013 0.0059018526550248711 0 0.0024966126068720878 0.0054894518309754458 0 -0.013560961692506635 0.0016803083234354171 0 -0.014260228823083223 0.0017472707452026231 0 -0.013995894110706508 0.0019745526999673207 0 -0.0052334042078511743 0.0037997436932897537 0 -0.0077029930494307147 0.0037076351653970185 0 -0.013769162569493539 0.0021939432651235922 0 -0.014097587765729726 0.0022170472208567797 0 -0.01393960836917371 0.0025044737848242981 0 -0.013769162569493539 0.0021939432651235922 0 -0.013995894110706508 0.0019745526999673207 0 -0.014097587765729726 0.0022170472208567797 0 -0.014097587765729726 0.0022170472208567797 0 -0.014289598895043802 0.0020136154217915781 0 -0.014365354123823598 0.0022592974924375967 0 -0.014097587765729726 0.0022170472208567797 0 -0.014365354123823598 0.0022592974924375967 0 -0.014172273985666164 0.0024361656810119019 0 -0.013995894110706508 0.0019745526999673207 0 -0.014097587765729726 0.0022170472208567797 0 -0.014289598895043802 0.0020136154217915781 0 -0.014260228823083223 0.0017472707452026231 0 -0.013995894110706508 0.0019745526999673207 0 -0.014289598895043802 0.0020136154217915781 0 -0.014289598895043802 0.0020136154217915781 0 -0.014531187943883741 0.0020670321001906113 0 -0.014365354123823598 0.0022592974924375967 0 -0.01441888595723104 0.001866606073400565 0 -0.014289598895043802 0.0020136154217915781 0 -0.014531187943883741 0.0020670321001906113 0 -0.014641221920258017 0.0018785975586401154 0 -0.01441888595723104 0.001866606073400565 0 -0.014531187943883741 0.0020670321001906113 0 -0.014365354123823598 0.0022592974924375967 0 -0.014625711692619867 0.0022778806041608801 0 -0.014514543435033838 0.002494361702181566 0 -0.014531187943883741 0.0020670321001906113 0 -0.014365354123823598 0.0022592974924375967 0 -0.014625711692619867 0.0022778806041608801 0 -0.014840106328924832 0.0021072303869547541 0 -0.014890476204553886 0.00238604997872938 0 -0.014625711692619867 0.0022778806041608801 0 -0.014840106328924832 0.0021072303869547541 0 -0.014531187943883741 0.0020670321001906113 0 -0.014625711692619867 0.0022778806041608801 0 -0.014890476204553886 0.00238604997872938 0 -0.014625711692619867 0.0022778806041608801 0 -0.01469855089439186 0.0024573642213234046 0 -0.014840106328924832 0.0021072303869547541 0 -0.014641221920258017 0.0018785975586401154 0 -0.014531187943883741 0.0020670321001906113 0 -0.014763163107148432 0.0026714363274389168 0 -0.014527216724821952 0.0027609989568521884 0 -0.014717734943856779 0.0028675118257548591 0 -0.014763163107148432 0.0026714363274389168 0 -0.014514543435033838 0.002494361702181566 0 -0.014527216724821952 0.0027609989568521884 0 -0.014937215181090736 0.0028028460839128445 0 -0.014763163107148432 0.0026714363274389168 0 -0.014717734943856779 0.0028675118257548591 0 -0.014890476204553886 0.00238604997872938 0 -0.014763163107148432 0.0026714363274389168 0 -0.01469855089439186 0.0024573642213234046 0 -0.014625711692619867 0.0022778806041608801 0 -0.01469855089439186 0.0024573642213234046 0 -0.014514543435033838 0.002494361702181566 0 -0.014763163107148432 0.0026714363274389168 0 -0.01469855089439186 0.0024573642213234046 0 -0.014514543435033838 0.002494361702181566 0 -0.014365354123823598 0.0022592974924375967 0 -0.014514543435033838 0.002494361702181566 0 -0.014172273985666164 0.0024361656810119019 0 -0.014527216724821952 0.0027609989568521884 0 -0.014286065595388102 0.0026569950151296724 0 -0.014318638008877159 0.0029072195235836651 0 -0.014514543435033838 0.002494361702181566 0 -0.014527216724821952 0.0027609989568521884 0 -0.014286065595388102 0.0026569950151296724 0 -0.014286065595388102 0.0026569950151296724 0 -0.014036970105595643 0.0027691510709001691 0 -0.014318638008877159 0.0029072195235836651 0 -0.014286065595388102 0.0026569950151296724 0 -0.014172273985666164 0.0024361656810119019 0 -0.01393960836917371 0.0025044737848242981 0 -0.014514543435033838 0.002494361702181566 0 -0.014286065595388102 0.0026569950151296724 0 -0.014172273985666164 0.0024361656810119019 0 -0.014097587765729726 0.0022170472208567797 0 -0.014172273985666164 0.0024361656810119019 0 -0.01393960836917371 0.0025044737848242981 0 -0.01393960836917371 0.0025044737848242981 0 -0.014036970105595643 0.0027691510709001691 0 -0.013708499812446378 0.0027755344421729802 0 -0.014286065595388102 0.0026569950151296724 0 -0.01393960836917371 0.0025044737848242981 0 -0.014036970105595643 0.0027691510709001691 0 -0.014036970105595643 0.0027691510709001691 0 -0.014103069612485811 0.0030289088115358297 0 -0.013817197680868995 0.0030432256894932547 0 -0.014103069612485811 0.0030289088115358297 0 -0.013817197680868995 0.0030432256894932547 0 -0.014110302397985814 0.0032975523092272064 0 -0.014103069612485811 0.0030289088115358297 0 -0.01435684613500126 0.0031615902480288472 0 -0.014110302397985814 0.0032975523092272064 0 -0.014036970105595643 0.0027691510709001691 0 -0.014103069612485811 0.0030289088115358297 0 -0.014318638008877159 0.0029072195235836651 0 -0.014103069612485811 0.0030289088115358297 0 -0.01435684613500126 0.0031615902480288472 0 -0.014318638008877159 0.0029072195235836651 0 -0.014527216724821952 0.0027609989568521884 0 -0.014318638008877159 0.0029072195235836651 0 -0.014561529761297381 0.0030148690574253643 0 -0.014527216724821952 0.0027609989568521884 0 -0.014561529761297381 0.0030148690574253643 0 -0.014717734943856779 0.0028675118257548591 0 -0.01435684613500126 0.0031615902480288472 0 -0.014318638008877159 0.0029072195235836651 0 -0.014561529761297381 0.0030148690574253643 0 -0.01435684613500126 0.0031615902480288472 0 -0.014561529761297381 0.0030148690574253643 0 -0.014622239566695295 0.0032668934127719853 0 -0.01435684613500126 0.0031615902480288472 0 -0.014622239566695295 0.0032668934127719853 0 -0.014417252188136801 0.003422800431945179 0 -0.014884084463158462 0.0030332225258617013 0 -0.014561529761297381 0.0030148690574253643 0 -0.014622239566695295 0.0032668934127719853 0 -0.014884084463158462 0.0030332225258617013 0 -0.014622239566695295 0.0032668934127719853 0 -0.014869546134136529 0.0033745321448559141 0 -0.014937215181090736 0.0028028460839128445 0 -0.014884084463158462 0.0030332225258617013 0 -0.014717734943856779 0.0028675118257548591 0 -0.014884084463158462 0.0030332225258617013 0 -0.014561529761297381 0.0030148690574253643 0 -0.014717734943856779 0.0028675118257548591 0 -0.012695137615696715 0.0023726358815060037 0 -0.013369985330084291 0.0023511563686165662 0 -0.013086190396528157 0.0027209766657773716 0 -0.013086190396528157 0.0027209766657773716 0 -0.013393067797173247 0.0027673448949490026 0 -0.013110701591945224 0.0030992696615534283 0 -0.016640724763590773 0.0018043153525845574 0 -0.011875081344100504 0.0026065518983368233 0 -0.012795596097335708 0.0027134442720849502 0 -0.013086190396528157 0.0027209766657773716 0 -0.013110701591945224 0.0030992696615534283 0 -0.012396216855076345 0.0027908337971570803 0 -0.012695137615696715 0.0023726358815060037 0 -0.013086190396528157 0.0027209766657773716 0 -0.013369985330084291 0.0023511563686165662 0 -0.013086190396528157 0.0027209766657773716 0 -0.013393067797173247 0.0027673448949490026 0 -0.013369985330084291 0.0023511563686165662 0 -0.01393960836917371 0.0025044737848242981 0 -0.013708499812446378 0.0027755344421729802 0 -0.013708499812446378 0.0027755344421729802 0 -0.013393067797173247 0.0027673448949490026 0 -0.013467528971396407 0.0030190759410609709 0 -0.013369985330084291 0.0023511563686165662 0 -0.013708499812446378 0.0027755344421729802 0 -0.013393067797173247 0.0027673448949490026 0 -0.013467528971396407 0.0030190759410609709 0 -0.013110701591945224 0.0030992696615534283 0 -0.013712139853846408 0.0033068629785183981 0 -0.014036970105595643 0.0027691510709001691 0 -0.013708499812446378 0.0027755344421729802 0 -0.013817197680868995 0.0030432256894932547 0 -0.013708499812446378 0.0027755344421729802 0 -0.013467528971396407 0.0030190759410609709 0 -0.013817197680868995 0.0030432256894932547 0 -0.013817197680868995 0.0030432256894932547 0 -0.013712139853846408 0.0033068629785183981 0 -0.014110302397985814 0.0032975523092272064 0 -0.013467528971396407 0.0030190759410609709 0 -0.013817197680868995 0.0030432256894932547 0 -0.013712139853846408 0.0033068629785183981 0 -0.013393067797173247 0.0027673448949490026 0 -0.013467528971396407 0.0030190759410609709 0 -0.013110701591945224 0.0030992696615534283 0 -0.022418665541275033 -3.6794455010877772e-05 0 -0.022347240909452396 -0.0013800919092992895 0 -0.023490441217646419 -0.0012622758080420783 0 -0.022347240909452396 -0.0013800919092992895 0 -0.022401149786283447 -0.0025841695186510929 0 -0.023490441217646419 -0.0012622758080420783 0 -0.022347240909452396 -0.0013800919092992895 0 -0.021096418121315422 -0.0016220731862981804 0 -0.022401149786283447 -0.0025841695186510929 0 -0.022418665541275033 -3.6794455010877772e-05 0 -0.022347240909452396 -0.0013800919092992895 0 -0.021096418121315422 -0.0016220731862981804 0 -0.018042695249846138 0.0017535717629260609 0 -0.016962258427658406 0.00069612828235823951 0 -0.013110701591945224 0.0030992696615534283 0 -0.013712139853846408 0.0033068629785183981 0 -0.01360073624356165 0.0035638979795374762 0 -0.013712139853846408 0.0033068629785183981 0 -0.01360073624356165 0.0035638979795374762 0 -0.014126132470897444 0.0040276629871188385 0 -0.012978616406081398 0.0039162552815834506 0 -0.017610321030216803 0.0018883267346822749 0 -0.027875012623452742 -0.0014942038619436809 0 -0.025567590349989937 -0.0013550775299294166 0 -0.025400564043269021 -0.0017153691076269742 0 -0.013712139853846408 0.0033068629785183981 0 -0.014126132470897444 0.0040276629871188385 0 -0.014191508852930143 0.0040386578356709111 0 -0.030770559947108617 -0.001388436887287422 0 -0.02559853806570063 0.0010834151549698166 0 -0.025842166384771628 -0.00189066517457269 0 -0.019863864626769322 0.00069384411660073188 0 -0.021096418121315422 -0.0016220731862981804 0 -0.022401149786283447 -0.0025841695186510929 0 -0.01978064654604909 -0.0030940593914427078 0 -0.027875012623452742 -0.0014942038619436809 0 -0.028109390638246034 -0.00061604153837136323 0 -0.025863926126369771 -0.0010225549383155886 0 -0.027875012623452742 -0.0014942038619436809 0 -0.025863926126369771 -0.0010225549383155886 0 -0.025567590349989937 -0.0013550775299294166 0 -0.016962258427658406 0.00069612828235823951 0 -0.019863864626769322 0.00069384411660073188 0 -0.014923512540667159 0.0038144803472875606 0 -0.014869546134136529 0.0033745321448559141 0 -0.014645604767734806 0.0035799057132801094 0 -0.014622239566695295 0.0032668934127719853 0 -0.014869546134136529 0.0033745321448559141 0 -0.014645604767734806 0.0035799057132801094 0 -0.014622239566695295 0.0032668934127719853 0 -0.014645604767734806 0.0035799057132801094 0 -0.014417252188136801 0.003422800431945179 0 -0.014645604767734806 0.0035799057132801094 0 -0.014397715020203518 0.0037271282537273158 0 -0.014644327615850066 0.0037797479456775879 0 -0.014645604767734806 0.0035799057132801094 0 -0.014417252188136801 0.003422800431945179 0 -0.014397715020203518 0.0037271282537273158 0 -0.013712139853846408 0.0033068629785183981 0 -0.014118236374475249 0.0035696770133875691 0 -0.014169615899825218 0.0039577701359106458 0 -0.014417252188136801 0.003422800431945179 0 -0.014260888497740125 0.0035047685287361904 0 -0.014397715020203518 0.0037271282537273158 0 -0.014260888497740125 0.0035047685287361904 0 -0.014118236374475249 0.0035696770133875691 0 -0.014397715020203518 0.0037271282537273158 0 -0.01435684613500126 0.0031615902480288472 0 -0.014417252188136801 0.003422800431945179 0 -0.014110302397985814 0.0032975523092272064 0 -0.014417252188136801 0.003422800431945179 0 -0.014260888497740125 0.0035047685287361904 0 -0.014110302397985814 0.0032975523092272064 0 -0.014260888497740125 0.0035047685287361904 0 -0.014110302397985814 0.0032975523092272064 0 -0.014118236374475249 0.0035696770133875691 0 -0.013712139853846408 0.0033068629785183981 0 -0.014110302397985814 0.0032975523092272064 0 -0.014118236374475249 0.0035696770133875691 0 -0.014118236374475249 0.0035696770133875691 0 -0.014169615899825218 0.0039577701359106458 0 -0.014397715020203518 0.0037271282537273158 0 -0.019352717198611785 -0.00021009715963545946 0 -0.020055779603261173 -4.6969342206422186e-05 0 -0.020683132929899768 0.0013269442648794197 0 -0.019863864626769322 0.00069384411660073188 0 -0.020928808604389622 0.0011913447815316794 0 -0.019863864626769322 0.00069384411660073188 0 -0.017610321030216803 0.0018883267346822749 0 -0.021470866198777257 0.0007861718910442036 0 -0.023563934653907374 0.0032062855548609 0 -0.022524867880340419 0.0030968920509184409 0 -0.020928808604389622 0.0011913447815316794 0 -0.021947246178671078 0.0015580444077882211 0 -0.020928808604389622 0.0011913447815316794 0 -0.02559853806570063 0.0010834151549698166 0 -0.014486002652883986 0.0039724419418105186 0 -0.014499492915645763 0.0040048052946943975 0 -0.014527634983923787 0.0040186053968926817 0 -0.017610321030216803 0.0018883267346822749 0 -0.020928808604389622 0.0011913447815316794 0 -0.017610321030216803 0.0018883267346822749 0 -0.014149517747564108 0.0031955057265592368 0 -0.014486002652883986 0.0039724419418105186 0 -0.014527634983923787 0.0040186053968926817 0 -0.014590650236954087 0.0039820875484337416 0 -0.014499492915645763 0.0040048052946943975 0 -0.014527634983923787 0.0040186053968926817 0 -0.014528257143348478 0.0040645814341906507 0 -0.014527634983923787 0.0040186053968926817 0 -0.014541652022483769 0.0040836365907843787 0 -0.014528257143348478 0.0040645814341906507 0 -0.014527634983923787 0.0040186053968926817 0 -0.014590650236954087 0.0039820875484337416 0 -0.014541652022483769 0.0040836365907843787 0 -0.014169615899825218 0.0039577701359106458 0 -0.014590650236954087 0.0039820875484337416 0 -0.014397715020203518 0.0037271282537273158 0 -0.014923512540667159 0.0038144803472875606 0 -0.014590650236954087 0.0039820875484337416 0 -0.014644327615850066 0.0037797479456775879 0 -0.014923512540667159 0.0038144803472875606 0 -0.014590650236954087 0.0039820875484337416 0 -0.014529128150161314 0.0041189535007442437 0 -0.023649723742529945 0.0032447925098317018 0 -0.02258798115844754 0.0019620052298361494 0 -0.014590650236954087 0.0039820875484337416 0 -0.014397715020203518 0.0037271282537273158 0 -0.014644327615850066 0.0037797479456775879 0 -0.014923512540667159 0.0038144803472875606 0 -0.014645604767734806 0.0035799057132801094 0 -0.014644327615850066 0.0037797479456775879 0 -0.032944662462339382 0.0020591203275052818 0 -0.032636967593183006 0.001148716380523245 0 -0.033403090587884952 0.0010657643295817979 0 -0.023649723742529945 0.0032447925098317018 0 -0.03067265287769802 0.00082171815147208795 0 -0.024892773320218074 0.0032172351018526319 0 -0.025823484382467739 0.0011550837950649673 0 -0.026532649396050326 0.0019957118559879214 0 -0.032651111293531779 -0.00050296156530107885 0 -0.032643359713700644 -0.00058481597274021165 0 -0.032702299479589719 -0.00047320583200837559 0 -0.028896688908283629 0.0005780753438636724 0 -0.027380457703983833 -0.00061322704672199752 0 -0.028448845466754913 0.001621872840138844 0 -0.026967171261818985 9.5728162555943684e-05 0 -0.031591532549956988 -4.432433041171019e-05 0 -0.03067265287769802 0.00082171815147208795 0 -0.02258798115844754 0.0019620052298361494 0 -0.028896688908283629 0.0005780753438636724 0 -0.027651710423002566 -0.0008160779267375153 0 -0.027380457703983833 -0.00061322704672199752 0 -0.014590650236954087 0.0039820875484337416 0 -0.014541652022483769 0.0040836365907843787 0 -0.014529128150161314 0.0041189535007442437 0 -0.021947246178671078 0.0015580444077882211 0 -0.02559853806570063 0.0010834151549698166 0 -0.014541652022483769 0.0040836365907843787 0 -0.014523523816934086 0.0040802040355951887 0 -0.014529128150161314 0.0041189535007442437 0 -0.020241246328415795 0.0016035513813467315 0 -0.021947246178671078 0.0015580444077882211 0 -0.021947246178671078 0.0015580444077882211 0 -0.02258798115844754 0.0019620052298361494 0 -0.025284901998291569 -0.00035642649439919109 0 -0.025134785319691006 0.0032803265795916777 0 -0.023378575593357993 -0.00055543207499321738 0 -0.025284901998291569 -0.00035642649439919109 0 -0.027141183304137301 0.0017838600443847231 0 -0.025134785319691006 0.0032803265795916777 0 -0.026967171261818985 9.5728162555943684e-05 0 -0.02559853806570063 0.0010834151549698166 0 -0.02258798115844754 0.0019620052298361494 0 -0.026967171261818985 9.5728162555943684e-05 0 -0.032662662786339766 -0.00061416175271713331 0 -0.03262471568311006 -0.00057528260682634458 0 -0.032635269733044037 -0.0006803288362161675 0 -0.03262471568311006 -0.00057528260682634458 0 -0.032635269733044037 -0.0006803288362161675 0 -0.032535252530233642 -0.00055712955365943846 0 -0.026967171261818985 9.5728162555943684e-05 0 -0.028899681293194913 -0.00086078945684091572 0 -0.032651111293531779 -0.00050296156530107885 0 -0.032605084164008431 -0.00052178876828885498 0 -0.032595051689009023 -0.00046411314985693431 0 -0.032651111293531779 -0.00050296156530107885 0 -0.032643359713700644 -0.00058481597274021165 0 -0.03262471568311006 -0.00057528260682634458 0 -0.032651111293531779 -0.00050296156530107885 0 -0.03262471568311006 -0.00057528260682634458 0 -0.032605084164008431 -0.00052178876828885498 0 -0.03262471568311006 -0.00057528260682634458 0 -0.032605084164008431 -0.00052178876828885498 0 -0.032535252530233642 -0.00055712955365943846 0 -0.032605084164008431 -0.00052178876828885498 0 -0.032535252530233642 -0.00055712955365943846 0 -0.032595051689009023 -0.00046411314985693431 0 -0.032714500042852986 -0.00048050842692445297 0 -0.032681983703141494 -0.00047411192961180966 0 -0.032595051689009023 -0.00046411314985693431 0 -0.032651111293531779 -0.00050296156530107885 0 -0.032681983703141494 -0.00047411192961180966 0 -0.032595051689009023 -0.00046411314985693431 0 -0.032756863698280084 -0.00047512119806020626 0 -0.032681983703141494 -0.00047411192961180966 0 -0.032702299479589719 -0.00047320583200837559 0 -0.03274254878694241 -0.00075845106715635583 0 -0.031591532549956988 -4.432433041171019e-05 0 -0.032651111293531779 -0.00050296156530107885 0 -0.032681983703141494 -0.00047411192961180966 0 -0.032702299479589719 -0.00047320583200837559 0 -0.032916290508268449 -0.00041250869727668356 0 -0.032975908028893004 -0.00023130452584168716 0 -0.032920889313702573 -0.00027892100077950234 0 -0.033052369346413639 -0.00039706328035197933 0 -0.031591532549956988 -4.432433041171019e-05 0 -0.032867545236881977 -0.00029481900585298827 0 -0.032938277246060639 -0.00018757789335473993 0 -0.032920889313702573 -0.00027892100077950234 0 -0.033206183892264401 0.0001115226985239027 0 -0.03067265287769802 0.00082171815147208795 0 -0.032938277246060639 -0.00018757789335473993 0 -0.032975908028893004 -0.00023130452584168716 0 -0.032920889313702573 -0.00027892100077950234 0 -0.03067265287769802 0.00082171815147208795 0 -0.031591532549956988 -4.432433041171019e-05 0 -0.032208617565253735 -0.00055925051325219776 0 -0.032051291555018693 -0.0005417279587441085 0 -0.032132138712260762 -0.00042185726189221937 0 -0.032208617565253735 -0.00055925051325219776 0 -0.032342609048945613 -0.00046627244950786582 0 -0.032132138712260762 -0.00042185726189221937 0 -0.032051291555018693 -0.0005417279587441085 0 -0.032132138712260762 -0.00042185726189221937 0 -0.031889223412081488 -0.00036582425079630679 0 -0.032143124826086895 -0.0007218307980351085 0 -0.032051291555018693 -0.0005417279587441085 0 -0.03189426627451155 -0.0005738766966554077 0 -0.032143124826086895 -0.0007218307980351085 0 -0.032208617565253735 -0.00055925051325219776 0 -0.032051291555018693 -0.0005417279587441085 0 -0.032143124826086895 -0.0007218307980351085 0 -0.032208617565253735 -0.00055925051325219776 0 -0.032376573065757391 -0.00060951771174157948 0 -0.032143124826086895 -0.0007218307980351085 0 -0.032635269733044037 -0.0006803288362161675 0 -0.032376573065757391 -0.00060951771174157948 0 -0.032635269733044037 -0.0006803288362161675 0 -0.032376573065757391 -0.00060951771174157948 0 -0.032535252530233642 -0.00055712955365943846 0 -0.032535252530233642 -0.00055712955365943846 0 -0.032342609048945613 -0.00046627244950786582 0 -0.032595051689009023 -0.00046411314985693431 0 -0.032376573065757391 -0.00060951771174157948 0 -0.032535252530233642 -0.00055712955365943846 0 -0.032342609048945613 -0.00046627244950786582 0 -0.032208617565253735 -0.00055925051325219776 0 -0.032376573065757391 -0.00060951771174157948 0 -0.032342609048945613 -0.00046627244950786582 0 -0.032695285891205954 -0.00050172580091104794 0 -0.032714500042852986 -0.00048050842692445297 0 -0.032595051689009023 -0.00046411314985693431 0 -0.032424332737394465 -0.00030655371691953024 0 -0.032589951228727203 -0.000459455972789231 0 -0.032152736443393906 -9.3959174506038823e-05 0 -0.032342609048945613 -0.00046627244950786582 0 -0.032595051689009023 -0.00046411314985693431 0 -0.032152736443393906 -9.3959174506038823e-05 0 -0.032132138712260762 -0.00042185726189221937 0 -0.031889223412081488 -0.00036582425079630679 0 -0.032152736443393906 -9.3959174506038823e-05 0 -0.032342609048945613 -0.00046627244950786582 0 -0.032132138712260762 -0.00042185726189221937 0 -0.031712529920608884 -0.00012334267401841904 0 -0.032152736443393906 -9.3959174506038823e-05 0 -0.031889223412081488 -0.00036582425079630679 0 -0.031712529920608884 -0.00012334267401841904 0 -0.031889223412081488 -0.00036582425079630679 0 -0.03167808837510365 -0.00039074782751143643 0 -0.031712529920608884 -0.00012334267401841904 0 -0.03167808837510365 -0.00039074782751143643 0 -0.031471229836694779 -0.00019152309445585999 0 -0.03167808837510365 -0.00039074782751143643 0 -0.031695137813616485 -0.00069420867811027201 0 -0.031439140401175146 -0.00046614430512136355 0 -0.03167808837510365 -0.00039074782751143643 0 -0.031439140401175146 -0.00046614430512136355 0 -0.031471229836694779 -0.00019152309445585999 0 -0.03167808837510365 -0.00039074782751143643 0 -0.03189426627451155 -0.0005738766966554077 0 -0.031695137813616485 -0.00069420867811027201 0 -0.032051291555018693 -0.0005417279587441085 0 -0.031889223412081488 -0.00036582425079630679 0 -0.03189426627451155 -0.0005738766966554077 0 -0.031889223412081488 -0.00036582425079630679 0 -0.03167808837510365 -0.00039074782751143643 0 -0.03189426627451155 -0.0005738766966554077 0 -0.030770559947108617 -0.001388436887287422 0 -0.030647400129821169 -0.00089693692295216899 0 -0.032143124826086895 -0.0007218307980351085 0 -0.03189426627451155 -0.0005738766966554077 0 -0.031695137813616485 -0.00069420867811027201 0 -0.028109390638246034 -0.00061604153837136323 0 -0.029990814076338791 -0.001188590700907489 0 -0.030007302799457236 -0.00033429636331563657 0 -0.027875012623452742 -0.0014942038619436809 0 -0.028109390638246034 -0.00061604153837136323 0 -0.029990814076338791 -0.001188590700907489 0 -0.029990814076338791 -0.001188590700907489 0 -0.030007302799457236 -0.00033429636331563657 0 -0.030624284558158126 -0.00062626432133604313 0 -0.025016943790944095 -0.00010010852723398515 0 -0.026460127635413361 -0.00081329457501327787 0 -0.025199877794811643 -0.002060751396050259 0 -0.022401149786283447 -0.0025841695186510929 0 -0.025199877794811643 -0.002060751396050259 0 -0.023490441217646419 -0.0012622758080420783 0 -0.025016943790944095 -0.00010010852723398515 0 -0.025199877794811643 -0.002060751396050259 0 -0.023490441217646419 -0.0012622758080420783 0 -0.025842166384771628 -0.00189066517457269 0 -0.027467564001773106 -0.001186949103776378 0 -0.029611731093899616 -0.00093828635506195259 0 -0.030805486692327529 -0.00064178768068057007 0 -0.031021741355207317 -0.00061298322955179413 0 -0.031062860817372865 -0.00046411723114901985 0 -0.031106668295924331 -0.00063349118303909204 0 -0.031021741355207317 -0.00061298322955179413 0 -0.031062860817372865 -0.00046411723114901985 0 -0.030890548816323315 -0.00060731130129714655 0 -0.027467564001773106 -0.001186949103776378 0 -0.029611731093899616 -0.00093828635506195259 0 -0.031062860817372865 -0.00046411723114901985 0 -0.030624284558158126 -0.00062626432133604313 0 -0.031170350317516877 -0.00070413692964230233 0 -0.026460127635413361 -0.00081329457501327787 0 -0.025199877794811643 -0.002060751396050259 0 -0.028149161038747018 -0.0014566582175779121 0 -0.030007302799457236 -0.00033429636331563657 0 -0.031062860817372865 -0.00046411723114901985 0 -0.030624284558158126 -0.00062626432133604313 0 -0.029990814076338791 -0.001188590700907489 0 -0.030624284558158126 -0.00062626432133604313 0 -0.031170350317516877 -0.00070413692964230233 0 -0.031695137813616485 -0.00069420867811027201 0 -0.031170350317516877 -0.00070413692964230233 0 -0.031439140401175146 -0.00046614430512136355 0 -0.030647400129821169 -0.00089693692295216899 0 -0.031223109598752807 -0.00074722023481535416 0 -0.031170350317516877 -0.00070413692964230233 0 -0.031106668295924331 -0.00063349118303909204 0 -0.031141131674125268 -0.00055306858278923797 0 -0.031062860817372865 -0.00046411723114901985 0 -0.031170350317516877 -0.00070413692964230233 0 -0.031106668295924331 -0.00063349118303909204 0 -0.031106668295924331 -0.00063349118303909204 0 -0.031141131674125268 -0.00055306858278923797 0 -0.031036245439229209 -0.00063288794070210199 0 -0.031170350317516877 -0.00070413692964230233 0 -0.031141131674125268 -0.00055306858278923797 0 -0.031246127130319983 -0.0003721124592149585 0 -0.031246127130319983 -0.0003721124592149585 0 -0.031439140401175146 -0.00046614430512136355 0 -0.031471229836694779 -0.00019152309445585999 0 -0.031170350317516877 -0.00070413692964230233 0 -0.031246127130319983 -0.0003721124592149585 0 -0.031439140401175146 -0.00046614430512136355 0 -0.031246127130319983 -0.0003721124592149585 0 -0.031471229836694779 -0.00019152309445585999 0 -0.031317319572866188 -0.00010111272303283145 0 -0.031246127130319983 -0.0003721124592149585 0 -0.031317319572866188 -0.00010111272303283145 0 -0.031159533650841207 -7.3744860717758965e-05 0 -0.031246127130319983 -0.0003721124592149585 0 -0.031159533650841207 -7.3744860717758965e-05 0 -0.031063557242860893 -0.00036218381824847801 0 -0.031141131674125268 -0.00055306858278923797 0 -0.031246127130319983 -0.0003721124592149585 0 -0.031063557242860893 -0.00036218381824847801 0 -0.031063557242860893 -0.00036218381824847801 0 -0.030825672776481142 -0.0001655062570270956 0 -0.03088645438294297 -0.00058921642114263286 0 -0.031159533650841207 -7.3744860717758965e-05 0 -0.031063557242860893 -0.00036218381824847801 0 -0.030825672776481142 -0.0001655062570270956 0 -0.031252837131298436 0.00024754389228747923 0 -0.031159533650841207 -7.3744860717758965e-05 0 -0.030825672776481142 -0.0001655062570270956 0 -0.030635835879092705 1.6562719627756854e-05 0 -0.030825672776481142 -0.0001655062570270956 0 -0.030390995650828243 -0.00027493748320669878 0 -0.030635835879092705 1.6562719627756854e-05 0 -0.030390995650828243 -0.00027493748320669878 0 -0.029986768824148382 -0.00033585940227482108 0 -0.030115945536639255 -0.00063551671288915204 0 -0.029986768824148382 -0.00033585940227482108 0 -0.029574285282825581 -0.00057375555046303595 0 -0.030390995650828243 -0.00027493748320669878 0 -0.030115945536639255 -0.00063551671288915204 0 -0.029986768824148382 -0.00033585940227482108 0 -0.030825672776481142 -0.0001655062570270956 0 -0.030390995650828243 -0.00027493748320669878 0 -0.030115945536639255 -0.00063551671288915204 0 -0.030825672776481142 -0.0001655062570270956 0 -0.030115945536639255 -0.00063551671288915204 0 -0.03088645438294297 -0.00058921642114263286 0 -0.03005900996462724 -0.000651380460435127 0 -0.029934371477558851 -0.00083297237106823535 0 -0.030115945536639255 -0.00063551671288915204 0 -0.029534359571308497 -0.00077880279501531258 0 -0.029181536166274363 -0.00096674653123646865 0 -0.030115945536639255 -0.00063551671288915204 0 -0.029557690201954999 -0.00066975195918494751 0 -0.029534359571308497 -0.00077880279501531258 0 -0.030115945536639255 -0.00063551671288915204 0 -0.029557690201954999 -0.00066975195918494751 0 -0.029574285282825581 -0.00057375555046303595 0 -0.029557690201954999 -0.00066975195918494751 0 -0.029462640870573473 -0.00069189509508509875 0 -0.029534359571308497 -0.00077880279501531258 0 -0.029557690201954999 -0.00066975195918494751 0 -0.029462640870573473 -0.00069189509508509875 0 -0.029246463370035194 -0.00062541687657804068 0 -0.029462640870573473 -0.00069189509508509875 0 -0.029534359571308497 -0.00077880279501531258 0 -0.029352828918872916 -0.00071536897455714687 0 -0.029534359571308497 -0.00077880279501531258 0 -0.029090225291131179 -0.00077097390691475618 0 -0.029352828918872916 -0.00071536897455714687 0 -0.029534359571308497 -0.00077880279501531258 0 -0.029181536166274363 -0.00096674653123646865 0 -0.029090225291131179 -0.00077097390691475618 0 -0.029181536166274363 -0.00096674653123646865 0 -0.028652990311166953 -0.00077351911120928252 0 -0.029090225291131179 -0.00077097390691475618 0 -0.029181536166274363 -0.00096674653123646865 0 -0.028206212281839178 -0.00082640548886387841 0 -0.028652990311166953 -0.00077351911120928252 0 -0.029934371477558851 -0.00083297237106823535 0 -0.029814690691857441 -0.00054897640369884872 0 -0.030873286989595052 -0.00087500527924978388 0 -0.030956742417974005 -0.0006697243545762012 0 -0.03094780441240955 -0.00070412850792839828 0 -0.030873286989595052 -0.00087500527924978388 0 -0.030956742417974005 -0.0006697243545762012 0 -0.030890548816323315 -0.00060731130129714655 0 -0.030873286989595052 -0.00087500527924978388 0 -0.030890548816323315 -0.00060731130129714655 0 -0.030864595810387828 -0.00036087140419532377 0 -0.031021741355207317 -0.00061298322955179413 0 -0.030956742417974005 -0.0006697243545762012 0 -0.030890548816323315 -0.00060731130129714655 0 -0.031021741355207317 -0.00061298322955179413 0 -0.030956742417974005 -0.0006697243545762012 0 -0.031036245439229209 -0.00063288794070210199 0 -0.031036245439229209 -0.00063288794070210199 0 -0.03088645438294297 -0.00058921642114263286 0 -0.03094780441240955 -0.00070412850792839828 0 -0.031141131674125268 -0.00055306858278923797 0 -0.031063557242860893 -0.00036218381824847801 0 -0.031036245439229209 -0.00063288794070210199 0 -0.031063557242860893 -0.00036218381824847801 0 -0.031036245439229209 -0.00063288794070210199 0 -0.03088645438294297 -0.00058921642114263286 0 -0.030956742417974005 -0.0006697243545762012 0 -0.031036245439229209 -0.00063288794070210199 0 -0.03094780441240955 -0.00070412850792839828 0 -0.031021741355207317 -0.00061298322955179413 0 -0.031106668295924331 -0.00063349118303909204 0 -0.031036245439229209 -0.00063288794070210199 0 -0.030873286989595052 -0.00087500527924978388 0 -0.03088645438294297 -0.00058921642114263286 0 -0.03094780441240955 -0.00070412850792839828 0 -0.030115945536639255 -0.00063551671288915204 0 -0.030873286989595052 -0.00087500527924978388 0 -0.03088645438294297 -0.00058921642114263286 0 -0.0309470382406727 -0.0015391480806644913 0 -0.030211012535506218 -0.0016204895207349084 0 -0.030384932171553688 -0.0011858662038884383 0 -0.031843071609288794 -0.0011379926148763785 0 -0.030602532683818077 -0.0010822324381592546 0 -0.031169843826430992 -0.0019543836374531841 0 -0.0309470382406727 -0.0015391480806644913 0 -0.030211012535506218 -0.0016204895207349084 0 -0.031232035949018092 -0.00068939318095057923 0 -0.031103645189972193 -0.00053029018667969719 0 -0.031087685052120638 -0.00064458675353097064 0 -0.031103645189972193 -0.00053029018667969719 0 -0.031087685052120638 -0.00064458675353097064 0 -0.030991635444439322 -0.00057388035287423117 0 -0.031103645189972193 -0.00053029018667969719 0 -0.030991635444439322 -0.00057388035287423117 0 -0.030966433174722672 -0.00037209730890666511 0 -0.030121056182607509 -0.00039518563491668313 0 -0.029722847229615188 -0.00068153192751205347 0 -0.030602532683818077 -0.0010822324381592546 0 -0.029722847229615188 -0.00068153192751205347 0 -0.029499885976158605 -0.00028821858144280083 0 -0.029569139552107829 -0.00047432855822878052 0 -0.029416822794694118 -0.00057462111353631749 0 -0.029993300770515739 1.3307547020904632e-05 0 -0.029499885976158605 -0.00028821858144280083 0 -0.029569139552107829 -0.00047432855822878052 0 -0.029993300770515739 1.3307547020904632e-05 0 -0.029569139552107829 -0.00047432855822878052 0 -0.029986768824148382 -0.00033585940227482108 0 -0.029993300770515739 1.3307547020904632e-05 0 -0.030635835879092705 1.6562719627756854e-05 0 -0.029986768824148382 -0.00033585940227482108 0 -0.029569139552107829 -0.00047432855822878052 0 -0.029986768824148382 -0.00033585940227482108 0 -0.029574285282825581 -0.00057375555046303595 0 -0.029569139552107829 -0.00047432855822878052 0 -0.029574285282825581 -0.00057375555046303595 0 -0.02927801550461057 -0.00058159337664106332 0 -0.029574285282825581 -0.00057375555046303595 0 -0.029305220705956855 -0.00059657682262393384 0 -0.02927801550461057 -0.00058159337664106332 0 -0.029557690201954999 -0.00066975195918494751 0 -0.029574285282825581 -0.00057375555046303595 0 -0.029305220705956855 -0.00059657682262393384 0 -0.029305220705956855 -0.00059657682262393384 0 -0.02927801550461057 -0.00058159337664106332 0 -0.02877708971811857 -0.00061830034135027998 0 -0.029557690201954999 -0.00066975195918494751 0 -0.029305220705956855 -0.00059657682262393384 0 -0.029246463370035194 -0.00062541687657804068 0 -0.029305220705956855 -0.00059657682262393384 0 -0.029246463370035194 -0.00062541687657804068 0 -0.02877708971811857 -0.00061830034135027998 0 -0.02927801550461057 -0.00058159337664106332 0 -0.029416822794694118 -0.00057462111353631749 0 -0.02877708971811857 -0.00061830034135027998 0 -0.028878782052775359 -0.00084860281313869879 0 -0.028879009111049833 -0.00071725151638842141 0 -0.02877708971811857 -0.00061830034135027998 0 -0.029722847229615188 -0.00068153192751205347 0 -0.02865637203349403 -0.00060229704046054649 0 -0.029569139552107829 -0.00047432855822878052 0 -0.02927801550461057 -0.00058159337664106332 0 -0.029416822794694118 -0.00057462111353631749 0 -0.029198869581735797 -0.0011457225001755694 0 -0.029530796998550827 -0.00085872196002379614 0 -0.030384932171553688 -0.0011858662038884383 0 -0.030211012535506218 -0.0016204895207349084 0 -0.029198869581735797 -0.0011457225001755694 0 -0.030384932171553688 -0.0011858662038884383 0 -0.029722847229615188 -0.00068153192751205347 0 -0.028984388214513192 -0.00081397197277639495 0 -0.029198869581735797 -0.0011457225001755694 0 -0.028879009111049833 -0.00071725151638842141 0 -0.029530796998550827 -0.00085872196002379614 0 -0.028879009111049833 -0.00071725151638842141 0 -0.029530796998550827 -0.00085872196002379614 0 -0.029074231195784481 -0.00047516793426251514 0 -0.029530796998550827 -0.00085872196002379614 0 -0.029796496585932478 -0.00048513595333358572 0 -0.029074231195784481 -0.00047516793426251514 0 -0.029530796998550827 -0.00085872196002379614 0 -0.030077579060766205 -0.00082661035508595107 0 -0.029796496585932478 -0.00048513595333358572 0 -0.03036164781419879 -0.00055278413156656598 0 -0.030077579060766205 -0.00082661035508595107 0 -0.029796496585932478 -0.00048513595333358572 0 -0.030554309379811601 -0.00087324552634158396 0 -0.030077579060766205 -0.00082661035508595107 0 -0.030384932171553688 -0.0011858662038884383 0 -0.029530796998550827 -0.00085872196002379614 0 -0.030077579060766205 -0.00082661035508595107 0 -0.030384932171553688 -0.0011858662038884383 0 -0.029858990662662548 0.00072483467873651702 0 -0.029573157948455372 -2.6620524133484877e-05 0 -0.029020627703608956 0.00030496069726941821 0 -0.030176476593909273 -6.9336567104664784e-05 0 -0.029858990662662548 0.00072483467873651702 0 -0.029573157948455372 -2.6620524133484877e-05 0 -0.029858990662662548 0.00072483467873651702 0 -0.029020627703608956 0.00030496069726941821 0 -0.02893477158993446 0.0012972170046233065 0 -0.030176476593909273 -6.9336567104664784e-05 0 -0.029796496585932478 -0.00048513595333358572 0 -0.029573157948455372 -2.6620524133484877e-05 0 -0.03036164781419879 -0.00055278413156656598 0 -0.030176476593909273 -6.9336567104664784e-05 0 -0.029796496585932478 -0.00048513595333358572 0 -0.029796496585932478 -0.00048513595333358572 0 -0.029573157948455372 -2.6620524133484877e-05 0 -0.029074231195784481 -0.00047516793426251514 0 -0.029573157948455372 -2.6620524133484877e-05 0 -0.029074231195784481 -0.00047516793426251514 0 -0.029020627703608956 0.00030496069726941821 0 -0.028879009111049833 -0.00071725151638842141 0 -0.029074231195784481 -0.00047516793426251514 0 -0.028579082788265771 -0.00065081335738016721 0 -0.029074231195784481 -0.00047516793426251514 0 -0.028538445326840113 -0.00030878167808169854 0 -0.028579082788265771 -0.00065081335738016721 0 -0.029074231195784481 -0.00047516793426251514 0 -0.028538445326840113 -0.00030878167808169854 0 -0.029020627703608956 0.00030496069726941821 0 -0.029020627703608956 0.00030496069726941821 0 -0.0279948503343849 0.00021844239527173795 0 -0.02893477158993446 0.0012972170046233065 0 -0.028538445326840113 -0.00030878167808169854 0 -0.029020627703608956 0.00030496069726941821 0 -0.0279948503343849 0.00021844239527173795 0 -0.0279948503343849 0.00021844239527173795 0 -0.027760753030711922 -0.00039481071023813138 0 -0.026716809470434824 -0.00036822612240623075 0 -0.027760753030711922 -0.00039481071023813138 0 -0.027182118493532005 -0.00052833463637046521 0 -0.026716809470434824 -0.00036822612240623075 0 -0.027760753030711922 -0.00039481071023813138 0 -0.028169334009998059 -0.00080121513543137594 0 -0.027182118493532005 -0.00052833463637046521 0 -0.028538445326840113 -0.00030878167808169854 0 -0.0279948503343849 0.00021844239527173795 0 -0.027760753030711922 -0.00039481071023813138 0 -0.028538445326840113 -0.00030878167808169854 0 -0.027760753030711922 -0.00039481071023813138 0 -0.028169334009998059 -0.00080121513543137594 0 -0.028538445326840113 -0.00030878167808169854 0 -0.028579082788265771 -0.00065081335738016721 0 -0.028169334009998059 -0.00080121513543137594 0 -0.028879009111049833 -0.00071725151638842141 0 -0.028579082788265771 -0.00065081335738016721 0 -0.02877708971811857 -0.00061830034135027998 0 -0.028579082788265771 -0.00065081335738016721 0 -0.02877708971811857 -0.00061830034135027998 0 -0.028169334009998059 -0.00080121513543137594 0 -0.028169334009998059 -0.00080121513543137594 0 -0.02885692758378073 -0.00064101327486841878 0 -0.029068592265450888 -0.00068177411135230109 0 -0.028169334009998059 -0.00080121513543137594 0 -0.029068592265450888 -0.00068177411135230109 0 -0.029450088986420517 -0.0007952315740766472 0 -0.02877708971811857 -0.00061830034135027998 0 -0.028169334009998059 -0.00080121513543137594 0 -0.02885692758378073 -0.00064101327486841878 0 -0.029246463370035194 -0.00062541687657804068 0 -0.02877708971811857 -0.00061830034135027998 0 -0.02885692758378073 -0.00064101327486841878 0 -0.029246463370035194 -0.00062541687657804068 0 -0.02885692758378073 -0.00064101327486841878 0 -0.029068592265450888 -0.00068177411135230109 0 -0.029246463370035194 -0.00062541687657804068 0 -0.029068592265450888 -0.00068177411135230109 0 -0.029336595435421838 -0.00066326507756813726 0 -0.027182118493532005 -0.00052833463637046521 0 -0.026716809470434824 -0.00036822612240623075 0 -0.026120978046133191 -0.00058214361104521966 0 -0.027794202368722133 -0.00072306691223260572 0 -0.028523982071188322 -0.00056273914476687582 0 -0.028169334009998059 -0.00080121513543137594 0 -0.027182118493532005 -0.00052833463637046521 0 -0.026120978046133191 -0.00058214361104521966 0 -0.026716809470434824 -0.00036822612240623075 0 -0.026120978046133191 -0.00058214361104521966 0 -0.026003128431400704 -0.00022044291526292283 0 -0.026403375097579344 -0.00062605157380207451 0 -0.023573474282877514 -0.00085561716073863185 0 -0.026716809470434824 -0.00036822612240623075 0 -0.024433193422326697 0.00035114762272164644 0 -0.021939114223659354 -0.0018201344652796281 0 -0.026716809470434824 -0.00036822612240623075 0 -0.024433193422326697 0.00035114762272164644 0 -0.026490903532201401 0.0012059130946903741 0 -0.024433193422326697 0.00035114762272164644 0 -0.023974309788902613 0.0022024331267012144 0 -0.026490903532201401 0.0012059130946903741 0 -0.024433193422326697 0.00035114762272164644 0 -0.023974309788902613 0.0022024331267012144 0 -0.022745234786563644 0.00068020425924181802 0 -0.023974309788902613 0.0022024331267012144 0 -0.021781135558268879 0.0053641764143392435 0 -0.027342920067618164 0.0043940405801057751 0 -0.023974309788902613 0.0022024331267012144 0 -0.026490903532201401 0.0012059130946903741 0 -0.027342920067618164 0.0043940405801057751 0 -0.027941481509004475 0.0019172033436278453 0 -0.026490903532201401 0.0012059130946903741 0 -0.027342920067618164 0.0043940405801057751 0 -0.0279948503343849 0.00021844239527173795 0 -0.027941481509004475 0.0019172033436278453 0 -0.026490903532201401 0.0012059130946903741 0 -0.0279948503343849 0.00021844239527173795 0 -0.026716809470434824 -0.00036822612240623075 0 -0.026490903532201401 0.0012059130946903741 0 -0.0279948503343849 0.00021844239527173795 0 -0.027941481509004475 0.0019172033436278453 0 -0.02893477158993446 0.0012972170046233065 0 -0.027941481509004475 0.0019172033436278453 0 -0.028731566228270423 0.0027340512517538712 0 -0.027342920067618164 0.0043940405801057751 0 -0.027941481509004475 0.0019172033436278453 0 -0.02893477158993446 0.0012972170046233065 0 -0.028731566228270423 0.0027340512517538712 0 -0.030417372465212957 0.0024193260412848812 0 -0.029728681295142504 0.0019784286772710864 0 -0.029453288994459616 0.003490994789834714 0 -0.028731566228270423 0.0027340512517538712 0 -0.029728681295142504 0.0019784286772710864 0 -0.029453288994459616 0.003490994789834714 0 -0.029858990662662548 0.00072483467873651702 0 -0.02893477158993446 0.0012972170046233065 0 -0.029728681295142504 0.0019784286772710864 0 -0.02893477158993446 0.0012972170046233065 0 -0.028731566228270423 0.0027340512517538712 0 -0.029728681295142504 0.0019784286772710864 0 -0.028845305229629699 -0.00026768633653334757 0 -0.028009502334214308 -0.00044837746044384366 0 -0.028592161540883371 -0.00059996693442746147 0 -0.028845305229629699 -0.00026768633653334757 0 -0.028592161540883371 -0.00059996693442746147 0 -0.029103002941666064 -0.0006056518766599339 0 -0.028845305229629699 -0.00026768633653334757 0 -0.028009502334214308 -0.00044837746044384366 0 -0.028328142437016975 0.00075105549589771529 0 -0.025212620564480329 -0.00097563742993235481 0 -0.028009502334214308 -0.00044837746044384366 0 -0.02685227212532899 0.00032988060539696466 0 -0.02766039309582206 -0.00042597282263275927 0 -0.028009502334214308 -0.00044837746044384366 0 -0.028165951487340142 -0.0006125387786774394 0 -0.028009502334214308 -0.00044837746044384366 0 -0.02685227212532899 0.00032988060539696466 0 -0.028328142437016975 0.00075105549589771529 0 -0.026082199528798811 -0.00013255180427219749 0 -0.02794325322505167 -0.000551789731128656 0 -0.028009502334214308 -0.00044837746044384366 0 -0.028165951487340142 -0.0006125387786774394 0 -0.028592161540883371 -0.00059996693442746147 0 -0.028165951487340142 -0.0006125387786774394 0 -0.028206212281839178 -0.00082640548886387841 0 -0.028652990311166953 -0.00077351911120928252 0 -0.02766039309582206 -0.00042597282263275927 0 -0.028165951487340142 -0.0006125387786774394 0 -0.028206212281839178 -0.00082640548886387841 0 -0.029313844502845954 -0.00012062285939174873 0 -0.030890548816323315 -0.00060731130129714655 0 -0.030864595810387828 -0.00036087140419532377 0 -0.028652990311166953 -0.00077351911120928252 0 -0.028592161540883371 -0.00059996693442746147 0 -0.029090225291131179 -0.00077097390691475618 0 -0.028165951487340142 -0.0006125387786774394 0 -0.028652990311166953 -0.00077351911120928252 0 -0.028592161540883371 -0.00059996693442746147 0 -0.028592161540883371 -0.00059996693442746147 0 -0.029090225291131179 -0.00077097390691475618 0 -0.029103002941666064 -0.0006056518766599339 0 -0.029352828918872916 -0.00071536897455714687 0 -0.029103002941666064 -0.0006056518766599339 0 -0.029406605490902918 -0.00065880360091977283 0 -0.029103002941666064 -0.0006056518766599339 0 -0.029406605490902918 -0.00065880360091977283 0 -0.029245980063942634 -0.00043451577556211671 0 -0.029090225291131179 -0.00077097390691475618 0 -0.029352828918872916 -0.00071536897455714687 0 -0.029103002941666064 -0.0006056518766599339 0 -0.029462640870573473 -0.00069189509508509875 0 -0.029352828918872916 -0.00071536897455714687 0 -0.029406605490902918 -0.00065880360091977283 0 -0.029462640870573473 -0.00069189509508509875 0 -0.029246463370035194 -0.00062541687657804068 0 -0.029336595435421838 -0.00066326507756813726 0 -0.029462640870573473 -0.00069189509508509875 0 -0.029336595435421838 -0.00066326507756813726 0 -0.029406605490902918 -0.00065880360091977283 0 -0.029406605490902918 -0.00065880360091977283 0 -0.029380639309889062 -0.00069672178014192792 0 -0.029383199387950702 -0.00057197385123563301 0 -0.029068592265450888 -0.00068177411135230109 0 -0.029336595435421838 -0.00066326507756813726 0 -0.029380639309889062 -0.00069672178014192792 0 -0.029336595435421838 -0.00066326507756813726 0 -0.029406605490902918 -0.00065880360091977283 0 -0.029380639309889062 -0.00069672178014192792 0 -0.029383199387950702 -0.00057197385123563301 0 -0.029450088986420517 -0.0007952315740766472 0 -0.029280763533008142 3.2177674387901134e-05 0 -0.028523982071188322 -0.00056273914476687582 0 -0.022710684672853022 -0.0022444636717183944 0 -0.026120978046133191 -0.00058214361104521966 0 -0.025164452802262309 -0.00015107904116633082 0 -0.026003128431400704 -0.00022044291526292283 0 -0.029068592265450888 -0.00068177411135230109 0 -0.029380639309889062 -0.00069672178014192792 0 -0.029450088986420517 -0.0007952315740766472 0 -0.029380639309889062 -0.00069672178014192792 0 -0.029383199387950702 -0.00057197385123563301 0 -0.029450088986420517 -0.0007952315740766472 0 -0.028845305229629699 -0.00026768633653334757 0 -0.029103002941666064 -0.0006056518766599339 0 -0.029245980063942634 -0.00043451577556211671 0 -0.029406605490902918 -0.00065880360091977283 0 -0.029383199387950702 -0.00057197385123563301 0 -0.029245980063942634 -0.00043451577556211671 0 -0.029383199387950702 -0.00057197385123563301 0 -0.029245980063942634 -0.00043451577556211671 0 -0.029280763533008142 3.2177674387901134e-05 0 -0.028845305229629699 -0.00026768633653334757 0 -0.029245980063942634 -0.00043451577556211671 0 -0.029280763533008142 3.2177674387901134e-05 0 -0.016985592540483471 -0.0021674225660967775 0 -0.021939114223659354 -0.0018201344652796281 0 -0.020431357136212507 0.0017162891133014142 0 -0.021939114223659354 -0.0018201344652796281 0 -0.022745234786563644 0.00068020425924181802 0 -0.020431357136212507 0.0017162891133014142 0 -0.022710684672853022 -0.0022444636717183944 0 -0.023573474282877514 -0.00085561716073863185 0 -0.024433193422326697 0.00035114762272164644 0 -0.021939114223659354 -0.0018201344652796281 0 -0.022745234786563644 0.00068020425924181802 0 -0.020431357136212507 0.0017162891133014142 0 -0.019243925173763835 0.0043248396231138249 0 -0.021781135558268879 0.0053641764143392435 0 -0.023974309788902613 0.0022024331267012144 0 -0.020431357136212507 0.0017162891133014142 0 -0.021781135558268879 0.0053641764143392435 0 -0.023974309788902613 0.0022024331267012144 0 -0.022745234786563644 0.00068020425924181802 0 -0.020431357136212507 0.0017162891133014142 0 -0.016985592540483471 -0.0021674225660967775 0 -0.016442686624176736 0.0028758961062187007 0 -0.014030333728111478 0.0010171320106333629 0 -0.016985592540483471 -0.0021674225660967775 0 -0.020431357136212507 0.0017162891133014142 0 -0.016442686624176736 0.0028758961062187007 0 -0.020431357136212507 0.0017162891133014142 0 -0.019243925173763835 0.0043248396231138249 0 -0.016442686624176736 0.0028758961062187007 0 -0.016442686624176736 0.0028758961062187007 0 -0.012162331477963997 0.0037509353029484284 0 -0.014030333728111478 0.0010171320106333629 0 -0.012162331477963997 0.0037509353029484284 0 -0.010347772935890093 -0.00011802615124655766 0 -0.0082357724985015115 0.0037385538007708172 0 -0.012162331477963997 0.0037509353029484284 0 -0.010347772935890093 -0.00011802615124655766 0 -0.014030333728111478 0.0010171320106333629 0 -0.022710684672853022 -0.0022444636717183944 0 -0.019837790112265219 -0.0023803683744714529 0 -0.020178054399760222 -0.0065397164352881581 0 -0.010790347801942308 -0.001527570655990783 0 -0.010318140754661108 -0.0052986920184131701 0 -0.028845305229629699 -0.00026768633653334757 0 -0.029280763533008142 3.2177674387901134e-05 0 -0.028328142437016975 0.00075105549589771529 0 -0.016985592540483471 -0.0021674225660967775 0 -0.010347772935890093 -0.00011802615124655766 0 -0.014030333728111478 0.0010171320106333629 0 -0.022710684672853022 -0.0022444636717183944 0 -0.0096438945450461749 -0.00081483688450727145 0 -0.025438727673001465 0.0017803064808750283 0 -0.02685227212532899 0.00032988060539696466 0 -0.028328142437016975 0.00075105549589771529 0 -0.01232886179336848 -0.0011096768857392708 0 -0.019837790112265219 -0.0023803683744714529 0 -0.00088876109175456072 -0.003926557290783503 0 -0.010318140754661108 -0.0052986920184131701 0 -0.0048735101992935679 -0.001531551241332259 0 -0.010790347801942308 -0.001527570655990783 0 -0.010318140754661108 -0.0052986920184131701 0 -0.0048735101992935679 -0.001531551241332259 0 -0.0016899622525863751 0.0030292939140296495 0 -0.010347772935890093 -0.00011802615124655766 0 -0.0082357724985015115 0.0037385538007708172 0 -0.0016899622525863751 0.0030292939140296495 0 -0.010790347801942308 -0.001527570655990783 0 -0.0048735101992935679 -0.001531551241332259 0 -0.0025339864801261695 0.0028722585027512355 0 -0.0096438945450461749 -0.00081483688450727145 0 -0.0016899622525863751 0.0030292939140296495 0 -0.0082357724985015115 0.0037385538007708172 0 -0.0084634672324609174 0.0084220682465726247 0 -0.012162331477963997 0.0037509353029484284 0 -0.0082357724985015115 0.0037385538007708172 0 -0.0084634672324609174 0.0084220682465726247 0 0.0047057539441950824 0.0055017237575953198 0 0.0054704042905035256 0.0051940821581022969 0 0.005124746797816682 0.0049467333928209598 0 0.0047057539441950824 0.0055017237575953198 0 0.005124746797816682 0.0049467333928209598 0 0.0046398226895500768 0.0050381850623475088 0 0.0052892668206622794 0.0057982887124863082 0 0.0047057539441950824 0.0055017237575953198 0 0.0054704042905035256 0.0051940821581022969 0 0.0052892668206622794 0.0057982887124863082 0 0.0054704042905035256 0.0051940821581022969 0 0.0058092374773804547 0.0053455282509082148 0 0.0054704042905035256 0.0051940821581022969 0 0.0058092374773804547 0.0053455282509082148 0 0.0057548121113929025 0.0050064759151758863 0 -0.012162331477963997 0.0037509353029484284 0 -0.0084634672324609174 0.0084220682465726247 0 -0.017671272226431289 0.0083072105105112797 0 -0.0015398877176900033 0.0070185245192589023 0 -0.0058321707667624663 0.0068028440967729089 0 -0.016442686624176736 0.0028758961062187007 0 -0.012162331477963997 0.0037509353029484284 0 -0.017671272226431289 0.0083072105105112797 0 -0.019243925173763835 0.0043248396231138249 0 -0.016442686624176736 0.0028758961062187007 0 -0.017671272226431289 0.0083072105105112797 0 -0.019243925173763835 0.0043248396231138249 0 -0.017671272226431289 0.0083072105105112797 0 -0.021781135558268879 0.0053641764143392435 0 -0.017671272226431289 0.0083072105105112797 0 -0.021781135558268879 0.0053641764143392435 0 -0.022970608685935909 0.0070338521209781634 0 0.0058092374773804547 0.0053455282509082148 0 0.0059764397877876407 0.0051103258279189944 0 0.0060389056499689118 0.0051872132292822108 0 0.0058092374773804547 0.0053455282509082148 0 0.0059764397877876407 0.0051103258279189944 0 0.0059690333898102018 0.0049355583911748352 0 -0.0058321707667624663 0.0068028440967729089 0 -0.0084080253913941406 0.0061559924713931033 0 0.0058092374773804547 0.0053455282509082148 0 0.0057548121113929025 0.0050064759151758863 0 0.0059690333898102018 0.0049355583911748352 0 0.0057548121113929025 0.0050064759151758863 0 0.0059132870082882413 0.0047869063610912321 0 0.0059690333898102018 0.0049355583911748352 0 0.0059690333898102018 0.0049355583911748352 0 0.0060749235396709679 0.0049740797073761136 0 0.0061259913700642812 0.0047299262782166404 0 0.0059690333898102018 0.0049355583911748352 0 0.0060186790555775346 0.0047026136447095006 0 0.0061259913700642812 0.0047299262782166404 0 0.0059764397877876407 0.0051103258279189944 0 0.0059690333898102018 0.0049355583911748352 0 0.0060749235396709679 0.0049740797073761136 0 0.0059132870082882413 0.0047869063610912321 0 0.0059690333898102018 0.0049355583911748352 0 0.0060186790555775346 0.0047026136447095006 0 0.0060186790555775346 0.0047026136447095006 0 0.0060060532326751985 0.0046066865221913705 0 0.0060982234812972441 0.0045124555492057072 0 0.0060452246147698089 0.0046012948568768539 0 0.0065470380266223899 0.0044833757014660271 0 0.0060186790555775346 0.0047026136447095006 0 0.0061259913700642812 0.0047299262782166404 0 0.0060982234812972441 0.0045124555492057072 0 0.0059132870082882413 0.0047869063610912321 0 0.0060060532326751985 0.0046066865221913705 0 0.0056376802801712976 0.0046165071704464935 0 0.0059132870082882413 0.0047869063610912321 0 0.0060186790555775346 0.0047026136447095006 0 0.0060060532326751985 0.0046066865221913705 0 0.0060060532326751985 0.0046066865221913705 0 0.0056376802801712976 0.0046165071704464935 0 0.0059322281021549758 0.0043100149916347951 0 0.005689610287349431 0.0045893293342454886 0 0.0061511695102680255 0.0040855330822423428 0 0.0056376802801712976 0.0046165071704464935 0 0.0057175438893010437 0.0038011947712897182 0 0.0050542087156678055 0.0044392222677229936 0 0.0056376802801712976 0.0046165071704464935 0 0.005124746797816682 0.0049467333928209598 0 0.0050542087156678055 0.0044392222677229936 0 0.005124746797816682 0.0049467333928209598 0 0.0050542087156678055 0.0044392222677229936 0 0.0046398226895500768 0.0050381850623475088 0 0.0054704042905035256 0.0051940821581022969 0 0.0056376802801712976 0.0046165071704464935 0 0.005124746797816682 0.0049467333928209598 0 0.0054704042905035256 0.0051940821581022969 0 0.0057548121113929025 0.0050064759151758863 0 0.0056376802801712976 0.0046165071704464935 0 0.0057548121113929025 0.0050064759151758863 0 0.0059132870082882413 0.0047869063610912321 0 0.0056376802801712976 0.0046165071704464935 0 -0.011340984962574676 0.0061228858428777457 0 -0.0092258303899388563 0.0057607169819820711 0 -0.028197937950252945 0.0064273751893888648 0 -0.02704940855980233 0.0043927212908347543 0 -0.025338831352140455 0.0064529612772085028 0 0.0070861436948381736 0.0050721583314299965 0 0.0064884805179305713 0.0051758039539532815 0 0.0068046197412594805 0.0047302844204033931 0 -0.02704940855980233 0.0043927212908347543 0 -0.025338831352140455 0.0064529612772085028 0 -0.024577011387074361 0.0051507703113059938 0 -0.028316588389832024 0.0039949214614889853 0 -0.025830737524530124 0.0047591726713911804 0 -0.028731566228270423 0.0027340512517538712 0 -0.029453288994459616 0.003490994789834714 0 -0.027342920067618164 0.0043940405801057751 0 0.0064884805179305713 0.0051758039539532815 0 0.0060389056499689118 0.0051872132292822108 0 0.0063193224021549253 0.0048719620752382215 0 -0.0092258303899388563 0.0057607169819820711 0 -0.0084080253913941406 0.0061559924713931033 0 -0.025338831352140455 0.0064529612772085028 0 -0.024577011387074361 0.0051507703113059938 0 -0.022970608685935909 0.0070338521209781634 0 -0.021781135558268879 0.0053641764143392435 0 -0.024577011387074361 0.0051507703113059938 0 -0.022970608685935909 0.0070338521209781634 0 -0.02197887611541751 0.0052683185028184381 0 -0.025830737524530124 0.0047591726713911804 0 0.0060389056499689118 0.0051872132292822108 0 0.0060749235396709679 0.0049740797073761136 0 0.0063193224021549253 0.0048719620752382215 0 0.0059764397877876407 0.0051103258279189944 0 0.0060389056499689118 0.0051872132292822108 0 0.0060749235396709679 0.0049740797073761136 0 0.0060749235396709679 0.0049740797073761136 0 0.0061259913700642812 0.0047299262782166404 0 0.0063193224021549253 0.0048719620752382215 0 0.0061259913700642812 0.0047299262782166404 0 0.0065220876396521413 0.0042655331523174913 0 0.0060982234812972441 0.0045124555492057072 0 0.0061259913700642812 0.0047299262782166404 0 0.0063193224021549253 0.0048719620752382215 0 0.0065220876396521413 0.0042655331523174913 0 0.0063193224021549253 0.0048719620752382215 0 0.0068046197412594805 0.0047302844204033931 0 0.0065220876396521413 0.0042655331523174913 0 0.0064884805179305713 0.0051758039539532815 0 0.0063193224021549253 0.0048719620752382215 0 0.0068046197412594805 0.0047302844204033931 0 0.0068046197412594805 0.0047302844204033931 0 0.007410772421564525 0.0040596837173541463 0 0.0065220876396521413 0.0042655331523174913 0 0.00730306052371716 0.0045865956625786297 0 0.0068046197412594805 0.0047302844204033931 0 0.007410772421564525 0.0040596837173541463 0 0.0070861436948381736 0.0050721583314299965 0 0.00730306052371716 0.0045865956625786297 0 0.0068046197412594805 0.0047302844204033931 0 0.0076720395039232966 0.0038873497384233277 0 0.007410772421564525 0.0040596837173541463 0 0.0076255295552273812 0.0039515592178705084 0 0.0075719669289250691 0.0041335527653102609 0 0.0076720395039232966 0.0038873497384233277 0 0.007410772421564525 0.0040596837173541463 0 0.0073877617872529257 0.0040797077917938641 0 0.0070380103419134827 0.0042327369282025903 0 0.007410772421564525 0.0040596837173541463 0 0.0076255295552273812 0.0039515592178705084 0 0.00755232746335924 0.0041840906017523187 0 0.0074630478252937088 0.0039988938282964686 0 0.007173991087728409 0.0038090656201925535 0 0.0076924048193750443 0.0037367355374269932 0 0.0076255295552273812 0.0039515592178705084 0 0.0074630478252937088 0.0039988938282964686 0 0.00755232746335924 0.0041840906017523187 0 0.0076255295552273812 0.0039515592178705084 0 0.0074630478252937088 0.0039988938282964686 0 0.0076924048193750443 0.0037367355374269932 0 0.0074630478252937088 0.0039988938282964686 0 0.00755232746335924 0.0041840906017523187 0 0.0070136189005461291 0.0044847783651869181 0 0.0070380103419134827 0.0042327369282025903 0 0.0065470380266223899 0.0044833757014660271 0 0.0074630478252937088 0.0039988938282964686 0 0.0070136189005461291 0.0044847783651869181 0 0.007173991087728409 0.0038090656201925535 0 0.007173991087728409 0.0038090656201925535 0 0.0075837829861161391 0.0034754649386381487 0 0.0071015660112676493 0.003247857235027185 0 0.0075837829861161391 0.0034754649386381487 0 0.0071015660112676493 0.003247857235027185 0 0.0072697853777696775 0.003190966395499368 0 0.0075837829861161391 0.0034754649386381487 0 0.0075943868030674605 0.0031780799147578167 0 0.0072697853777696775 0.003190966395499368 0 0.0075837829861161391 0.0034754649386381487 0 0.0079479184476618555 0.0035703018483624989 0 0.0082044655740999249 0.0034860723782686159 0 0.0075837829861161391 0.0034754649386381487 0 0.0076924048193750443 0.0037367355374269932 0 0.0079479184476618555 0.0035703018483624989 0 0.007173991087728409 0.0038090656201925535 0 0.0075837829861161391 0.0034754649386381487 0 0.0076924048193750443 0.0037367355374269932 0 0.0076924048193750443 0.0037367355374269932 0 0.0079479184476618555 0.0035703018483624989 0 0.0078634835025953084 0.0037102459783581263 0 0.0076255295552273812 0.0039515592178705084 0 0.0076924048193750443 0.0037367355374269932 0 0.0078634835025953084 0.0037102459783581263 0 0.0079479184476618555 0.0035703018483624989 0 0.0078634835025953084 0.0037102459783581263 0 0.0081225745599412414 0.0035453277890335855 0 0.0078316451237856535 0.0037481239828983221 0 0.0078634835025953084 0.0037102459783581263 0 0.0081225745599412414 0.0035453277890335855 0 0.0076720395039232966 0.0038873497384233277 0 0.0076255295552273812 0.0039515592178705084 0 0.0078634835025953084 0.0037102459783581263 0 0.0078316451237856535 0.0037481239828983221 0 0.0076720395039232966 0.0038873497384233277 0 0.0078634835025953084 0.0037102459783581263 0 0.0061350578077448781 0.0036005822400286521 0 0.0063953169273626171 0.0038540420868376024 0 0.0063959609075401958 0.0034084277531253983 0 0.0061350578077448781 0.0036005822400286521 0 0.0060820570008559291 0.0032668802143225946 0 0.0057175438893010437 0.0038011947712897182 0 0.0061350578077448781 0.0036005822400286521 0 0.0060820570008559291 0.0032668802143225946 0 0.0063959609075401958 0.0034084277531253983 0 0.0057175438893010437 0.0038011947712897182 0 0.0056379694352353057 0.003154420636408339 0 0.0053016419233455469 0.0035384185741891114 0 0.0060820570008559291 0.0032668802143225946 0 0.0057175438893010437 0.0038011947712897182 0 0.0056379694352353057 0.003154420636408339 0 0.0057175438893010437 0.0038011947712897182 0 0.0051682987186324148 0.0039313322274351619 0 0.0050542087156678055 0.0044392222677229936 0 0.0057175438893010437 0.0038011947712897182 0 0.0053016419233455469 0.0035384185741891114 0 0.0051682987186324148 0.0039313322274351619 0 0.0056376802801712976 0.0046165071704464935 0 0.0057175438893010437 0.0038011947712897182 0 0.0063953169273626171 0.0038540420868376024 0 0.0061350578077448781 0.0036005822400286521 0 0.0057175438893010437 0.0038011947712897182 0 0.0063953169273626171 0.0038540420868376024 0 0.0060060532326751985 0.0046066865221913705 0 0.0059322281021549758 0.0043100149916347951 0 0.0065476815093614806 0.0041717717876229056 0 0.0070136189005461291 0.0044847783651869181 0 0.007173991087728409 0.0038090656201925535 0 0.0065476815093614806 0.0041717717876229056 0 0.0060060532326751985 0.0046066865221913705 0 0.0070136189005461291 0.0044847783651869181 0 0.0065476815093614806 0.0041717717876229056 0 0.007173991087728409 0.0038090656201925535 0 0.0065476815093614806 0.0041717717876229056 0 0.0065421574915512787 0.0037167767229208692 0 0.0061511695102680255 0.0040855330822423428 0 0.006673516835787421 0.0035299235895187176 0 0.0063953169273626171 0.0038540420868376024 0 0.0063959609075401958 0.0034084277531253983 0 0.0067845281626311817 0.0033166838848646902 0 0.0059322281021549758 0.0043100149916347951 0 0.0065476815093614806 0.0041717717876229056 0 0.0065421574915512787 0.0037167767229208692 0 0.0065363617590590006 0.003016226974244661 0 0.0067845281626311817 0.0033166838848646902 0 0.0069173559800122303 0.0030439189853726694 0 0.0063959609075401958 0.0034084277531253983 0 0.0065363617590590006 0.003016226974244661 0 0.0067845281626311817 0.0033166838848646902 0 0.006673516835787421 0.0035299235895187176 0 0.007054493995678676 0.0032416394139640277 0 0.007173991087728409 0.0038090656201925535 0 0.0065421574915512787 0.0037167767229208692 0 0.0071015660112676493 0.003247857235027185 0 0.0067845281626311817 0.0033166838848646902 0 0.0071015660112676493 0.003247857235027185 0 0.0069173559800122303 0.0030439189853726694 0 0.0071015660112676493 0.003247857235027185 0 0.0069173559800122303 0.0030439189853726694 0 0.0072697853777696775 0.003190966395499368 0 0.0065363617590590006 0.003016226974244661 0 0.0069173559800122303 0.0030439189853726694 0 0.0065226261549912526 0.00262492679068232 0 0.0065363617590590006 0.003016226974244661 0 0.0062613502927116316 0.0026460419049542994 0 0.0065226261549912526 0.00262492679068232 0 0.0060820570008559291 0.0032668802143225946 0 0.0065363617590590006 0.003016226974244661 0 0.0062613502927116316 0.0026460419049542994 0 0.0060820570008559291 0.0032668802143225946 0 0.0063959609075401958 0.0034084277531253983 0 0.0065363617590590006 0.003016226974244661 0 0.0060820570008559291 0.0032668802143225946 0 0.0062613502927116316 0.0026460419049542994 0 0.0056379694352353057 0.003154420636408339 0 0.0062613502927116316 0.0026460419049542994 0 0.0056379694352353057 0.003154420636408339 0 0.0054793041444129399 0.0026984717133649392 0 0.0062613502927116316 0.0026460419049542994 0 0.0054793041444129399 0.0026984717133649392 0 0.0057079729639128874 0.0021471231825554242 0 0.0054793041444129399 0.0026984717133649392 0 0.0052946937033494122 0.0021804719552014759 0 0.0057079729639128874 0.0021471231825554242 0 0.0052946937033494122 0.0021804719552014759 0 0.0048357587196291886 0.0025250532609347896 0 0.0049412982413543352 0.0018500018147698657 0 0.0054793041444129399 0.0026984717133649392 0 0.0052946937033494122 0.0021804719552014759 0 0.0048357587196291886 0.0025250532609347896 0 0.0048357587196291886 0.0025250532609347896 0 0.0044469084316718982 0.0030256684043232954 0 0.0050415689039245625 0.0031360784270184901 0 0.0054793041444129399 0.0026984717133649392 0 0.0048357587196291886 0.0025250532609347896 0 0.0050415689039245625 0.0031360784270184901 0 0.0056379694352353057 0.003154420636408339 0 0.0054793041444129399 0.0026984717133649392 0 0.0050415689039245625 0.0031360784270184901 0 0.004514022878232429 0.0021086959830537285 0 0.0041758963083287481 0.0026249017560034198 0 0.0040673231264557507 0.0019536627031286856 0 0.004514022878232429 0.0021086959830537285 0 0.0048357587196291886 0.0025250532609347896 0 0.0041758963083287481 0.0026249017560034198 0 0.004514022878232429 0.0021086959830537285 0 0.0048357587196291886 0.0025250532609347896 0 0.0049412982413543352 0.0018500018147698657 0 0.0048357587196291886 0.0025250532609347896 0 0.0044469084316718982 0.0030256684043232954 0 0.0041758963083287481 0.0026249017560034198 0 0.0044469084316718982 0.0030256684043232954 0 0.0041758963083287481 0.0026249017560034198 0 0.0037732626693220855 0.0034230531938554292 0 0.0044469084316718982 0.0030256684043232954 0 0.0037732626693220855 0.0034230531938554292 0 0.0041915544444364678 0.0035790801388784002 0 0.0041758963083287481 0.0026249017560034198 0 0.0037732626693220855 0.0034230531938554292 0 0.0037447786018721765 0.0029234916805911185 0 0.0044469084316718982 0.0030256684043232954 0 0.0041915544444364678 0.0035790801388784002 0 0.0046186836579779674 0.0034380953459844594 0 0.0041915544444364678 0.0035790801388784002 0 0.0046186836579779674 0.0034380953459844594 0 0.0045262938055113961 0.0038911694231609762 0 0.0041915544444364678 0.0035790801388784002 0 0.0045262938055113961 0.0038911694231609762 0 0.0041605309022610176 0.0041364727252916692 0 0.0041915544444364678 0.0035790801388784002 0 0.0038986809420646046 0.003907291375121069 0 0.0041605309022610176 0.0041364727252916692 0 0.0037732626693220855 0.0034230531938554292 0 0.0038986809420646046 0.003907291375121069 0 0.0035253713513751978 0.0042470518599399916 0 0.0037732626693220855 0.0034230531938554292 0 0.0041915544444364678 0.0035790801388784002 0 0.0038986809420646046 0.003907291375121069 0 0.0053016419233455469 0.0035384185741891114 0 0.0050415689039245625 0.0031360784270184901 0 0.0048858373525443007 0.003683895791801809 0 0.0056379694352353057 0.003154420636408339 0 0.0053016419233455469 0.0035384185741891114 0 0.0050415689039245625 0.0031360784270184901 0 0.0050415689039245625 0.0031360784270184901 0 0.0046186836579779674 0.0034380953459844594 0 0.0048858373525443007 0.003683895791801809 0 0.0044469084316718982 0.0030256684043232954 0 0.0050415689039245625 0.0031360784270184901 0 0.0046186836579779674 0.0034380953459844594 0 0.0046186836579779674 0.0034380953459844594 0 0.0048858373525443007 0.003683895791801809 0 0.0045262938055113961 0.0038911694231609762 0 0.0048858373525443007 0.003683895791801809 0 0.0045262938055113961 0.0038911694231609762 0 0.0048238290600475008 0.0040752297444949133 0 0.0048858373525443007 0.003683895791801809 0 0.0048238290600475008 0.0040752297444949133 0 0.0051682987186324148 0.0039313322274351619 0 0.0053016419233455469 0.0035384185741891114 0 0.0048858373525443007 0.003683895791801809 0 0.0051682987186324148 0.0039313322274351619 0 0.0050542087156678055 0.0044392222677229936 0 0.0044888221309327377 0.0047777521379521867 0 0.004480402624577667 0.0044206887154182627 0 0.0048238290600475008 0.0040752297444949133 0 0.0050542087156678055 0.0044392222677229936 0 0.004480402624577667 0.0044206887154182627 0 0.0048238290600475008 0.0040752297444949133 0 0.0051682987186324148 0.0039313322274351619 0 0.0050542087156678055 0.0044392222677229936 0 0.0050542087156678055 0.0044392222677229936 0 0.0044888221309327377 0.0047777521379521867 0 0.0046398226895500768 0.0050381850623475088 0 0.0044888221309327377 0.0047777521379521867 0 0.0046398226895500768 0.0050381850623475088 0 0.0041398413581211664 0.0051247734798174783 0 0.0044888221309327377 0.0047777521379521867 0 0.004480402624577667 0.0044206887154182627 0 0.0040612622121717337 0.0047071902290021766 0 0.0044888221309327377 0.0047777521379521867 0 0.0040612622121717337 0.0047071902290021766 0 0.0041398413581211664 0.0051247734798174783 0 0.0040612622121717337 0.0047071902290021766 0 0.0041398413581211664 0.0051247734798174783 0 0.0038551158249179691 0.0052554492761253194 0 0.0045262938055113961 0.0038911694231609762 0 0.004480402624577667 0.0044206887154182627 0 0.0041605309022610176 0.0041364727252916692 0 0.004480402624577667 0.0044206887154182627 0 0.0041605309022610176 0.0041364727252916692 0 0.0040612622121717337 0.0047071902290021766 0 0.0045262938055113961 0.0038911694231609762 0 0.0048238290600475008 0.0040752297444949133 0 0.004480402624577667 0.0044206887154182627 0 0.0041605309022610176 0.0041364727252916692 0 0.0038346598249722795 0.0043566179472130954 0 0.0040612622121717337 0.0047071902290021766 0 0.0038986809420646046 0.003907291375121069 0 0.0041605309022610176 0.0041364727252916692 0 0.0038346598249722795 0.0043566179472130954 0 0.0038986809420646046 0.003907291375121069 0 0.0035253713513751978 0.0042470518599399916 0 0.0038346598249722795 0.0043566179472130954 0 0.0035253713513751978 0.0042470518599399916 0 0.0038346598249722795 0.0043566179472130954 0 0.0036807868116564765 0.0047568216792172203 0 0.0035253713513751978 0.0042470518599399916 0 0.0036807868116564765 0.0047568216792172203 0 0.0033007240366366691 0.0049910854950851449 0 0.0036807868116564765 0.0047568216792172203 0 0.0036927850667405585 0.0051470801570600612 0 0.0033007240366366691 0.0049910854950851449 0 0.0040612622121717337 0.0047071902290021766 0 0.0036927850667405585 0.0051470801570600612 0 0.0038551158249179691 0.0052554492761253194 0 0.0038346598249722795 0.0043566179472130954 0 0.0036807868116564765 0.0047568216792172203 0 0.0040612622121717337 0.0047071902290021766 0 0.0036807868116564765 0.0047568216792172203 0 0.0040612622121717337 0.0047071902290021766 0 0.0036927850667405585 0.0051470801570600612 0 0.0036927850667405585 0.0051470801570600612 0 0.0035217673765420318 0.0054117800449165433 0 0.0036846272275982564 0.0055851509701608576 0 0.0036927850667405585 0.0051470801570600612 0 0.0036846272275982564 0.0055851509701608576 0 0.0038551158249179691 0.0052554492761253194 0 0.0036927850667405585 0.0051470801570600612 0 0.0035217673765420318 0.0054117800449165433 0 0.0033007240366366691 0.0049910854950851449 0 0.0035217673765420318 0.0054117800449165433 0 0.0031052538953160653 0.0055156947739078031 0 0.0033007240366366691 0.0049910854950851449 0 0.0034785990511982455 0.0056385036856731515 0 0.0035217673765420318 0.0054117800449165433 0 0.0031052538953160653 0.0055156947739078031 0 0.0034785990511982455 0.0056385036856731515 0 0.0035217673765420318 0.0054117800449165433 0 0.003593567070150518 0.0055496893845856923 0 0.0035217673765420318 0.0054117800449165433 0 0.0036846272275982564 0.0055851509701608576 0 0.003593567070150518 0.0055496893845856923 0 0.0036168852839837131 0.0055559875798879112 0 0.0036846272275982564 0.0055851509701608576 0 0.0036203585299868584 0.0054878849571794114 0 0.0036168852839837131 0.0055559875798879112 0 0.0036846272275982564 0.0055851509701608576 0 0.003593567070150518 0.0055496893845856923 0 0.0036846272275982564 0.0055851509701608576 0 0.0036203585299868584 0.0054878849571794114 0 0.003650801439619523 0.0057592169322611729 0 0.0036846272275982564 0.0055851509701608576 0 0.003650801439619523 0.0057592169322611729 0 0.0037380008405922009 0.0056146402145374604 0 0.003650801439619523 0.0057592169322611729 0 0.0032972613034527479 0.0062811887703829779 0 0.0037380008405922009 0.0056146402145374604 0 0.0032972613034527479 0.0062811887703829779 0 0.0039290591744656263 0.0056747069286272349 0 0.0037380008405922009 0.0056146402145374604 0 0.0036203585299868584 0.0054878849571794114 0 0.003650801439619523 0.0057592169322611729 0 0.0034793567758909577 0.0052556608073263998 0 0.003650801439619523 0.0057592169322611729 0 0.0032972613034527479 0.0062811887703829779 0 0.0034793567758909577 0.0052556608073263998 0 -0.0015398877176900033 0.0070185245192589023 0 0.0030149883110525094 0.0063709087893571419 0 -0.0084634672324609174 0.0084220682465726247 0 0.0032972613034527479 0.0062811887703829779 0 -0.00031940853898146425 0.004930657250013664 0 0.0052892668206622794 0.0057982887124863082 0 0.0047057539441950824 0.0055017237575953198 0 0.0032972613034527479 0.0062811887703829779 0 0.0047057539441950824 0.0055017237575953198 0 0.0032972613034527479 0.0062811887703829779 0 0.0039290591744656263 0.0056747069286272349 0 0.0032972613034527479 0.0062811887703829779 0 0.0034793567758909577 0.0052556608073263998 0 -0.00031940853898146425 0.004930657250013664 0 -0.0016899622525863751 0.0030292939140296495 0 -0.0084634672324609174 0.0084220682465726247 0 -0.00031940853898146425 0.004930657250013664 0 0.0039290591744656263 0.0056747069286272349 0 0.0041661917656077765 0.0053667005298366046 0 0.0037380008405922009 0.0056146402145374604 0 0.0047057539441950824 0.0055017237575953198 0 0.0039290591744656263 0.0056747069286272349 0 0.0041661917656077765 0.0053667005298366046 0 0.0047057539441950824 0.0055017237575953198 0 0.0046398226895500768 0.0050381850623475088 0 0.0041661917656077765 0.0053667005298366046 0 0.0046398226895500768 0.0050381850623475088 0 0.0041661917656077765 0.0053667005298366046 0 0.0041398413581211664 0.0051247734798174783 0 0.0041398413581211664 0.0051247734798174783 0 0.0038551158249179691 0.0052554492761253194 0 0.0037380008405922009 0.0056146402145374604 0 0.0041661917656077765 0.0053667005298366046 0 0.0041398413581211664 0.0051247734798174783 0 0.0037380008405922009 0.0056146402145374604 0 0.0036846272275982564 0.0055851509701608576 0 0.0038551158249179691 0.0052554492761253194 0 0.0037380008405922009 0.0056146402145374604 0 0.0021376501553562145 0.0049321595740431318 0 0.0019036223059332796 0.0054178185021251189 0 0.0024966126068720878 0.0054894518309754458 0 0.0021376501553562145 0.0049321595740431318 0 0.0024966126068720878 0.0054894518309754458 0 0.0026980749710087781 0.0049072090243150717 0 0.0021376501553562145 0.0049321595740431318 0 0.0015657435743301668 0.0051148144222548332 0 0.0016807001783909533 0.0045488376995665419 0 0.0021376501553562145 0.0049321595740431318 0 0.0015657435743301668 0.0051148144222548332 0 0.0019036223059332796 0.0054178185021251189 0 0.0015657435743301668 0.0051148144222548332 0 0.0019036223059332796 0.0054178185021251189 0 0.0014735106796484553 0.0056199550586514598 0 0.0017981725550023013 0.0059018526550248711 0 0.0019036223059332796 0.0054178185021251189 0 0.0014735106796484553 0.0056199550586514598 0 0.0017981725550023013 0.0059018526550248711 0 0.0019036223059332796 0.0054178185021251189 0 0.0024966126068720878 0.0054894518309754458 0 0.0024966126068720878 0.0054894518309754458 0 0.0031052538953160653 0.0055156947739078031 0 0.0029233835529259523 0.005222155875165454 0 0.0025550437958103255 0.0059226293719287408 0 0.0024966126068720878 0.0054894518309754458 0 0.0031052538953160653 0.0055156947739078031 0 0.0033007240366366691 0.0049910854950851449 0 0.0029233835529259523 0.005222155875165454 0 0.0026980749710087781 0.0049072090243150717 0 0.0031052538953160653 0.0055156947739078031 0 0.0033007240366366691 0.0049910854950851449 0 0.0029233835529259523 0.005222155875165454 0 0.0024966126068720878 0.0054894518309754458 0 0.0029233835529259523 0.005222155875165454 0 0.0026980749710087781 0.0049072090243150717 0 0.0026980749710087781 0.0049072090243150717 0 0.0029927433400439496 0.0044359157483224625 0 0.0023934725163430827 0.0042486940726945794 0 0.0035253713513751978 0.0042470518599399916 0 0.0033007240366366691 0.0049910854950851449 0 0.0029927433400439496 0.0044359157483224625 0 0.0033007240366366691 0.0049910854950851449 0 0.0026980749710087781 0.0049072090243150717 0 0.0029927433400439496 0.0044359157483224625 0 0.0035253713513751978 0.0042470518599399916 0 0.0029927433400439496 0.0044359157483224625 0 0.0032782987664442716 0.0038015037621768862 0 0.0029927433400439496 0.0044359157483224625 0 0.0028140127932665369 0.0040025768334354846 0 0.0023934725163430827 0.0042486940726945794 0 0.0029927433400439496 0.0044359157483224625 0 0.0028140127932665369 0.0040025768334354846 0 0.0032782987664442716 0.0038015037621768862 0 0.0028140127932665369 0.0040025768334354846 0 0.0023934725163430827 0.0042486940726945794 0 0.0023442328890942912 0.003779469083711674 0 0.0023934725163430827 0.0042486940726945794 0 0.0017549025351047708 0.0038944564229513043 0 0.0023442328890942912 0.003779469083711674 0 0.0021376501553562145 0.0049321595740431318 0 0.0023934725163430827 0.0042486940726945794 0 0.0016807001783909533 0.0045488376995665419 0 0.0021376501553562145 0.0049321595740431318 0 0.0026980749710087781 0.0049072090243150717 0 0.0023934725163430827 0.0042486940726945794 0 0.0023934725163430827 0.0042486940726945794 0 0.0016807001783909533 0.0045488376995665419 0 0.0017549025351047708 0.0038944564229513043 0 0.0011560475699591104 0.0043295744390878686 0 0.0016807001783909533 0.0045488376995665419 0 0.0017549025351047708 0.0038944564229513043 0 0.0017549025351047708 0.0038944564229513043 0 0.002095444318559602 0.0033828741983622235 0 0.0023442328890942912 0.003779469083711674 0 0.0016618428483570428 0.0033177888259968901 0 0.0017549025351047708 0.0038944564229513043 0 0.002095444318559602 0.0033828741983622235 0 0.002095444318559602 0.0033828741983622235 0 0.0023442328890942912 0.003779469083711674 0 0.0027373021621191923 0.0034891346220560153 0 0.0028140127932665369 0.0040025768334354846 0 0.0023442328890942912 0.003779469083711674 0 0.0027373021621191923 0.0034891346220560153 0 0.002095444318559602 0.0033828741983622235 0 0.002360720981525192 0.0030747601892503426 0 0.0027373021621191923 0.0034891346220560153 0 0.002360720981525192 0.0030747601892503426 0 0.0027373021621191923 0.0034891346220560153 0 0.0028471769315684733 0.0030326400536534819 0 0.002360720981525192 0.0030747601892503426 0 0.0028471769315684733 0.0030326400536534819 0 0.002254686326187035 0.0026388840267726364 0 0.002360720981525192 0.0030747601892503426 0 0.0019568338390985101 0.0030438960593157476 0 0.002254686326187035 0.0026388840267726364 0 0.0016618428483570428 0.0033177888259968901 0 0.0014621475021422763 0.0027887726045696623 0 0.0019568338390985101 0.0030438960593157476 0 0.0016618428483570428 0.0033177888259968901 0 0.002095444318559602 0.0033828741983622235 0 0.0019568338390985101 0.0030438960593157476 0 0.002095444318559602 0.0033828741983622235 0 0.002360720981525192 0.0030747601892503426 0 0.0019568338390985101 0.0030438960593157476 0 0.0037732626693220855 0.0034230531938554292 0 0.0032782987664442716 0.0038015037621768862 0 0.0033137644609664086 0.0032640676693375405 0 0.0037732626693220855 0.0034230531938554292 0 0.0035253713513751978 0.0042470518599399916 0 0.0032782987664442716 0.0038015037621768862 0 0.0032782987664442716 0.0038015037621768862 0 0.0027373021621191923 0.0034891346220560153 0 0.0033137644609664086 0.0032640676693375405 0 0.0028140127932665369 0.0040025768334354846 0 0.0032782987664442716 0.0038015037621768862 0 0.0027373021621191923 0.0034891346220560153 0 0.0028471769315684733 0.0030326400536534819 0 0.0033137644609664086 0.0032640676693375405 0 0.0035006199454491486 0.0025468809391990229 0 0.0027373021621191923 0.0034891346220560153 0 0.0028471769315684733 0.0030326400536534819 0 0.0033137644609664086 0.0032640676693375405 0 0.0037732626693220855 0.0034230531938554292 0 0.0033137644609664086 0.0032640676693375405 0 0.0037447786018721765 0.0029234916805911185 0 0.0033137644609664086 0.0032640676693375405 0 0.0037447786018721765 0.0029234916805911185 0 0.0035006199454491486 0.0025468809391990229 0 0.0041758963083287481 0.0026249017560034198 0 0.0037447786018721765 0.0029234916805911185 0 0.0035006199454491486 0.0025468809391990229 0 0.0028471769315684733 0.0030326400536534819 0 0.0035006199454491486 0.0025468809391990229 0 0.002254686326187035 0.0026388840267726364 0 0.0040673231264557507 0.0019536627031286856 0 0.0034600870353055876 0.0020993760935883363 0 0.0038748422004215937 0.0016847947250406836 0 0.0035006199454491486 0.0025468809391990229 0 0.0040673231264557507 0.0019536627031286856 0 0.0034600870353055876 0.0020993760935883363 0 0.0041758963083287481 0.0026249017560034198 0 0.0035006199454491486 0.0025468809391990229 0 0.0040673231264557507 0.0019536627031286856 0 0.002065214915768593 0.002627082718206638 0 0.0030054468373291255 0.0023042650978347336 0 0.0014621475021422763 0.0027887726045696623 0 0.0019568338390985101 0.0030438960593157476 0 0.002254686326187035 0.0026388840267726364 0 0.002065214915768593 0.002627082718206638 0 0.0027169906154940566 0.0025908412044968513 0 0.0025539071507185147 0.0025917010706464098 0 0.0030122187356280872 0.0023237314105036787 0 0.0031762451659894074 0.0025089001201452407 0 0.0030122187356280872 0.0023237314105036787 0 0.0031762451659894074 0.0025089001201452407 0 0.0034600870353055876 0.0020993760935883363 0 0.0035006199454491486 0.0025468809391990229 0 0.0031762451659894074 0.0025089001201452407 0 0.0034600870353055876 0.0020993760935883363 0 0.0034576483823874587 0.0025360212266695705 0 0.0027169906154940566 0.0025908412044968513 0 0.002869681603017715 0.0023292253516209982 0 0.0034600870353055876 0.0020993760935883363 0 0.0028619416892594705 0.0019261721770767197 0 0.0034600870353055876 0.0020993760935883363 0 0.0028619416892594705 0.0019261721770767197 0 0.0032997418334232711 0.0016299184970748812 0 0.0030054468373291255 0.0023042650978347336 0 0.0033961317964455902 0.0021154000303614255 0 0.0021819323246227845 0.0022273006937553515 0 0.0023955098985833177 0.0019529210046863555 0 0.002869681603017715 0.0023292253516209982 0 0.0023955098985833177 0.0019529210046863555 0 0.002869681603017715 0.0023292253516209982 0 0.0028619416892594705 0.0019261721770767197 0 0.0023955098985833177 0.0019529210046863555 0 0.0028619416892594705 0.0019261721770767197 0 0.0023183017830243464 0.0016053690188862564 0 0.0028619416892594705 0.0019261721770767197 0 0.0027961255197568218 0.0015651738778891123 0 0.0023183017830243464 0.0016053690188862564 0 0.0027961255197568218 0.0015651738778891123 0 0.0023352073221206645 0.0012384512910293248 0 0.0023183017830243464 0.0016053690188862564 0 0.0027961255197568218 0.0015651738778891123 0 0.0029222869832302126 0.0011774204341887344 0 0.0023352073221206645 0.0012384512910293248 0 0.0027961255197568218 0.0015651738778891123 0 0.0032997418334232711 0.0016299184970748812 0 0.0029222869832302126 0.0011774204341887344 0 0.0028619416892594705 0.0019261721770767197 0 0.0027961255197568218 0.0015651738778891123 0 0.0032997418334232711 0.0016299184970748812 0 0.0032997418334232711 0.0016299184970748812 0 0.0038748422004215937 0.0016847947250406836 0 0.0039155455667529747 0.0011836551000109839 0 0.0032997418334232711 0.0016299184970748812 0 0.0029222869832302126 0.0011774204341887344 0 0.0039155455667529747 0.0011836551000109839 0 0.0034600870353055876 0.0020993760935883363 0 0.0032997418334232711 0.0016299184970748812 0 0.0038748422004215937 0.0016847947250406836 0 0.0029741129777099209 0.00064989432186070934 0 0.0029222869832302126 0.0011774204341887344 0 0.0039155455667529747 0.0011836551000109839 0 0.003650478640942526 0.0008112260841383796 0 0.0039368486989602844 0.0011203845973877214 0 0.0043220007647042143 0.00090852665012070661 0 0.0039155455667529747 0.0011836551000109839 0 0.0043319241949189968 0.00091086384190970399 0 0.0029741129777099209 0.00064989432186070934 0 0.0024498598739622467 0.00075013440091507768 0 0.002193264833630543 0.00035575254698374235 0 0.0029222869832302126 0.0011774204341887344 0 0.0024498598739622467 0.00075013440091507768 0 0.0023352073221206645 0.0012384512910293248 0 0.0029741129777099209 0.00064989432186070934 0 0.0029222869832302126 0.0011774204341887344 0 0.0024498598739622467 0.00075013440091507768 0 0.0040673231264557507 0.0019536627031286856 0 0.0043994354939815745 0.0012859471487151961 0 0.0045739862459971675 0.0016264492072324611 0 0.0040673231264557507 0.0019536627031286856 0 0.0038748422004215937 0.0016847947250406836 0 0.0043994354939815745 0.0012859471487151961 0 0.0039155455667529747 0.0011836551000109839 0 0.0043994354939815745 0.0012859471487151961 0 0.004467956584394841 0.00088732904122408693 0 0.0038748422004215937 0.0016847947250406836 0 0.0039155455667529747 0.0011836551000109839 0 0.0043994354939815745 0.0012859471487151961 0 0.0043994354939815745 0.0012859471487151961 0 0.004467956584394841 0.00088732904122408693 0 0.0049068550220254447 0.00079000177481436124 0 0.0039155455667529747 0.0011836551000109839 0 0.004467956584394841 0.00088732904122408693 0 0.0043319241949189968 0.00091086384190970399 0 0.004467956584394841 0.00088732904122408693 0 0.0045280183510246668 0.00074383039114504649 0 0.0048378123455590175 0.00053472571329557647 0 0.004467956584394841 0.00088732904122408693 0 0.0048378123455590175 0.00053472571329557647 0 0.0049068550220254447 0.00079000177481436124 0 0.0043220007647042143 0.00090852665012070661 0 0.0043948104665226485 0.00085395451239966911 0 0.0044383694636809853 0.000809523840994616 0 0.0043948104665226485 0.00085395451239966911 0 0.0043319241949189968 0.00091086384190970399 0 0.0044877147082940947 0.00075298509382681336 0 0.003650478640942526 0.0008112260841383796 0 0.0033333571311966715 0.00060444545485664714 0 0.0043948104665226485 0.00085395451239966911 0 0.0044877147082940947 0.00075298509382681336 0 0.0044486838664415359 0.00079200507685682541 0 0.0043220007647042143 0.00090852665012070661 0 0.0043948104665226485 0.00085395451239966911 0 0.0043319241949189968 0.00091086384190970399 0 0.0043948104665226485 0.00085395451239966911 0 0.0044486838664415359 0.00079200507685682541 0 0.0044329025916694147 0.00081397547966942331 0 0.004467956584394841 0.00088732904122408693 0 0.0043319241949189968 0.00091086384190970399 0 0.0045280183510246668 0.00074383039114504649 0 0.0043319241949189968 0.00091086384190970399 0 0.0045280183510246668 0.00074383039114504649 0 0.0044877147082940947 0.00075298509382681336 0 0.0045280183510246668 0.00074383039114504649 0 0.0044877147082940947 0.00075298509382681336 0 0.0046641962856850492 0.00055454058853714281 0 0.0044877147082940947 0.00075298509382681336 0 0.004503059698837711 0.00069723586376157641 0 0.0044486838664415359 0.00079200507685682541 0 0.0044877147082940947 0.00075298509382681336 0 0.0046184556669200795 0.00054082277401031791 0 0.004503059698837711 0.00069723586376157641 0 0.0046184556669200795 0.00054082277401031791 0 0.0047933492285358757 0.0002922521103052697 0 0.0046641962856850492 0.00055454058853714281 0 0.0044877147082940947 0.00075298509382681336 0 0.0046184556669200795 0.00054082277401031791 0 0.0046641962856850492 0.00055454058853714281 0 0.0046184556669200795 0.00054082277401031791 0 0.0047001218539169344 0.00036052309215275642 0 0.0047933492285358757 0.0002922521103052697 0 0.0047001218539169344 0.00036052309215275642 0 0.0047933492285358757 0.0002922521103052697 0 0.004832175692709711 9.2358093600980576e-05 0 0.0047933492285358757 0.0002922521103052697 0 0.0046641962856850492 0.00055454058853714281 0 0.0049653448707691105 0.00023504326614802313 0 0.0046641962856850492 0.00055454058853714281 0 0.0048378123455590175 0.00053472571329557647 0 0.0049653448707691105 0.00023504326614802313 0 0.0045280183510246668 0.00074383039114504649 0 0.0046641962856850492 0.00055454058853714281 0 0.0048378123455590175 0.00053472571329557647 0 0.0048378123455590175 0.00053472571329557647 0 0.0052765586348527552 0.00039776803315330563 0 0.0049068550220254447 0.00079000177481436124 0 0.0048378123455590175 0.00053472571329557647 0 0.0052745456797959004 9.8572894964980276e-05 0 0.0052765586348527552 0.00039776803315330563 0 0.0048378123455590175 0.00053472571329557647 0 0.0049653448707691105 0.00023504326614802313 0 0.0052745456797959004 9.8572894964980276e-05 0 0.0049653448707691105 0.00023504326614802313 0 0.0052446058368763289 -7.2189473964597993e-05 0 0.0052745456797959004 9.8572894964980276e-05 0 0.0049653448707691105 0.00023504326614802313 0 0.0052446058368763289 -7.2189473964597993e-05 0 0.0050144446909759976 -7.0354201121569944e-05 0 0.0052446058368763289 -7.2189473964597993e-05 0 0.0052745456797959004 9.8572894964980276e-05 0 0.0055573873510103644 -0.00027755627984310185 0 0.0052446058368763289 -7.2189473964597993e-05 0 0.0054112092147959598 -0.0003631819240970077 0 0.0055573873510103644 -0.00027755627984310185 0 0.0052446058368763289 -7.2189473964597993e-05 0 0.0054112092147959598 -0.0003631819240970077 0 0.0050144446909759976 -7.0354201121569944e-05 0 0.0054112092147959598 -0.0003631819240970077 0 0.0050144446909759976 -7.0354201121569944e-05 0 0.0051199618789284076 -0.00047708086155051952 0 0.0050144446909759976 -7.0354201121569944e-05 0 0.0051199618789284076 -0.00047708086155051952 0 0.0046665138602062341 -0.00032083324300412108 0 0.0050144446909759976 -7.0354201121569944e-05 0 0.004832175692709711 9.2358093600980576e-05 0 0.0046665138602062341 -0.00032083324300412108 0 0.0049047451938226188 6.4702416719689251e-05 0 0.0046739110468715104 -0.00037772486354778869 0 0.0047933492285358757 0.0002922521103052697 0 0.0050144446909759976 -7.0354201121569944e-05 0 0.004832175692709711 9.2358093600980576e-05 0 0.0047933492285358757 0.0002922521103052697 0 0.0049653448707691105 0.00023504326614802313 0 0.0050144446909759976 -7.0354201121569944e-05 0 0.0060948641300284344 -0.0001006356490242138 0 0.005933662373180955 -0.00030055883461825908 0 0.0056771209352286392 -5.7083533784016522e-05 0 0.0060948641300284344 -0.0001006356490242138 0 0.0065028454412385025 -0.00047586070595239625 0 0.0065889118743641256 -0.00011211726582335951 0 0.0065028454412385025 -0.00047586070595239625 0 0.006198794856456945 -0.00047582695306267212 0 0.0063748942070643569 -0.00066298377194623742 0 0.0060948641300284344 -0.0001006356490242138 0 0.0065028454412385025 -0.00047586070595239625 0 0.006198794856456945 -0.00047582695306267212 0 0.0060948641300284344 -0.0001006356490242138 0 0.006198794856456945 -0.00047582695306267212 0 0.005933662373180955 -0.00030055883461825908 0 0.006198794856456945 -0.00047582695306267212 0 0.005933662373180955 -0.00030055883461825908 0 0.0061218248344597891 -0.00063832885314748882 0 0.005933662373180955 -0.00030055883461825908 0 0.0058453508493609158 -0.00047139547441046842 0 0.0061218248344597891 -0.00063832885314748882 0 0.005933662373180955 -0.00030055883461825908 0 0.0058453508493609158 -0.00047139547441046842 0 0.0056771209352286392 -5.7083533784016522e-05 0 0.0058453508493609158 -0.00047139547441046842 0 0.0055573873510103644 -0.00027755627984310185 0 0.0056771209352286392 -5.7083533784016522e-05 0 0.0058453508493609158 -0.00047139547441046842 0 0.0055573873510103644 -0.00027755627984310185 0 0.0058017877845525428 -0.00067585964670949022 0 0.0052745456797959004 9.8572894964980276e-05 0 0.0055573873510103644 -0.00027755627984310185 0 0.0056771209352286392 -5.7083533784016522e-05 0 0.0056771209352286392 -5.7083533784016522e-05 0 0.0052765586348527552 0.00039776803315330563 0 0.0056854460315986467 0.00045318079879942425 0 0.0052745456797959004 9.8572894964980276e-05 0 0.0056771209352286392 -5.7083533784016522e-05 0 0.0052765586348527552 0.00039776803315330563 0 0.0052765586348527552 0.00039776803315330563 0 0.0056854460315986467 0.00045318079879942425 0 0.005283935392927078 0.00075903643841480743 0 0.0060948641300284344 -0.0001006356490242138 0 0.0056854460315986467 0.00045318079879942425 0 0.0062214890163020727 0.00029087148253015169 0 0.0060948641300284344 -0.0001006356490242138 0 0.0056771209352286392 -5.7083533784016522e-05 0 0.0056854460315986467 0.00045318079879942425 0 0.0060948641300284344 -0.0001006356490242138 0 0.0062214890163020727 0.00029087148253015169 0 0.0065889118743641256 -0.00011211726582335951 0 0.0056854460315986467 0.00045318079879942425 0 0.0062214890163020727 0.00029087148253015169 0 0.0060448470109458873 0.00068993296508670368 0 0.0056854460315986467 0.00045318079879942425 0 0.0055455159323366272 0.00094361389562878126 0 0.005283935392927078 0.00075903643841480743 0 0.0056854460315986467 0.00045318079879942425 0 0.0055455159323366272 0.00094361389562878126 0 0.0060448470109458873 0.00068993296508670368 0 0.0055455159323366272 0.00094361389562878126 0 0.0050245813648781574 0.0011938088360405126 0 0.0054747913481505281 0.0015739270442675815 0 0.0055455159323366272 0.00094361389562878126 0 0.0058844264402469811 0.0011693368926131414 0 0.0060448470109458873 0.00068993296508670368 0 0.0055455159323366272 0.00094361389562878126 0 0.0058844264402469811 0.0011693368926131414 0 0.0054747913481505281 0.0015739270442675815 0 0.0052765586348527552 0.00039776803315330563 0 0.0049068550220254447 0.00079000177481436124 0 0.005283935392927078 0.00075903643841480743 0 0.0055455159323366272 0.00094361389562878126 0 0.005283935392927078 0.00075903643841480743 0 0.0050245813648781574 0.0011938088360405126 0 0.0049068550220254447 0.00079000177481436124 0 0.005283935392927078 0.00075903643841480743 0 0.0050245813648781574 0.0011938088360405126 0 0.0043994354939815745 0.0012859471487151961 0 0.0049068550220254447 0.00079000177481436124 0 0.0050245813648781574 0.0011938088360405126 0 0.0043994354939815745 0.0012859471487151961 0 0.0050245813648781574 0.0011938088360405126 0 0.0045739862459971675 0.0016264492072324611 0 0.0050245813648781574 0.0011938088360405126 0 0.0049412982413543352 0.0018500018147698657 0 0.0054747913481505281 0.0015739270442675815 0 0.0050245813648781574 0.0011938088360405126 0 0.0049412982413543352 0.0018500018147698657 0 0.0045739862459971675 0.0016264492072324611 0 0.004514022878232429 0.0021086959830537285 0 0.0040673231264557507 0.0019536627031286856 0 0.0045739862459971675 0.0016264492072324611 0 0.004514022878232429 0.0021086959830537285 0 0.0049412982413543352 0.0018500018147698657 0 0.0045739862459971675 0.0016264492072324611 0 0.0058844264402469811 0.0011693368926131414 0 0.0054747913481505281 0.0015739270442675815 0 0.0061463827481227969 0.0016559296120334456 0 0.0052946937033494122 0.0021804719552014759 0 0.0049412982413543352 0.0018500018147698657 0 0.0054747913481505281 0.0015739270442675815 0 0.0052946937033494122 0.0021804719552014759 0 0.0054747913481505281 0.0015739270442675815 0 0.0057079729639128874 0.0021471231825554242 0 0.0054747913481505281 0.0015739270442675815 0 0.0057079729639128874 0.0021471231825554242 0 0.0061463827481227969 0.0016559296120334456 0 0.0062613502927116316 0.0026460419049542994 0 0.0057079729639128874 0.0021471231825554242 0 0.0061463827481227969 0.0016559296120334456 0 0.0058844264402469811 0.0011693368926131414 0 0.0061463827481227969 0.0016559296120334456 0 0.0063050846111353713 0.0010813547509812833 0 0.0061463827481227969 0.0016559296120334456 0 0.0069510429576699097 0.0012986144482085027 0 0.0063050846111353713 0.0010813547509812833 0 0.0061463827481227969 0.0016559296120334456 0 0.0069510429576699097 0.0012986144482085027 0 0.007025368451447354 0.0019600956961431798 0 0.0063081964224395983 0.0026401152103994485 0 0.0067520350344197604 0.0022909696323171504 0 0.0062613502927116316 0.0026460419049542994 0 0.0061463827481227969 0.0016559296120334456 0 0.007025368451447354 0.0019600956961431798 0 0.0069173559800122303 0.0030439189853726694 0 0.0065226261549912526 0.00262492679068232 0 0.0068708203745612723 0.002627211861165771 0 0.0069173559800122303 0.0030439189853726694 0 0.0070100533028297921 0.0027298971996276562 0 0.0072168388397391356 0.0030052026970419443 0 0.0069483072035631827 0.0029860304228187663 0 0.0070421476535349513 0.0026016265324451705 0 0.0069173559800122303 0.0030439189853726694 0 0.0068708203745612723 0.002627211861165771 0 0.007188387302701423 0.0023556193894951481 0 0.0069173559800122303 0.0030439189853726694 0 0.0072697853777696775 0.003190966395499368 0 0.0072168388397391356 0.0030052026970419443 0 0.0068708203745612723 0.002627211861165771 0 0.0069268198052937395 0.0021645567711861755 0 0.007188387302701423 0.0023556193894951481 0 0.0069510429576699097 0.0012986144482085027 0 0.007025368451447354 0.0019600956961431798 0 0.0076825901956121892 0.0013356741983949856 0 0.0065226261549912526 0.00262492679068232 0 0.0068708203745612723 0.002627211861165771 0 0.0069268198052937395 0.0021645567711861755 0 0.0067520350344197604 0.0022909696323171504 0 0.0073546482075767649 0.0017276251100483335 0 0.0069510429576699097 0.0012986144482085027 0 0.0076825901956121892 0.0013356741983949856 0 0.0072817449961744525 0.00087330390515852655 0 0.0076825901956121892 0.0013356741983949856 0 0.0072817449961744525 0.00087330390515852655 0 0.0077244416244272272 0.0006116722022584466 0 0.0069510429576699097 0.0012986144482085027 0 0.0072817449961744525 0.00087330390515852655 0 0.0067288600674435478 0.00066735835486080584 0 0.0073546482075767649 0.0017276251100483335 0 0.0076217985895798059 0.001133292885474666 0 0.0069268198052937395 0.0021645567711861755 0 0.007188387302701423 0.0023556193894951481 0 0.0074215566085079187 0.001634560931162122 0 0.0076825901956121892 0.0013356741983949856 0 0.0077244416244272272 0.0006116722022584466 0 0.0083960235674958097 0.00062603934091972594 0 0.0077244416244272272 0.0006116722022584466 0 0.0081501459628792548 5.1641374694529306e-05 0 0.0077671252550847109 -0.00017531738135495359 0 0.0077244416244272272 0.0006116722022584466 0 0.0081501459628792548 5.1641374694529306e-05 0 0.0083960235674958097 0.00062603934091972594 0 0.0072817449961744525 0.00087330390515852655 0 0.0072384703323022416 0.00015571006882323483 0 0.0067288600674435478 0.00066735835486080584 0 0.0072817449961744525 0.00087330390515852655 0 0.0077244416244272272 0.0006116722022584466 0 0.0072384703323022416 0.00015571006882323483 0 0.0077244416244272272 0.0006116722022584466 0 0.0072384703323022416 0.00015571006882323483 0 0.0077671252550847109 -0.00017531738135495359 0 0.0072384703323022416 0.00015571006882323483 0 0.0067288600674435478 0.00066735835486080584 0 0.006478842330802888 -0.00047983967745108348 0 0.0060448470109458873 0.00068993296508670368 0 0.0067288600674435478 0.00066735835486080584 0 0.006478842330802888 -0.00047983967745108348 0 0.0058844264402469811 0.0011693368926131414 0 0.0060448470109458873 0.00068993296508670368 0 0.0063050846111353713 0.0010813547509812833 0 0.0060448470109458873 0.00068993296508670368 0 0.0063050846111353713 0.0010813547509812833 0 0.0067288600674435478 0.00066735835486080584 0 0.0069510429576699097 0.0012986144482085027 0 0.0063050846111353713 0.0010813547509812833 0 0.0067288600674435478 0.00066735835486080584 0 0.010649713889614021 0.0035338441628039886 0 0.011868912260654486 0.0019260240737517915 0 0.010308291981769861 0.002122865357070181 0 0.010649713889614021 0.0035338441628039886 0 0.011868912260654486 0.0019260240737517915 0 0.013141655696351132 0.0031059988667373035 0 0.0081473691771357624 0.0031497175037840464 0 0.0081225745599412414 0.0035453277890335855 0 0.0086594141719061723 0.003249415536699587 0 0.0081473691771357624 0.0031497175037840464 0 0.0081225745599412414 0.0035453277890335855 0 0.0082044655740999249 0.0034860723782686159 0 0.0095391337261394957 0.0032412194017388232 0 0.0083505727576984341 0.0035174176932653871 0 0.0079479184476618555 0.0035703018483624989 0 0.0081225745599412414 0.0035453277890335855 0 0.0082044655740999249 0.0034860723782686159 0 0.010649713889614021 0.0035338441628039886 0 0.0094150568838426395 0.0028391070919780177 0 0.010308291981769861 0.002122865357070181 0 0.0082044655740999249 0.0034860723782686159 0 0.0094150568838426395 0.0028391070919780177 0 0.0085621986488952917 0.0027177572266991624 0 0.010649713889614021 0.0035338441628039886 0 0.0082044655740999249 0.0034860723782686159 0 0.0094150568838426395 0.0028391070919780177 0 0.0094150568838426395 0.0028391070919780177 0 0.0085621986488952917 0.0027177572266991624 0 0.0092141366751805794 0.0019824064338014747 0 0.0082044655740999249 0.0034860723782686159 0 0.0085621986488952917 0.0027177572266991624 0 0.0079472380052936758 0.002946530712099485 0 0.0085621986488952917 0.0027177572266991624 0 0.0078595398522194274 0.0023639870645065786 0 0.0084713761121063321 0.0020036085100444486 0 0.0085621986488952917 0.0027177572266991624 0 0.0079472380052936758 0.002946530712099485 0 0.0078595398522194274 0.0023639870645065786 0 0.0082044655740999249 0.0034860723782686159 0 0.0079472380052936758 0.002946530712099485 0 0.0075943868030674605 0.0031780799147578167 0 0.0075837829861161391 0.0034754649386381487 0 0.0082044655740999249 0.0034860723782686159 0 0.0075943868030674605 0.0031780799147578167 0 0.0079472380052936758 0.002946530712099485 0 0.0075943868030674605 0.0031780799147578167 0 0.0074815397051463586 0.0028034538935836151 0 0.0075943868030674605 0.0031780799147578167 0 0.0072168388397391356 0.0030052026970419443 0 0.0074815397051463586 0.0028034538935836151 0 0.0075943868030674605 0.0031780799147578167 0 0.0072697853777696775 0.003190966395499368 0 0.0072168388397391356 0.0030052026970419443 0 0.0070100533028297921 0.0027298971996276562 0 0.0072168388397391356 0.0030052026970419443 0 0.0074815397051463586 0.0028034538935836151 0 0.0079472380052936758 0.002946530712099485 0 0.0074815397051463586 0.0028034538935836151 0 0.0078595398522194274 0.0023639870645065786 0 0.0074815397051463586 0.0028034538935836151 0 0.0078595398522194274 0.0023639870645065786 0 0.0074274614428531021 0.0022616554027535874 0 0.0070100533028297921 0.0027298971996276562 0 0.0074815397051463586 0.0028034538935836151 0 0.0074274614428531021 0.0022616554027535874 0 0.0070421476535349513 0.0026016265324451705 0 0.0076217985895798059 0.001133292885474666 0 0.0070100533028297921 0.0027298971996276562 0 0.0074274614428531021 0.0022616554027535874 0 0.0071889532620729446 0.0013078283213259706 0 0.0074274614428531021 0.0022616554027535874 0 0.0076019433950150431 0.0018181329415855553 0 0.0071889532620729446 0.0013078283213259706 0 0.0078595398522194274 0.0023639870645065786 0 0.0076019433950150431 0.0018181329415855553 0 0.0080540891723220251 0.0014699262979447944 0 0.0078595398522194274 0.0023639870645065786 0 0.0074274614428531021 0.0022616554027535874 0 0.0076019433950150431 0.0018181329415855553 0 0.0076019433950150431 0.0018181329415855553 0 0.0071889532620729446 0.0013078283213259706 0 0.0080540891723220251 0.0014699262979447944 0 0.0081501459628792548 5.1641374694529306e-05 0 0.0083960235674958097 0.00062603934091972594 0 0.0086859004774861165 -0.00034493493842663797 0 0.0072519625058160469 0.0011724838082610228 0 0.0080335904454493807 0.00037661315731664195 0 0.0078371786590678248 -0.00033229302181381589 0 0.0076217985895798059 0.001133292885474666 0 0.0082956170127382427 -0.00037845019895084962 0 0.0071889532620729446 0.0013078283213259706 0 0.0080335904454493807 0.00037661315731664195 0 0.0080540891723220251 0.0014699262979447944 0 0.0076217985895798059 0.001133292885474666 0 0.0078680121467534173 0.00058231503369594374 0 0.0080335904454493807 0.00037661315731664195 0 0.0085479433126315844 0.00071673519141941409 0 0.0080540891723220251 0.0014699262979447944 0 0.0080335904454493807 0.00037661315731664195 0 0.0085479433126315844 0.00071673519141941409 0 0.0087101617562024159 5.210075997674419e-06 0 0.0085479433126315844 0.00071673519141941409 0 0.0087101617562024159 5.210075997674419e-06 0 0.0091495315849411656 0.00041841727634937885 0 0.0087101617562024159 5.210075997674419e-06 0 0.0091495315849411656 0.00041841727634937885 0 0.0092509296592696959 -0.00033545532258290865 0 0.0085479433126315844 0.00071673519141941409 0 0.0091495315849411656 0.00041841727634937885 0 0.0088247353389362265 0.001291077691801221 0 0.0088247353389362265 0.001291077691801221 0 0.0080540891723220251 0.0014699262979447944 0 0.0084713761121063321 0.0020036085100444486 0 0.0085479433126315844 0.00071673519141941409 0 0.0088247353389362265 0.001291077691801221 0 0.0080540891723220251 0.0014699262979447944 0 0.0078595398522194274 0.0023639870645065786 0 0.0080540891723220251 0.0014699262979447944 0 0.0084713761121063321 0.0020036085100444486 0 0.0085621986488952917 0.0027177572266991624 0 0.0084713761121063321 0.0020036085100444486 0 0.0092141366751805794 0.0019824064338014747 0 0.0088247353389362265 0.001291077691801221 0 0.0084713761121063321 0.0020036085100444486 0 0.0092141366751805794 0.0019824064338014747 0 0.0094150568838426395 0.0028391070919780177 0 0.0092141366751805794 0.0019824064338014747 0 0.010308291981769861 0.002122865357070181 0 0.0092141366751805794 0.0019824064338014747 0 0.0097916431610282871 0.00096767565419936892 0 0.010308291981769861 0.002122865357070181 0 0.0097916431610282871 0.00096767565419936892 0 0.01098503723813379 0.00092264941064994959 0 0.010308291981769861 0.002122865357070181 0 0.0088247353389362265 0.001291077691801221 0 0.0092141366751805794 0.0019824064338014747 0 0.0097916431610282871 0.00096767565419936892 0 0.0091495315849411656 0.00041841727634937885 0 0.0088247353389362265 0.001291077691801221 0 0.0097916431610282871 0.00096767565419936892 0 0.0091495315849411656 0.00041841727634937885 0 0.0097916431610282871 0.00096767565419936892 0 0.009913416530567867 -0.0002339358506450399 0 0.0091495315849411656 0.00041841727634937885 0 0.009913416530567867 -0.0002339358506450399 0 0.0092509296592696959 -0.00033545532258290865 0 0.01043492134142613 0.00033994279979598165 0 0.0097916431610282871 0.00096767565419936892 0 0.009913416530567867 -0.0002339358506450399 0 0.01043492134142613 0.00033994279979598165 0 0.011090714457868044 -0.00028669983259765907 0 0.009913416530567867 -0.0002339358506450399 0 0.01043492134142613 0.00033994279979598165 0 0.0097916431610282871 0.00096767565419936892 0 0.01098503723813379 0.00092264941064994959 0 0.01098503723813379 0.00092264941064994959 0 0.011090714457868044 -0.00028669983259765907 0 0.01278952549594279 -4.2611231664879834e-05 0 0.01098503723813379 0.00092264941064994959 0 0.011868912260654486 0.0019260240737517915 0 0.01278952549594279 -4.2611231664879834e-05 0 0.01043492134142613 0.00033994279979598165 0 0.01098503723813379 0.00092264941064994959 0 0.011090714457868044 -0.00028669983259765907 0 0.01098503723813379 0.00092264941064994959 0 0.011868912260654486 0.0019260240737517915 0 0.010308291981769861 0.002122865357070181 0 0.010592067807969485 -0.0010607192002528331 0 0.010209485281660234 -0.0021158134140314153 0 0.012107622482940686 -0.0014750156541425451 0 0.011738945179613823 -0.0028957051401695883 0 0.010296430679869848 -0.0026863841052225368 0 0.012107622482940686 -0.0014750156541425451 0 0.012525969219209796 -0.0023127759467669912 0 0.011206349629058686 -0.0017237208963950855 0 0.014723041957996424 -0.0032778611925277129 0 0.012525969219209796 -0.0023127759467669912 0 0.011090714457868044 -0.00028669983259765907 0 0.01278952549594279 -4.2611231664879834e-05 0 0.012107622482940686 -0.0014750156541425451 0 0.011090714457868044 -0.00028669983259765907 0 0.010592067807969485 -0.0010607192002528331 0 0.012107622482940686 -0.0014750156541425451 0 0.010592067807969485 -0.0010607192002528331 0 0.009913416530567867 -0.0002339358506450399 0 0.0095328827865748429 -0.0010743174064740096 0 0.011090714457868044 -0.00028669983259765907 0 0.010592067807969485 -0.0010607192002528331 0 0.009913416530567867 -0.0002339358506450399 0 0.009913416530567867 -0.0002339358506450399 0 0.0095328827865748429 -0.0010743174064740096 0 0.0092509296592696959 -0.00033545532258290865 0 0.010592067807969485 -0.0010607192002528331 0 0.0095328827865748429 -0.0010743174064740096 0 0.010209485281660234 -0.0021158134140314153 0 0.0095328827865748429 -0.0010743174064740096 0 0.010209485281660234 -0.0021158134140314153 0 0.0091803348667836224 -0.0016463159983808673 0 0.012525969219209796 -0.0023127759467669912 0 0.0085789295408316389 -0.0016299262784409021 0 0.009597345798339825 -0.0016987182141732535 0 0.0091803348667836224 -0.0016463159983808673 0 0.0089812955640632824 -0.0017548126612477784 0 0.0087495938140416535 -0.0014631935282976255 0 0.0089438027501259343 -0.0011380068921012685 0 0.008514649332660917 -0.00060895291615006169 0 0.0091803348667836224 -0.0016463159983808673 0 0.0087495938140416535 -0.0014631935282976255 0 0.0089812955640632824 -0.0017548126612477784 0 0.0091803348667836224 -0.0016463159983808673 0 0.0087495938140416535 -0.0014631935282976255 0 0.0089438027501259343 -0.0011380068921012685 0 0.0095328827865748429 -0.0010743174064740096 0 0.0091803348667836224 -0.0016463159983808673 0 0.0089438027501259343 -0.0011380068921012685 0 0.0095328827865748429 -0.0010743174064740096 0 0.0089560355293343882 -0.00072405098220475672 0 0.0092509296592696959 -0.00033545532258290865 0 0.0095328827865748429 -0.0010743174064740096 0 0.0089438027501259343 -0.0011380068921012685 0 0.0089560355293343882 -0.00072405098220475672 0 0.0087101617562024159 5.210075997674419e-06 0 0.0089560355293343882 -0.00072405098220475672 0 0.0092509296592696959 -0.00033545532258290865 0 0.0087101617562024159 5.210075997674419e-06 0 0.0089560355293343882 -0.00072405098220475672 0 0.008514649332660917 -0.00060895291615006169 0 0.0080335904454493807 0.00037661315731664195 0 0.0087101617562024159 5.210075997674419e-06 0 0.008514649332660917 -0.00060895291615006169 0 0.0089438027501259343 -0.0011380068921012685 0 0.0089560355293343882 -0.00072405098220475672 0 0.008514649332660917 -0.00060895291615006169 0 0.0087495938140416535 -0.0014631935282976255 0 0.0086859004774861165 -0.00034493493842663797 0 0.0083980317851138301 -0.00096734035299057624 0 0.0086649352790213827 -0.001306931685299302 0 0.0082956170127382427 -0.00037845019895084962 0 0.0087495938140416535 -0.0014631935282976255 0 0.008514649332660917 -0.00060895291615006169 0 0.0078371786590678248 -0.00033229302181381589 0 0.0080335904454493807 0.00037661315731664195 0 0.008514649332660917 -0.00060895291615006169 0 0.0078371786590678248 -0.00033229302181381589 0 0.0081501459628792548 5.1641374694529306e-05 0 0.0086859004774861165 -0.00034493493842663797 0 0.0082129918323646071 -0.00048211428693275377 0 0.0086859004774861165 -0.00034493493842663797 0 0.0082129918323646071 -0.00048211428693275377 0 0.0083980317851138301 -0.00096734035299057624 0 0.0083980317851138301 -0.00096734035299057624 0 0.0084614627491334162 -0.0015667858773062674 0 0.0079682589259240846 -0.00097225810235900651 0 0.0087495938140416535 -0.0014631935282976255 0 0.0083980317851138301 -0.00096734035299057624 0 0.0084614627491334162 -0.0015667858773062674 0 0.0087495938140416535 -0.0014631935282976255 0 0.0084614627491334162 -0.0015667858773062674 0 0.0089812955640632824 -0.0017548126612477784 0 0.0084614627491334162 -0.0015667858773062674 0 0.0082684635159826821 -0.0020532728047165318 0 0.0089248293573578226 -0.0020332803049014996 0 0.024749319765561287 -0.0070384303875290341 0 0.025543788070716087 -0.0073286786979491359 0 0.024982048711465407 -0.0073762881936616891 0 0.025821403167260289 -0.006868024781073491 0 0.024749319765561287 -0.0070384303875290341 0 0.025543788070716087 -0.0073286786979491359 0 0.0082684635159826821 -0.0020532728047165318 0 0.0089248293573578226 -0.0020332803049014996 0 0.0081229439227395988 -0.0025781627999321333 0 0.022240162323569006 -0.0058188567630588234 0 0.015965783576788427 -0.0041379759018040085 0 0.017075654342418638 -0.0044935562406514425 0 0.016949825315964083 -0.0042466629419120527 0 0.01606522213842914 -0.0047663601105810442 0 0.012429937534962035 -0.0032342329139898561 0 0.015965783576788427 -0.0041379759018040085 0 0.025821403167260289 -0.006868024781073491 0 0.026074177086887501 -0.0070414216928684015 0 0.025543788070716087 -0.0073286786979491359 0 0.009597345798339825 -0.0016987182141732535 0 0.0089248293573578226 -0.0020332803049014996 0 0.0089812955640632824 -0.0017548126612477784 0 0.017842401579178283 -0.0036773483299435846 0 0.017075654342418638 -0.0044935562406514425 0 0.016949825315964083 -0.0042466629419120527 0 0.0084614627491334162 -0.0015667858773062674 0 0.0089248293573578226 -0.0020332803049014996 0 0.0089812955640632824 -0.0017548126612477784 0 0.022240162323569006 -0.0058188567630588234 0 0.022750053265388849 -0.0055948585664786464 0 0.012525969219209796 -0.0023127759467669912 0 0.012429937534962035 -0.0032342329139898561 0 0.017842401579178283 -0.0036773483299435846 0 0.017075654342418638 -0.0044935562406514425 0 0.018109301296646053 -0.0041931058459988256 0 0.026074177086887501 -0.0070414216928684015 0 0.026590518875925628 -0.0072333742522516023 0 0.026649971898069426 -0.0068638340399932787 0 0.025821403167260289 -0.006868024781073491 0 0.026074177086887501 -0.0070414216928684015 0 0.026649971898069426 -0.0068638340399932787 0 0.026074177086887501 -0.0070414216928684015 0 0.026590518875925628 -0.0072333742522516023 0 0.026484133548440009 -0.0074933038126906186 0 0.026590518875925628 -0.0072333742522516023 0 0.026926205096438879 -0.007252545752066861 0 0.026649971898069426 -0.0068638340399932787 0 0.026590518875925628 -0.0072333742522516023 0 0.026926205096438879 -0.007252545752066861 0 0.026817362702868455 -0.0075439072206699934 0 0.018524044299859689 -0.0037669434208104447 0 0.018109301296646053 -0.0041931058459988256 0 0.019216387553394155 -0.003878517919303185 0 0.018524044299859689 -0.0037669434208104447 0 0.017842401579178283 -0.0036773483299435846 0 0.018109301296646053 -0.0041931058459988256 0 0.022750053265388849 -0.0055948585664786464 0 0.020422958429055237 -0.0043631387934894078 0 0.026926205096438879 -0.007252545752066861 0 0.026649971898069426 -0.0068638340399932787 0 0.026961376120698745 -0.0070198015102918435 0 0.0067678364978020324 0.00042298339946459599 0 0.0070397903611981415 -0.00015853287654579766 0 0.0065889118743641256 -0.00011211726582335951 0 0.0067678364978020324 0.00042298339946459599 0 0.0074689088948207633 -9.5430538231622052e-06 0 0.0070397903611981415 -0.00015853287654579766 0 0.0069268158402053829 -0.00025525731681284158 0 0.005987109774168985 -0.00010802483872492328 0 0.0062214890163020727 0.00029087148253015169 0 0.0067678364978020324 0.00042298339946459599 0 0.0065889118743641256 -0.00011211726582335951 0 0.0059764292485495344 0.00073096731964714004 0 0.0069268158402053829 -0.00025525731681284158 0 0.0062214890163020727 0.00029087148253015169 0 0.0060448470109458873 0.00068993296508670368 0 0.0067678364978020324 0.00042298339946459599 0 0.0072384703323022416 0.00015571006882323483 0 0.0074118456413131174 -0.00075896990042271031 0 0.0077671252550847109 -0.00017531738135495359 0 0.0072384703323022416 0.00015571006882323483 0 0.006478842330802888 -0.00047983967745108348 0 0.0074118456413131174 -0.00075896990042271031 0 0.0074118456413131174 -0.00075896990042271031 0 0.0077671252550847109 -0.00017531738135495359 0 0.0079682589259240846 -0.00097225810235900651 0 0.0082129918323646071 -0.00048211428693275377 0 0.0077671252550847109 -0.00017531738135495359 0 0.0079682589259240846 -0.00097225810235900651 0 0.0081501459628792548 5.1641374694529306e-05 0 0.0082129918323646071 -0.00048211428693275377 0 0.0077671252550847109 -0.00017531738135495359 0 0.0082129918323646071 -0.00048211428693275377 0 0.0083980317851138301 -0.00096734035299057624 0 0.0079682589259240846 -0.00097225810235900651 0 0.0084614627491334162 -0.0015667858773062674 0 0.0079682589259240846 -0.00097225810235900651 0 0.0078659323282564506 -0.0016084837313901275 0 0.0074118456413131174 -0.00075896990042271031 0 0.0079682589259240846 -0.00097225810235900651 0 0.0078659323282564506 -0.0016084837313901275 0 0.006478842330802888 -0.00047983967745108348 0 0.0074118456413131174 -0.00075896990042271031 0 0.0072131257475480425 -0.0016494726464350612 0 0.0074118456413131174 -0.00075896990042271031 0 0.0072131257475480425 -0.0016494726464350612 0 0.0078659323282564506 -0.0016084837313901275 0 0.0074689088948207633 -9.5430538231622052e-06 0 0.0074504877621480075 -0.00062095524452808384 0 0.0070397903611981415 -0.00015853287654579766 0 0.005987109774168985 -0.00010802483872492328 0 0.015159358849380215 -0.0038427914584911733 0 0.0084614627491334162 -0.0015667858773062674 0 0.0082684635159826821 -0.0020532728047165318 0 0.0078659323282564506 -0.0016084837313901275 0 0.0072131257475480425 -0.0016494726464350612 0 0.0078659323282564506 -0.0016084837313901275 0 0.0080692971642962758 -0.0026164548446664924 0 0.0082684635159826821 -0.0020532728047165318 0 0.0078659323282564506 -0.0016084837313901275 0 0.0080692971642962758 -0.0026164548446664924 0 0.015159358849380215 -0.0038427914584911733 0 0.015366214587484724 -0.002666999430064195 0 0.0082684635159826821 -0.0020532728047165318 0 0.0081229439227395988 -0.0025781627999321333 0 0.0080692971642962758 -0.0026164548446664924 0 0.024749319765561287 -0.0070384303875290341 0 0.024689642305718545 -0.0070711362593661583 0 0.024982048711465407 -0.0073762881936616891 0 0.015159358849380215 -0.0038427914584911733 0 0.024192564856731977 -0.0093534818864044206 0 0.015965783576788427 -0.0041379759018040085 0 0.015159358849380215 -0.0038427914584911733 0 0.0082774999239170373 -0.00072731671275141571 0 0.0074504877621480075 -0.00062095524452808384 0 0.007547280971175685 -0.00092562424730897159 0 0.0074689088948207633 -9.5430538231622052e-06 0 0.0082774999239170373 -0.00072731671275141571 0 0.0074504877621480075 -0.00062095524452808384 0 0.011318240822894114 5.02190042561789e-05 0 0.015366214587484724 -0.002666999430064195 0 0.0074504877621480075 -0.00062095524452808384 0 0.0069728736444647508 -0.00058084888606198953 0 0.0075112576726272711 -0.00080031013649831172 0 0.0074504877621480075 -0.00062095524452808384 0 0.0069728736444647508 -0.00058084888606198953 0 0.0070397903611981415 -0.00015853287654579766 0 0.0069728736444647508 -0.00058084888606198953 0 0.0070397903611981415 -0.00015853287654579766 0 0.0065889118743641256 -0.00011211726582335951 0 0.0065028454412385025 -0.00047586070595239625 0 0.0069728736444647508 -0.00058084888606198953 0 0.0065889118743641256 -0.00011211726582335951 0 0.0065028454412385025 -0.00047586070595239625 0 0.0069728736444647508 -0.00058084888606198953 0 0.0067994218651800508 -0.00084947693545710842 0 0.028918375154373371 -0.0018977589713908842 0 0.027147222211888773 -0.0018111829697836294 0 0.028431010396558317 -0.00067545220725290255 0 0.028179053602703907 -0.0031354698441075097 0 0.028918375154373371 -0.0018977589713908842 0 0.027147222211888773 -0.0018111829697836294 0 0.027147222211888773 -0.0018111829697836294 0 0.026085767987525581 -0.0022724130575163749 0 0.026073976036449089 -0.00093457266218061833 0 0.028179053602703907 -0.0031354698441075097 0 0.027147222211888773 -0.0018111829697836294 0 0.026685665568346697 -0.0028845064970434531 0 0.027147222211888773 -0.0018111829697836294 0 0.026685665568346697 -0.0028845064970434531 0 0.026085767987525581 -0.0022724130575163749 0 0.026685665568346697 -0.0028845064970434531 0 0.025869991348372381 -0.0032680153794690543 0 0.026085767987525581 -0.0022724130575163749 0 0.028179053602703907 -0.0031354698441075097 0 0.026685665568346697 -0.0028845064970434531 0 0.025635295512950611 -0.003996349855922298 0 0.017764301451336863 -0.0019050553932583791 0 0.015366214587484724 -0.002666999430064195 0 0.0069728736444647508 -0.00058084888606198953 0 0.0067994218651800508 -0.00084947693545710842 0 0.0075112576726272711 -0.00080031013649831172 0 0.015793273636099912 -0.0048496795512152609 0 0.01868753532694355 -0.0030490265923679197 0 0.018898194423825839 -0.003952731925981421 0 0.025519892733848425 -0.0034710785452708127 0 0.025635295512950611 -0.003996349855922298 0 0.025869991348372381 -0.0032680153794690543 0 0.024170073597369283 -0.0074454438448434664 0 0.024467110611167929 -0.0075126920632472309 0 0.024372665810820079 -0.0080720297662235131 0 0.021981869664250617 -0.0047189657395802654 0 0.015366214587484724 -0.002666999430064195 0 0.025565162776138219 -0.0034602215534957933 0 0.025869991348372381 -0.0032680153794690543 0 0.026085767987525581 -0.0022724130575163749 0 0.026685665568346697 -0.0028845064970434531 0 0.025635295512950611 -0.003996349855922298 0 0.025869991348372381 -0.0032680153794690543 0 0.021981869664250617 -0.0047189657395802654 0 0.023690677823929349 -0.0038062184422252309 0 0.015159358849380215 -0.0038427914584911733 0 0.021981869664250617 -0.0047189657395802654 0 0.024725747033393641 -0.0070854449530099685 0 0.024170073597369283 -0.0074454438448434664 0 0.024467110611167929 -0.0075126920632472309 0 0.024725747033393641 -0.0070854449530099685 0 0.02474538877331324 -0.0074819105929210955 0 0.024982048711465407 -0.0073762881936616891 0 0.024725747033393641 -0.0070854449530099685 0 0.02474538877331324 -0.0074819105929210955 0 0.024467110611167929 -0.0075126920632472309 0 0.02474538877331324 -0.0074819105929210955 0 0.024467110611167929 -0.0075126920632472309 0 0.024623734241140387 -0.0077281511087173224 0 0.02474538877331324 -0.0074819105929210955 0 0.024962841697640761 -0.0077223362753590617 0 0.024623734241140387 -0.0077281511087173224 0 0.02474538877331324 -0.0074819105929210955 0 0.024962841697640761 -0.0077223362753590617 0 0.024982048711465407 -0.0073762881936616891 0 0.024467110611167929 -0.0075126920632472309 0 0.024623734241140387 -0.0077281511087173224 0 0.024372665810820079 -0.0080720297662235131 0 0.024962841697640761 -0.0077223362753590617 0 0.024683256962839073 -0.0079976601811843819 0 0.025019043993804776 -0.0080357480161671862 0 0.024962841697640761 -0.0077223362753590617 0 0.024623734241140387 -0.0077281511087173224 0 0.024683256962839073 -0.0079976601811843819 0 0.024623734241140387 -0.0077281511087173224 0 0.024683256962839073 -0.0079976601811843819 0 0.024372665810820079 -0.0080720297662235131 0 0.024683256962839073 -0.0079976601811843819 0 0.024372665810820079 -0.0080720297662235131 0 0.024781292947644105 -0.0083024553693630751 0 0.024683256962839073 -0.0079976601811843819 0 0.024781292947644105 -0.0083024553693630751 0 0.025019043993804776 -0.0080357480161671862 0 0.021981869664250617 -0.0047189657395802654 0 0.024867763755346717 -0.0050766949449817756 0 0.025565162776138219 -0.0034602215534957933 0 0.026085767987525581 -0.0022724130575163749 0 0.025267566189380468 -0.0017804184140617677 0 0.026085767987525581 -0.0022724130575163749 0 0.025267566189380468 -0.0017804184140617677 0 0.026073976036449089 -0.00093457266218061833 0 0.024867763755346717 -0.0050766949449817756 0 0.027162142638716594 -0.0044172919616386414 0 0.025267566189380468 -0.0017804184140617677 0 0.026073976036449089 -0.00093457266218061833 0 0.024919562873437835 -0.00015717662305186661 0 0.026073976036449089 -0.00093457266218061833 0 0.024919562873437835 -0.00015717662305186661 0 0.026724185203679942 0.00013488575388299209 0 0.024781292947644105 -0.0083024553693630751 0 0.024559613445020639 -0.0086682835992984621 0 0.025067635444734223 -0.0086220933002207102 0 0.024372665810820079 -0.0080720297662235131 0 0.024781292947644105 -0.0083024553693630751 0 0.024559613445020639 -0.0086682835992984621 0 0.027162142638716594 -0.0044172919616386414 0 0.026850086718839639 -0.0074421948218579117 0 0.029155992524548723 -0.0062116450492077455 0 0.028994170987063615 -0.0061134613121132577 0 0.028899148719531319 -0.006266487189398407 0 0.028994170987063615 -0.0061134613121132577 0 0.028845409021683678 -0.0059854241432412796 0 0.029111798425059735 -0.0059617396782427282 0 0.027162142638716594 -0.0044172919616386414 0 0.031257314767576878 -0.0042636957343234342 0 0.029155992524548723 -0.0062116450492077455 0 0.028994170987063615 -0.0061134613121132577 0 0.029111798425059735 -0.0059617396782427282 0 0.031998823724365334 -0.002826290563457616 0 0.032444560296279533 -0.0035038135051166622 0 0.032729583717453041 -0.0033057869882002502 0 0.027162142638716594 -0.0044172919616386414 0 0.029891658310754736 -0.0022252204414481324 0 0.029891658310754736 -0.0022252204414481324 0 0.031257314767576878 -0.0042636957343234342 0 0.029717176265337882 -0.0033998652211245243 0 0.029263145121710871 -0.003450654228434318 0 0.029808491564132379 -0.0037456714584480615 0 0.029891658310754736 -0.0022252204414481324 0 0.032250232641441702 -0.0027083281819068649 0 0.031998823724365334 -0.002826290563457616 0 0.031784141091705236 -0.0031183298332918496 0 0.0314704663197133 -0.0027904592917158489 0 0.031998823724365334 -0.002826290563457616 0 0.031784141091705236 -0.0031183298332918496 0 0.032035864675791448 -0.0034563685926158861 0 0.032251740754098028 -0.0026736148770461362 0 0.0314704663197133 -0.0027904592917158489 0 0.031365784822447181 -0.0021577992701806098 0 0.031784141091705236 -0.0031183298332918496 0 0.0314704663197133 -0.0027904592917158489 0 0.031597232256993645 -0.0033918738248610333 0 0.0314704663197133 -0.0027904592917158489 0 0.031597232256993645 -0.0033918738248610333 0 0.031028531512087548 -0.0031083584405964819 0 0.031115774616763948 -0.0026002919107696049 0 0.0314704663197133 -0.0027904592917158489 0 0.031028531512087548 -0.0031083584405964819 0 0.031115774616763948 -0.0026002919107696049 0 0.0314704663197133 -0.0027904592917158489 0 0.031365784822447181 -0.0021577992701806098 0 0.029891658310754736 -0.0022252204414481324 0 0.029762833763594173 -0.0013036397621183516 0 0.026724185203679942 0.00013488575388299209 0 0.028431010396558317 -0.00067545220725290255 0 0.027091419045808692 -0.00082206694949780372 0 0.027147222211888773 -0.0018111829697836294 0 0.028431010396558317 -0.00067545220725290255 0 0.027091419045808692 -0.00082206694949780372 0 0.027147222211888773 -0.0018111829697836294 0 0.026073976036449089 -0.00093457266218061833 0 0.027091419045808692 -0.00082206694949780372 0 0.026073976036449089 -0.00093457266218061833 0 0.026724185203679942 0.00013488575388299209 0 0.027091419045808692 -0.00082206694949780372 0 0.027114212087762313 -0.0078851580969188807 0 0.026817362702868455 -0.0075439072206699934 0 0.026721549994404088 -0.0078551707735311522 0 0.027114212087762313 -0.0078851580969188807 0 0.026721549994404088 -0.0078551707735311522 0 0.027306568704512167 -0.0082691764426828206 0 0.027114212087762313 -0.0078851580969188807 0 0.026817362702868455 -0.0075439072206699934 0 0.027118371593980027 -0.007518742450818891 0 0.026926205096438879 -0.007252545752066861 0 0.026817362702868455 -0.0075439072206699934 0 0.027118371593980027 -0.007518742450818891 0 0.026817362702868455 -0.0075439072206699934 0 0.026484133548440009 -0.0074933038126906186 0 0.026721549994404088 -0.0078551707735311522 0 0.026484133548440009 -0.0074933038126906186 0 0.026721549994404088 -0.0078551707735311522 0 0.026137854545807259 -0.0077441518279513849 0 0.026590518875925628 -0.0072333742522516023 0 0.026817362702868455 -0.0075439072206699934 0 0.026484133548440009 -0.0074933038126906186 0 0.026721549994404088 -0.0078551707735311522 0 0.026137854545807259 -0.0077441518279513849 0 0.026551921510493154 -0.0084219214295234209 0 0.025750414372245383 -0.007898775818370514 0 0.027274410860818363 -0.0080189687785228343 0 0.025755782399628262 -0.007794137468401084 0 0.025340988117513837 -0.0080014191940122863 0 0.025580098950881227 -0.0085609063655004772 0 0.026128042307401695 -0.0069928053434662584 0 0.025750414372245383 -0.007898775818370514 0 0.026074177086887501 -0.0070414216928684015 0 0.025755782399628262 -0.007794137468401084 0 0.025543788070716087 -0.0073286786979491359 0 0.026074177086887501 -0.0070414216928684015 0 0.026484133548440009 -0.0074933038126906186 0 0.026137854545807259 -0.0077441518279513849 0 0.025755782399628262 -0.007794137468401084 0 0.025543788070716087 -0.0073286786979491359 0 0.025343220809654971 -0.0076462893849166234 0 0.025543788070716087 -0.0073286786979491359 0 0.025343220809654971 -0.0076462893849166234 0 0.024982048711465407 -0.0073762881936616891 0 0.024962841697640761 -0.0077223362753590617 0 0.025343220809654971 -0.0076462893849166234 0 0.024982048711465407 -0.0073762881936616891 0 0.024962841697640761 -0.0077223362753590617 0 0.025343220809654971 -0.0076462893849166234 0 0.025340988117513837 -0.0080014191940122863 0 0.024962841697640761 -0.0077223362753590617 0 0.025340988117513837 -0.0080014191940122863 0 0.025019043993804776 -0.0080357480161671862 0 0.025755782399628262 -0.007794137468401084 0 0.025343220809654971 -0.0076462893849166234 0 0.025340988117513837 -0.0080014191940122863 0 0.025340988117513837 -0.0080014191940122863 0 0.025019043993804776 -0.0080357480161671862 0 0.025168096440848178 -0.0083039544967884894 0 0.025340988117513837 -0.0080014191940122863 0 0.025168096440848178 -0.0083039544967884894 0 0.025580098950881227 -0.0085609063655004772 0 0.026850086718839639 -0.0074421948218579117 0 0.027274410860818363 -0.0080189687785228343 0 0.028899148719531319 -0.006266487189398407 0 0.02866499353983978 -0.0062551742178411467 0 0.02862730351730652 -0.0063219073361261017 0 0.025168096440848178 -0.0083039544967884894 0 0.025067635444734223 -0.0086220933002207102 0 0.025580098950881227 -0.0085609063655004772 0 0.024781292947644105 -0.0083024553693630751 0 0.025019043993804776 -0.0080357480161671862 0 0.025168096440848178 -0.0083039544967884894 0 0.024781292947644105 -0.0083024553693630751 0 0.025168096440848178 -0.0083039544967884894 0 0.025067635444734223 -0.0086220933002207102 0 0.028994170987063615 -0.0061134613121132577 0 0.028899148719531319 -0.006266487189398407 0 0.028798186105322587 -0.006178817451423616 0 0.02875258055396859 -0.0060227163724677459 0 0.028655725291794245 -0.006192608359162223 0 0.0287521854215428 -0.0058195278189436574 0 0.029335397049361098 -0.0068645582444970569 0 0.030315850778482065 -0.005983218867806425 0 0.028994170987063615 -0.0061134613121132577 0 0.028798186105322587 -0.006178817451423616 0 0.028845409021683678 -0.0059854241432412796 0 0.02875258055396859 -0.0060227163724677459 0 0.028756314444252581 -0.0060935405033558524 0 0.028655725291794245 -0.006192608359162223 0 0.028756314444252581 -0.0060935405033558524 0 0.028798186105322587 -0.006178817451423616 0 0.028845409021683678 -0.0059854241432412796 0 0.02875258055396859 -0.0060227163724677459 0 0.028756314444252581 -0.0060935405033558524 0 0.028845409021683678 -0.0059854241432412796 0 0.028899148719531319 -0.006266487189398407 0 0.028798186105322587 -0.006178817451423616 0 0.02866499353983978 -0.0062551742178411467 0 0.028756314444252581 -0.0060935405033558524 0 0.028718953696276642 -0.0061791642192225308 0 0.028655725291794245 -0.006192608359162223 0 0.028718953696276642 -0.0061791642192225308 0 0.028798186105322587 -0.006178817451423616 0 0.02866499353983978 -0.0062551742178411467 0 0.028756314444252581 -0.0060935405033558524 0 0.028718953696276642 -0.0061791642192225308 0 0.028798186105322587 -0.006178817451423616 0 0.029450512893220107 -0.0078814565402521609 0 0.029285262682505156 -0.0079815151345967641 0 0.029424241005245176 -0.0082550744926245829 0 0.029335397049361098 -0.0068645582444970569 0 0.030259517766774192 -0.0070919929336400829 0 0.029335397049361098 -0.0068645582444970569 0 0.029219193425594391 -0.0066002990486190606 0 0.028718953696276642 -0.0061791642192225308 0 0.028655725291794245 -0.006192608359162223 0 0.02866499353983978 -0.0062551742178411467 0 0.029450512893220107 -0.0078814565402521609 0 0.029220683006716982 -0.0076408044072915808 0 0.029369346964403825 -0.007148332767590357 0 0.029450512893220107 -0.0078814565402521609 0 0.029285262682505156 -0.0079815151345967641 0 0.029261072342906799 -0.0078438917273541617 0 0.029450512893220107 -0.0078814565402521609 0 0.029261072342906799 -0.0078438917273541617 0 0.029220683006716982 -0.0076408044072915808 0 0.029220683006716982 -0.0076408044072915808 0 0.028955616207034199 -0.0079929009730734402 0 0.028912251769913674 -0.0073835954136614451 0 0.029261072342906799 -0.0078438917273541617 0 0.029220683006716982 -0.0076408044072915808 0 0.028955616207034199 -0.0079929009730734402 0 0.029285262682505156 -0.0079815151345967641 0 0.029261072342906799 -0.0078438917273541617 0 0.028955616207034199 -0.0079929009730734402 0 0.027274410860818363 -0.0080189687785228343 0 0.027603706834405519 -0.0083763393523280764 0 0.026137854545807259 -0.0077441518279513849 0 0.026038884252188241 -0.0084918885037086073 0 0.026551921510493154 -0.0084219214295234209 0 0.028955616207034199 -0.0079929009730734402 0 0.029424241005245176 -0.0082550744926245829 0 0.02851195432431252 -0.0084059959177125842 0 0.029285262682505156 -0.0079815151345967641 0 0.028955616207034199 -0.0079929009730734402 0 0.029424241005245176 -0.0082550744926245829 0 0.029335397049361098 -0.0068645582444970569 0 0.027274410860818363 -0.0080189687785228343 0 0.028655916048758182 -0.0061978051686225472 0 0.02866499353983978 -0.0062551742178411467 0 0.02862730351730652 -0.0063219073361261017 0 0.027603706834405519 -0.0083763393523280764 0 0.027333775334058775 -0.0083226730800139495 0 0.02851195432431252 -0.0084059959177125842 0 0.028207705438883287 -0.0078625522264506396 0 0.027306568704512167 -0.0082691764426828206 0 0.026721549994404088 -0.0078551707735311522 0 0.026551921510493154 -0.0084219214295234209 0 0.027306568704512167 -0.0082691764426828206 0 0.028955616207034199 -0.0079929009730734402 0 0.02851195432431252 -0.0084059959177125842 0 0.028207705438883287 -0.0078625522264506396 0 0.028955616207034199 -0.0079929009730734402 0 0.028912251769913674 -0.0073835954136614451 0 0.028207705438883287 -0.0078625522264506396 0 0.028912251769913674 -0.0073835954136614451 0 0.028207705438883287 -0.0078625522264506396 0 0.027889929794878227 -0.007549952035208864 0 0.027889929794878227 -0.007549952035208864 0 0.027360295128298462 -0.0079617811321142339 0 0.027271731813946796 -0.0076638848592708326 0 0.028207705438883287 -0.0078625522264506396 0 0.027889929794878227 -0.007549952035208864 0 0.027360295128298462 -0.0079617811321142339 0 0.027360295128298462 -0.0079617811321142339 0 0.027306568704512167 -0.0082691764426828206 0 0.027171350635303779 -0.008076694511591544 0 0.028207705438883287 -0.0078625522264506396 0 0.027360295128298462 -0.0079617811321142339 0 0.027306568704512167 -0.0082691764426828206 0 0.028035122767665337 -0.006954691049523969 0 0.02819715457762122 -0.006909611449446666 0 0.02796915828615772 -0.007065148077623905 0 0.028035122767665337 -0.006954691049523969 0 0.028029675581260589 -0.00710272273598398 0 0.027981580063922481 -0.006935585094556807 0 0.028035122767665337 -0.006954691049523969 0 0.028029675581260589 -0.00710272273598398 0 0.02819715457762122 -0.006909611449446666 0 0.027942631260782315 -0.007597110310826027 0 0.0276108055074385 -0.0069496893363173188 0 0.027889929794878227 -0.007549952035208864 0 0.028029675581260589 -0.00710272273598398 0 0.027981580063922481 -0.006935585094556807 0 0.028912251769913674 -0.0073835954136614451 0 0.028029675581260589 -0.00710272273598398 0 0.02819715457762122 -0.006909611449446666 0 0.028972260791566534 -0.0074012939531010596 0 0.028981575213086933 -0.007071768891778938 0 0.028912251769913674 -0.0073835954136614451 0 0.027889929794878227 -0.007549952035208864 0 0.028029675581260589 -0.00710272273598398 0 0.028912251769913674 -0.0073835954136614451 0 0.029725676168893555 -0.0070906115512824512 0 0.029548017521826613 -0.0071160999407795904 0 0.029725676168893555 -0.0070906115512824512 0 0.029548017521826613 -0.0071160999407795904 0 0.02971723096790424 -0.0071502768282469351 0 0.030933103670505103 -0.0069277362478952558 0 0.030954396475658858 -0.0068297127427856541 0 0.030999817331095018 -0.0070124076267386549 0 0.030933103670505103 -0.0069277362478952558 0 0.030880919144159937 -0.0070160566499001395 0 0.030999817331095018 -0.0070124076267386549 0 0.030259517766774192 -0.0070919929336400829 0 0.030346860025505098 -0.0070382293358883371 0 0.029548017521826613 -0.0071160999407795904 0 0.029369346964403825 -0.007148332767590357 0 0.02971723096790424 -0.0071502768282469351 0 0.029220683006716982 -0.0076408044072915808 0 0.028912251769913674 -0.0073835954136614451 0 0.029369346964403825 -0.007148332767590357 0 0.028912251769913674 -0.0073835954136614451 0 0.029548017521826613 -0.0071160999407795904 0 0.029369346964403825 -0.007148332767590357 0 0.030886509611912256 -0.0066539828510318814 0 0.030954396475658858 -0.0068297127427856541 0 0.030883397187074092 -0.0068324623970120856 0 0.030933103670505103 -0.0069277362478952558 0 0.030954396475658858 -0.0068297127427856541 0 0.030883397187074092 -0.0068324623970120856 0 0.030628529804807788 -0.0055002621463953842 0 0.031257314767576878 -0.0042636957343234342 0 0.028761611095778211 -0.0057811968064339731 0 0.028845409021683678 -0.0059854241432412796 0 0.029111798425059735 -0.0059617396782427282 0 0.033316305902997133 -0.0036799934418615078 0 0.03277098057249795 -0.0035535234992413811 0 0.03299368083739862 -0.0038988531001068068 0 0.028761611095778211 -0.0057811968064339731 0 0.0287521854215428 -0.0058195278189436574 0 0.028845409021683678 -0.0059854241432412796 0 0.030933103670505103 -0.0069277362478952558 0 0.030882316467828221 -0.0068519773445124858 0 0.030883397187074092 -0.0068324623970120856 0 0.030628529804807788 -0.0055002621463953842 0 0.030315850778482065 -0.005983218867806425 0 0.02875258055396859 -0.0060227163724677459 0 0.0287521854215428 -0.0058195278189436574 0 0.028845409021683678 -0.0059854241432412796 0 0.033316305902997133 -0.0036799934418615078 0 0.033221900610539035 -0.0042419424164634673 0 0.03299368083739862 -0.0038988531001068068 0 0.030628529804807788 -0.0055002621463953842 0 0.032129735922582947 -0.0055424109453061305 0 0.030933103670505103 -0.0069277362478952558 0 0.030882316467828221 -0.0068519773445124858 0 0.030880919144159937 -0.0070160566499001395 0 0.033221900610539035 -0.0042419424164634673 0 0.03299368083739862 -0.0038988531001068068 0 0.032826202631343372 -0.0042697417386670239 0 0.033221900610539035 -0.0042419424164634673 0 0.03309539320753653 -0.0048827890081861716 0 0.032826202631343372 -0.0042697417386670239 0 0.032129735922582947 -0.0055424109453061305 0 0.032197169053660921 -0.0060755132463553583 0 0.030880919144159937 -0.0070160566499001395 0 0.030893420413522846 -0.0071516200182941457 0 0.03094493601065039 -0.0071231958604301695 0 0.032197169053660921 -0.0060755132463553583 0 0.031224430687100756 -0.007224830379255834 0 0.030893420413522846 -0.0071516200182941457 0 0.03094493601065039 -0.0071231958604301695 0 0.030966427725355426 -0.0071713517444993097 0 0.03094493601065039 -0.0071231958604301695 0 0.030997617680842283 -0.0071885811646693479 0 0.030966427725355426 -0.0071713517444993097 0 0.030880919144159937 -0.0070160566499001395 0 0.03094493601065039 -0.0071231958604301695 0 0.030999817331095018 -0.0070124076267386549 0 0.030599785382565227 -0.0071782665215249101 0 0.030346860025505098 -0.0070382293358883371 0 0.03094493601065039 -0.0071231958604301695 0 0.030997617680842283 -0.0071885811646693479 0 0.030999817331095018 -0.0070124076267386549 0 0.029725676168893555 -0.0070906115512824512 0 0.030013599418328939 -0.0072038424767631171 0 0.030202759615873539 -0.0072135764039646189 0 0.030204342933436001 -0.0072595399922569699 0 0.02971723096790424 -0.0071502768282469351 0 0.030013599418328939 -0.0072038424767631171 0 0.029725676168893555 -0.0070906115512824512 0 0.02971723096790424 -0.0071502768282469351 0 0.030013599418328939 -0.0072038424767631171 0 0.030013599418328939 -0.0072038424767631171 0 0.03021877924040332 -0.007241212638630706 0 0.030202759615873539 -0.0072135764039646189 0 0.030204342933436001 -0.0072595399922569699 0 0.030013599418328939 -0.0072038424767631171 0 0.03021877924040332 -0.007241212638630706 0 0.030204342933436001 -0.0072595399922569699 0 0.03021877924040332 -0.007241212638630706 0 0.030418350568644718 -0.0071765543262518102 0 0.03021877924040332 -0.007241212638630706 0 0.030260198980757904 -0.0072263066465577874 0 0.030418350568644718 -0.0071765543262518102 0 0.03021877924040332 -0.007241212638630706 0 0.030260198980757904 -0.0072263066465577874 0 0.030202759615873539 -0.0072135764039646189 0 0.029028601562645199 -0.0071751569094591766 0 0.02974372888733905 -0.0071538753627947774 0 0.030260198980757904 -0.0072263066465577874 0 0.030202759615873539 -0.0072135764039646189 0 0.030293135988009035 -0.0072327972139287922 0 0.030260198980757904 -0.0072263066465577874 0 0.030311565327963117 -0.0071242390507543999 0 0.030418350568644718 -0.0071765543262518102 0 0.030346994406530457 -0.0073096928118576432 0 0.02974372888733905 -0.0071538753627947774 0 0.028981575213086933 -0.007071768891778938 0 0.029028601562645199 -0.0071751569094591766 0 0.028035122767665337 -0.006954691049523969 0 0.02796915828615772 -0.007065148077623905 0 0.028089396257514252 -0.0070074376057786929 0 0.031850697094468826 -0.0038417358903146152 0 0.032384657522566897 -0.0039839094987633552 0 0.031977244064077058 -0.0042457285039446012 0 0.031850697094468826 -0.0038417358903146152 0 0.031361214410767925 -0.0039794428365152292 0 0.031977244064077058 -0.0042457285039446012 0 0.031850697094468826 -0.0038417358903146152 0 0.032035864675791448 -0.0034563685926158861 0 0.032384657522566897 -0.0039839094987633552 0 0.031397132872095383 -0.0039993277529921335 0 0.031922952544639865 -0.004322408724978721 0 0.031850697094468826 -0.0038417358903146152 0 0.031361214410767925 -0.0039794428365152292 0 0.031597232256993645 -0.0033918738248610333 0 0.031361214410767925 -0.0039794428365152292 0 0.031597232256993645 -0.0033918738248610333 0 0.031028531512087548 -0.0031083584405964819 0 0.031784141091705236 -0.0031183298332918496 0 0.031597232256993645 -0.0033918738248610333 0 0.032035864675791448 -0.0034563685926158861 0 0.031850697094468826 -0.0038417358903146152 0 0.031597232256993645 -0.0033918738248610333 0 0.032035864675791448 -0.0034563685926158861 0 0.031998823724365334 -0.002826290563457616 0 0.032035864675791448 -0.0034563685926158861 0 0.032444560296279533 -0.0035038135051166622 0 0.032035864675791448 -0.0034563685926158861 0 0.032444560296279533 -0.0035038135051166622 0 0.032384657522566897 -0.0039839094987633552 0 0.033316305902997133 -0.0036799934418615078 0 0.032715653959304931 -0.003346880376150461 0 0.03277098057249795 -0.0035535234992413811 0 0.032444560296279533 -0.0035038135051166622 0 0.032729583717453041 -0.0033057869882002502 0 0.03277098057249795 -0.0035535234992413811 0 0.031257314767576878 -0.0042636957343234342 0 0.031901711113652392 -0.0036951080893163194 0 0.032444560296279533 -0.0035038135051166622 0 0.03277098057249795 -0.0035535234992413811 0 0.032710730099321107 -0.0038449563173050209 0 0.032710730099321107 -0.0038449563173050209 0 0.032384657522566897 -0.0039839094987633552 0 0.032826202631343372 -0.0042697417386670239 0 0.03277098057249795 -0.0035535234992413811 0 0.03299368083739862 -0.0038988531001068068 0 0.032710730099321107 -0.0038449563173050209 0 0.03299368083739862 -0.0038988531001068068 0 0.032710730099321107 -0.0038449563173050209 0 0.032826202631343372 -0.0042697417386670239 0 0.032444560296279533 -0.0035038135051166622 0 0.032710730099321107 -0.0038449563173050209 0 0.032384657522566897 -0.0039839094987633552 0 0.032515782046643932 -0.0045455168219202943 0 0.031922952544639865 -0.004322408724978721 0 0.032344194477952844 -0.004734273007329268 0 0.031945060859023711 -0.0048941238222566319 0 0.031924163566053591 -0.0043967669833532598 0 0.032384657522566897 -0.0039839094987633552 0 0.032541411175320639 -0.0045570673385101354 0 0.031977244064077058 -0.0042457285039446012 0 0.03309539320753653 -0.0048827890081861716 0 0.032541411175320639 -0.0045570673385101354 0 0.032826202631343372 -0.0042697417386670239 0 0.032384657522566897 -0.0039839094987633552 0 0.032541411175320639 -0.0045570673385101354 0 0.032826202631343372 -0.0042697417386670239 0 0.032197169053660921 -0.0060755132463553583 0 0.032515782046643932 -0.0045455168219202943 0 0.032736966082868808 -0.0050081089527298679 0 0.032344194477952844 -0.004734273007329268 0 0.032288294515021861 -0.0052252699244502805 0 0.032344194477952844 -0.004734273007329268 0 0.031945060859023711 -0.0048941238222566319 0 0.032288294515021861 -0.0052252699244502805 0 0.031945060859023711 -0.0048941238222566319 0 0.031487592056881994 -0.0049116377772470254 0 0.031905581052841588 -0.0054088338382751802 0 0.031945060859023711 -0.0048941238222566319 0 0.031924163566053591 -0.0043967669833532598 0 0.031511543210001373 -0.0044838052716221401 0 0.031511543210001373 -0.0044838052716221401 0 0.031487592056881994 -0.0049116377772470254 0 0.031041033343967336 -0.0045169084655672688 0 0.031361214410767925 -0.0039794428365152292 0 0.031924163566053591 -0.0043967669833532598 0 0.031511543210001373 -0.0044838052716221401 0 0.031361214410767925 -0.0039794428365152292 0 0.031511543210001373 -0.0044838052716221401 0 0.031041033343967336 -0.0045169084655672688 0 0.031945060859023711 -0.0048941238222566319 0 0.031511543210001373 -0.0044838052716221401 0 0.031487592056881994 -0.0049116377772470254 0 0.031487592056881994 -0.0049116377772470254 0 0.03082075292987304 -0.0050934205386323483 0 0.031041033343967336 -0.0045169084655672688 0 0.030873454956588896 -0.00502714200829181 0 0.030435337030203357 -0.004486927247106305 0 0.030414039870416517 -0.0048139210770683045 0 0.030836979125302522 -0.0050528617238387169 0 0.030487817609519394 -0.0045184245086112695 0 0.030435337030203357 -0.004486927247106305 0 0.031041033343967336 -0.0045169084655672688 0 0.030750776122771117 -0.0041076722599382278 0 0.03082075292987304 -0.0050934205386323483 0 0.030435337030203357 -0.004486927247106305 0 0.031041033343967336 -0.0045169084655672688 0 0.031361214410767925 -0.0039794428365152292 0 0.030750776122771117 -0.0041076722599382278 0 0.030665999065226174 -0.003573590080103317 0 0.031361214410767925 -0.0039794428365152292 0 0.031041033343967336 -0.0045169084655672688 0 0.030750776122771117 -0.0041076722599382278 0 0.030435337030203357 -0.004486927247106305 0 0.030296878574747131 -0.003904885756083568 0 0.030060677827399442 -0.0042061175675359051 0 0.030435337030203357 -0.004486927247106305 0 0.030750776122771117 -0.0041076722599382278 0 0.030296878574747131 -0.003904885756083568 0 0.030750776122771117 -0.0041076722599382278 0 0.030296878574747131 -0.003904885756083568 0 0.030665999065226174 -0.003573590080103317 0 0.0301109720150806 -0.0033993974851983968 0 0.030665999065226174 -0.003573590080103317 0 0.030360601932284854 -0.0027800553480486533 0 0.030296878574747131 -0.003904885756083568 0 0.0301109720150806 -0.0033993974851983968 0 0.030665999065226174 -0.003573590080103317 0 0.031361214410767925 -0.0039794428365152292 0 0.030665999065226174 -0.003573590080103317 0 0.031028531512087548 -0.0031083584405964819 0 0.030665999065226174 -0.003573590080103317 0 0.031028531512087548 -0.0031083584405964819 0 0.030360601932284854 -0.0027800553480486533 0 0.02955438411538594 -0.0039398394496993035 0 0.029742538189825883 -0.0028417559109883183 0 0.028819290401960039 -0.0029746367168870858 0 0.02955438411538594 -0.0039398394496993035 0 0.028454810040106766 -0.0039389842463340456 0 0.029045143224562617 -0.0050592680050785205 0 0.02955438411538594 -0.0039398394496993035 0 0.028454810040106766 -0.0039389842463340456 0 0.028819290401960039 -0.0029746367168870858 0 0.0301109720150806 -0.0033993974851983968 0 0.02955438411538594 -0.0039398394496993035 0 0.029742538189825883 -0.0028417559109883183 0 0.030296878574747131 -0.003904885756083568 0 0.0301109720150806 -0.0033993974851983968 0 0.02955438411538594 -0.0039398394496993035 0 0.02955438411538594 -0.0039398394496993035 0 0.030060677827399442 -0.0042061175675359051 0 0.030002756627607194 -0.0044892909701659631 0 0.029610277332809978 -0.003982831842766558 0 0.029949301768306222 -0.0049423981310962968 0 0.030296878574747131 -0.003904885756083568 0 0.02955438411538594 -0.0039398394496993035 0 0.030060677827399442 -0.0042061175675359051 0 0.02955438411538594 -0.0039398394496993035 0 0.029045143224562617 -0.0050592680050785205 0 0.029913911733787178 -0.0054443918618026967 0 0.029045143224562617 -0.0050592680050785205 0 0.029913911733787178 -0.0054443918618026967 0 0.02959937250983026 -0.0052798970323099442 0 0.029913911733787178 -0.0054443918618026967 0 0.030051024180360288 -0.005586692231335697 0 0.02959937250983026 -0.0052798970323099442 0 0.030435337030203357 -0.004486927247106305 0 0.030002756627607194 -0.0044892909701659631 0 0.030414039870416517 -0.0048139210770683045 0 0.030435337030203357 -0.004486927247106305 0 0.030060677827399442 -0.0042061175675359051 0 0.030002756627607194 -0.0044892909701659631 0 0.030873454956588896 -0.00502714200829181 0 0.030414039870416517 -0.0048139210770683045 0 0.030304488609403695 -0.0051629818772288318 0 0.029949301768306222 -0.0049423981310962968 0 0.030321318573836378 -0.0054628651489461973 0 0.030002756627607194 -0.0044892909701659631 0 0.030414039870416517 -0.0048139210770683045 0 0.030304488609403695 -0.0051629818772288318 0 0.029913911733787178 -0.0054443918618026967 0 0.030051024180360288 -0.005586692231335697 0 0.030337381574433008 -0.0057369986918684958 0 0.030051024180360288 -0.005586692231335697 0 0.029938839960767853 -0.0055129728986583002 0 0.02959937250983026 -0.0052798970323099442 0 0.029938839960767853 -0.0055129728986583002 0 0.029419605043312848 -0.0052554793050887377 0 0.029756946650490078 -0.0057713232823291766 0 0.029938839960767853 -0.0055129728986583002 0 0.029419605043312848 -0.0052554793050887377 0 0.029572483955991019 -0.0049607288571082101 0 0.029938839960767853 -0.0055129728986583002 0 0.02959937250983026 -0.0052798970323099442 0 0.029572483955991019 -0.0049607288571082101 0 0.028743464771169919 -0.0051983681076266317 0 0.02901137989028247 -0.0056488532089299277 0 0.02820308008386592 -0.0054837856336026848 0 0.028743464771169919 -0.0051983681076266317 0 0.029419605043312848 -0.0052554793050887377 0 0.02901137989028247 -0.0056488532089299277 0 0.029419605043312848 -0.0052554793050887377 0 0.029756946650490078 -0.0057713232823291766 0 0.02901137989028247 -0.0056488532089299277 0 0.029419605043312848 -0.0052554793050887377 0 0.028935675936209194 -0.0045835876450639312 0 0.029572483955991019 -0.0049607288571082101 0 0.028743464771169919 -0.0051983681076266317 0 0.029419605043312848 -0.0052554793050887377 0 0.028935675936209194 -0.0045835876450639312 0 0.028743464771169919 -0.0051983681076266317 0 0.028935675936209194 -0.0045835876450639312 0 0.028063076748338547 -0.0050285099588383902 0 0.025202480741577694 -0.0051098438023155831 0 0.024703227380448112 -0.0050468211528277834 0 0.025238472918438559 -0.0055249039508365166 0 0.024847535192253026 -0.0047910674476514606 0 0.025202480741577694 -0.0051098438023155831 0 0.025961783196800446 -0.0049956418893864016 0 0.024847535192253026 -0.0047910674476514606 0 0.025202480741577694 -0.0051098438023155831 0 0.024703227380448112 -0.0050468211528277834 0 0.024847535192253026 -0.0047910674476514606 0 0.024703227380448112 -0.0050468211528277834 0 0.025368424319755469 -0.0056950642409975471 0 0.026914126215313625 -0.0047432429821596348 0 0.027517562401611285 -0.0052519075026747743 0 0.024703227380448112 -0.0050468211528277834 0 0.024187736080925119 -0.0043196646439682043 0 0.025368424319755469 -0.0056950642409975471 0 0.024703227380448112 -0.0050468211528277834 0 0.024187736080925119 -0.0043196646439682043 0 0.025238472918438559 -0.0055249039508365166 0 0.024187736080925119 -0.0043196646439682043 0 0.018589123973752154 -0.0060279620998052357 0 0.019054951153534824 -0.0034445134048355589 0 0.024187736080925119 -0.0043196646439682043 0 0.018589123973752154 -0.0060279620998052357 0 0.016577774133405661 -0.0080576368439777193 0 0.024079566368794048 -0.0045572361613756274 0 0.021070115243970584 -0.0065748550755099326 0 0.018589123973752154 -0.0060279620998052357 0 0.019054951153534824 -0.0034445134048355589 0 0.013819990313045111 -0.0049092477488497056 0 0.028953106901044138 -0.0050917736643450121 0 0.027517562401611285 -0.0052519075026747743 0 0.029045143224562617 -0.0050592680050785205 0 0.025368424319755469 -0.0056950642409975471 0 0.027053833076610231 -0.0045462046473162977 0 0.029045143224562617 -0.0050592680050785205 0 0.02959937250983026 -0.0052798970323099442 0 0.029572483955991019 -0.0049607288571082101 0 0.025368424319755469 -0.0056950642409975471 0 0.025959153089825573 -0.0042263452359291047 0 0.027053833076610231 -0.0045462046473162977 0 0.024187736080925119 -0.0043196646439682043 0 0.025368424319755469 -0.0056950642409975471 0 0.025959153089825573 -0.0042263452359291047 0 0.025959153089825573 -0.0042263452359291047 0 0.027364480506518459 -0.0032843304237517522 0 0.027053833076610231 -0.0045462046473162977 0 0.028454810040106766 -0.0039389842463340456 0 0.027364480506518459 -0.0032843304237517522 0 0.028819290401960039 -0.0029746367168870858 0 0.028454810040106766 -0.0039389842463340456 0 0.029045143224562617 -0.0050592680050785205 0 0.027053833076610231 -0.0045462046473162977 0 0.028454810040106766 -0.0039389842463340456 0 0.027364480506518459 -0.0032843304237517522 0 0.027053833076610231 -0.0045462046473162977 0 0.027364480506518459 -0.0032843304237517522 0 0.02743114646669292 -0.0020319266715938598 0 0.028819290401960039 -0.0029746367168870858 0 0.027364480506518459 -0.0032843304237517522 0 0.02743114646669292 -0.0020319266715938598 0 0.025906562458331967 -0.0024359037841562093 0 0.025959153089825573 -0.0042263452359291047 0 0.027364480506518459 -0.0032843304237517522 0 0.025906562458331967 -0.0024359037841562093 0 0.024187736080925119 -0.0043196646439682043 0 0.025959153089825573 -0.0042263452359291047 0 0.025906562458331967 -0.0024359037841562093 0 0.016659846794861537 -0.00060120228655924726 0 0.015734549228278116 -0.00033774972662374558 0 0.0065123758521699023 -0.0006534684876124278 0 0.010136221296571858 -0.00031858253474990585 0 0.0083726721645769366 -0.0018759452142783509 0 0.025906562458331967 -0.0024359037841562093 0 0.026915304157626482 -0.00053358031405987291 0 0.02181134692002807 -3.6662036153868008e-05 0 0.02743114646669292 -0.0020319266715938598 0 0.026915304157626482 -0.00053358031405987291 0 0.028481319174405977 -0.0018400101680936189 0 0.016659846794861537 -0.00060120228655924726 0 0.017498081508552844 -0.0010235268497618044 0 0.02743114646669292 -0.0020319266715938598 0 0.025906562458331967 -0.0024359037841562093 0 0.026915304157626482 -0.00053358031405987291 0 0.0065123758521699023 -0.0006534684876124278 0 0.0061391804417226716 -0.00095424641680156609 0 0.0058495626848853143 -0.00087624577280034422 0 0.015734549228278116 -0.00033774972662374558 0 0.011729218331998149 -0.0017979389465092523 0 0.019054951153534824 -0.0034445134048355589 0 0.02181134692002807 -3.6662036153868008e-05 0 0.01164204066923348 -0.0019016266372235975 0 0.024187736080925119 -0.0043196646439682043 0 0.019054951153534824 -0.0034445134048355589 0 0.02181134692002807 -3.6662036153868008e-05 0 0.024187736080925119 -0.0043196646439682043 0 0.025906562458331967 -0.0024359037841562093 0 0.02181134692002807 -3.6662036153868008e-05 0 0.010136221296571858 -0.00031858253474990585 0 0.010424172483707162 -0.0018798728707137668 0 0.0083726721645769366 -0.0018759452142783509 0 0.010136221296571858 -0.00031858253474990585 0 0.011116242235401337 -0.0010547693592417127 0 0.01164204066923348 -0.0019016266372235975 0 0.010136221296571858 -0.00031858253474990585 0 0.011116242235401337 -0.0010547693592417127 0 0.010424172483707162 -0.0018798728707137668 0 0.0077547699847128762 -0.0013761793764638876 0 0.0073117070762477969 -0.00078411423988929889 0 0.0049099761209739244 -0.00081239436417299539 0 0.0045560611094522876 -0.00075156677344726138 0 0.0046665138602062341 -0.00032083324300412108 0 0.011116242235401337 -0.0010547693592417127 0 0.010424172483707162 -0.0018798728707137668 0 0.011346887868556086 -0.0016707757513751312 0 0.0077547699847128762 -0.0013761793764638876 0 0.0068354235421225268 -0.0013269081165944001 0 0.0049099761209739244 -0.00081239436417299539 0 0.0051199618789284076 -0.00047708086155051952 0 0.0053191646763066465 -0.00093093733640352738 0 0.0049099761209739244 -0.00081239436417299539 0 0.0051199618789284076 -0.00047708086155051952 0 0.0046665138602062341 -0.00032083324300412108 0 0.0061391804417226716 -0.00095424641680156609 0 0.0056196674952258855 -0.00065568437577624207 0 0.0058017877845525428 -0.00067585964670949022 0 0.0062453926981704084 -0.0010716273308879567 0 0.0068354235421225268 -0.0013269081165944001 0 0.0065123758521699023 -0.0006534684876124278 0 0.0061391804417226716 -0.00095424641680156609 0 0.0083726721645769366 -0.0018759452142783509 0 0.0051199618789284076 -0.00047708086155051952 0 0.0056196674952258855 -0.00065568437577624207 0 0.0053191646763066465 -0.00093093733640352738 0 0.0061391804417226716 -0.00095424641680156609 0 0.0056196674952258855 -0.00065568437577624207 0 0.0053191646763066465 -0.00093093733640352738 0 0.0054112092147959598 -0.0003631819240970077 0 0.0051199618789284076 -0.00047708086155051952 0 0.0056196674952258855 -0.00065568437577624207 0 0.0054112092147959598 -0.0003631819240970077 0 0.0056196674952258855 -0.00065568437577624207 0 0.0058017877845525428 -0.00067585964670949022 0 0.0054112092147959598 -0.0003631819240970077 0 0.0055573873510103644 -0.00027755627984310185 0 0.0058017877845525428 -0.00067585964670949022 0 0.0058453508493609158 -0.00047139547441046842 0 0.0058017877845525428 -0.00067585964670949022 0 0.0059454261533905157 -0.00069784215318459061 0 0.0058017877845525428 -0.00067585964670949022 0 0.0058495626848853143 -0.00087624577280034422 0 0.0059454261533905157 -0.00069784215318459061 0 0.0061391804417226716 -0.00095424641680156609 0 0.0058017877845525428 -0.00067585964670949022 0 0.0058495626848853143 -0.00087624577280034422 0 0.017498081508552844 -0.0010235268497618044 0 0.018135487200066372 -0.0013972399790085619 0 0.02920022126196558 -0.0011609626993366422 0 0.030241037502551384 -0.0019007471264077093 0 0.029975019696257408 -0.0017726670429298417 0 0.0058495626848853143 -0.00087624577280034422 0 0.0059454261533905157 -0.00069784215318459061 0 0.0062820232898082931 -0.00084303203894280879 0 0.0058453508493609158 -0.00047139547441046842 0 0.0059454261533905157 -0.00069784215318459061 0 0.0061218248344597891 -0.00063832885314748882 0 0.0059454261533905157 -0.00069784215318459061 0 0.0061218248344597891 -0.00063832885314748882 0 0.0062820232898082931 -0.00084303203894280879 0 0.006198794856456945 -0.00047582695306267212 0 0.0061218248344597891 -0.00063832885314748882 0 0.0063748942070643569 -0.00066298377194623742 0 0.0061218248344597891 -0.00063832885314748882 0 0.0063748942070643569 -0.00066298377194623742 0 0.0062820232898082931 -0.00084303203894280879 0 0.0065028454412385025 -0.00047586070595239625 0 0.0067994218651800508 -0.00084947693545710842 0 0.0063748942070643569 -0.00066298377194623742 0 0.0067994218651800508 -0.00084947693545710842 0 0.0063748942070643569 -0.00066298377194623742 0 0.0062820232898082931 -0.00084303203894280879 0 0.017764301451336863 -0.0019050553932583791 0 0.018135487200066372 -0.0013972399790085619 0 0.028918375154373371 -0.0018977589713908842 0 0.030128234357011615 -0.0016171347122810849 0 0.030241037502551384 -0.0019007471264077093 0 0.028179053602703907 -0.0031354698441075097 0 0.028918375154373371 -0.0018977589713908842 0 0.030241037502551384 -0.0019007471264077093 0 0.030128234357011615 -0.0016171347122810849 0 0.030241037502551384 -0.0019007471264077093 0 0.029975019696257408 -0.0017726670429298417 0 0.030128234357011615 -0.0016171347122810849 0 0.029975019696257408 -0.0017726670429298417 0 0.030215147051668719 -0.0020963831339442579 0 0.030215147051668719 -0.0020963831339442579 0 0.030002932115714667 -0.0021778738077192347 0 0.030360601932284854 -0.0027800553480486533 0 0.029975019696257408 -0.0017726670429298417 0 0.030215147051668719 -0.0020963831339442579 0 0.030002932115714667 -0.0021778738077192347 0 0.028918375154373371 -0.0018977589713908842 0 0.028431010396558317 -0.00067545220725290255 0 0.030128234357011615 -0.0016171347122810849 0 0.029762833763594173 -0.0013036397621183516 0 0.030177513666638844 -0.0016308639087189028 0 0.031365784822447181 -0.0021577992701806098 0 0.030128234357011615 -0.0016171347122810849 0 0.030630407552919396 -0.0024040260376385443 0 0.031115774616763948 -0.0026002919107696049 0 0.031365784822447181 -0.0021577992701806098 0 0.030630407552919396 -0.0024040260376385443 0 0.030128234357011615 -0.0016171347122810849 0 0.030215147051668719 -0.0020963831339442579 0 0.030630407552919396 -0.0024040260376385443 0 0.030630407552919396 -0.0024040260376385443 0 0.031028531512087548 -0.0031083584405964819 0 0.030360601932284854 -0.0027800553480486533 0 0.031115774616763948 -0.0026002919107696049 0 0.030630407552919396 -0.0024040260376385443 0 0.031028531512087548 -0.0031083584405964819 0 0.030002932115714667 -0.0021778738077192347 0 0.030360601932284854 -0.0027800553480486533 0 0.029742538189825883 -0.0028417559109883183 0 0.0301109720150806 -0.0033993974851983968 0 0.030360601932284854 -0.0027800553480486533 0 0.029742538189825883 -0.0028417559109883183 0 0.030215147051668719 -0.0020963831339442579 0 0.030630407552919396 -0.0024040260376385443 0 0.030360601932284854 -0.0027800553480486533 0 0.029742538189825883 -0.0028417559109883183 0 0.028819290401960039 -0.0029746367168870858 0 0.029447412198237599 -0.001931309191391309 0 0.030002932115714667 -0.0021778738077192347 0 0.029742538189825883 -0.0028417559109883183 0 0.029447412198237599 -0.001931309191391309 0 0.028819290401960039 -0.0029746367168870858 0 0.028481319174405977 -0.0018400101680936189 0 0.029447412198237599 -0.001931309191391309 0 0.02743114646669292 -0.0020319266715938598 0 0.028819290401960039 -0.0029746367168870858 0 0.028481319174405977 -0.0018400101680936189 0 0.026915304157626482 -0.00053358031405987291 0 0.02920022126196558 -0.0011609626993366422 0 0.028481319174405977 -0.0018400101680936189 0 0.02920022126196558 -0.0011609626993366422 0 0.028481319174405977 -0.0018400101680936189 0 0.029447412198237599 -0.001931309191391309 0 0.02920022126196558 -0.0011609626993366422 0 0.029975019696257408 -0.0017726670429298417 0 0.029447412198237599 -0.001931309191391309 0 0.029975019696257408 -0.0017726670429298417 0 0.030002932115714667 -0.0021778738077192347 0 0.029447412198237599 -0.001931309191391309 0 0.0098779676799274196 0.00031722724318055333 0 0.011067966761221959 0.0005191008356849198 0 0.011615617025758841 8.5291301983325079e-07 0 0.0098779676799274196 0.00031722724318055333 0 0.0096420925023296914 0.00030182864103742846 0 0.0084995006181498821 0.00033902497672173913 0 0.0098779676799274196 0.00031722724318055333 0 0.0089167359775944449 4.2775419208767004e-07 0 0.0084995006181498821 0.00033902497672173913 0 0.0098779676799274196 0.00031722724318055333 0 0.0089167359775944449 4.2775419208767004e-07 0 0.011615617025758841 8.5291301983325079e-07 0 0.0098779676799274196 0.00031722724318055333 0 0.0096420925023296914 0.00030182864103742846 0 0.011067966761221959 0.0005191008356849198 0 0.010635925280533889 0.00054274168922024513 0 0.0096420925023296914 0.00030182864103742846 0 0.011067966761221959 0.0005191008356849198 0 0.010635925280533889 0.00054274168922024513 0 0.011167205488808835 0.00072731052209006476 0 0.011067966761221959 0.0005191008356849198 0 0.010635925280533889 0.00054274168922024513 0 0.0096420925023296914 0.00030182864103742846 0 0.011083236087614164 0.00021111394093251763 0 0.007988394276919962 -2.0308443580931858e-06 0 0.01393841598711261 0.00095402661608626747 0 0.0096420925023296914 0.00030182864103742846 0 0.0088741886346738932 0.00054285727398484295 0 0.0086908254717694006 0.00014916969210092471 0 0.0086769723945540733 0.00047515671051158556 0 0.007893158205049015 0.00039152895681917319 0 0.0084995006181498821 0.00033902497672173913 0 0.0096420925023296914 0.00030182864103742846 0 0.0086769723945540733 0.00047515671051158556 0 0.0084995006181498821 0.00033902497672173913 0 0.0096420925023296914 0.00030182864103742846 0 0.0086769723945540733 0.00047515671051158556 0 0.0088741886346738932 0.00054285727398484295 0 0.0086769723945540733 0.00047515671051158556 0 0.0088741886346738932 0.00054285727398484295 0 0.0085613584174485582 0.00047520111704837714 0 0.0086769723945540733 0.00047515671051158556 0 0.0085613584174485582 0.00047520111704837714 0 0.0076717356455576688 0.0002688468488712548 0 0.007893158205049015 0.00039152895681917319 0 0.0064974763352469303 0.00021122053031743303 0 0.0076717356455576688 0.0002688468488712548 0 0.0086769723945540733 0.00047515671051158556 0 0.007893158205049015 0.00039152895681917319 0 0.0076717356455576688 0.0002688468488712548 0 0.007893158205049015 0.00039152895681917319 0 0.0084995006181498821 0.00033902497672173913 0 0.0064974763352469303 0.00021122053031743303 0 0.0089167359775944449 4.2775419208767004e-07 0 0.0084995006181498821 0.00033902497672173913 0 0.0062181192992979929 8.0337790556625371e-07 0 0.0084995006181498821 0.00033902497672173913 0 0.0062181192992979929 8.0337790556625371e-07 0 0.0064974763352469303 0.00021122053031743303 0 0.0062181192992979929 8.0337790556625371e-07 0 0.0064974763352469303 0.00021122053031743303 0 0.0035182708799486773 -7.703924054017159e-07 0 0.0064974763352469303 0.00021122053031743303 0 0.0055884941698403938 -0.00013164234066881896 0 0.0076717356455576688 0.0002688468488712548 0 0.0064974763352469303 0.00021122053031743303 0 0.0055884941698403938 -0.00013164234066881896 0 0.0035182708799486773 -7.703924054017159e-07 0 0.0055884941698403938 -0.00013164234066881896 0 0.0035182708799486773 -7.703924054017159e-07 0 0.0024236369458622274 -0.00062292895056643245 0 0.0035182708799486773 -7.703924054017159e-07 0 0.0024236369458622274 -0.00062292895056643245 0 0.0008195581119149161 -8.5045633663002422e-07 0 0.0024236369458622274 -0.00062292895056643245 0 -1.2031327985644183e-05 -6.6297491725313874e-05 0 -0.00023829862002904066 -0.00099594238041062584 0 0.0021185854295313316 -0.00080608946486676711 0 0.0040925699388691724 -0.0011430491139719297 0 0.0055884941698403938 -0.00013164234066881896 0 0.0024236369458622274 -0.00062292895056643245 0 0.006596611658945685 -0.0017494192743948964 0 0.0024236369458622274 -0.00062292895056643245 0 0.0004363913427979426 0.00013871604379415484 0 -1.2031327985644183e-05 -6.6297491725313874e-05 0 0.0024236369458622274 -0.00062292895056643245 0 0.0004363913427979426 0.00013871604379415484 0 0.0008195581119149161 -8.5045633663002422e-07 0 -0.0093816380534710829 -0.004065690266392293 0 -0.0099062205939481063 -0.0043631173173621631 0 -0.0099944987931409306 -0.0038922808078340762 0 -0.0058070003175244231 -0.002370399697482756 0 -0.00050824719427888527 -0.0024823918078608342 0 -0.00069880076650218948 4.1208208092856458e-08 0 -1.2031327985644183e-05 -6.6297491725313874e-05 0 -0.00023829862002904066 -0.00099594238041062584 0 0.006596611658945685 -0.0017494192743948964 0 0.0076826900033517762 -0.0010862103253447683 0 0.0073666888378460475 -0.00047847701418566381 0 0.006596611658945685 -0.0017494192743948964 0 0.0076826900033517762 -0.0010862103253447683 0 0.0084430577283085544 -0.0016525566257619129 0 0.0076826900033517762 -0.0010862103253447683 0 0.0082494281379983485 -0.00055628402261339238 0 0.0084430577283085544 -0.0016525566257619129 0 -0.00069880076650218948 4.1208208092856458e-08 0 -0.00023829862002904066 -0.00099594238041062584 0 -0.0015514011542713403 -0.00096873740322773398 0 0.0040925699388691724 -0.0011430491139719297 0 -0.00050824719427888527 -0.0024823918078608342 0 0.0082494281379983485 -0.00055628402261339238 0 0.0073666888378460475 -0.00047847701418566381 0 0.0083245062237254294 0.0003319177362805091 0 0.0076826900033517762 -0.0010862103253447683 0 0.0082494281379983485 -0.00055628402261339238 0 0.0073666888378460475 -0.00047847701418566381 0 0.0055884941698403938 -0.00013164234066881896 0 0.006596611658945685 -0.0017494192743948964 0 0.0073666888378460475 -0.00047847701418566381 0 0.0055884941698403938 -0.00013164234066881896 0 0.0073666888378460475 -0.00047847701418566381 0 0.0076717356455576688 0.0002688468488712548 0 0.0075755925917400874 -0.00037586969748466044 0 0.0081528481617464815 9.278131337445142e-05 0 0.0073666888378460475 -0.00047847701418566381 0 0.0076717356455576688 0.0002688468488712548 0 0.0085459303408073287 7.4922574075526183e-05 0 0.0085613584174485582 0.00047520111704837714 0 0.0076717356455576688 0.0002688468488712548 0 0.0085459303408073287 7.4922574075526183e-05 0 0.0081528481617464815 9.278131337445142e-05 0 0.010603879412507429 0.00093614368047052992 0 0.0091267028272532559 0.00010134515697537917 0 0.0083245062237254294 0.0003319177362805091 0 0.0093231586790876279 0.0012095680815612138 0 0.0082494281379983485 -0.00055628402261339238 0 0.0091267028272532559 0.00010134515697537917 0 0.0083245062237254294 0.0003319177362805091 0 0.0084245396589553209 0.00031008839241725091 0 0.010603879412507429 0.00093614368047052992 0 0.0077383435374576313 0.00092224847360399854 0 0.010603879412507429 0.00093614368047052992 0 0.0076001732839498298 0.0003966236218650237 0 0.0080542207718102051 0.00010369559828405683 0 0.0078113711625000803 0.0014164872568741089 0 0.010380779342764665 0.00086607675126896947 0 0.011097447758641027 0.0016561122358030663 0 0.010538387520372724 0.0019859158050385549 0 0.010380779342764665 0.00086607675126896947 0 0.010538387520372724 0.0019859158050385549 0 0.01006006526757018 0.0024427614327407455 0 0.010281745551923393 0.00094544347101292855 0 0.010990485758601572 0.0010494295775709895 0 0.011025245489302367 0.0017127496012345918 0 0.0077383435374576313 0.00092224847360399854 0 0.011240056087581494 0.0019309442847731391 0 0.0076001732839498298 0.0003966236218650237 0 0.0080542207718102051 0.00010369559828405683 0 0.0073876426872831634 -0.00061236613193725196 0 0.010281745551923393 0.00094544347101292855 0 0.010579255432002589 -0.00053906099972812456 0 0.010972887509346423 0.00041067208375192868 0 0.0026737349211218009 0.0015021576863920197 0 0.0010193902980777333 -0.00032271423053788966 0 0.0033625480750433456 -0.0017301214515323985 0 0.0077383435374576313 0.00092224847360399854 0 0.0011175767142909026 -0.0013156486671779934 0 0.010281745551923393 0.00094544347101292855 0 0.010972887509346423 0.00041067208375192868 0 0.010990485758601572 0.0010494295775709895 0 0.0077383435374576313 0.00092224847360399854 0 0.0039552313726851536 -0.00049578986915675357 0 0.0082494281379983485 -0.00055628402261339238 0 0.0091267028272532559 0.00010134515697537917 0 0.0089548398776311561 -0.0010084891382877567 0 0.0084245396589553209 0.00031008839241725091 0 0.0039552313726851536 -0.00049578986915675357 0 0.0082494281379983485 -0.00055628402261339238 0 0.0089548398776311561 -0.0010084891382877567 0 0.0084430577283085544 -0.0016525566257619129 0 0.0039552313726851536 -0.00049578986915675357 0 -0.00050824719427888527 -0.0024823918078608342 0 0.00078816570010416015 -0.00073586858500888626 0 -0.0015737283987833064 -0.0033875589531568331 0 0.000330448592957668 -0.0034014529440537472 0 -0.0099062205939481063 -0.0043631173173621631 0 -0.010094284225020103 -0.0043511323950270282 0 -0.010083932603710618 -0.0040761868085167118 0 -0.00050824719427888527 -0.0024823918078608342 0 -0.0049347228788089482 -0.0031600411958781524 0 -0.0049347228788089482 -0.0031600411958781524 0 -0.0082711117156648341 -0.0046437245047327375 0 -0.010083863808440351 -0.0042163912582521427 0 -0.010271005457235515 -0.0040926496955908283 0 -0.010083932603710618 -0.0040761868085167118 0 0.0039552313726851536 -0.00049578986915675357 0 -0.0049347228788089482 -0.0031600411958781524 0 0.0010193902980777333 -0.00032271423053788966 0 0.0007655529221866934 -0.0017145302577246922 0 0.0033625480750433456 -0.0017301214515323985 0 -0.0049347228788089482 -0.0031600411958781524 0 0.0011175767142909026 -0.0013156486671779934 0 -0.010083863808440351 -0.0042163912582521427 0 -0.010433998254513946 -0.0042112985707175709 0 -0.010271005457235515 -0.0040926496955908283 0 -0.010627716342149929 -0.0036020184877078097 0 -0.010433998254513946 -0.0042112985707175709 0 -0.010441003766287558 -0.0039070091257576937 0 -0.010271005457235515 -0.0040926496955908283 0 -0.010441003766287558 -0.0039070091257576937 0 -0.01038905147418419 -0.0038897085645832326 0 -0.010271005457235515 -0.0040926496955908283 0 -0.010253487673241088 -0.0039605729771017978 0 -0.01038905147418419 -0.0038897085645832326 0 0.00057635437525399992 -0.0022833294287286613 0 0.0011175767142909026 -0.0013156486671779934 0 -0.010433998254513946 -0.0042112985707175709 0 -0.010271005457235515 -0.0040926496955908283 0 -0.010441003766287558 -0.0039070091257576937 0 -0.010627716342149929 -0.0036020184877078097 0 -0.010441003766287558 -0.0039070091257576937 0 -0.010474847961202136 -0.0037384606936259231 0 -0.010441003766287558 -0.0039070091257576937 0 -0.010474847961202136 -0.0037384606936259231 0 -0.01038905147418419 -0.0038897085645832326 0 -0.010253487673241088 -0.0039605729771017978 0 -0.01038905147418419 -0.0038897085645832326 0 -0.010359143583381004 -0.0037715732789076993 0 -0.010253487673241088 -0.0039605729771017978 0 -0.010359143583381004 -0.0037715732789076993 0 -0.010216234581708287 -0.0038483689773849881 0 -0.010474847961202136 -0.0037384606936259231 0 -0.01038905147418419 -0.0038897085645832326 0 -0.010359143583381004 -0.0037715732789076993 0 -0.010253487673241088 -0.0039605729771017978 0 -0.010216234581708287 -0.0038483689773849881 0 -0.010083932603710618 -0.0040761868085167118 0 -0.0099062205939481063 -0.0043631173173621631 0 -0.0099944987931409306 -0.0038922808078340762 0 -0.010083932603710618 -0.0040761868085167118 0 -0.010216234581708287 -0.0038483689773849881 0 -0.0099944987931409306 -0.0038922808078340762 0 -0.010083932603710618 -0.0040761868085167118 0 -0.010271005457235515 -0.0040926496955908283 0 -0.010253487673241088 -0.0039605729771017978 0 -0.010083932603710618 -0.0040761868085167118 0 0.016090569809419811 -0.00030494819739387662 0 0.016494613553535226 -0.00016764726634539495 0 0.016420078149349062 -0.00047691604531615835 0 0.016090569809419811 -0.00030494819739387662 0 0.016494613553535226 -0.00016764726634539495 0 0.016201902073764204 4.1258181577978101e-05 0 0.016494613553535226 -0.00016764726634539495 0 0.016928354597780346 -0.00035157430470799625 0 0.016420078149349062 -0.00047691604531615835 0 0.016494613553535226 -0.00016764726634539495 0 0.016928354597780346 -0.00035157430470799625 0 0.016731350684913583 0.00025204157295485191 0 0.016928354597780346 -0.00035157430470799625 0 0.016731350684913583 0.00025204157295485191 0 0.017365635690384303 0.00019753457348195452 0 0.016541476206722836 -0.00090997491518426867 0 0.016928354597780346 -0.00035157430470799625 0 0.016420078149349062 -0.00047691604531615835 0 0.017362244892536047 -0.001070558039102279 0 0.016541476206722836 -0.00090997491518426867 0 0.016928354597780346 -0.00035157430470799625 0 0.016541476206722836 -0.00090997491518426867 0 0.016420078149349062 -0.00047691604531615835 0 0.016078857855329375 -0.00066466699615705686 0 0.016090569809419811 -0.00030494819739387662 0 0.016420078149349062 -0.00047691604531615835 0 0.016078857855329375 -0.00066466699615705686 0 0.004890958629167593 -0.0024498830602564833 0 0.0048581578866674939 -0.0022900379379872204 0 0.0052956799268792576 -0.00050821036971640217 0 0.015566670341209119 -0.00085427325987446582 0 0.016090569809419811 -0.00030494819739387662 0 0.015760283674178449 0.00023229793109665612 0 0.0030995690751594385 -0.0019442251769349239 0 0.012460484644296088 0.00024705341567964084 0 0.0048581578866674939 -0.0022900379379872204 0 0.0044791261141089644 -0.00050508972393729717 0 0.0052956799268792576 -0.00050821036971640217 0 0.015449522379636397 -0.00087283059554139788 0 0.015566670341209119 -0.00085427325987446582 0 0.015760283674178449 0.00023229793109665612 0 0.015566670341209119 -0.00085427325987446582 0 0.016090569809419811 -0.00030494819739387662 0 0.016078857855329375 -0.00066466699615705686 0 0.016090569809419811 -0.00030494819739387662 0 0.015760283674178449 0.00023229793109665612 0 0.016201902073764204 4.1258181577978101e-05 0 0.013492717467439018 0.00024540337256503475 0 0.012460484644296088 0.00024705341567964084 0 0.015981386468749352 0.00030522875739091116 0 0.016368792514080424 0.00034271552325112965 0 0.016201902073764204 4.1258181577978101e-05 0 0.015981386468749352 0.00030522875739091116 0 0.015760283674178449 0.00023229793109665612 0 0.016201902073764204 4.1258181577978101e-05 0 0.0011175767142909026 -0.0013156486671779934 0 0.012460484644296088 0.00024705341567964084 0 0.010579255432002589 -0.00053906099972812456 0 0.011326959314498205 -0.00054165055499653882 0 0.010972887509346423 0.00041067208375192868 0 0.015981386468749352 0.00030522875739091116 0 0.01579719671773621 0.00032280650177355389 0 0.016555815098924922 0.00077657615332872066 0 0.016555815098924922 0.00077657615332872066 0 0.016368792514080424 0.00034271552325112965 0 0.016731350684913583 0.00025204157295485191 0 0.015981386468749352 0.00030522875739091116 0 0.016555815098924922 0.00077657615332872066 0 0.016368792514080424 0.00034271552325112965 0 0.016368792514080424 0.00034271552325112965 0 0.016201902073764204 4.1258181577978101e-05 0 0.016731350684913583 0.00025204157295485191 0 0.016494613553535226 -0.00016764726634539495 0 0.016201902073764204 4.1258181577978101e-05 0 0.016731350684913583 0.00025204157295485191 0 0.016731350684913583 0.00025204157295485191 0 0.017231416784985937 0.00079353136856052573 0 0.017365635690384303 0.00019753457348195452 0 0.016555815098924922 0.00077657615332872066 0 0.016731350684913583 0.00025204157295485191 0 0.017231416784985937 0.00079353136856052573 0 0.016555815098924922 0.00077657615332872066 0 0.017335270245887723 0.0014772424436964211 0 0.016598837374335318 0.001781259659841846 0 0.016555815098924922 0.00077657615332872066 0 0.017335270245887723 0.0014772424436964211 0 0.017231416784985937 0.00079353136856052573 0 0.011326959314498205 -0.00054165055499653882 0 0.010972887509346423 0.00041067208375192868 0 0.01168416767308874 0.0011514014689166367 0 0.012460484644296088 0.00024705341567964084 0 0.01428759105905832 0.0013591935259806109 0 0.01579719671773621 0.00032280650177355389 0 0.016555815098924922 0.00077657615332872066 0 0.016598837374335318 0.001781259659841846 0 0.010972887509346423 0.00041067208375192868 0 0.010990485758601572 0.0010494295775709895 0 0.01168416767308874 0.0011514014689166367 0 0.01168416767308874 0.0011514014689166367 0 0.011025245489302367 0.0017127496012345918 0 0.011787223039259781 0.0024509527272526328 0 0.01428759105905832 0.0013591935259806109 0 0.014651499849630429 0.0027161207095469388 0 0.010990485758601572 0.0010494295775709895 0 0.01168416767308874 0.0011514014689166367 0 0.011025245489302367 0.0017127496012345918 0 0.017335270245887723 0.0014772424436964211 0 0.016598837374335318 0.001781259659841846 0 0.017570579218258175 0.0021495303747155379 0 0.016598837374335318 0.001781259659841846 0 0.017413740916208117 0.0025742576325694429 0 0.017570579218258175 0.0021495303747155379 0 0.017413740916208117 0.0025742576325694429 0 0.017852697748362251 0.0026005201889757346 0 0.017846308932184571 0.0024608098943833361 0 0.017413740916208117 0.0025742576325694429 0 0.017846308932184571 0.0024608098943833361 0 0.017570579218258175 0.0021495303747155379 0 0.014651499849630429 0.0027161207095469388 0 0.015783045631074709 0.003142365758324492 0 0.017413740916208117 0.0025742576325694429 0 0.018036130397945084 0.0024503257800627186 0 0.017852697748362251 0.0026005201889757346 0 0.012075511412329388 0.0027918483032111428 0 0.011235832822292034 0.0034628964456361673 0 0.012434319290562197 0.0044731277704332653 0 0.011235832822292034 0.0034628964456361673 0 0.011787223039259781 0.0024509527272526328 0 0.010945361660500922 0.0024019072268698098 0 0.012075511412329388 0.0027918483032111428 0 0.011235832822292034 0.0034628964456361673 0 0.011787223039259781 0.0024509527272526328 0 0.01168416767308874 0.0011514014689166367 0 0.012075511412329388 0.0027918483032111428 0 0.011787223039259781 0.0024509527272526328 0 0.011240056087581494 0.0019309442847731391 0 0.011622832805940796 0.0022851339461441239 0 0.011097447758641027 0.0016561122358030663 0 0.011787223039259781 0.0024509527272526328 0 0.010945361660500922 0.0024019072268698098 0 0.011235832822292034 0.0034628964456361673 0 0.010945361660500922 0.0024019072268698098 0 0.01006006526757018 0.0024427614327407455 0 0.010945361660500922 0.0024019072268698098 0 0.010538387520372724 0.0019859158050385549 0 0.01006006526757018 0.0024427614327407455 0 0.011097447758641027 0.0016561122358030663 0 0.010945361660500922 0.0024019072268698098 0 0.010538387520372724 0.0019859158050385549 0 0.013032419993869645 0.0024934147764527044 0 0.010603879412507429 0.00093614368047052992 0 0.0085613584174485582 0.00047520111704837714 0 0.0085459303408073287 7.4922574075526183e-05 0 0.0087450748090491387 0.00049921230271954839 0 0.0088954533610741075 0.00043210774756726708 0 0.0087450748090491387 0.00049921230271954839 0 0.0087217413349540782 0.00051698289393144236 0 0.010603879412507429 0.00093614368047052992 0 0.010861036101301699 0.00098591874485959297 0 0.0085459303408073287 7.4922574075526183e-05 0 0.0088954533610741075 0.00043210774756726708 0 0.0087450748090491387 0.00049921230271954839 0 0.0088741886346738932 0.00054285727398484295 0 0.0085613584174485582 0.00047520111704837714 0 0.0087450748090491387 0.00049921230271954839 0 0.0088741886346738932 0.00054285727398484295 0 0.0087217413349540782 0.00051698289393144236 0 0.0086908254717694006 0.00014916969210092471 0 0.012959521043005146 0.001363441312491118 0 0.013587957435898202 0.0018152192850565381 0 0.012655814609658275 0.0027143839621394088 0 0.0088741886346738932 0.00054285727398484295 0 0.0087450748090491387 0.00049921230271954839 0 0.0087217413349540782 0.00051698289393144236 0 0.014845897030433304 0.0013446800413588465 0 0.013243210704737583 -4.271471173663033e-05 0 0.013587957435898202 0.0018152192850565381 0 0.013232941928670987 6.0398621329838545e-05 0 0.012959521043005146 0.001363441312491118 0 0.013587957435898202 0.0018152192850565381 0 0.010603879412507429 0.00093614368047052992 0 0.013915910291425708 0.0014372124295015101 0 0.014845897030433304 0.0013446800413588465 0 0.013587957435898202 0.0018152192850565381 0 0.014585309112488402 0.0030054830036215347 0 0.021996372461323976 0.0022557610333239783 0 0.021382183135155594 0.0017528097636055427 0 0.020759694065226136 0.0021530605603196488 0 0.01393841598711261 0.00095402661608626747 0 0.01839333368512807 0.0027758030457719139 0 0.013587957435898202 0.0018152192850565381 0 0.012655814609658275 0.0027143839621394088 0 0.014585309112488402 0.0030054830036215347 0 0.010861036101301699 0.00098591874485959297 0 0.01393841598711261 0.00095402661608626747 0 0.010635925280533889 0.00054274168922024513 0 0.011083236087614164 0.00021111394093251763 0 0.011167205488808835 0.00072731052209006476 0 0.021996372461323976 0.0022557610333239783 0 0.021791158801988009 0.0013772163932679838 0 0.022355012067787977 0.00064375485825307003 0 0.01393841598711261 0.00095402661608626747 0 0.017130174541457949 0.00073153293040795686 0 0.021996372461323976 0.0022557610333239783 0 0.021791158801988009 0.0013772163932679838 0 0.021382183135155594 0.0017528097636055427 0 0.021003459157546756 0.0017864096692458264 0 0.021338874129223299 0.00120917022176788 0 0.02078672633159941 8.3557625687668546e-05 0 0.021003459157546756 0.0017864096692458264 0 0.021382183135155594 0.0017528097636055427 0 0.020759694065226136 0.0021530605603196488 0 0.021003459157546756 0.0017864096692458264 0 0.021382183135155594 0.0017528097636055427 0 0.021338874129223299 0.00120917022176788 0 0.021791158801988009 0.0013772163932679838 0 0.021382183135155594 0.0017528097636055427 0 0.021338874129223299 0.00120917022176788 0 0.021791158801988009 0.0013772163932679838 0 0.021338874129223299 0.00120917022176788 0 0.021793480712051828 0.00084098730286566795 0 0.021003459157546756 0.0017864096692458264 0 0.020274624014326191 0.0015687200030315464 0 0.020214409560639732 0.00073513772173878003 0 0.021003459157546756 0.0017864096692458264 0 0.020274624014326191 0.0015687200030315464 0 0.020759694065226136 0.0021530605603196488 0 0.020274624014326191 0.0015687200030315464 0 0.019540812506979251 0.0010757250628596151 0 0.020214409560639732 0.00073513772173878003 0 0.019540812506979251 0.0010757250628596151 0 0.019102081209583063 0.0020056017939212721 0 0.01862783305073866 -2.1752486161354774e-07 0 0.018766982169902365 0.0022439824727829194 0 0.017748783309194587 0.0012390378436755297 0 0.01862783305073866 -2.1752486161354774e-07 0 0.020274624014326191 0.0015687200030315464 0 0.019540812506979251 0.0010757250628596151 0 0.019102081209583063 0.0020056017939212721 0 0.017634916339713459 0.0024922445352994656 0 0.018942934920503061 -3.300809288310816e-05 0 0.016441784679833503 0.0027374562039158127 0 0.016542562882660025 0.0032797988594170154 0 0.014585309112488402 0.0030054830036215347 0 0.015783045631074709 0.003142365758324492 0 0.017634916339713459 0.0024922445352994656 0 0.018036130397945084 0.0024503257800627186 0 0.01808558188622976 0.0022916725704265986 0 0.017967645713602154 0.0024581218960113846 0 0.01808558188622976 0.0022916725704265986 0 0.017967645713602154 0.0024581218960113846 0 0.018108574262359917 0.0021080575958507632 0 0.01810345281087189 0.0022820920403503575 0 0.01808558188622976 0.0022916725704265986 0 0.018108574262359917 0.0021080575958507632 0 0.017634916339713459 0.0024922445352994656 0 0.018165282433890075 0.0023630320720091518 0 0.018096871836382117 0.0023115142444896492 0 0.01810345281087189 0.0022820920403503575 0 0.01808558188622976 0.0022916725704265986 0 0.015783045631074709 0.003142365758324492 0 0.016735279848505438 0.0032442950199082711 0 0.018036130397945084 0.0024503257800627186 0 0.017967645713602154 0.0024581218960113846 0 0.017852697748362251 0.0026005201889757346 0 0.017634916339713459 0.0024922445352994656 0 0.01839333368512807 0.0027758030457719139 0 0.020274624014326191 0.0015687200030315464 0 0.019102081209583063 0.0020056017939212721 0 0.020759694065226136 0.0021530605603196488 0 0.014845897030433304 0.0013446800413588465 0 0.016441784679833503 0.0027374562039158127 0 0.014585309112488402 0.0030054830036215347 0 0.013032419993869645 0.0024934147764527044 0 0.015783045631074709 0.003142365758324492 0 0.028658413153683539 -0.00581578300220955 0 0.028940225429898905 -0.0069868589803453165 0 0.028094583524392196 -0.0067509970393620959 0 0.028658413153683539 -0.00581578300220955 0 0.028094583524392196 -0.0067509970393620959 0 0.026879776278163823 -0.0068373943266222025 0 0.017758088861354309 0.0026196001843391214 0 0.017967645713602154 0.0024581218960113846 0 0.018108574262359917 0.0021080575958507632 0 0.017758088861354309 0.0026196001843391214 0 0.017967645713602154 0.0024581218960113846 0 0.017852697748362251 0.0026005201889757346 0 0.017758088861354309 0.0026196001843391214 0 0.018108574262359917 0.0021080575958507632 0 0.017748783309194587 0.0012390378436755297 0 0.023215572678118902 -0.0016272612456888855 0 0.023735632494867157 -0.0029543137323588455 0 0.028658413153683539 -0.00581578300220955 0 0.029558310475319687 -0.0071190340971959967 0 0.028940225429898905 -0.0069868589803453165 0 0.018766982169902365 0.0022439824727829194 0 0.018108574262359917 0.0021080575958507632 0 0.017748783309194587 0.0012390378436755297 0 0.028940225429898905 -0.0069868589803453165 0 0.028948845080648711 -0.007244466459064014 0 0.029253454097389095 -0.0071593772304107735 0 0.029558310475319687 -0.0071190340971959967 0 0.028940225429898905 -0.0069868589803453165 0 0.029691975258331171 -0.0070553026569459753 0 0.028940225429898905 -0.0069868589803453165 0 0.029253454097389095 -0.0071593772304107735 0 0.029691975258331171 -0.0070553026569459753 0 0.028502394433367804 -0.0071128621002978128 0 0.028940225429898905 -0.0069868589803453165 0 0.028948845080648711 -0.007244466459064014 0 0.028502394433367804 -0.0071128621002978128 0 0.028940225429898905 -0.0069868589803453165 0 0.028094583524392196 -0.0067509970393620959 0 0.028502394433367804 -0.0071128621002978128 0 0.028094583524392196 -0.0067509970393620959 0 0.027860864128645274 -0.0070982820465570941 0 0.028502394433367804 -0.0071128621002978128 0 0.027860864128645274 -0.0070982820465570941 0 0.028505226790570441 -0.0073557662636807167 0 0.027860864128645274 -0.0070982820465570941 0 0.027532540004532067 -0.0070712818838968641 0 0.026879776278163823 -0.0068373943266222025 0 0.027860864128645274 -0.0070982820465570941 0 0.027532540004532067 -0.0070712818838968641 0 0.028073589016889246 -0.007390488254159896 0 0.028094583524392196 -0.0067509970393620959 0 0.027860864128645274 -0.0070982820465570941 0 0.026879776278163823 -0.0068373943266222025 0 0.027532540004532067 -0.0070712818838968641 0 0.027416868233059485 -0.0069977460441752702 0 0.027367292345225964 -0.0071078779203709004 0 0.025045575578286926 -0.0069968851306305372 0 0.026663066279533392 -0.0069340016253829247 0 0.027532540004532067 -0.0070712818838968641 0 0.027416868233059485 -0.0069977460441752702 0 0.026879776278163823 -0.0068373943266222025 0 0.022661135045758861 -0.0071140110917203413 0 0.026879776278163823 -0.0068373943266222025 0 0.024113284038023874 -0.0049329860707112566 0 0.028658413153683539 -0.00581578300220955 0 0.026879776278163823 -0.0068373943266222025 0 0.026259954478144672 -0.0049542694243200564 0 0.026879776278163823 -0.0068373943266222025 0 0.026259954478144672 -0.0049542694243200564 0 0.024113284038023874 -0.0049329860707112566 0 0.026259954478144672 -0.0049542694243200564 0 0.02646223116601926 -0.0038600463210417589 0 0.024690829485308773 -0.0033404369757287617 0 0.026259954478144672 -0.0049542694243200564 0 0.024113284038023874 -0.0049329860707112566 0 0.024690829485308773 -0.0033404369757287617 0 0.022661135045758861 -0.0071140110917203413 0 0.024113284038023874 -0.0049329860707112566 0 0.020713231728574338 -0.0036722053958896561 0 0.024113284038023874 -0.0049329860707112566 0 0.023187039911120817 -0.0031921328090728524 0 0.020713231728574338 -0.0036722053958896561 0 0.024113284038023874 -0.0049329860707112566 0 0.023187039911120817 -0.0031921328090728524 0 0.024690829485308773 -0.0033404369757287617 0 0.023187039911120817 -0.0031921328090728524 0 0.023032364232366643 -0.00065993212232259835 0 0.020713231728574338 -0.0036722053958896561 0 0.024690829485308773 -0.0033404369757287617 0 0.0252936783135915 -0.0024138511543144556 0 0.023032364232366643 -0.00065993212232259835 0 0.025029185060335836 -0.0022701074191788248 0 0.022579062639298614 -0.00095678627494259825 0 0.023187039911120817 -0.0031921328090728524 0 0.024690829485308773 -0.0033404369757287617 0 0.023032364232366643 -0.00065993212232259835 0 0.0252936783135915 -0.0024138511543144556 0 0.026853627926383364 -0.0027477506525178412 0 0.023787589495752843 -6.3023555273557342e-05 0 0.02646223116601926 -0.0038600463210417589 0 0.0252936783135915 -0.0024138511543144556 0 0.026853627926383364 -0.0027477506525178412 0 0.02646223116601926 -0.0038600463210417589 0 0.024690829485308773 -0.0033404369757287617 0 0.0252936783135915 -0.0024138511543144556 0 0.018153149195390399 0.0023518367031723606 0 0.018443389059431704 0.0025571564616253552 0 0.018538907201893724 0.0021259152982144721 0 0.018153149195390399 0.0023518367031723606 0 0.018011313055575601 0.002566661851486368 0 0.018443389059431704 0.0025571564616253552 0 0.028658413153683539 -0.00581578300220955 0 0.026259954478144672 -0.0049542694243200564 0 0.02646223116601926 -0.0038600463210417589 0 0.028658413153683539 -0.00581578300220955 0 0.02646223116601926 -0.0038600463210417589 0 0.026853627926383364 -0.0027477506525178412 0 0.017758088861354309 0.0026196001843391214 0 0.018011313055575601 0.002566661851486368 0 0.018443389059431704 0.0025571564616253552 0 0.023215572678118902 -0.0016272612456888855 0 0.022633067221193216 -0.00017941010291076614 0 0.017758088861354309 0.0026196001843391214 0 0.018011313055575601 0.002566661851486368 0 0.017852697748362251 0.0026005201889757346 0 0.018011313055575601 0.002566661851486368 0 0.017852697748362251 0.0026005201889757346 0 0.017846308932184571 0.0024608098943833361 0 0.018153149195390399 0.0023518367031723606 0 0.017846308932184571 0.0024608098943833361 0 0.017570579218258175 0.0021495303747155379 0 0.018153149195390399 0.0023518367031723606 0 0.018011313055575601 0.002566661851486368 0 0.017846308932184571 0.0024608098943833361 0 0.018153149195390399 0.0023518367031723606 0 0.017570579218258175 0.0021495303747155379 0 0.018033919728340501 0.0018718488083528289 0 0.017335270245887723 0.0014772424436964211 0 0.017570579218258175 0.0021495303747155379 0 0.018033919728340501 0.0018718488083528289 0 0.018538907201893724 0.0021259152982144721 0 0.01856452628898839 0.0016769145171520766 0 0.01944935285357844 0.0019577629990382588 0 0.018153149195390399 0.0023518367031723606 0 0.018033919728340501 0.0018718488083528289 0 0.018538907201893724 0.0021259152982144721 0 0.018033919728340501 0.0018718488083528289 0 0.018538907201893724 0.0021259152982144721 0 0.01856452628898839 0.0016769145171520766 0 0.018033919728340501 0.0018718488083528289 0 0.01856452628898839 0.0016769145171520766 0 0.017862417553469425 0.0012628056836186782 0 0.01856452628898839 0.0016769145171520766 0 0.017862417553469425 0.0012628056836186782 0 0.018332641454515637 0.00094998026140480786 0 0.01856452628898839 0.0016769145171520766 0 0.018908093412657329 0.0011784885761312819 0 0.018332641454515637 0.00094998026140480786 0 0.017335270245887723 0.0014772424436964211 0 0.018033919728340501 0.0018718488083528289 0 0.017862417553469425 0.0012628056836186782 0 0.017862417553469425 0.0012628056836186782 0 0.017764306961934512 0.00070057949380057031 0 0.018332641454515637 0.00094998026140480786 0 0.017335270245887723 0.0014772424436964211 0 0.017862417553469425 0.0012628056836186782 0 0.017231416784985937 0.00079353136856052573 0 0.017862417553469425 0.0012628056836186782 0 0.017231416784985937 0.00079353136856052573 0 0.017764306961934512 0.00070057949380057031 0 0.017231416784985937 0.00079353136856052573 0 0.017365635690384303 0.00019753457348195452 0 0.017764306961934512 0.00070057949380057031 0 0.017365635690384303 0.00019753457348195452 0 0.017764306961934512 0.00070057949380057031 0 0.01804572737214916 0.00026139679170508355 0 0.017764306961934512 0.00070057949380057031 0 0.018332641454515637 0.00094998026140480786 0 0.01804572737214916 0.00026139679170508355 0 0.018332641454515637 0.00094998026140480786 0 0.018823564048739232 0.00044047072517260023 0 0.01804572737214916 0.00026139679170508355 0 0.018908093412657329 0.0011784885761312819 0 0.018332641454515637 0.00094998026140480786 0 0.018823564048739232 0.00044047072517260023 0 0.018823564048739232 0.00044047072517260023 0 0.01804572737214916 0.00026139679170508355 0 0.018443237179494518 -0.00029469570126104737 0 0.018823564048739232 0.00044047072517260023 0 0.018443237179494518 -0.00029469570126104737 0 0.019617532882081141 -0.00027698632276452047 0 0.018443237179494518 -0.00029469570126104737 0 0.018719951485331281 -0.00083868570345613626 0 0.019617532882081141 -0.00027698632276452047 0 0.01804572737214916 0.00026139679170508355 0 0.018443237179494518 -0.00029469570126104737 0 0.017690089128151596 -0.00037697462755026764 0 0.018020871751756186 -0.00098158562717347493 0 0.018443237179494518 -0.00029469570126104737 0 0.018719951485331281 -0.00083868570345613626 0 0.018020871751756186 -0.00098158562717347493 0 0.018443237179494518 -0.00029469570126104737 0 0.017690089128151596 -0.00037697462755026764 0 0.017362244892536047 -0.001070558039102279 0 0.018020871751756186 -0.00098158562717347493 0 0.017690089128151596 -0.00037697462755026764 0 0.017362244892536047 -0.001070558039102279 0 0.016928354597780346 -0.00035157430470799625 0 0.017690089128151596 -0.00037697462755026764 0 0.016928354597780346 -0.00035157430470799625 0 0.017365635690384303 0.00019753457348195452 0 0.017690089128151596 -0.00037697462755026764 0 0.017365635690384303 0.00019753457348195452 0 0.01804572737214916 0.00026139679170508355 0 0.017690089128151596 -0.00037697462755026764 0 0.020997905958543131 -7.1626724074567291e-06 0 0.019617532882081141 -0.00027698632276452047 0 0.021094194065014532 0.00063192404751567538 0 0.01800617015966427 3.0050109883368997e-05 0 0.016038434524192687 0.0016050901876227463 0 0.020542176700112637 -0.0012754138601008336 0 0.020997905958543131 -7.1626724074567291e-06 0 0.021472695863819675 0.00016299210667799618 0 0.020542176700112637 -0.0012754138601008336 0 0.020997905958543131 -7.1626724074567291e-06 0 0.019617532882081141 -0.00027698632276452047 0 0.020997905958543131 -7.1626724074567291e-06 0 0.021254870978124188 0.0003609830822786895 0 0.021472695863819675 0.00016299210667799618 0 0.019178643684493762 -0.0011849497460375115 0 0.018719951485331281 -0.00083868570345613626 0 0.019617532882081141 -0.00027698632276452047 0 0.019617532882081141 -0.00027698632276452047 0 0.019589287202872892 0.0008289356937736473 0 0.021094194065014532 0.00063192404751567538 0 0.018823564048739232 0.00044047072517260023 0 0.019617532882081141 -0.00027698632276452047 0 0.019589287202872892 0.0008289356937736473 0 0.018908093412657329 0.0011784885761312819 0 0.018823564048739232 0.00044047072517260023 0 0.019589287202872892 0.0008289356937736473 0 0.021094194065014532 0.00063192404751567538 0 0.021616832867856206 0.000103488334701854 0 0.02132374983448285 0.00041794672766002245 0 0.021094194065014532 0.00063192404751567538 0 0.021254870978124188 0.0003609830822786895 0 0.02132374983448285 0.00041794672766002245 0 0.020997905958543131 -7.1626724074567291e-06 0 0.021094194065014532 0.00063192404751567538 0 0.021254870978124188 0.0003609830822786895 0 0.021094194065014532 0.00063192404751567538 0 0.021616832867856206 0.000103488334701854 0 0.023787589495752843 -6.3023555273557342e-05 0 0.021243032484317009 0.00056103976964903455 0 0.021674803927135371 0.00078632226592119392 0 0.018908093412657329 0.0011784885761312819 0 0.019589287202872892 0.0008289356937736473 0 0.01944935285357844 0.0019577629990382588 0 0.01856452628898839 0.0016769145171520766 0 0.018908093412657329 0.0011784885761312819 0 0.01944935285357844 0.0019577629990382588 0 0.019589287202872892 0.0008289356937736473 0 0.021094194065014532 0.00063192404751567538 0 0.01944935285357844 0.0019577629990382588 0 0.0252936783135915 -0.0024138511543144556 0 0.023787589495752843 -6.3023555273557342e-05 0 0.022234705858457299 -0.001332865648753352 0 0.022633067221193216 -0.00017941010291076614 0 0.021674803927135371 0.00078632226592119392 0 0.018443389059431704 0.0025571564616253552 0 0.018538907201893724 0.0021259152982144721 0 0.01944935285357844 0.0019577629990382588 0 0.021616832867856206 0.000103488334701854 0 0.023787589495752843 -6.3023555273557342e-05 0 0.022234705858457299 -0.001332865648753352 0 0.022579062639298614 -0.00095678627494259825 0 0.020965147821603056 8.8815479979886819e-05 0 0.021616832867856206 0.000103488334701854 0 0.022234705858457299 -0.001332865648753352 0 0.021001600234655134 -0.00044839937613073126 0 0.023032364232366643 -0.00065993212232259835 0 0.019849200827226434 0.0010493847439799412 0 0.019730244125009986 -0.0010378967391398155 0 0.019849200827226434 0.0010493847439799412 0 0.017744077852900088 0.00097170904846537089 0 0.016502341766634298 0.0025332149350642957 0 0.017744077852900088 0.00097170904846537089 0 0.016339652629823041 0.00038310154876551703 0 0.01738885713345005 -0.0014631320459209337 0 0.017744077852900088 0.00097170904846537089 0 0.01738885713345005 -0.0014631320459209337 0 0.019730244125009986 -0.0010378967391398155 0 0.019849200827226434 0.0010493847439799412 0 0.017744077852900088 0.00097170904846537089 0 0.019730244125009986 -0.0010378967391398155 0 0.017744077852900088 0.00097170904846537089 0 0.015787528172616232 0.0016954867804600739 0 0.016339652629823041 0.00038310154876551703 0 0.021001600234655134 -0.00044839937613073126 0 0.02098496646242241 0.00010343734132399079 0 0.020402400250133887 8.137564780250933e-06 0 0.020965147821603056 8.8815479979886819e-05 0 0.015233374283897235 0.0011305158697998065 0 0.017744077852900088 0.00097170904846537089 0 0.015787528172616232 0.0016954867804600739 0 0.016502341766634298 0.0025332149350642957 0 0.02098496646242241 0.00010343734132399079 0 0.021018629186361149 0.00042053152590524787 0 0.020402400250133887 8.137564780250933e-06 0 0.016058703130352407 0.0014574041527147085 0 0.015233374283897235 0.0011305158697998065 0 0.021616832867856206 0.000103488334701854 0 0.02098496646242241 0.00010343734132399079 0 0.02132374983448285 0.00041794672766002245 0 0.021616832867856206 0.000103488334701854 0 0.021001600234655134 -0.00044839937613073126 0 0.02098496646242241 0.00010343734132399079 0 0.021254870978124188 0.0003609830822786895 0 0.02132374983448285 0.00041794672766002245 0 0.021472695863819675 0.00016299210667799618 0 0.016058703130352407 0.0014574041527147085 0 0.016038434524192687 0.0016050901876227463 0 0.02132374983448285 0.00041794672766002245 0 0.021018629186361149 0.00042053152590524787 0 0.021472695863819675 0.00016299210667799618 0 0.02098496646242241 0.00010343734132399079 0 0.02132374983448285 0.00041794672766002245 0 0.021018629186361149 0.00042053152590524787 0 0.011005575361748763 0.0025298051266959081 0 0.010900643776179988 0.0034285272719804497 0 0.010163228307470868 0.0028928221327677865 0 0.011005575361748763 0.0025298051266959081 0 0.010163228307470868 0.0028928221327677865 0 0.010329953282214496 0.0017476837903347489 0 0.010237116470296886 0.0039374586564178537 0 0.010900643776179988 0.0034285272719804497 0 0.010163228307470868 0.0028928221327677865 0 0.011005575361748763 0.0025298051266959081 0 0.010900643776179988 0.0034285272719804497 0 0.011671444884556875 0.0032860305258810012 0 0.011418535179537361 0.0044795725370602351 0 0.010900643776179988 0.0034285272719804497 0 0.011671444884556875 0.0032860305258810012 0 0.0081225745599412414 0.0035453277890335855 0 0.0092761249744333207 0.0034998626760690522 0 0.0086594141719061723 0.003249415536699587 0 0.010237116470296886 0.0039374586564178537 0 0.0092761249744333207 0.0034998626760690522 0 0.010163228307470868 0.0028928221327677865 0 0.0092761249744333207 0.0034998626760690522 0 0.010163228307470868 0.0028928221327677865 0 0.0091698310297506809 0.0023662822637953609 0 0.010163228307470868 0.0028928221327677865 0 0.0091698310297506809 0.0023662822637953609 0 0.010329953282214496 0.0017476837903347489 0 0.0092761249744333207 0.0034998626760690522 0 0.0086594141719061723 0.003249415536699587 0 0.0091698310297506809 0.0023662822637953609 0 0.0081473691771357624 0.0031497175037840464 0 0.0086594141719061723 0.003249415536699587 0 0.0091698310297506809 0.0023662822637953609 0 0.0095391337261394957 0.0032412194017388232 0 0.010810554766527444 0.0029110706395615365 0 0.011868912260654486 0.0019260240737517915 0 0.013141655696351132 0.0031059988667373035 0 0.013630073571568245 0.0014012141744217353 0 0.013141655696351132 0.0031059988667373035 0 0.013630073571568245 0.0014012141744217353 0 0.015787528172616232 0.0016954867804600739 0 0.010810554766527444 0.0029110706395615365 0 0.015233374283897235 0.0011305158697998065 0 0.013141655696351132 0.0031059988667373035 0 0.015787528172616232 0.0016954867804600739 0 0.016256307990882995 0.0022270800275496325 0 0.015735698666291223 0.0016837037308096187 0 0.015233374283897235 0.0011305158697998065 0 0.015787528172616232 0.0016954867804600739 0 0.016339652629823041 0.00038310154876551703 0 0.015087891684083362 -0.00031775983844330164 0 0.013630073571568245 0.0014012141744217353 0 0.015787528172616232 0.0016954867804600739 0 0.015087891684083362 -0.00031775983844330164 0 0.016339652629823041 0.00038310154876551703 0 0.015087891684083362 -0.00031775983844330164 0 0.01738885713345005 -0.0014631320459209337 0 0.011868912260654486 0.0019260240737517915 0 0.013630073571568245 0.0014012141744217353 0 0.01278952549594279 -4.2611231664879834e-05 0 0.013630073571568245 0.0014012141744217353 0 0.015087891684083362 -0.00031775983844330164 0 0.01278952549594279 -4.2611231664879834e-05 0 0.01298960292611384 -0.00047674357905234 0 0.013192935290835102 -0.0018076851570665857 0 0.015087891684083362 -0.00031775983844330164 0 0.01278952549594279 -4.2611231664879834e-05 0 0.014049674658832195 -0.0032519688280255475 0 0.01278952549594279 -4.2611231664879834e-05 0 0.013361926555172928 -0.0014992484184790855 0 0.012107622482940686 -0.0014750156541425451 0 0.011738945179613823 -0.0028957051401695883 0 0.012107622482940686 -0.0014750156541425451 0 0.012660534889077937 -0.0022556878806091079 0 0.013361926555172928 -0.0014992484184790855 0 0.012660534889077937 -0.0022556878806091079 0 0.013281800315227184 -0.0031569146522811044 0 0.014723041957996424 -0.0032778611925277129 0 0.020422958429055237 -0.0043631387934894078 0 0.011738945179613823 -0.0028957051401695883 0 0.012660534889077937 -0.0022556878806091079 0 0.013281800315227184 -0.0031569146522811044 0 0.013361926555172928 -0.0014992484184790855 0 0.012107622482940686 -0.0014750156541425451 0 0.012660534889077937 -0.0022556878806091079 0 0.013192935290835102 -0.0018076851570665857 0 0.021383113102459682 -0.0059347625917835741 0 0.013361926555172928 -0.0014992484184790855 0 0.013281800315227184 -0.0031569146522811044 0 0.014182264708101232 -0.0033020330919485614 0 0.014049674658832195 -0.0032519688280255475 0 0.016769933531672197 -0.0040458270904410853 0 0.015371604573646121 -0.0064184602708644385 0 0.014049674658832195 -0.0032519688280255475 0 0.016769933531672197 -0.0040458270904410853 0 0.015823918031584564 -0.0022744401455537296 0 0.016769933531672197 -0.0040458270904410853 0 0.015823918031584564 -0.0022744401455537296 0 0.01738885713345005 -0.0014631320459209337 0 0.015087891684083362 -0.00031775983844330164 0 0.014049674658832195 -0.0032519688280255475 0 0.015823918031584564 -0.0022744401455537296 0 0.015087891684083362 -0.00031775983844330164 0 0.015823918031584564 -0.0022744401455537296 0 0.01738885713345005 -0.0014631320459209337 0 0.01738885713345005 -0.0014631320459209337 0 0.019730244125009986 -0.0010378967391398155 0 0.020713231728574338 -0.0036722053958896561 0 0.016769933531672197 -0.0040458270904410853 0 0.01738885713345005 -0.0014631320459209337 0 0.020713231728574338 -0.0036722053958896561 0 0.023032364232366643 -0.00065993212232259835 0 0.019730244125009986 -0.0010378967391398155 0 0.020713231728574338 -0.0036722053958896561 0 0.022661135045758861 -0.0071140110917203413 0 0.020713231728574338 -0.0036722053958896561 0 0.018995648089073301 -0.006849745326960744 0 0.016769933531672197 -0.0040458270904410853 0 0.018995648089073301 -0.006849745326960744 0 0.015371604573646121 -0.0064184602708644385 0 0.016769933531672197 -0.0040458270904410853 0 0.020713231728574338 -0.0036722053958896561 0 0.018995648089073301 -0.006849745326960744 0 0.023041299571480923 -0.0068995760827033816 0 0.021383113102459682 -0.0059347625917835741 0 0.027211594313911146 -0.0068830233981054265 0 0.027078653244853226 -0.0072357250492223807 0 0.026818453997648119 -0.0068094311015222042 0 0.027416868233059485 -0.0069977460441752702 0 0.027211594313911146 -0.0068830233981054265 0 0.027367292345225964 -0.0071078779203709004 0 0.025045575578286926 -0.0069968851306305372 0 0.023041299571480923 -0.0068995760827033816 0 0.027532540004532067 -0.0070712818838968641 0 0.027367292345225964 -0.0071078779203709004 0 0.027539920877599593 -0.0073550365685938401 0 0.027367292345225964 -0.0071078779203709004 0 0.027078653244853226 -0.0072357250492223807 0 0.027539920877599593 -0.0073550365685938401 0 0.027211594313911146 -0.0068830233981054265 0 0.027367292345225964 -0.0071078779203709004 0 0.027078653244853226 -0.0072357250492223807 0 0.02744021742040325 -0.0074007469111044468 0 0.027146368452906851 -0.0071430658863075973 0 0.027271260941003482 -0.0068552944309554133 0 0.02744021742040325 -0.0074007469111044468 0 0.027146368452906851 -0.0071430658863075973 0 0.027118371593980027 -0.007518742450818891 0 0.026926205096438879 -0.007252545752066861 0 0.027146368452906851 -0.0071430658863075973 0 0.027118371593980027 -0.007518742450818891 0 0.026926205096438879 -0.007252545752066861 0 0.027146368452906851 -0.0071430658863075973 0 0.026961376120698745 -0.0070198015102918435 0 0.026649971898069426 -0.0068638340399932787 0 0.026961376120698745 -0.0070198015102918435 0 0.027109412549653409 -0.0068233220659786103 0 0.027146368452906851 -0.0071430658863075973 0 0.026961376120698745 -0.0070198015102918435 0 0.027109412549653409 -0.0068233220659786103 0 0.027146368452906851 -0.0071430658863075973 0 0.027109412549653409 -0.0068233220659786103 0 0.027271260941003482 -0.0068552944309554133 0 0.028130210701267616 -0.0077107326946567068 0 0.021383113102459682 -0.0059347625917835741 0 0.020422958429055237 -0.0043631387934894078 0 0.021383113102459682 -0.0059347625917835741 0 0.02723566620764092 -0.0077914165748568277 0 0.027214759979529376 -0.0079618942752770622 0 0.027171350635303779 -0.008076694511591544 0 0.02723566620764092 -0.0077914165748568277 0 0.027419911745116023 -0.0077349614575238984 0 0.027214759979529376 -0.0079618942752770622 0 0.027114212087762313 -0.0078851580969188807 0 0.02723566620764092 -0.0077914165748568277 0 0.027171350635303779 -0.008076694511591544 0 0.027114212087762313 -0.0078851580969188807 0 0.02723566620764092 -0.0077914165748568277 0 0.027118371593980027 -0.007518742450818891 0 0.02744021742040325 -0.0074007469111044468 0 0.02723566620764092 -0.0077914165748568277 0 0.027118371593980027 -0.007518742450818891 0 0.028130210701267616 -0.0077107326946567068 0 0.027136312464564726 -0.0074886760944534352 0 0.02744021742040325 -0.0074007469111044468 0 0.02723566620764092 -0.0077914165748568277 0 0.027419911745116023 -0.0077349614575238984 0 0.027078653244853226 -0.0072357250492223807 0 0.027539920877599593 -0.0073550365685938401 0 0.027419911745116023 -0.0077349614575238984 0 0.027419911745116023 -0.0077349614575238984 0 0.027851130939142474 -0.0080535721681702904 0 0.02779342342837135 -0.0077302716637041085 0 0.027539920877599593 -0.0073550365685938401 0 0.027419911745116023 -0.0077349614575238984 0 0.02779342342837135 -0.0077302716637041085 0 0.027419911745116023 -0.0077349614575238984 0 0.027457353278992552 -0.0081537721137098403 0 0.027214759979529376 -0.0079618942752770622 0 0.027419911745116023 -0.0077349614575238984 0 0.027457353278992552 -0.0081537721137098403 0 0.027851130939142474 -0.0080535721681702904 0 0.027457353278992552 -0.0081537721137098403 0 0.027851130939142474 -0.0080535721681702904 0 0.028000642383176014 -0.0086658090106961107 0 0.027851130939142474 -0.0080535721681702904 0 0.028000642383176014 -0.0086658090106961107 0 0.028308697508121098 -0.0083516688677565745 0 0.027457353278992552 -0.0081537721137098403 0 0.026998941418298578 -0.0080938715206005946 0 0.027412137697618705 -0.0087998672026056105 0 0.027457353278992552 -0.0081537721137098403 0 0.027412137697618705 -0.0087998672026056105 0 0.028000642383176014 -0.0086658090106961107 0 0.027457353278992552 -0.0081537721137098403 0 0.026998941418298578 -0.0080938715206005946 0 0.027214759979529376 -0.0079618942752770622 0 0.026998941418298578 -0.0080938715206005946 0 0.027214759979529376 -0.0079618942752770622 0 0.027171350635303779 -0.008076694511591544 0 0.027114212087762313 -0.0078851580969188807 0 0.027306568704512167 -0.0082691764426828206 0 0.027171350635303779 -0.008076694511591544 0 0.027360295128298462 -0.0079617811321142339 0 0.026998941418298578 -0.0080938715206005946 0 0.027171350635303779 -0.008076694511591544 0 0.027360295128298462 -0.0079617811321142339 0 0.026998941418298578 -0.0080938715206005946 0 0.027271731813946796 -0.0076638848592708326 0 0.027271731813946796 -0.0076638848592708326 0 0.026915239598242807 -0.0073400185484247 0 0.027313294942771769 -0.0072135514296782456 0 0.027889929794878227 -0.007549952035208864 0 0.027271731813946796 -0.0076638848592708326 0 0.027313294942771769 -0.0072135514296782456 0 0.026998941418298578 -0.0080938715206005946 0 0.027271731813946796 -0.0076638848592708326 0 0.026915239598242807 -0.0073400185484247 0 0.026980062071574652 -0.0080439306075277463 0 0.026759944705209378 -0.008404902632149153 0 0.026754169392523366 -0.0091186889660640324 0 0.027145768817094209 -0.0095914725593891897 0 0.027412137697618705 -0.0087998672026056105 0 0.026998941418298578 -0.0080938715206005946 0 0.026754169392523366 -0.0091186889660640324 0 0.027412137697618705 -0.0087998672026056105 0 0.026759944705209378 -0.008404902632149153 0 0.027720678402366358 -0.0077412365883069486 0 0.026754169392523366 -0.0091186889660640324 0 0.026678203556636356 -0.010188007999580011 0 0.027145768817094209 -0.0095914725593891897 0 0.026915239598242807 -0.0073400185484247 0 0.027313294942771769 -0.0072135514296782456 0 0.026924441646695951 -0.006779252509124257 0 0.027981580063922481 -0.006935585094556807 0 0.028089396257514252 -0.0070074376057786929 0 0.028356171159700985 -0.0070186391998249154 0 0.028035122767665337 -0.006954691049523969 0 0.027981580063922481 -0.006935585094556807 0 0.028089396257514252 -0.0070074376057786929 0 0.0276108055074385 -0.0069496893363173188 0 0.027720678402366358 -0.0077412365883069486 0 0.02796915828615772 -0.007065148077623905 0 0.028089396257514252 -0.0070074376057786929 0 0.028182352190029594 -0.0071963833794927495 0 0.028089396257514252 -0.0070074376057786929 0 0.028356171159700985 -0.0070186391998249154 0 0.028182352190029594 -0.0071963833794927495 0 0.027720678402366358 -0.0077412365883069486 0 0.028150628054546198 -0.0091625005410990341 0 0.027720678402366358 -0.0077412365883069486 0 0.028702760925310353 -0.0071355692947232298 0 0.028356171159700985 -0.0070186391998249154 0 0.028182352190029594 -0.0071963833794927495 0 0.028538972646364583 -0.0075263430055834612 0 0.02853018271012479 -0.0067217747415276178 0 0.028938810135556978 -0.0071823480337726156 0 0.028538972646364583 -0.0075263430055834612 0 0.028182352190029594 -0.0071963833794927495 0 0.028071038730369639 -0.007526020860829887 0 0.028538972646364583 -0.0075263430055834612 0 0.02796915828615772 -0.007065148077623905 0 0.028182352190029594 -0.0071963833794927495 0 0.028071038730369639 -0.007526020860829887 0 0.028181990078154719 -0.010921034756593829 0 0.028746147071758366 -0.011354852432899111 0 0.027858082562694484 -0.011680899645595766 0 0.028181990078154719 -0.010921034756593829 0 0.027239768306452972 -0.010937947149370134 0 0.027858082562694484 -0.011680899645595766 0 0.028181990078154719 -0.010921034756593829 0 0.027239768306452972 -0.010937947149370134 0 0.027642511234449132 -0.010159655678666864 0 0.028150628054546198 -0.0091625005410990341 0 0.028455389053059686 -0.0096561617871955899 0 0.026678203556636356 -0.010188007999580011 0 0.027642511234449132 -0.010159655678666864 0 0.027145768817094209 -0.0095914725593891897 0 0.026678203556636356 -0.010188007999580011 0 0.027239768306452972 -0.010937947149370134 0 0.027642511234449132 -0.010159655678666864 0 0.028181990078154719 -0.010921034756593829 0 0.027642511234449132 -0.010159655678666864 0 0.028480009139984271 -0.010304034701593969 0 0.027642511234449132 -0.010159655678666864 0 0.02816537603606897 -0.0096471025253948121 0 0.028480009139984271 -0.010304034701593969 0 0.027642511234449132 -0.010159655678666864 0 0.02816537603606897 -0.0096471025253948121 0 0.027633927731748723 -0.0094735483196341716 0 0.02816537603606897 -0.0096471025253948121 0 0.027633927731748723 -0.0094735483196341716 0 0.027938407115423645 -0.0091316127632072794 0 0.02816537603606897 -0.0096471025253948121 0 0.027938407115423645 -0.0091316127632072794 0 0.028465992361621992 -0.0092273079862123918 0 0.027145768817094209 -0.0095914725593891897 0 0.027633927731748723 -0.0094735483196341716 0 0.027412137697618705 -0.0087998672026056105 0 0.027642511234449132 -0.010159655678666864 0 0.027145768817094209 -0.0095914725593891897 0 0.027633927731748723 -0.0094735483196341716 0 0.027633927731748723 -0.0094735483196341716 0 0.027412137697618705 -0.0087998672026056105 0 0.027938407115423645 -0.0091316127632072794 0 0.027412137697618705 -0.0087998672026056105 0 0.027938407115423645 -0.0091316127632072794 0 0.028000642383176014 -0.0086658090106961107 0 0.027938407115423645 -0.0091316127632072794 0 0.028000642383176014 -0.0086658090106961107 0 0.028465992361621992 -0.0092273079862123918 0 0.028465992361621992 -0.0092273079862123918 0 0.028852877305929458 -0.0087539183245379047 0 0.029048666997250061 -0.0095085316152701688 0 0.028000642383176014 -0.0086658090106961107 0 0.028465992361621992 -0.0092273079862123918 0 0.028852877305929458 -0.0087539183245379047 0 0.028852877305929458 -0.0087539183245379047 0 0.029723297140763737 -0.0093777349851786162 0 0.029046096345007481 -0.0084495791592106156 0 0.028852877305929458 -0.0087539183245379047 0 0.029723297140763737 -0.0093777349851786162 0 0.029048666997250061 -0.0095085316152701688 0 0.029723297140763737 -0.0093777349851786162 0 0.029048666997250061 -0.0095085316152701688 0 0.029524734742637629 -0.0098489814487927058 0 0.029048666997250061 -0.0095085316152701688 0 0.029524734742637629 -0.0098489814487927058 0 0.029136040485937851 -0.010213522931829616 0 0.029524734742637629 -0.0098489814487927058 0 0.029987256157773482 -0.010011785361908507 0 0.0296718676739826 -0.010357591945682053 0 0.029723297140763737 -0.0093777349851786162 0 0.029524734742637629 -0.0098489814487927058 0 0.029987256157773482 -0.010011785361908507 0 0.02816537603606897 -0.0096471025253948121 0 0.028465992361621992 -0.0092273079862123918 0 0.028659065588828938 -0.0098151071612424725 0 0.028465992361621992 -0.0092273079862123918 0 0.029048666997250061 -0.0095085316152701688 0 0.028659065588828938 -0.0098151071612424725 0 0.029048666997250061 -0.0095085316152701688 0 0.028659065588828938 -0.0098151071612424725 0 0.029136040485937851 -0.010213522931829616 0 0.02816537603606897 -0.0096471025253948121 0 0.028659065588828938 -0.0098151071612424725 0 0.028480009139984271 -0.010304034701593969 0 0.028181990078154719 -0.010921034756593829 0 0.028480009139984271 -0.010304034701593969 0 0.029013553367837463 -0.010887922086618738 0 0.028480009139984271 -0.010304034701593969 0 0.029136040485937851 -0.010213522931829616 0 0.029013553367837463 -0.010887922086618738 0 0.028659065588828938 -0.0098151071612424725 0 0.028480009139984271 -0.010304034701593969 0 0.029136040485937851 -0.010213522931829616 0 0.029524734742637629 -0.0098489814487927058 0 0.029136040485937851 -0.010213522931829616 0 0.0296718676739826 -0.010357591945682053 0 0.029136040485937851 -0.010213522931829616 0 0.0296718676739826 -0.010357591945682053 0 0.029457983479109145 -0.010672290636579039 0 0.029987256157773482 -0.010011785361908507 0 0.0296718676739826 -0.010357591945682053 0 0.029999270003310666 -0.010633959165393142 0 0.0296718676739826 -0.010357591945682053 0 0.029457983479109145 -0.010672290636579039 0 0.029999270003310666 -0.010633959165393142 0 0.029136040485937851 -0.010213522931829616 0 0.029457983479109145 -0.010672290636579039 0 0.029013553367837463 -0.010887922086618738 0 0.029457983479109145 -0.010672290636579039 0 0.029635860710127131 -0.011331272421688346 0 0.029013553367837463 -0.010887922086618738 0 0.032537807450359071 -0.010850382550382278 0 0.030078040131632389 -0.011596331633804939 0 0.029457983479109145 -0.010672290636579039 0 0.029635860710127131 -0.011331272421688346 0 0.029999270003310666 -0.010633959165393142 0 0.029635860710127131 -0.011331272421688346 0 0.028746147071758366 -0.011354852432899111 0 0.029013553367837463 -0.010887922086618738 0 0.028181990078154719 -0.010921034756593829 0 0.028746147071758366 -0.011354852432899111 0 0.029013553367837463 -0.010887922086618738 0 0.035446456243308277 -0.0095810417575497714 0 0.034473087555617378 -0.010032627158911754 0 0.034418343462521442 -0.0096290652239048504 0 0.035446456243308277 -0.0095810417575497714 0 0.034418343462521442 -0.0096290652239048504 0 0.035326166415909639 -0.0090164777904590543 0 0.035446456243308277 -0.0095810417575497714 0 0.035910851272177496 -0.01014673285906673 0 0.034473087555617378 -0.010032627158911754 0 0.037560396121127708 -0.008958565810016611 0 0.035446456243308277 -0.0095810417575497714 0 0.035910851272177496 -0.01014673285906673 0 0.029941847567708822 -0.013804969794419858 0 0.031476644480321801 -0.012392830796605227 0 0.030549929397964283 -0.011807173202726664 0 0.032537807450359071 -0.010850382550382278 0 0.033821208494145535 -0.011132656801618703 0 0.030078040131632389 -0.011596331633804939 0 0.030994543562739108 -0.009529167851963373 0 0.030549929397964283 -0.011807173202726664 0 0.031655932282361042 -0.010901370410168395 0 0.03101668617809461 -0.0096223238473003465 0 0.031476644480321801 -0.012392830796605227 0 0.030549929397964283 -0.011807173202726664 0 0.031655932282361042 -0.010901370410168395 0 0.031476644480321801 -0.012392830796605227 0 0.031655932282361042 -0.010901370410168395 0 0.033624137544416448 -0.010498139545217403 0 0.033821208494145535 -0.011132656801618703 0 0.033745482085504742 -0.01060539986072484 0 0.035910851272177496 -0.01014673285906673 0 0.034473087555617378 -0.010032627158911754 0 0.033624137544416448 -0.010498139545217403 0 0.034473087555617378 -0.010032627158911754 0 0.033624137544416448 -0.010498139545217403 0 0.03393939679157678 -0.010141295792450837 0 0.033624137544416448 -0.010498139545217403 0 0.033289062866753462 -0.0094058797091868158 0 0.033775296923087415 -0.0099163416314021289 0 0.031655932282361042 -0.010901370410168395 0 0.033624137544416448 -0.010498139545217403 0 0.032422587781401377 -0.0095640697561745289 0 0.033624137544416448 -0.010498139545217403 0 0.032422587781401377 -0.0095640697561745289 0 0.033289062866753462 -0.0094058797091868158 0 0.032422587781401377 -0.0095640697561745289 0 0.033289062866753462 -0.0094058797091868158 0 0.032565970958466119 -0.0087624056462537857 0 0.029987256157773482 -0.010011785361908507 0 0.029999270003310666 -0.010633959165393142 0 0.03101668617809461 -0.0096223238473003465 0 0.029723297140763737 -0.0093777349851786162 0 0.03101668617809461 -0.0096223238473003465 0 0.031550080923765676 -0.0087114381839509761 0 0.029723297140763737 -0.0093777349851786162 0 0.029987256157773482 -0.010011785361908507 0 0.03101668617809461 -0.0096223238473003465 0 0.031655932282361042 -0.010901370410168395 0 0.032422587781401377 -0.0095640697561745289 0 0.03101668617809461 -0.0096223238473003465 0 0.032422587781401377 -0.0095640697561745289 0 0.03101668617809461 -0.0096223238473003465 0 0.031550080923765676 -0.0087114381839509761 0 0.029700248185613756 -0.009372519809245701 0 0.030025461552164703 -0.00799221234078323 0 0.029723297140763737 -0.0093777349851786162 0 0.031550080923765676 -0.0087114381839509761 0 0.031061206332503588 -0.0074051089768709111 0 0.031550080923765676 -0.0087114381839509761 0 0.032130959827418863 -0.0078591769754233678 0 0.031061206332503588 -0.0074051089768709111 0 0.033289062866753462 -0.0094058797091868158 0 0.032565970958466119 -0.0087624056462537857 0 0.032941658696086638 -0.0084352352912578088 0 0.032422587781401377 -0.0095640697561745289 0 0.031550080923765676 -0.0087114381839509761 0 0.032565970958466119 -0.0087624056462537857 0 0.031550080923765676 -0.0087114381839509761 0 0.032565970958466119 -0.0087624056462537857 0 0.032130959827418863 -0.0078591769754233678 0 0.032565970958466119 -0.0087624056462537857 0 0.032941658696086638 -0.0084352352912578088 0 0.032130959827418863 -0.0078591769754233678 0 0.032725778404983287 -0.0070629014789162807 0 0.032130959827418863 -0.0078591769754233678 0 0.031652005073426651 -0.0068491840383436593 0 0.032941658696086638 -0.0084352352912578088 0 0.032725778404983287 -0.0070629014789162807 0 0.032130959827418863 -0.0078591769754233678 0 0.031652005073426651 -0.0068491840383436593 0 0.031041502492624565 -0.006145982671458718 0 0.031198572018100945 -0.0061456669759629755 0 0.031745484185309862 -0.006922974695286653 0 0.031145977379716451 -0.0062345617112834094 0 0.030720606008688988 -0.0066539235745987843 0 0.030813598505297891 -0.0063078762775691044 0 0.030880077738561069 -0.0063488902665502717 0 0.030720606008688988 -0.0066539235745987843 0 0.030813598505297891 -0.0063078762775691044 0 0.031041502492624565 -0.006145982671458718 0 0.032725778404983287 -0.0070629014789162807 0 0.031652005073426651 -0.0068491840383436593 0 0.031041502492624565 -0.006145982671458718 0 0.030813598505297891 -0.0063078762775691044 0 0.030680047419906153 -0.0063041298051690776 0 0.030880077738561069 -0.0063488902665502717 0 0.028755288023019888 -0.0081734727725488489 0 0.029046096345007481 -0.0084495791592106156 0 0.028858482059793373 -0.0080775195223834612 0 0.030025461552164703 -0.00799221234078323 0 0.030027629870869623 -0.0070828961510060766 0 0.031652005073426651 -0.0068491840383436593 0 0.031061206332503588 -0.0074051089768709111 0 0.031198572018100945 -0.0061456669759629755 0 0.028755288023019888 -0.0081734727725488489 0 0.028858482059793373 -0.0080775195223834612 0 0.028668963721152772 -0.0079947167429550246 0 0.028755288023019888 -0.0081734727725488489 0 0.02852968429916726 -0.008000134567643374 0 0.028668963721152772 -0.0079947167429550246 0 0.032130959827418863 -0.0078591769754233678 0 0.031652005073426651 -0.0068491840383436593 0 0.031061206332503588 -0.0074051089768709111 0 0.028755288023019888 -0.0081734727725488489 0 0.029046096345007481 -0.0084495791592106156 0 0.028659773036290588 -0.0083439309343241834 0 0.028852877305929458 -0.0087539183245379047 0 0.029046096345007481 -0.0084495791592106156 0 0.028659773036290588 -0.0083439309343241834 0 0.028852877305929458 -0.0087539183245379047 0 0.028659773036290588 -0.0083439309343241834 0 0.028308697508121098 -0.0083516688677565745 0 0.028000642383176014 -0.0086658090106961107 0 0.028852877305929458 -0.0087539183245379047 0 0.028308697508121098 -0.0083516688677565745 0 0.027851130939142474 -0.0080535721681702904 0 0.028308697508121098 -0.0083516688677565745 0 0.0283150713920561 -0.0080039355940188517 0 0.027851130939142474 -0.0080535721681702904 0 0.0283150713920561 -0.0080039355940188517 0 0.02779342342837135 -0.0077302716637041085 0 0.028659773036290588 -0.0083439309343241834 0 0.028308697508121098 -0.0083516688677565745 0 0.0283150713920561 -0.0080039355940188517 0 0.028755288023019888 -0.0081734727725488489 0 0.028659773036290588 -0.0083439309343241834 0 0.0283150713920561 -0.0080039355940188517 0 0.028755288023019888 -0.0081734727725488489 0 0.0283150713920561 -0.0080039355940188517 0 0.02852968429916726 -0.008000134567643374 0 0.0283150713920561 -0.0080039355940188517 0 0.02852968429916726 -0.008000134567643374 0 0.028027151958355704 -0.0076149172897362364 0 0.028484484881854344 -0.0078246198348197807 0 0.02826136134209244 -0.0076135850054593899 0 0.028494299708467244 -0.0076091535808323488 0 0.02852968429916726 -0.008000134567643374 0 0.028027151958355704 -0.0076149172897362364 0 0.028484484881854344 -0.0078246198348197807 0 0.028027151958355704 -0.0076149172897362364 0 0.028484484881854344 -0.0078246198348197807 0 0.02826136134209244 -0.0076135850054593899 0 0.0283150713920561 -0.0080039355940188517 0 0.028027151958355704 -0.0076149172897362364 0 0.02779342342837135 -0.0077302716637041085 0 0.027532540004532067 -0.0070712818838968641 0 0.027539920877599593 -0.0073550365685938401 0 0.028027151958355704 -0.0076149172897362364 0 0.027539920877599593 -0.0073550365685938401 0 0.028027151958355704 -0.0076149172897362364 0 0.02779342342837135 -0.0077302716637041085 0 0.027532540004532067 -0.0070712818838968641 0 0.028027151958355704 -0.0076149172897362364 0 0.028073589016889246 -0.007390488254159896 0 0.028027151958355704 -0.0076149172897362364 0 0.02826136134209244 -0.0076135850054593899 0 0.028073589016889246 -0.007390488254159896 0 0.02826136134209244 -0.0076135850054593899 0 0.028073589016889246 -0.007390488254159896 0 0.028494299708467244 -0.0076091535808323488 0 0.027860864128645274 -0.0070982820465570941 0 0.028073589016889246 -0.007390488254159896 0 0.028505226790570441 -0.0073557662636807167 0 0.028073589016889246 -0.007390488254159896 0 0.028505226790570441 -0.0073557662636807167 0 0.028494299708467244 -0.0076091535808323488 0 0.028505226790570441 -0.0073557662636807167 0 0.028494299708467244 -0.0076091535808323488 0 0.028846352553714844 -0.0075792521145078813 0 0.028505226790570441 -0.0073557662636807167 0 0.028846352553714844 -0.0075792521145078813 0 0.028881467860919361 -0.0073937092035473405 0 0.028846352553714844 -0.0075792521145078813 0 0.028881467860919361 -0.0073937092035473405 0 0.02910231333546769 -0.0074151948258903829 0 0.028505226790570441 -0.0073557662636807167 0 0.028881467860919361 -0.0073937092035473405 0 0.028948845080648711 -0.007244466459064014 0 0.028502394433367804 -0.0071128621002978128 0 0.028505226790570441 -0.0073557662636807167 0 0.028948845080648711 -0.007244466459064014 0 0.028881467860919361 -0.0073937092035473405 0 0.028948845080648711 -0.007244466459064014 0 0.02910231333546769 -0.0074151948258903829 0 0.029691975258331171 -0.0070553026569459753 0 0.030342192778132826 -0.0065330343196184576 0 0.030580763336906253 -0.0062568397587104418 0 0.029691975258331171 -0.0070553026569459753 0 0.030562820302822872 -0.0064472487594862812 0 0.030342192778132826 -0.0065330343196184576 0 0.029253454097389095 -0.0071593772304107735 0 0.029691975258331171 -0.0070553026569459753 0 0.02910231333546769 -0.0074151948258903829 0 0.023735632494867157 -0.0029543137323588455 0 0.024676059393639989 -0.0037510817338633601 0 0.029558310475319687 -0.0071190340971959967 0 0.029691975258331171 -0.0070553026569459753 0 0.030580763336906253 -0.0062568397587104418 0 0.029691975258331171 -0.0070553026569459753 0 0.02910231333546769 -0.0074151948258903829 0 0.028858482059793373 -0.0080775195223834612 0 0.029773198122817889 -0.0069881754837282381 0 0.030027629870869623 -0.0070828961510060766 0 0.028948845080648711 -0.007244466459064014 0 0.029253454097389095 -0.0071593772304107735 0 0.02910231333546769 -0.0074151948258903829 0 0.029691975258331171 -0.0070553026569459753 0 0.030562820302822872 -0.0064472487594862812 0 0.031198572018100945 -0.0061456669759629755 0 0.030562820302822872 -0.0064472487594862812 0 0.030878966002887226 -0.0062595538854939023 0 0.03073114734769871 -0.0062918138042640489 0 0.030342192778132826 -0.0065330343196184576 0 0.030545309274051673 -0.0063645916769723603 0 0.030580763336906253 -0.0062568397587104418 0 0.030562820302822872 -0.0064472487594862812 0 0.030342192778132826 -0.0065330343196184576 0 0.030545309274051673 -0.0063645916769723603 0 0.030562820302822872 -0.0064472487594862812 0 0.030545309274051673 -0.0063645916769723603 0 0.03073114734769871 -0.0062918138042640489 0 0.030545309274051673 -0.0063645916769723603 0 0.030680047419906153 -0.0063041298051690776 0 0.030580763336906253 -0.0062568397587104418 0 0.030545309274051673 -0.0063645916769723603 0 0.030680047419906153 -0.0063041298051690776 0 0.03073114734769871 -0.0062918138042640489 0 0.030813598505297891 -0.0063078762775691044 0 0.030680047419906153 -0.0063041298051690776 0 0.03073114734769871 -0.0062918138042640489 0 0.030813598505297891 -0.0063078762775691044 0 0.031041502492624565 -0.006145982671458718 0 0.03073114734769871 -0.0062918138042640489 0 0.030562820302822872 -0.0064472487594862812 0 0.030878966002887226 -0.0062595538854939023 0 0.031198572018100945 -0.0061456669759629755 0 0.031041502492624565 -0.006145982671458718 0 0.030878966002887226 -0.0062595538854939023 0 0.031198572018100945 -0.0061456669759629755 0 0.031041502492624565 -0.006145982671458718 0 0.030878966002887226 -0.0062595538854939023 0 0.03073114734769871 -0.0062918138042640489 0 0.028858482059793373 -0.0080775195223834612 0 0.028668963721152772 -0.0079947167429550246 0 0.028681576863438075 -0.0078409907893500098 0 0.028846352553714844 -0.0075792521145078813 0 0.02910231333546769 -0.0074151948258903829 0 0.028858482059793373 -0.0080775195223834612 0 0.02852968429916726 -0.008000134567643374 0 0.028484484881854344 -0.0078246198348197807 0 0.028668963721152772 -0.0079947167429550246 0 0.028484484881854344 -0.0078246198348197807 0 0.028668963721152772 -0.0079947167429550246 0 0.028681576863438075 -0.0078409907893500098 0 0.028484484881854344 -0.0078246198348197807 0 0.028494299708467244 -0.0076091535808323488 0 0.028681576863438075 -0.0078409907893500098 0 0.028494299708467244 -0.0076091535808323488 0 0.028846352553714844 -0.0075792521145078813 0 0.028681576863438075 -0.0078409907893500098 0 0.028846352553714844 -0.0075792521145078813 0 0.028858482059793373 -0.0080775195223834612 0 0.028681576863438075 -0.0078409907893500098 0 0.021064162901346248 -0.00027232092663437242 0 0.020088747120426298 -0.0022049758384981365 0 0.020155604400311455 -0.0017032110822999482 0 0.021129979149045196 -0.00045127306874754658 0 0.021157545890821618 -0.0031392404881020347 0 0.020155604400311455 -0.0017032110822999482 0 0.01987060580518293 -0.00038928594060777928 0 0.021129979149045196 -0.00045127306874754658 0 0.030680047419906153 -0.0063041298051690776 0 0.030580763336906253 -0.0062568397587104418 0 0.030880077738561069 -0.0063488902665502717 0 0.020155604400311455 -0.0017032110822999482 0 0.018775809355254709 -0.0011272945866655007 0 0.01987060580518293 -0.00038928594060777928 0 0.01862783305073866 -2.1752486161354774e-07 0 0.019566502698295778 0.00036078534136896616 0 0.01987060580518293 -0.00038928594060777928 0 0.017748783309194587 0.0012390378436755297 0 0.018775809355254709 -0.0011272945866655007 0 0.01862783305073866 -2.1752486161354774e-07 0 0.018775809355254709 -0.0011272945866655007 0 0.01862783305073866 -2.1752486161354774e-07 0 0.01987060580518293 -0.00038928594060777928 0 0.019540812506979251 0.0010757250628596151 0 0.01862783305073866 -2.1752486161354774e-07 0 0.019566502698295778 0.00036078534136896616 0 0.021003459157546756 0.0017864096692458264 0 0.020214409560639732 0.00073513772173878003 0 0.021129979149045196 -0.00045127306874754658 0 0.019566502698295778 0.00036078534136896616 0 0.020214409560639732 0.00073513772173878003 0 0.01987060580518293 -0.00038928594060777928 0 0.019540812506979251 0.0010757250628596151 0 0.019566502698295778 0.00036078534136896616 0 0.020214409560639732 0.00073513772173878003 0 0.020214409560639732 0.00073513772173878003 0 0.01987060580518293 -0.00038928594060777928 0 0.021129979149045196 -0.00045127306874754658 0 0.020984274605244439 0.001711441407495237 0 0.021064162901346248 -0.00027232092663437242 0 0.021338874129223299 0.00120917022176788 0 0.021374814959257894 0.00063553375187641885 0 0.02078672633159941 8.3557625687668546e-05 0 0.021374814959257894 0.00063553375187641885 0 0.021590156298259257 0.00025787907811996197 0 0.021793480712051828 0.00084098730286566795 0 0.021338874129223299 0.00120917022176788 0 0.021374814959257894 0.00063553375187641885 0 0.021793480712051828 0.00084098730286566795 0 0.021374814959257894 0.00063553375187641885 0 0.021590156298259257 0.00025787907811996197 0 0.02078672633159941 8.3557625687668546e-05 0 0.022355012067787977 0.00064375485825307003 0 0.021793480712051828 0.00084098730286566795 0 0.02210725602903111 0.00051889627598595634 0 0.021791158801988009 0.0013772163932679838 0 0.022355012067787977 0.00064375485825307003 0 0.021793480712051828 0.00084098730286566795 0 0.021590156298259257 0.00025787907811996197 0 0.021793480712051828 0.00084098730286566795 0 0.02210725602903111 0.00051889627598595634 0 0.021590156298259257 0.00025787907811996197 0 0.02210725602903111 0.00051889627598595634 0 0.021667350667626185 -0.00038123833184728175 0 0.02210725602903111 0.00051889627598595634 0 0.02201801965188829 -0.00049115927263634906 0 0.022427190523060143 -0.00044294258178081313 0 0.022355012067787977 0.00064375485825307003 0 0.02210725602903111 0.00051889627598595634 0 0.022427190523060143 -0.00044294258178081313 0 0.017130174541457949 0.00073153293040795686 0 0.017301319801794189 -6.9992619552713896e-06 0 0.022113953441954194 0.0004339507919769982 0 0.022267768782668201 -0.00097475784291824836 0 0.02210725602903111 0.00051889627598595634 0 0.021667350667626185 -0.00038123833184728175 0 0.022443395859315929 -0.0013968450424240498 0 0.02078672633159941 8.3557625687668546e-05 0 0.021401303649926443 -0.0011581257923023963 0 0.020619088046631099 -0.0020191835350611676 0 0.02078672633159941 8.3557625687668546e-05 0 0.021667350667626185 -0.00038123833184728175 0 0.021401303649926443 -0.0011581257923023963 0 0.021590156298259257 0.00025787907811996197 0 0.02078672633159941 8.3557625687668546e-05 0 0.021667350667626185 -0.00038123833184728175 0 0.021667350667626185 -0.00038123833184728175 0 0.021401303649926443 -0.0011581257923023963 0 0.022443395859315929 -0.0013968450424240498 0 0.021401303649926443 -0.0011581257923023963 0 0.021531643583695873 -0.0021383554826315382 0 0.022443395859315929 -0.0013968450424240498 0 0.021401303649926443 -0.0011581257923023963 0 0.021531643583695873 -0.0021383554826315382 0 0.020619088046631099 -0.0020191835350611676 0 0.021531643583695873 -0.0021383554826315382 0 0.022443395859315929 -0.0013968450424240498 0 0.021961263666359289 -0.0027599240531391814 0 0.02201801965188829 -0.00049115927263634906 0 0.022263019658282791 -0.00097317033141529471 0 0.022427190523060143 -0.00044294258178081313 0 0.022267768782668201 -0.00097475784291824836 0 0.022025202040769059 -0.0023667272705894279 0 0.022443395859315929 -0.0013968450424240498 0 0.022658304414341066 -0.003512648860088524 0 0.021961263666359289 -0.0027599240531391814 0 0.02201801965188829 -0.00049115927263634906 0 0.022263019658282791 -0.00097317033141529471 0 0.022026383002205951 -0.0014751352414948125 0 0.022658304414341066 -0.003512648860088524 0 0.021961263666359289 -0.0027599240531391814 0 0.021840417558531496 -0.0036919320432714764 0 0.02131729605441228 -0.003080233943257682 0 0.020619088046631099 -0.0020191835350611676 0 0.020513915199964143 -0.004300416191572151 0 0.021531643583695873 -0.0021383554826315382 0 0.02131729605441228 -0.003080233943257682 0 0.020619088046631099 -0.0020191835350611676 0 0.021531643583695873 -0.0021383554826315382 0 0.021961263666359289 -0.0027599240531391814 0 0.02131729605441228 -0.003080233943257682 0 0.021961263666359289 -0.0027599240531391814 0 0.02131729605441228 -0.003080233943257682 0 0.021840417558531496 -0.0036919320432714764 0 0.020088747120426298 -0.0022049758384981365 0 0.026757035704261248 -0.0070611593632540492 0 0.025853869776181919 -0.0050983184245492362 0 0.026757035704261248 -0.0070611593632540492 0 0.019832138430990451 -0.0035037854286500783 0 0.021157545890821618 -0.0031392404881020347 0 0.021074805976847844 -0.0060510900800333587 0 0.020155604400311455 -0.0017032110822999482 0 0.019832138430990451 -0.0035037854286500783 0 0.021157545890821618 -0.0031392404881020347 0 0.020155604400311455 -0.0017032110822999482 0 0.018775809355254709 -0.0011272945866655007 0 0.019832138430990451 -0.0035037854286500783 0 0.030580763336906253 -0.0062568397587104418 0 0.031718050811412497 -0.0065047607738097403 0 0.030880077738561069 -0.0063488902665502717 0 0.030720606008688988 -0.0066539235745987843 0 0.031718050811412497 -0.0065047607738097403 0 0.030880077738561069 -0.0063488902665502717 0 0.024676059393639989 -0.0037510817338633601 0 0.025853869776181919 -0.0050983184245492362 0 0.030720606008688988 -0.0066539235745987843 0 0.031718050811412497 -0.0065047607738097403 0 0.031796872110261429 -0.0082647191618266773 0 0.031745484185309862 -0.006922974695286653 0 0.032864697793611758 -0.008600440275057927 0 0.032941658696086638 -0.0084352352912578088 0 0.032725778404983287 -0.0070629014789162807 0 0.034003936810411965 -0.0089996018562668572 0 0.033289062866753462 -0.0094058797091868158 0 0.032941658696086638 -0.0084352352912578088 0 0.034003936810411965 -0.0089996018562668572 0 0.031718050811412497 -0.0065047607738097403 0 0.031796872110261429 -0.0082647191618266773 0 0.033224718643614232 -0.0083141677846072567 0 0.031796872110261429 -0.0082647191618266773 0 0.033224718643614232 -0.0083141677846072567 0 0.03366173846868141 -0.010017350419702902 0 0.026757035704261248 -0.0070611593632540492 0 0.03394107136028441 -0.010545759348675434 0 0.033224718643614232 -0.0083141677846072567 0 0.03366173846868141 -0.010017350419702902 0 0.033763631098957719 -0.010207769812343606 0 0.032750758481257573 -0.010171878640459214 0 0.032853708186462133 -0.010163152508514619 0 0.032964732019410928 -0.01013979803440442 0 0.032864697793611758 -0.008600440275057927 0 0.033584092958091942 -0.0098630875107976537 0 0.034003936810411965 -0.0089996018562668572 0 0.03366173846868141 -0.010017350419702902 0 0.033803184496262781 -0.0097913033777752602 0 0.032750758481257573 -0.010171878640459214 0 0.032853708186462133 -0.010163152508514619 0 0.032849315567280699 -0.010157343608137101 0 0.026757035704261248 -0.0070611593632540492 0 0.028071442519547889 -0.0075464383020976593 0 0.03366173846868141 -0.010017350419702902 0 0.033803184496262781 -0.0097913033777752602 0 0.033807426176629962 -0.010058960923292929 0 0.032871354019957527 -0.010151926822908509 0 0.032853708186462133 -0.010163152508514619 0 0.032964732019410928 -0.01013979803440442 0 0.033289062866753462 -0.0094058797091868158 0 0.034003936810411965 -0.0089996018562668572 0 0.033775296923087415 -0.0099163416314021289 0 0.034003936810411965 -0.0089996018562668572 0 0.033775296923087415 -0.0099163416314021289 0 0.033803184496262781 -0.0097913033777752602 0 0.033775296923087415 -0.0099163416314021289 0 0.033803184496262781 -0.0097913033777752602 0 0.033807426176629962 -0.010058960923292929 0 0.033624137544416448 -0.010498139545217403 0 0.033775296923087415 -0.0099163416314021289 0 0.03393939679157678 -0.010141295792450837 0 0.034473087555617378 -0.010032627158911754 0 0.03393939679157678 -0.010141295792450837 0 0.034418343462521442 -0.0096290652239048504 0 0.03393939679157678 -0.010141295792450837 0 0.033870559229878382 -0.0099557029374812995 0 0.034418343462521442 -0.0096290652239048504 0 0.03393939679157678 -0.010141295792450837 0 0.033870559229878382 -0.0099557029374812995 0 0.033807426176629962 -0.010058960923292929 0 0.033775296923087415 -0.0099163416314021289 0 0.03393939679157678 -0.010141295792450837 0 0.033807426176629962 -0.010058960923292929 0 0.033870559229878382 -0.0099557029374812995 0 0.033763631098957719 -0.010207769812343606 0 0.033614386004795785 -0.0094582063806920059 0 0.032964732019410928 -0.01013979803440442 0 0.033393054054254759 -0.0094078689398107082 0 0.032902802922705095 -0.0097945812211745996 0 0.03394107136028441 -0.010545759348675434 0 0.033479217960883829 -0.0092874418499099779 0 0.03366173846868141 -0.010017350419702902 0 0.033807426176629962 -0.010058960923292929 0 0.033763631098957719 -0.010207769812343606 0 0.033870559229878382 -0.0099557029374812995 0 0.033807426176629962 -0.010058960923292929 0 0.033763631098957719 -0.010207769812343606 0 0.032964732019410928 -0.01013979803440442 0 0.032812384775794866 -0.0099523295027338487 0 0.032829968778223931 -0.010085646780177124 0 0.032871354019957527 -0.010151926822908509 0 0.032964732019410928 -0.01013979803440442 0 0.032829968778223931 -0.010085646780177124 0 0.032964732019410928 -0.01013979803440442 0 0.032812384775794866 -0.0099523295027338487 0 0.032902802922705095 -0.0097945812211745996 0 0.033393054054254759 -0.0094078689398107082 0 0.032776392760801777 -0.0095088705131119878 0 0.032902802922705095 -0.0097945812211745996 0 0.033870559229878382 -0.0099557029374812995 0 0.033614386004795785 -0.0094582063806920059 0 0.034418343462521442 -0.0096290652239048504 0 0.033614386004795785 -0.0094582063806920059 0 0.034418343462521442 -0.0096290652239048504 0 0.034848099603381345 -0.0086630951794396029 0 0.027797549554888213 -0.0051645655078963303 0 0.028417533189679791 -0.0052478924952381089 0 0.027894992680477723 -0.0040442062881722784 0 0.027724626034318758 -0.0042204561135316798 0 0.027639903520332985 -0.0041162956932710793 0 0.027837479747664567 -0.0040078860905333183 0 0.030805351143513102 -0.0077842289880612177 0 0.029704106605517887 -0.0063478188938688737 0 0.032395388102348516 -0.0092809567215944803 0 0.032456862045617464 -0.009811659601179544 0 0.031646603739359298 -0.0088180551334912129 0 0.02799044458950144 -0.004858656897607721 0 0.027778763371248277 -0.0039851194499983889 0 0.033393054054254759 -0.0094078689398107082 0 0.032776392760801777 -0.0095088705131119878 0 0.0328087121001348 -0.0089992124795427886 0 0.032395388102348516 -0.0092809567215944803 0 0.032776392760801777 -0.0095088705131119878 0 0.0328087121001348 -0.0089992124795427886 0 0.032776392760801777 -0.0095088705131119878 0 0.032456862045617464 -0.009811659601179544 0 0.032902802922705095 -0.0097945812211745996 0 0.032395388102348516 -0.0092809567215944803 0 0.032776392760801777 -0.0095088705131119878 0 0.032456862045617464 -0.009811659601179544 0 0.030805351143513102 -0.0077842289880612177 0 0.028071442519547889 -0.0075464383020976593 0 0.028417533189679791 -0.0052478924952381089 0 0.028244898557941517 -0.0058024047703108947 0 0.02894685978748961 -0.0064463370683086338 0 0.032456862045617464 -0.009811659601179544 0 0.032829968778223931 -0.010085646780177124 0 0.032824247575061173 -0.010223919320835039 0 0.032456862045617464 -0.009811659601179544 0 0.032812384775794866 -0.0099523295027338487 0 0.032902802922705095 -0.0097945812211745996 0 0.032456862045617464 -0.009811659601179544 0 0.032812384775794866 -0.0099523295027338487 0 0.032829968778223931 -0.010085646780177124 0 0.02799044458950144 -0.004858656897607721 0 0.024999491882943699 -0.0046078050728601029 0 0.027797549554888213 -0.0051645655078963303 0 0.028244898557941517 -0.0058024047703108947 0 0.027815856319131704 -0.0063495954909730855 0 0.027724626034318758 -0.0042204561135316798 0 0.027676982474607707 -0.0044080072669185361 0 0.027585091068446786 -0.0042610899788461214 0 0.027797549554888213 -0.0051645655078963303 0 0.028417533189679791 -0.0052478924952381089 0 0.028244898557941517 -0.0058024047703108947 0 0.024999491882943699 -0.0046078050728601029 0 0.028071442519547889 -0.0075464383020976593 0 0.028244898557941517 -0.0058024047703108947 0 0.027815856319131704 -0.0063495954909730855 0 0.02894685978748961 -0.0064463370683086338 0 0.022797823980939848 -0.0056554016836528427 0 0.021109794474050241 -0.0055414397931824446 0 0.021782289905909007 -0.0045402428814429576 0 0.032871354019957527 -0.010151926822908509 0 0.032829968778223931 -0.010085646780177124 0 0.032824247575061173 -0.010223919320835039 0 0.032871354019957527 -0.010151926822908509 0 0.032853708186462133 -0.010163152508514619 0 0.032824247575061173 -0.010223919320835039 0 0.030298704920542083 -0.0080504358494994203 0 0.028071442519547889 -0.0075464383020976593 0 0.020513915199964143 -0.004300416191572151 0 0.021109794474050241 -0.0055414397931824446 0 0.021782289905909007 -0.0045402428814429576 0 0.02131729605441228 -0.003080233943257682 0 0.020513915199964143 -0.004300416191572151 0 0.021840417558531496 -0.0036919320432714764 0 0.020513915199964143 -0.004300416191572151 0 0.021782289905909007 -0.0045402428814429576 0 0.021840417558531496 -0.0036919320432714764 0 0.022025202040769059 -0.0023667272705894279 0 0.024999491882943699 -0.0046078050728601029 0 0.022658304414341066 -0.003512648860088524 0 0.022797823980939848 -0.0056554016836528427 0 0.021782289905909007 -0.0045402428814429576 0 0.022026383002205951 -0.0014751352414948125 0 0.022074189080966779 -0.0024373711837573711 0 0.022341233569528714 -0.0019501373229356641 0 0.022658304414341066 -0.003512648860088524 0 0.021782289905909007 -0.0045402428814429576 0 0.021840417558531496 -0.0036919320432714764 0 0.022171508623708352 -0.0020036839391417201 0 0.017431191905627735 -0.00069580070635557429 0 0.022026383002205951 -0.0014751352414948125 0 0.022341233569528714 -0.0019501373229356641 0 0.022618504144493803 -0.0014765601019386988 0 0.022341233569528714 -0.0019501373229356641 0 0.022848803238594301 -0.0024859497151580906 0 0.022618504144493803 -0.0014765601019386988 0 0.014258560443891359 -0.0012993954088689338 0 0.014852908148885464 -0.00026236328539106527 0 0.013317033851252703 -0.0001702579049892904 0 0.022171508623708352 -0.0020036839391417201 0 0.018701376791035201 -0.00082756148083153072 0 0.014258560443891359 -0.0012993954088689338 0 0.016136579993662907 -0.0010714289073792227 0 0.014852908148885464 -0.00026236328539106527 0 0.022074189080966779 -0.0024373711837573711 0 0.022341233569528714 -0.0019501373229356641 0 0.022848803238594301 -0.0024859497151580906 0 0.024999491882943699 -0.0046078050728601029 0 0.022171508623708352 -0.0020036839391417201 0 0.027476571771923052 -0.0043841508715166755 0 0.027585091068446786 -0.0042610899788461214 0 0.027437876747042816 -0.0041519778712271688 0 0.027676982474607707 -0.0044080072669185361 0 0.027476571771923052 -0.0043841508715166755 0 0.027585091068446786 -0.0042610899788461214 0 0.022171508623708352 -0.0020036839391417201 0 0.026016910740316465 -0.0021963000218366124 0 0.023786555326577703 -0.0010900970516218912 0 0.023580474190430124 0.00022471137507400505 0 0.02260763275960968 -0.0009658192265055484 0 0.027585091068446786 -0.0042610899788461214 0 0.027437876747042816 -0.0041519778712271688 0 0.027639903520332985 -0.0041162956932710793 0 0.027724626034318758 -0.0042204561135316798 0 0.027585091068446786 -0.0042610899788461214 0 0.027639903520332985 -0.0041162956932710793 0 0.022037724241251902 1.4243081408047236e-06 0 0.022375155513225532 7.7747922234618831e-05 0 0.02341093040144639 0.00033019130675672085 0 0.023580474190430124 0.00022471137507400505 0 0.022375155513225532 7.7747922234618831e-05 0 0.02341093040144639 0.00033019130675672085 0 0.023580474190430124 0.00022471137507400505 0 0.022375155513225532 7.7747922234618831e-05 0 0.02260763275960968 -0.0009658192265055484 0 0.022375155513225532 7.7747922234618831e-05 0 0.019717961200363138 -3.0072463162444538e-06 0 0.02260763275960968 -0.0009658192265055484 0 0.022037724241251902 1.4243081408047236e-06 0 0.022375155513225532 7.7747922234618831e-05 0 0.019717961200363138 -3.0072463162444538e-06 0 0.019707346033735806 -5.4624593047099326e-06 0 0.016136579993662907 -0.0010714289073792227 0 0.01701465418614068 1.9413000142814134e-06 0 0.0197143602504407 -5.5247304815222692e-07 0 0.018701376791035201 -0.00082756148083153072 0 0.016136579993662907 -0.0010714289073792227 0 0.014852908148885464 -0.00026236328539106527 0 0.01701465418614068 1.9413000142814134e-06 0 0.01701465418614068 1.9413000142814134e-06 0 0.014314420305605187 1.0608709500399442e-07 0 0.013520598589820663 0.00029828641844872878 0 0.014314420305605187 1.0608709500399442e-07 0 0.013520598589820663 0.00029828641844872878 0 0.012653984041392891 0.00033939289322523335 0 0.014852908148885464 -0.00026236328539106527 0 0.01701465418614068 1.9413000142814134e-06 0 0.013520598589820663 0.00029828641844872878 0 0.014852908148885464 -0.00026236328539106527 0 0.013520598589820663 0.00029828641844872878 0 0.013317033851252703 -0.0001702579049892904 0 0.022263019658282791 -0.00097317033141529471 0 0.022618504144493803 -0.0014765601019386988 0 0.022427190523060143 -0.00044294258178081313 0 0.022263019658282791 -0.00097317033141529471 0 0.022026383002205951 -0.0014751352414948125 0 0.022618504144493803 -0.0014765601019386988 0 0.017431191905627735 -0.00069580070635557429 0 0.017301319801794189 -6.9992619552713896e-06 0 0.013520598589820663 0.00029828641844872878 0 0.013317033851252703 -0.0001702579049892904 0 0.012127574585966657 0.00038145288605839089 0 0.013520598589820663 0.00029828641844872878 0 0.012127574585966657 0.00038145288605839089 0 0.012134767414193845 0.00050455975724307707 0 0.011167205488808835 0.00072731052209006476 0 0.012127574585966657 0.00038145288605839089 0 0.012134767414193845 0.00050455975724307707 0 0.011167205488808835 0.00072731052209006476 0 0.012134767414193845 0.00050455975724307707 0 0.011067966761221959 0.0005191008356849198 0 0.012134767414193845 0.00050455975724307707 0 0.011067966761221959 0.0005191008356849198 0 0.012653984041392891 0.00033939289322523335 0 0.011067966761221959 0.0005191008356849198 0 0.011615617025758841 8.5291301983325079e-07 0 0.012653984041392891 0.00033939289322523335 0 0.014314420305605187 1.0608709500399442e-07 0 0.011615617025758841 8.5291301983325079e-07 0 0.012653984041392891 0.00033939289322523335 0 0.013520598589820663 0.00029828641844872878 0 0.012134767414193845 0.00050455975724307707 0 0.012653984041392891 0.00033939289322523335 0 0.030263930616101116 -0.00016035387910313603 0 0.030561378308428717 -3.313995352071968e-05 0 0.030666296951018097 -0.00085840814086977218 0 0.031335324922524707 3.1204673173416183e-07 0 0.032226767570257095 -0.00034893490049033504 0 0.030561378308428717 -3.313995352071968e-05 0 0.031331759561723731 -3.3137027255379519e-07 0 0.030666296951018097 -0.00085840814086977218 0 0.031335930928413247 -1.0067364248694658e-06 0 0.033491333952192642 1.0152270304845363e-06 0 0.03396998827754185 7.7312204347948062e-05 0 0.030263930616101116 -0.00016035387910313603 0 0.030666296951018097 -0.00085840814086977218 0 0.030270775109358192 -0.00081924392402456204 0 0.030263930616101116 -0.00016035387910313603 0 0.030270775109358192 -0.00081924392402456204 0 0.029853423382297174 -0.00076579512035270425 0 0.029807146335102962 -0.00069695999969261106 0 0.030633735602336152 -0.00074745493383248979 0 0.030587255257762586 -0.0021295653982760414 0 0.029144316392569505 -0.00013686428750938755 0 0.030207977984325098 5.5738410592907534e-05 0 0.029807146335102962 -0.00069695999969261106 0 0.030633735602336152 -0.00074745493383248979 0 0.030399525909244846 5.368661721680274e-05 0 0.030633735602336152 -0.00074745493383248979 0 0.031383050467066013 -0.00087803695694916109 0 0.030587255257762586 -0.0021295653982760414 0 0.031211044106136124 -0.00032817551248624929 0 0.030633735602336152 -0.00074745493383248979 0 0.031383050467066013 -0.00087803695694916109 0 0.031211044106136124 -0.00032817551248624929 0 0.030633735602336152 -0.00074745493383248979 0 0.030399525909244846 5.368661721680274e-05 0 0.031383050467066013 -0.00087803695694916109 0 0.030587255257762586 -0.0021295653982760414 0 0.031979213142711814 -0.0014961525503360074 0 0.028556032932826027 -8.6111676424919077e-05 0 0.029144316392569505 -0.00013686428750938755 0 0.026785280358216142 -0.00011848107932393958 0 0.029000802921285415 -0.00012751140377985419 0 0.027065038936916481 -0.0011196595752002963 0 0.029144316392569505 -0.00013686428750938755 0 0.02975250170555991 -0.0010257922847152739 0 0.026785280358216142 -0.00011848107932393958 0 0.027908801580204205 0.0015164559187459134 0 0.029000802921285415 -0.00012751140377985419 0 0.029000802921285415 -0.00012751140377985419 0 0.027642633465699628 -0.002020645970528295 0 0.027065038936916481 -0.0011196595752002963 0 0.029000802921285415 -0.00012751140377985419 0 0.027642633465699628 -0.002020645970528295 0 0.03063923942029511 -0.0022162738624779163 0 0.02975250170555991 -0.0010257922847152739 0 0.031044901486905717 -0.0030226198948152777 0 0.027642633465699628 -0.002020645970528295 0 0.029063320320503447 -0.0051125772136661595 0 0.03063923942029511 -0.0022162738624779163 0 0.027642633465699628 -0.002020645970528295 0 0.02647405707471558 -0.0015688531753121323 0 0.027368913163655507 -0.002547620505962619 0 0.027642633465699628 -0.002020645970528295 0 0.027368913163655507 -0.002547620505962619 0 0.027755223579638746 -0.002965961657822242 0 0.027666947977659874 -0.0021534967561934143 0 0.028401969148177605 -0.0039644921594852237 0 0.02647405707471558 -0.0015688531753121323 0 0.026744742432467453 -0.00044974760248516594 0 0.025208076858825385 3.7998300742826236e-05 0 0.02647405707471558 -0.0015688531753121323 0 0.026476167202249025 -0.0016501470216960252 0 0.026744742432467453 -0.00044974760248516594 0 0.02647405707471558 -0.0015688531753121323 0 0.027065038936916481 -0.0011196595752002963 0 0.026476167202249025 -0.0016501470216960252 0 0.030263930616101116 -0.00016035387910313603 0 0.030561378308428717 -3.313995352071968e-05 0 0.030236462046452351 0.00014092050964018379 0 0.028556032932826027 -8.6111676424919077e-05 0 0.028342324140829791 -0.00058672387603693119 0 0.027642633465699628 -0.002020645970528295 0 0.02647405707471558 -0.0015688531753121323 0 0.027065038936916481 -0.0011196595752002963 0 0.026785280358216142 -0.00011848107932393958 0 0.027065038936916481 -0.0011196595752002963 0 0.026476167202249025 -0.0016501470216960252 0 0.031331759561723731 -3.3137027255379519e-07 0 0.030236462046452351 0.00014092050964018379 0 0.029011275195018699 5.4420880315819121e-07 0 0.030561378308428717 -3.313995352071968e-05 0 0.031331759561723731 -3.3137027255379519e-07 0 0.030236462046452351 0.00014092050964018379 0 0.026476167202249025 -0.0016501470216960252 0 0.026744742432467453 -0.00044974760248516594 0 0.028173918969591701 -3.6226281958405004e-06 0 0.030236462046452351 0.00014092050964018379 0 0.029011275195018699 5.4420880315819121e-07 0 0.028178928420864099 -7.3664469117510975e-07 0 0.028342324140829791 -0.00058672387603693119 0 0.02834032150039982 -3.6172162442105948e-05 0 0.026744742432467453 -0.00044974760248516594 0 0.025208076858825385 3.7998300742826236e-05 0 0.026686483074668546 1.3882715209384127e-06 0 0.026744742432467453 -0.00044974760248516594 0 0.028173918969591701 -3.6226281958405004e-06 0 0.026686483074668546 1.3882715209384127e-06 0 0.026409615082127934 -0.001524106572466627 0 0.026124711137576188 -0.0015387656510734921 0 0.02647405707471558 -0.0015688531753121323 0 0.027052985265316624 -0.0031785495000811008 0 0.027368913163655507 -0.002547620505962619 0 0.025208076858825385 3.7998300742826236e-05 0 0.0246843840637248 0.00026687444233648049 0 0.024036742995310886 0.00038841782998302193 0 0.026124711137576188 -0.0015387656510734921 0 0.025607543918478217 -0.0015825858837980832 0 0.026686483074668546 1.3882715209384127e-06 0 0.024361886037211559 2.157425245255845e-07 0 0.0246843840637248 0.00026687444233648049 0 0.025208076858825385 3.7998300742826236e-05 0 0.026686483074668546 1.3882715209384127e-06 0 0.0246843840637248 0.00026687444233648049 0 0.024361886037211559 2.157425245255845e-07 0 0.0246843840637248 0.00026687444233648049 0 0.02341093040144639 0.00033019130675672085 0 0.0246843840637248 0.00026687444233648049 0 0.02341093040144639 0.00033019130675672085 0 0.024036742995310886 0.00038841782998302193 0 0.023580474190430124 0.00022471137507400505 0 0.02341093040144639 0.00033019130675672085 0 0.024036742995310886 0.00038841782998302193 0 0.022037724241251902 1.4243081408047236e-06 0 0.024361886037211559 2.157425245255845e-07 0 0.02341093040144639 0.00033019130675672085 0 0.027639903520332985 -0.0041162956932710793 0 0.027590383703741391 -0.0038887177183690724 0 0.027837479747664567 -0.0040078860905333183 0 0.027437876747042816 -0.0041519778712271688 0 0.027639903520332985 -0.0041162956932710793 0 0.027590383703741391 -0.0038887177183690724 0 0.026016910740316465 -0.0021963000218366124 0 0.025607543918478217 -0.0015825858837980832 0 0.027437876747042816 -0.0041519778712271688 0 0.027590383703741391 -0.0038887177183690724 0 0.027305542560065166 -0.0037614626604764475 0 0.027590383703741391 -0.0038887177183690724 0 0.027305542560065166 -0.0037614626604764475 0 0.02744844711397372 -0.0034317884209259372 0 0.027590383703741391 -0.0038887177183690724 0 0.027800313683810269 -0.0035893146751645407 0 0.027837479747664567 -0.0040078860905333183 0 0.027590383703741391 -0.0038887177183690724 0 0.027800313683810269 -0.0035893146751645407 0 0.02744844711397372 -0.0034317884209259372 0 0.027800313683810269 -0.0035893146751645407 0 0.02744844711397372 -0.0034317884209259372 0 0.027755223579638746 -0.002965961657822242 0 0.029150113929289602 -0.0054418803799146254 0 0.028401969148177605 -0.0039644921594852237 0 0.030499663036874018 -0.0073311661074132867 0 0.029063320320503447 -0.0051125772136661595 0 0.032175180884253023 -0.005057222756194326 0 0.027052985265316624 -0.0031785495000811008 0 0.02744844711397372 -0.0034317884209259372 0 0.027755223579638746 -0.002965961657822242 0 0.027052985265316624 -0.0031785495000811008 0 0.027305542560065166 -0.0037614626604764475 0 0.02744844711397372 -0.0034317884209259372 0 0.027052985265316624 -0.0031785495000811008 0 0.027368913163655507 -0.002547620505962619 0 0.027755223579638746 -0.002965961657822242 0 0.032175180884253023 -0.005057222756194326 0 0.033231998320763623 -0.006214610178737541 0 0.033285164723171098 -0.003850573601304026 0 0.029063320320503447 -0.0051125772136661595 0 0.032175180884253023 -0.005057222756194326 0 0.03063923942029511 -0.0022162738624779163 0 0.032175180884253023 -0.005057222756194326 0 0.033231998320763623 -0.006214610178737541 0 0.032390529736235553 -0.0073126698732074264 0 0.030499663036874018 -0.0073311661074132867 0 0.032175180884253023 -0.005057222756194326 0 0.032390529736235553 -0.0073126698732074264 0 0.030499663036874018 -0.0073311661074132867 0 0.031751343033003136 -0.0079769311009732762 0 0.032390529736235553 -0.0073126698732074264 0 0.029150113929289602 -0.0054418803799146254 0 0.029704106605517887 -0.0063478188938688737 0 0.030499663036874018 -0.0073311661074132867 0 0.031751343033003136 -0.0079769311009732762 0 0.031646603739359298 -0.0088180551334912129 0 0.032390529736235553 -0.0073126698732074264 0 0.032414101752834663 -0.0083556204091584426 0 0.033893993197040666 -0.0080062084197689825 0 0.033231998320763623 -0.006214610178737541 0 0.032390529736235553 -0.0073126698732074264 0 0.033893993197040666 -0.0080062084197689825 0 0.031751343033003136 -0.0079769311009732762 0 0.032390529736235553 -0.0073126698732074264 0 0.032414101752834663 -0.0083556204091584426 0 0.032414101752834663 -0.0083556204091584426 0 0.0328087121001348 -0.0089992124795427886 0 0.033893993197040666 -0.0080062084197689825 0 0.032395388102348516 -0.0092809567215944803 0 0.0328087121001348 -0.0089992124795427886 0 0.032308221362145152 -0.0089165234639861906 0 0.032414101752834663 -0.0083556204091584426 0 0.0328087121001348 -0.0089992124795427886 0 0.032308221362145152 -0.0089165234639861906 0 0.027797549554888213 -0.0051645655078963303 0 0.027837479747664567 -0.0040078860905333183 0 0.027894992680477723 -0.0040442062881722784 0 0.027800313683810269 -0.0035893146751645407 0 0.027837479747664567 -0.0040078860905333183 0 0.027894992680477723 -0.0040442062881722784 0 0.032395388102348516 -0.0092809567215944803 0 0.032308221362145152 -0.0089165234639861906 0 0.031646603739359298 -0.0088180551334912129 0 0.032414101752834663 -0.0083556204091584426 0 0.032308221362145152 -0.0089165234639861906 0 0.031646603739359298 -0.0088180551334912129 0 0.031751343033003136 -0.0079769311009732762 0 0.032414101752834663 -0.0083556204091584426 0 0.031646603739359298 -0.0088180551334912129 0 0.033479217960883829 -0.0092874418499099779 0 0.033835332712390552 -0.0081304656653309361 0 0.033614386004795785 -0.0094582063806920059 0 0.034848099603381345 -0.0086630951794396029 0 0.033893993197040666 -0.0080062084197689825 0 0.033393054054254759 -0.0094078689398107082 0 0.0328087121001348 -0.0089992124795427886 0 0.033893993197040666 -0.0080062084197689825 0 0.034848099603381345 -0.0086630951794396029 0 0.033893993197040666 -0.0080062084197689825 0 0.03561420721529799 -0.007169988803130513 0 0.033231998320763623 -0.006214610178737541 0 0.034622436167584987 -0.005761604308961497 0 0.033285164723171098 -0.003850573601304026 0 0.033231998320763623 -0.006214610178737541 0 0.033893993197040666 -0.0080062084197689825 0 0.034622436167584987 -0.005761604308961497 0 0.034622436167584987 -0.005761604308961497 0 0.036141404922954673 -0.0057031563258988782 0 0.03561420721529799 -0.007169988803130513 0 0.033893993197040666 -0.0080062084197689825 0 0.034622436167584987 -0.005761604308961497 0 0.03561420721529799 -0.007169988803130513 0 0.034622436167584987 -0.005761604308961497 0 0.035360761191418441 -0.0043019871221832706 0 0.036141404922954673 -0.0057031563258988782 0 0.035360761191418441 -0.0043019871221832706 0 0.034645714113570772 -0.0016589559242115447 0 0.037211322967805237 -0.0032777097131254942 0 0.035360761191418441 -0.0043019871221832706 0 0.033285164723171098 -0.003850573601304026 0 0.034645714113570772 -0.0016589559242115447 0 0.034622436167584987 -0.005761604308961497 0 0.035360761191418441 -0.0043019871221832706 0 0.033285164723171098 -0.003850573601304026 0 0.032105355936084955 -0.0048824693177395547 0 0.031044901486905717 -0.0030226198948152777 0 0.032175180884253023 -0.005057222756194326 0 0.033285164723171098 -0.003850573601304026 0 0.031418469407042994 -0.0036656873319426768 0 0.033285164723171098 -0.003850573601304026 0 0.031418469407042994 -0.0036656873319426768 0 0.032140897770108333 -0.0024257088330767126 0 0.030587255257762586 -0.0021295653982760414 0 0.031418469407042994 -0.0036656873319426768 0 0.032140897770108333 -0.0024257088330767126 0 0.033285164723171098 -0.003850573601304026 0 0.032140897770108333 -0.0024257088330767126 0 0.033061992651403152 -0.0016798603232923855 0 0.033285164723171098 -0.003850573601304026 0 0.033061992651403152 -0.0016798603232923855 0 0.034645714113570772 -0.0016589559242115447 0 0.033061992651403152 -0.0016798603232923855 0 0.032713025036406648 -0.00053230566792078927 0 0.034645714113570772 -0.0016589559242115447 0 0.030587255257762586 -0.0021295653982760414 0 0.032140897770108333 -0.0024257088330767126 0 0.031979213142711814 -0.0014961525503360074 0 0.032140897770108333 -0.0024257088330767126 0 0.033061992651403152 -0.0016798603232923855 0 0.031979213142711814 -0.0014961525503360074 0 0.031211044106136124 -0.00032817551248624929 0 0.031383050467066013 -0.00087803695694916109 0 0.032713025036406648 -0.00053230566792078927 0 0.031383050467066013 -0.00087803695694916109 0 0.031979213142711814 -0.0014961525503360074 0 0.032713025036406648 -0.00053230566792078927 0 0.034167113289262925 -0.0010357724701657678 0 0.03579923271769421 -0.0020985703196981431 0 0.033061992651403152 -0.0016798603232923855 0 0.031979213142711814 -0.0014961525503360074 0 0.032713025036406648 -0.00053230566792078927 0 0.036501097785974955 -0.0012966332218384018 0 0.037380639887322688 -0.0014945466397555465 0 0.036867338208829301 -0.0024450856839237627 0 0.035798219873627878 -0.0015620118737025024 0 0.036501097785974955 -0.0012966332218384018 0 0.036867338208829301 -0.0024450856839237627 0 0.037380639887322688 -0.0014945466397555465 0 0.036867338208829301 -0.0024450856839237627 0 0.038011355593930311 -0.0021370637660121628 0 0.036867338208829301 -0.0024450856839237627 0 0.038011355593930311 -0.0021370637660121628 0 0.037211322967805237 -0.0032777097131254942 0 0.03579923271769421 -0.0020985703196981431 0 0.037172646918995252 -0.0032119249281950262 0 0.039465700382321944 -0.0022679717559410434 0 0.039575280652886111 -0.0031076487212563361 0 0.038439109291889671 -0.0032752507250908202 0 0.038011355593930311 -0.0021370637660121628 0 0.039465700382321944 -0.0022679717559410434 0 0.038439109291889671 -0.0032752507250908202 0 0.038011355593930311 -0.0021370637660121628 0 0.038439109291889671 -0.0032752507250908202 0 0.037211322967805237 -0.0032777097131254942 0 0.037380639887322688 -0.0014945466397555465 0 0.038011355593930311 -0.0021370637660121628 0 0.038420244490865722 -0.00081183904883749955 0 0.038011355593930311 -0.0021370637660121628 0 0.039465700382321944 -0.0022679717559410434 0 0.03982564311418469 -0.0011182668244939895 0 0.039465700382321944 -0.0022679717559410434 0 0.040706386039034932 -0.0026566808143532188 0 0.041063348706200063 -0.0013549398249391076 0 0.039465700382321944 -0.0022679717559410434 0 0.041063348706200063 -0.0013549398249391076 0 0.03982564311418469 -0.0011182668244939895 0 0.041999383229342269 -0.0016888409659515111 0 0.040706386039034932 -0.0026566808143532188 0 0.041063348706200063 -0.0013549398249391076 0 0.040706386039034932 -0.0026566808143532188 0 0.040660128077874613 -0.0039627855555093017 0 0.042117938061639479 -0.0026785054022619255 0 0.041999383229342269 -0.0016888409659515111 0 0.040706386039034932 -0.0026566808143532188 0 0.042117938061639479 -0.0026785054022619255 0 0.040763302752894214 -0.0039122207838115965 0 0.041390254001092662 -0.0032496097599688484 0 0.039465700382321944 -0.0022679717559410434 0 0.040706386039034932 -0.0026566808143532188 0 0.039575280652886111 -0.0031076487212563361 0 0.040706386039034932 -0.0026566808143532188 0 0.039575280652886111 -0.0031076487212563361 0 0.040054244183237546 -0.003559349704779489 0 0.039575280652886111 -0.0031076487212563361 0 0.040054244183237546 -0.003559349704779489 0 0.03933764936184015 -0.0037816788152008327 0 0.040706386039034932 -0.0026566808143532188 0 0.040054244183237546 -0.003559349704779489 0 0.040660128077874613 -0.0039627855555093017 0 0.040054244183237546 -0.003559349704779489 0 0.039996097644964777 -0.0042038011539296026 0 0.040660128077874613 -0.0039627855555093017 0 0.039996097644964777 -0.0042038011539296026 0 0.03933764936184015 -0.0037816788152008327 0 0.039491564575731476 -0.0043240759977309293 0 0.03933764936184015 -0.0037816788152008327 0 0.039491564575731476 -0.0043240759977309293 0 0.038647697338005021 -0.0043070898941786392 0 0.040054244183237546 -0.003559349704779489 0 0.039996097644964777 -0.0042038011539296026 0 0.03933764936184015 -0.0037816788152008327 0 0.040660128077874613 -0.0039627855555093017 0 0.040931784648452443 -0.0044889621994532369 0 0.040779488327016666 -0.0039906305868066243 0 0.040660128077874613 -0.0039627855555093017 0 0.040779488327016666 -0.0039906305868066243 0 0.040695089089696539 -0.0038735023711866903 0 0.039996097644964777 -0.0042038011539296026 0 0.040660128077874613 -0.0039627855555093017 0 0.040475423399459441 -0.0045796217702358533 0 0.040931784648452443 -0.0044889621994532369 0 0.040475423399459441 -0.0045796217702358533 0 0.04071065666521223 -0.0054554239383150724 0 0.040940522357664301 -0.0040216982419385159 0 0.038733338481335602 -0.0051377608604882734 0 0.040475423399459441 -0.0045796217702358533 0 0.039990974927257721 -0.0050142191418408822 0 0.04071065666521223 -0.0054554239383150724 0 0.040660128077874613 -0.0039627855555093017 0 0.040931784648452443 -0.0044889621994532369 0 0.040475423399459441 -0.0045796217702358533 0 0.038543829362586962 -0.0047146446399395359 0 0.038546150231754304 -0.0044650746079007916 0 0.038285052350894751 -0.0052217864073211542 0 0.039375267603004298 -0.004923848751719897 0 0.038627049435259186 -0.004316664448597061 0 0.038543829362586962 -0.0047146446399395359 0 0.038647697338005021 -0.0043070898941786392 0 0.038546150231754304 -0.0044650746079007916 0 0.039491564575731476 -0.0043240759977309293 0 0.039990974927257721 -0.0050142191418408822 0 0.038647697338005021 -0.0043070898941786392 0 0.039996097644964777 -0.0042038011539296026 0 0.040475423399459441 -0.0045796217702358533 0 0.039990974927257721 -0.0050142191418408822 0 0.039996097644964777 -0.0042038011539296026 0 0.039491564575731476 -0.0043240759977309293 0 0.039990974927257721 -0.0050142191418408822 0 0.038647697338005021 -0.0043070898941786392 0 0.038546150231754304 -0.0044650746079007916 0 0.037490756609256798 -0.0045393992574294904 0 0.03933764936184015 -0.0037816788152008327 0 0.038647697338005021 -0.0043070898941786392 0 0.038439109291889671 -0.0032752507250908202 0 0.038647697338005021 -0.0043070898941786392 0 0.038439109291889671 -0.0032752507250908202 0 0.037490756609256798 -0.0045393992574294904 0 0.039575280652886111 -0.0031076487212563361 0 0.03933764936184015 -0.0037816788152008327 0 0.038439109291889671 -0.0032752507250908202 0 0.038439109291889671 -0.0032752507250908202 0 0.037211322967805237 -0.0032777097131254942 0 0.037490756609256798 -0.0045393992574294904 0 0.035360761191418441 -0.0043019871221832706 0 0.037211322967805237 -0.0032777097131254942 0 0.037490756609256798 -0.0045393992574294904 0 0.035360761191418441 -0.0043019871221832706 0 0.037490756609256798 -0.0045393992574294904 0 0.036141404922954673 -0.0057031563258988782 0 0.037490756609256798 -0.0045393992574294904 0 0.036141404922954673 -0.0057031563258988782 0 0.037678601328521542 -0.0062948151153990051 0 0.038546150231754304 -0.0044650746079007916 0 0.037490756609256798 -0.0045393992574294904 0 0.037678601328521542 -0.0062948151153990051 0 0.038406255887205233 -0.004542234531880217 0 0.037583433517064752 -0.0058884340532902217 0 0.036141404922954673 -0.0057031563258988782 0 0.037678601328521542 -0.0062948151153990051 0 0.03561420721529799 -0.007169988803130513 0 0.037678601328521542 -0.0062948151153990051 0 0.03561420721529799 -0.007169988803130513 0 0.036616685647158503 -0.0081500912650726877 0 0.034848099603381345 -0.0086630951794396029 0 0.03561420721529799 -0.007169988803130513 0 0.036616685647158503 -0.0081500912650726877 0 0.037447712768435323 -0.0054863019505338121 0 0.036438400410574556 -0.0072551114705350769 0 0.037696892851438069 -0.0063684315800353565 0 0.037583433517064752 -0.0058884340532902217 0 0.036503298251836111 -0.0077165220147339345 0 0.037560396121127708 -0.008958565810016611 0 0.035446456243308277 -0.0095810417575497714 0 0.036438400410574556 -0.0072551114705350769 0 0.03559428720474557 -0.0094802894990626187 0 0.036503298251836111 -0.0077165220147339345 0 0.034848099603381345 -0.0086630951794396029 0 0.036616685647158503 -0.0081500912650726877 0 0.035326166415909639 -0.0090164777904590543 0 0.034418343462521442 -0.0096290652239048504 0 0.034848099603381345 -0.0086630951794396029 0 0.035326166415909639 -0.0090164777904590543 0 0.035446456243308277 -0.0095810417575497714 0 0.036616685647158503 -0.0081500912650726877 0 0.035326166415909639 -0.0090164777904590543 0 0.028746147071758366 -0.011354852432899111 0 0.029049385228609195 -0.011833441183762254 0 0.028478006476297221 -0.01236487239490283 0 0.029635860710127131 -0.011331272421688346 0 0.028746147071758366 -0.011354852432899111 0 0.029049385228609195 -0.011833441183762254 0 0.037560396121127708 -0.008958565810016611 0 0.036438400410574556 -0.0072551114705350769 0 0.038271666190665278 -0.0073555538851076893 0 0.032537807450359071 -0.010850382550382278 0 0.035972885893052919 -0.0076657057597518431 0 0.032741022995698435 -0.010197092162726287 0 0.033734428079470337 -0.0092208307897805562 0 0.033223683130576678 -0.0087316699979632963 0 0.032537807450359071 -0.010850382550382278 0 0.031215788430300023 -0.010701145855740488 0 0.036438400410574556 -0.0072551114705350769 0 0.038271666190665278 -0.0073555538851076893 0 0.037696892851438069 -0.0063684315800353565 0 0.038271666190665278 -0.0073555538851076893 0 0.037696892851438069 -0.0063684315800353565 0 0.03873905081293065 -0.0060229743839799081 0 0.035972885893052919 -0.0076657057597518431 0 0.036044520022245147 -0.0069053557557214908 0 0.033223683130576678 -0.0087316699979632963 0 0.033978956716224952 -0.0083166232132149999 0 0.033714217611612807 -0.0073196549223946573 0 0.033978956716224952 -0.0083166232132149999 0 0.034526246279168608 -0.0080590370355498944 0 0.033714217611612807 -0.0073196549223946573 0 0.033734428079470337 -0.0092208307897805562 0 0.033223683130576678 -0.0087316699979632963 0 0.033978956716224952 -0.0083166232132149999 0 0.033734428079470337 -0.0092208307897805562 0 0.033978956716224952 -0.0083166232132149999 0 0.034694733662138218 -0.0082656487860554018 0 0.031215788430300023 -0.010701145855740488 0 0.031212773464019503 -0.0091989350758893643 0 0.031854284477936583 -0.0093464639430594579 0 0.031212773464019503 -0.0091989350758893643 0 0.033978956716224952 -0.0083166232132149999 0 0.034526246279168608 -0.0080590370355498944 0 0.034694733662138218 -0.0082656487860554018 0 0.033714217611612807 -0.0073196549223946573 0 0.034191074143410008 -0.0059363307722679693 0 0.035779592419526017 -0.0072020979764370711 0 0.036044520022245147 -0.0069053557557214908 0 0.038733338481335602 -0.0051377608604882734 0 0.037696892851438069 -0.0063684315800353565 0 0.03873905081293065 -0.0060229743839799081 0 0.038285052350894751 -0.0052217864073211542 0 0.037447712768435323 -0.0054863019505338121 0 0.037696892851438069 -0.0063684315800353565 0 0.038285052350894751 -0.0052217864073211542 0 0.038543829362586962 -0.0047146446399395359 0 0.038285052350894751 -0.0052217864073211542 0 0.039022728212695035 -0.0050598625520208969 0 0.038546150231754304 -0.0044650746079007916 0 0.037447712768435323 -0.0054863019505338121 0 0.038285052350894751 -0.0052217864073211542 0 0.03873905081293065 -0.0060229743839799081 0 0.038285052350894751 -0.0052217864073211542 0 0.039022728212695035 -0.0050598625520208969 0 0.039375267603004298 -0.004923848751719897 0 0.038733338481335602 -0.0051377608604882734 0 0.040854341237451755 -0.0037105483751469427 0 0.040618478000143815 -0.0037877883349245059 0 0.040533716898581436 -0.0034599251262590878 0 0.040618478000143815 -0.0037877883349245059 0 0.040330211757877578 -0.003610842595682711 0 0.040533716898581436 -0.0034599251262590878 0 0.040618478000143815 -0.0037877883349245059 0 0.040330211757877578 -0.003610842595682711 0 0.040301773728826852 -0.0038664579696624413 0 0.029809459339671333 -0.0061179277098259311 0 0.029612150673917439 -0.0063726782727037768 0 0.029884956203035266 -0.0064007248607260798 0 0.029612150673917439 -0.0063726782727037768 0 0.029914117976257787 -0.0066538027815234643 0 0.029884956203035266 -0.0064007248607260798 0 0.035324084871952037 -0.0045915009725019948 0 0.034050577611492459 -0.0063300589573439198 0 0.034526246279168608 -0.0080590370355498944 0 0.033714217611612807 -0.0073196549223946573 0 0.035779592419526017 -0.0072020979764370711 0 0.038733338481335602 -0.0051377608604882734 0 0.034050577611492459 -0.0063300589573439198 0 0.029379574756266659 -0.0086135004369459357 0 0.029856600280979424 -0.0081528744735239588 0 0.029234356531214416 -0.008039042615770358 0 0.029856600280979424 -0.0081528744735239588 0 0.029234356531214416 -0.008039042615770358 0 0.029391045294197178 -0.0076513195948174377 0 0.034526246279168608 -0.0080590370355498944 0 0.035779592419526017 -0.0072020979764370711 0 0.034690017473057722 -0.0082595990121952529 0 0.034050577611492459 -0.0063300589573439198 0 0.031212773464019503 -0.0091989350758893643 0 0.029379574756266659 -0.0086135004369459357 0 0.029234356531214416 -0.008039042615770358 0 0.028627517566714576 -0.0080447494406124254 0 0.034050577611492459 -0.0063300589573439198 0 0.028383061410394074 -0.0073257022836146421 0 0.029234356531214416 -0.008039042615770358 0 0.028921620847980892 -0.0077412717967533821 0 0.028627517566714576 -0.0080447494406124254 0 0.028938810135556978 -0.0071823480337726156 0 0.028921620847980892 -0.0077412717967533821 0 0.029391045294197178 -0.0076513195948174377 0 0.029234356531214416 -0.008039042615770358 0 0.028921620847980892 -0.0077412717967533821 0 0.029391045294197178 -0.0076513195948174377 0 0.028746147071758366 -0.011354852432899111 0 0.028478006476297221 -0.01236487239490283 0 0.027858082562694484 -0.011680899645595766 0 0.031212773464019503 -0.0091989350758893643 0 0.028455389053059686 -0.0096561617871955899 0 0.030182520217241795 -0.0068736404013755876 0 0.029914117976257787 -0.0066538027815234643 0 0.03010226192902617 -0.0066992320495813627 0 0.02974372888733905 -0.0071538753627947774 0 0.028383061410394074 -0.0073257022836146421 0 0.02974372888733905 -0.0071538753627947774 0 0.030095360779692167 -0.0067933140345131605 0 0.030209509000099662 -0.0071200577391222408 0 0.030112379947119461 -0.0068630621705685641 0 0.030321506243020799 -0.0068900575816111878 0 0.028921620847980892 -0.0077412717967533821 0 0.028538972646364583 -0.0075263430055834612 0 0.028627517566714576 -0.0080447494406124254 0 0.028938810135556978 -0.0071823480337726156 0 0.028921620847980892 -0.0077412717967533821 0 0.028538972646364583 -0.0075263430055834612 0 0.028071038730369639 -0.007526020860829887 0 0.028538972646364583 -0.0075263430055834612 0 0.028627517566714576 -0.0080447494406124254 0 0.029914117976257787 -0.0066538027815234643 0 0.030027991350398225 -0.0065231649409966484 0 0.029884956203035266 -0.0064007248607260798 0 0.029914117976257787 -0.0066538027815234643 0 0.030027991350398225 -0.0065231649409966484 0 0.03010226192902617 -0.0066992320495813627 0 0.030029811459214878 -0.0065694443971531331 0 0.030095360779692167 -0.0067933140345131605 0 0.030027991350398225 -0.0065231649409966484 0 0.030112379947119461 -0.0068630621705685641 0 0.030253313908851935 -0.006520577021608482 0 0.030112379947119461 -0.0068630621705685641 0 0.030253313908851935 -0.006520577021608482 0 0.030321506243020799 -0.0068900575816111878 0 0.030027991350398225 -0.0065231649409966484 0 0.030253313908851935 -0.006520577021608482 0 0.030047259106015248 -0.006299514305921571 0 0.030253313908851935 -0.006520577021608482 0 0.030047259106015248 -0.006299514305921571 0 0.030281599122862591 -0.0061800171322365033 0 0.030253313908851935 -0.006520577021608482 0 0.030281599122862591 -0.0061800171322365033 0 0.030487200765886877 -0.0063338819009275682 0 0.030027991350398225 -0.0065231649409966484 0 0.029884956203035266 -0.0064007248607260798 0 0.030047259106015248 -0.006299514305921571 0 0.029809459339671333 -0.0061179277098259311 0 0.029884956203035266 -0.0064007248607260798 0 0.030047259106015248 -0.006299514305921571 0 0.029809459339671333 -0.0061179277098259311 0 0.030047259106015248 -0.006299514305921571 0 0.03007732526408418 -0.006055827491524785 0 0.029809459339671333 -0.0061179277098259311 0 0.03007732526408418 -0.006055827491524785 0 0.030057027534554977 -0.0057819290863084368 0 0.035324084871952037 -0.0045915009725019948 0 0.03473913952487119 -0.0049727659224778741 0 0.040330211757877578 -0.003610842595682711 0 0.03992699285988921 -0.0038254246067929969 0 0.040301773728826852 -0.0038664579696624413 0 0.030281599122862591 -0.0061800171322365033 0 0.030309442381004328 -0.0059238849329755093 0 0.030493397958661676 -0.0060561631655130285 0 0.030047259106015248 -0.006299514305921571 0 0.03007732526408418 -0.006055827491524785 0 0.030281599122862591 -0.0061800171322365033 0 0.03007732526408418 -0.006055827491524785 0 0.030281599122862591 -0.0061800171322365033 0 0.030309442381004328 -0.0059238849329755093 0 0.03007732526408418 -0.006055827491524785 0 0.030309442381004328 -0.0059238849329755093 0 0.030057027534554977 -0.0057819290863084368 0 0.039333914887902707 -0.0043203779327206232 0 0.040056389367381894 -0.0041767726745304849 0 0.03992699285988921 -0.0038254246067929969 0 0.030309442381004328 -0.0059238849329755093 0 0.030392387306678995 -0.005695013145156822 0 0.030582761702946232 -0.0057909095920188804 0 0.036613383631470257 -0.0049711034914734081 0 0.040787242992280003 -0.0039204780402445358 0 0.030309442381004328 -0.0059238849329755093 0 0.030392387306678995 -0.005695013145156822 0 0.030057027534554977 -0.0057819290863084368 0 0.030392387306678995 -0.005695013145156822 0 0.030386885645426052 -0.0054093104861977787 0 0.030057027534554977 -0.0057819290863084368 0 0.036613383631470257 -0.0049711034914734081 0 0.03473913952487119 -0.0049727659224778741 0 0.039917491526777003 -0.0039167145509496088 0 0.040070951674683775 -0.004283630910739928 0 0.039821801490052426 -0.0044006998929927467 0 0.039917491526777003 -0.0039167145509496088 0 0.040242614295234957 -0.0041251487085214146 0 0.040392909339283196 -0.0039013328361681946 0 0.039917491526777003 -0.0039167145509496088 0 0.040070951674683775 -0.004283630910739928 0 0.040242614295234957 -0.0041251487085214146 0 0.040070951674683775 -0.004283630910739928 0 0.040242614295234957 -0.0041251487085214146 0 0.040297717345772047 -0.0045031609959737245 0 0.040472215021418755 -0.0040383912060352181 0 0.040746224352133244 -0.0040549429432452672 0 0.040275826764414609 -0.0043276506769612247 0 0.040242614295234957 -0.0041251487085214146 0 0.040472215021418755 -0.0040383912060352181 0 0.040275826764414609 -0.0043276506769612247 0 0.040242614295234957 -0.0041251487085214146 0 0.040472215021418755 -0.0040383912060352181 0 0.040392909339283196 -0.0039013328361681946 0 0.040787242992280003 -0.0039204780402445358 0 0.04031844383905759 -0.0039949803281621532 0 0.040056389367381894 -0.0041767726745304849 0 0.040301773728826852 -0.0038664579696624413 0 0.040570230859924533 -0.0039372015374336414 0 0.040472215021418755 -0.0040383912060352181 0 0.040392909339283196 -0.0039013328361681946 0 0.040570230859924533 -0.0039372015374336414 0 0.040056389367381894 -0.0041767726745304849 0 0.03992699285988921 -0.0038254246067929969 0 0.040301773728826852 -0.0038664579696624413 0 0.040618478000143815 -0.0037877883349245059 0 0.040570230859924533 -0.0039372015374336414 0 0.040718494101426084 -0.0039620368038573734 0 0.040618478000143815 -0.0037877883349245059 0 0.040301773728826852 -0.0038664579696624413 0 0.040570230859924533 -0.0039372015374336414 0 0.040802972310777653 -0.0039132093207332481 0 0.040854341237451755 -0.0037105483751469427 0 0.040618478000143815 -0.0037877883349245059 0 0.040802972310777653 -0.0039132093207332481 0 0.040618478000143815 -0.0037877883349245059 0 0.040718494101426084 -0.0039620368038573734 0 0.040940522357664301 -0.0040216982419385159 0 0.040787790989778992 -0.0041118891117223116 0 0.040802972310777653 -0.0039132093207332481 0 0.040718494101426084 -0.0039620368038573734 0 0.040779488327016666 -0.0039906305868066243 0 0.040718494101426084 -0.0039620368038573734 0 0.040779488327016666 -0.0039906305868066243 0 0.040746224352133244 -0.0040549429432452672 0 0.040570230859924533 -0.0039372015374336414 0 0.040718494101426084 -0.0039620368038573734 0 0.040746224352133244 -0.0040549429432452672 0 0.040472215021418755 -0.0040383912060352181 0 0.040570230859924533 -0.0039372015374336414 0 0.040746224352133244 -0.0040549429432452672 0 0.040746224352133244 -0.0040549429432452672 0 0.040776776288646135 -0.0038767224431062249 0 0.0409817405969604 -0.003775224427679844 0 0.040779488327016666 -0.0039906305868066243 0 0.040776776288646135 -0.0038767224431062249 0 0.040695089089696539 -0.0038735023711866903 0 0.040779488327016666 -0.0039906305868066243 0 0.040746224352133244 -0.0040549429432452672 0 0.040776776288646135 -0.0038767224431062249 0 0.041999383229342269 -0.0016888409659515111 0 0.042117938061639479 -0.0026785054022619255 0 0.043195904431489331 -0.0014039767123302613 0 0.040776776288646135 -0.0038767224431062249 0 0.040695089089696539 -0.0038735023711866903 0 0.040742608937717799 -0.0035414655804600834 0 0.041390254001092662 -0.0032496097599688484 0 0.041962310763248266 -0.0024694429985652878 0 0.040742608937717799 -0.0035414655804600834 0 0.0409817405969604 -0.003775224427679844 0 0.041056652571868815 -0.003428992668960529 0 0.040776776288646135 -0.0038767224431062249 0 0.040742608937717799 -0.0035414655804600834 0 0.0409817405969604 -0.003775224427679844 0 0.0409817405969604 -0.003775224427679844 0 0.04130550928974272 -0.0035666825288844821 0 0.041056652571868815 -0.003428992668960529 0 0.041342039795624494 -0.0036033419119764309 0 0.04076474900453831 -0.0043544384802412569 0 0.0409817405969604 -0.003775224427679844 0 0.04130550928974272 -0.0035666825288844821 0 0.041312747773333471 -0.0039565710607681864 0 0.041303050329844597 -0.0037083357896040381 0 0.041903043100474678 -0.004055973767515742 0 0.042303234583032687 -0.0035825077945281394 0 0.041303050329844597 -0.0037083357896040381 0 0.041903043100474678 -0.004055973767515742 0 0.04139903391343968 -0.004664675552382762 0 0.040070951674683775 -0.004283630910739928 0 0.039821801490052426 -0.0044006998929927467 0 0.040297717345772047 -0.0045031609959737245 0 0.041903043100474678 -0.004055973767515742 0 0.04139903391343968 -0.004664675552382762 0 0.04260805402031223 -0.0042656949859164375 0 0.039821801490052426 -0.0044006998929927467 0 0.040297717345772047 -0.0045031609959737245 0 0.039511799669059711 -0.0047902255142595607 0 0.04076474900453831 -0.0043544384802412569 0 0.041635075738941055 -0.0043122240597014668 0 0.040377673442411978 -0.0041727306333410848 0 0.04076474900453831 -0.0043544384802412569 0 0.040746224352133244 -0.0040549429432452672 0 0.0409817405969604 -0.003775224427679844 0 0.041312747773333471 -0.0039565710607681864 0 0.040773821185370165 -0.0040079196928541434 0 0.04076474900453831 -0.0043544384802412569 0 0.04131605651352907 -0.003111513313134738 0 0.040965717169342199 -0.0030766912540047381 0 0.041282726104417633 -0.0025692711471320697 0 0.042440948356663094 -0.0016693194165644935 0 0.042395995775648954 -0.0012501090190271548 0 0.043851392584225574 -0.00032812836548168535 0 0.044087585490548052 0.0003840954807878693 0 0.043922571174174412 0.00019179159845896085 0 0.041200527591900828 -0.0030849781353281991 0 0.042395995775648954 -0.0012501090190271548 0 0.041210534991324252 -0.0027397168063015508 0 0.041553520507387344 -0.0022434832860224476 0 0.041123831208583365 -0.0017687466609529791 0 0.042067473532671457 -0.0021739755983543646 0 0.041842958177867387 -0.0029463864380281082 0 0.042581900586104456 -0.0028870241713963942 0 0.041553520507387344 -0.0022434832860224476 0 0.042067473532671457 -0.0021739755983543646 0 0.041842958177867387 -0.0029463864380281082 0 0.041210534991324252 -0.0027397168063015508 0 0.041553520507387344 -0.0022434832860224476 0 0.041842958177867387 -0.0029463864380281082 0 0.041303050329844597 -0.0037083357896040381 0 0.041842958177867387 -0.0029463864380281082 0 0.042303234583032687 -0.0035825077945281394 0 0.041303050329844597 -0.0037083357896040381 0 0.041210534991324252 -0.0027397168063015508 0 0.041842958177867387 -0.0029463864380281082 0 0.04130550928974272 -0.0035666825288844821 0 0.04131605651352907 -0.003111513313134738 0 0.041056652571868815 -0.003428992668960529 0 0.041342039795624494 -0.0036033419119764309 0 0.041200527591900828 -0.0030849781353281991 0 0.04131605651352907 -0.003111513313134738 0 0.041056652571868815 -0.003428992668960529 0 0.040965717169342199 -0.0030766912540047381 0 0.040742608937717799 -0.0035414655804600834 0 0.041056652571868815 -0.003428992668960529 0 0.040965717169342199 -0.0030766912540047381 0 0.043195904431489331 -0.0014039767123302613 0 0.043310812056241932 -0.00031451993247641019 0 0.043851392584225574 -0.00032812836548168535 0 0.041962310763248266 -0.0024694429985652878 0 0.042440948356663094 -0.0016693194165644935 0 0.043195904431489331 -0.0014039767123302613 0 0.043310812056241932 -0.00031451993247641019 0 0.042523165920922201 -0.00046741953587937696 0 0.041999383229342269 -0.0016888409659515111 0 0.043195904431489331 -0.0014039767123302613 0 0.042523165920922201 -0.00046741953587937696 0 0.043310812056241932 -0.00031451993247641019 0 0.043375713940291029 0.00029407357838847264 0 0.042523165920922201 -0.00046741953587937696 0 0.043310812056241932 -0.00031451993247641019 0 0.043851392584225574 -0.00032812836548168535 0 0.043662474333488549 8.2545637258842826e-05 0 0.043310812056241932 -0.00031451993247641019 0 0.043662474333488549 8.2545637258842826e-05 0 0.043375713940291029 0.00029407357838847264 0 0.043851392584225574 -0.00032812836548168535 0 0.043662474333488549 8.2545637258842826e-05 0 0.043922571174174412 0.00019179159845896085 0 0.043753893536997039 0.00036932181273392322 0 0.043375713940291029 0.00029407357838847264 0 0.043674799962160435 0.0005329238190048129 0 0.043662474333488549 8.2545637258842826e-05 0 0.043753893536997039 0.00036932181273392322 0 0.043922571174174412 0.00019179159845896085 0 0.043662474333488549 8.2545637258842826e-05 0 0.043753893536997039 0.00036932181273392322 0 0.043375713940291029 0.00029407357838847264 0 0.043753893536997039 0.00036932181273392322 0 0.043807257415246943 0.00049417634492421585 0 0.043946380155394364 0.00039230239730978579 0 0.043375713940291029 0.00029407357838847264 0 0.043674799962160435 0.0005329238190048129 0 0.043370305988634825 0.000675193142145086 0 0.043674799962160435 0.0005329238190048129 0 0.043786313954419377 0.00049976210826251056 0 0.043370305988634825 0.000675193142145086 0 0.043786313954419377 0.00049976210826251056 0 0.043838264413548135 0.00043088697335114942 0 0.043370305988634825 0.000675193142145086 0 0.043753893536997039 0.00036932181273392322 0 0.043807257415246943 0.00049417634492421585 0 0.043674799962160435 0.0005329238190048129 0 0.043807257415246943 0.00049417634492421585 0 0.043674799962160435 0.0005329238190048129 0 0.043857252764018397 0.00049429936847495857 0 0.043674799962160435 0.0005329238190048129 0 0.043857252764018397 0.00049429936847495857 0 0.043786313954419377 0.00049976210826251056 0 0.043807257415246943 0.00049417634492421585 0 0.043768887612105206 0.00049909070711116638 0 0.043857252764018397 0.00049429936847495857 0 0.043261580690643196 -0.00082111453757729134 0 0.044174414234113377 5.348867174012472e-05 0 0.043212218974511114 -0.000243913663073396 0 0.044174414234113377 5.348867174012472e-05 0 0.043212218974511114 -0.000243913663073396 0 0.043261580690643196 -0.00082111453757729134 0 0.043807257415246943 0.00049417634492421585 0 0.043946380155394364 0.00039230239730978579 0 0.043768887612105206 0.00049909070711116638 0 0.043567000476206041 -0.00029656252956281401 0 0.043528320202480215 -0.0003470487214899989 0 0.043579744325531806 -0.00037148484428554431 0 0.042395995775648954 -0.0012501090190271548 0 0.043261580690643196 -0.00082111453757729134 0 0.042939321955700063 -0.00079203698901291711 0 0.042941691052506989 -0.00081778997756349876 0 0.043044574589113455 -0.00066338587756479899 0 0.043212218974511114 -0.000243913663073396 0 0.042395995775648954 -0.0012501090190271548 0 0.043753893536997039 0.00036932181273392322 0 0.043946380155394364 0.00039230239730978579 0 0.043922571174174412 0.00019179159845896085 0 0.04406956356905764 0.00048655312117344126 0 0.044087585490548052 0.0003840954807878693 0 0.043922571174174412 0.00019179159845896085 0 0.043212218974511114 -0.000243913663073396 0 0.04394198002320384 0.00041997103295301938 0 0.042067473532671457 -0.0021739755983543646 0 0.041785470309319138 -0.0016269093844128325 0 0.042624179469842087 -0.0013406600369142885 0 0.041123831208583365 -0.0017687466609529791 0 0.041785470309319138 -0.0016269093844128325 0 0.041746849721373325 -0.00084222103121576618 0 0.041553520507387344 -0.0022434832860224476 0 0.041123831208583365 -0.0017687466609529791 0 0.041785470309319138 -0.0016269093844128325 0 0.041553520507387344 -0.0022434832860224476 0 0.042067473532671457 -0.0021739755983543646 0 0.041785470309319138 -0.0016269093844128325 0 0.041785470309319138 -0.0016269093844128325 0 0.041746849721373325 -0.00084222103121576618 0 0.042624179469842087 -0.0013406600369142885 0 0.043261580690643196 -0.00082111453757729134 0 0.043972561446833057 -0.00076411475208189295 0 0.043375629589703868 -0.0014628345112612411 0 0.043522774754502502 -0.0012389639046845088 0 0.043681630905988436 -0.0013872798333497171 0 0.04493346234250431 -0.00010120734430622983 0 0.044886638838406233 -0.0001078388886475743 0 0.044883619963968974 -6.9752011377798842e-05 0 0.044891909275885565 -0.00017477057445449708 0 0.04493346234250431 -0.00010120734430622983 0 0.044886638838406233 -0.0001078388886475743 0 0.044891909275885565 -0.00017477057445449708 0 0.044886638838406233 -0.0001078388886475743 0 0.044842112130464976 -9.4711233869695306e-05 0 0.044886638838406233 -0.0001078388886475743 0 0.044883619963968974 -6.9752011377798842e-05 0 0.044842112130464976 -9.4711233869695306e-05 0 0.044883619963968974 -6.9752011377798842e-05 0 0.0448469195422063 -4.7533652787667793e-05 0 0.044882234951928765 -3.3135753269899134e-05 0 0.044883619963968974 -6.9752011377798842e-05 0 0.044914400950246652 -4.5439953324281716e-05 0 0.044882234951928765 -3.3135753269899134e-05 0 0.04493346234250431 -0.00010120734430622983 0 0.044883619963968974 -6.9752011377798842e-05 0 0.044914400950246652 -4.5439953324281716e-05 0 0.04493346234250431 -0.00010120734430622983 0 0.044942753411322568 -3.8674841990327899e-05 0 0.044914400950246652 -4.5439953324281716e-05 0 0.044770100667778978 -0.00010867091299729172 0 0.044765774868966518 -4.897010357429099e-05 0 0.04450088595315034 0.00022031652897771831 0 0.044891909275885565 -0.00017477057445449708 0 0.044770100667778978 -0.00010867091299729172 0 0.044842112130464976 -9.4711233869695306e-05 0 0.044770100667778978 -0.00010867091299729172 0 0.044842112130464976 -9.4711233869695306e-05 0 0.044765774868966518 -4.897010357429099e-05 0 0.0448469195422063 -4.7533652787667793e-05 0 0.044765774868966518 -4.897010357429099e-05 0 0.044863512650941961 -2.0546384288002264e-05 0 0.044883619963968974 -6.9752011377798842e-05 0 0.044842112130464976 -9.4711233869695306e-05 0 0.0448469195422063 -4.7533652787667793e-05 0 0.044842112130464976 -9.4711233869695306e-05 0 0.0448469195422063 -4.7533652787667793e-05 0 0.044765774868966518 -4.897010357429099e-05 0 0.044753018032643449 -6.4575623425883275e-05 0 0.04474472204467967 0.00014425008028225522 0 0.044765774868966518 -4.897010357429099e-05 0 0.044863512650941961 -2.0546384288002264e-05 0 0.044929263234341349 8.077494440472632e-06 0 0.044402276961640549 9.4572513895517708e-05 0 0.04450088595315034 0.00022031652897771831 0 0.04432486432878787 0.00026705459924183467 0 0.044765774868966518 -4.897010357429099e-05 0 0.04450088595315034 0.00022031652897771831 0 0.044502982929569487 0.00028877365268998716 0 0.044174414234113377 5.348867174012472e-05 0 0.044590531860114031 0.00019835905153639243 0 0.0448469195422063 -4.7533652787667793e-05 0 0.044863512650941961 -2.0546384288002264e-05 0 0.044882234951928765 -3.3135753269899134e-05 0 0.044863512650941961 -2.0546384288002264e-05 0 0.044890392184489487 -1.7884249781771134e-05 0 0.044882234951928765 -3.3135753269899134e-05 0 0.044863512650941961 -2.0546384288002264e-05 0 0.044890392184489487 -1.7884249781771134e-05 0 0.044906948075602103 -3.7836107924958402e-06 0 0.044863512650941961 -2.0546384288002264e-05 0 0.044906948075602103 -3.7836107924958402e-06 0 0.044929263234341349 8.077494440472632e-06 0 0.044932434132436964 -2.3900650413445882e-05 0 0.044942753411322568 -3.8674841990327899e-05 0 0.044952389760794402 -1.3247729409216065e-05 0 0.044932434132436964 -2.3900650413445882e-05 0 0.044942753411322568 -3.8674841990327899e-05 0 0.044914400950246652 -4.5439953324281716e-05 0 0.044914400950246652 -4.5439953324281716e-05 0 0.044882234951928765 -3.3135753269899134e-05 0 0.044911311240532527 -1.9553398311590613e-05 0 0.044890392184489487 -1.7884249781771134e-05 0 0.044882234951928765 -3.3135753269899134e-05 0 0.044911311240532527 -1.9553398311590613e-05 0 0.044932434132436964 -2.3900650413445882e-05 0 0.044914400950246652 -4.5439953324281716e-05 0 0.044911311240532527 -1.9553398311590613e-05 0 0.044906948075602103 -3.7836107924958402e-06 0 0.044911311240532527 -1.9553398311590613e-05 0 0.044937168492735186 -6.7319508371550785e-06 0 0.044932434132436964 -2.3900650413445882e-05 0 0.044911311240532527 -1.9553398311590613e-05 0 0.044937168492735186 -6.7319508371550785e-06 0 0.044890392184489487 -1.7884249781771134e-05 0 0.044906948075602103 -3.7836107924958402e-06 0 0.044911311240532527 -1.9553398311590613e-05 0 0.044932434132436964 -2.3900650413445882e-05 0 0.044937168492735186 -6.7319508371550785e-06 0 0.044952389760794402 -1.3247729409216065e-05 0 0.044937168492735186 -6.7319508371550785e-06 0 0.044952389760794402 -1.3247729409216065e-05 0 0.044968954508782071 3.1729030699927605e-06 0 0.044937168492735186 -6.7319508371550785e-06 0 0.044968954508782071 3.1729030699927605e-06 0 0.044944224881979918 2.1180600815842495e-06 0 0.044968954508782071 3.1729030699927605e-06 0 0.044964503541140961 4.1764229219453607e-06 0 0.044944224881979918 2.1180600815842495e-06 0 0.044964503541140961 4.1764229219453607e-06 0 0.044944224881979918 2.1180600815842495e-06 0 0.044942797609186937 4.9381214852604102e-06 0 0.044906948075602103 -3.7836107924958402e-06 0 0.044937168492735186 -6.7319508371550785e-06 0 0.044944224881979918 2.1180600815842495e-06 0 0.044906948075602103 -3.7836107924958402e-06 0 0.044944224881979918 2.1180600815842495e-06 0 0.044942797609186937 4.9381214852604102e-06 0 0.044906948075602103 -3.7836107924958402e-06 0 0.044929263234341349 8.077494440472632e-06 0 0.044942797609186937 4.9381214852604102e-06 0 0.04450088595315034 0.00022031652897771831 0 0.044502982929569487 0.00028877365268998716 0 0.044518651516186294 0.00024043877033338778 0 0.044929263234341349 8.077494440472632e-06 0 0.044942797609186937 4.9381214852604102e-06 0 0.044967887106409352 4.0962358515602051e-06 0 0.044964503541140961 4.1764229219453607e-06 0 0.044942797609186937 4.9381214852604102e-06 0 0.044967887106409352 4.0962358515602051e-06 0 0.044999958535733173 1.6149632672001835e-09 0 0.044967887106409352 4.0962358515602051e-06 0 0.044999954859126175 1.1243191128854928e-08 0 0.044929263234341349 8.077494440472632e-06 0 0.044999958535733173 1.6149632672001835e-09 0 0.044967887106409352 4.0962358515602051e-06 0 0.04474472204467967 0.00014425008028225522 0 0.044999875278090858 1.354318656863472e-07 0 0.044502982929569487 0.00028877365268998716 0 0.044999314286852068 7.6818684289889588e-08 0 0.044736110528053687 0.00013755949700347336 0 0.044964503541140961 4.1764229219453607e-06 0 0.044967887106409352 4.0962358515602051e-06 0 0.044999954859126175 1.1243191128854928e-08 0 0.044968954508782071 3.1729030699927605e-06 0 0.044964503541140961 4.1764229219453607e-06 0 0.044999954859126175 1.1243191128854928e-08 0 0.044999662160689492 1.115004717586442e-07 0 0.044564355823386387 0.00018026924302358833 0 0.044656549574835482 0.00010258957973145727 0 0.044999314286852068 7.6818684289889588e-08 0 0.044999662160689492 1.115004717586442e-07 0 0.044736110528053687 0.00013755949700347336 0 0.044999662160689492 1.115004717586442e-07 0 0.044736110528053687 0.00013755949700347336 0 0.044564355823386387 0.00018026924302358833 0 0.044736110528053687 0.00013755949700347336 0 0.044518651516186294 0.00024043877033338778 0 0.044564355823386387 0.00018026924302358833 0 0.044502982929569487 0.00028877365268998716 0 0.044736110528053687 0.00013755949700347336 0 0.044518651516186294 0.00024043877033338778 0 0.044518651516186294 0.00024043877033338778 0 0.044564355823386387 0.00018026924302358833 0 0.04432486432878787 0.00026705459924183467 0 0.044564355823386387 0.00018026924302358833 0 0.044190728013443634 0.00026691788801290191 0 0.044656549574835482 0.00010258957973145727 0 0.044190728013443634 0.00026691788801290191 0 0.04432486432878787 0.00026705459924183467 0 0.044095024019184512 0.00028187687655298636 0 0.044564355823386387 0.00018026924302358833 0 0.044190728013443634 0.00026691788801290191 0 0.04432486432878787 0.00026705459924183467 0 0.04450088595315034 0.00022031652897771831 0 0.044518651516186294 0.00024043877033338778 0 0.04432486432878787 0.00026705459924183467 0 0.044402276961640549 9.4572513895517708e-05 0 0.04432486432878787 0.00026705459924183467 0 0.044095024019184512 0.00028187687655298636 0 0.044174414234113377 5.348867174012472e-05 0 0.044042153875091805 0.00033660888904981983 0 0.043768887612105206 0.00049909070711116638 0 0.044095024019184512 0.00028187687655298636 0 0.043857252764018397 0.00049429936847495857 0 0.044095024019184512 0.00028187687655298636 0 0.043857252764018397 0.00049429936847495857 0 0.043786313954419377 0.00049976210826251056 0 0.044190728013443634 0.00026691788801290191 0 0.043786313954419377 0.00049976210826251056 0 0.043838264413548135 0.00043088697335114942 0 0.044190728013443634 0.00026691788801290191 0 0.044095024019184512 0.00028187687655298636 0 0.043786313954419377 0.00049976210826251056 0 0.044357043844820157 0.00018418531440186366 0 0.044479042816504777 0.00029765179616741792 0 0.043778992752995634 0.0004731208832325059 0 0.043838264413548135 0.00043088697335114942 0 0.044357043844820157 0.00018418531440186366 0 0.043778992752995634 0.0004731208832325059 0 0.044190728013443634 0.00026691788801290191 0 0.044357043844820157 0.00018418531440186366 0 0.044656549574835482 0.00010258957973145727 0 0.044190728013443634 0.00026691788801290191 0 0.043838264413548135 0.00043088697335114942 0 0.044357043844820157 0.00018418531440186366 0 0.044357043844820157 0.00018418531440186366 0 0.044756740122046668 5.2550931719023457e-05 0 0.044740602096606921 5.8606939709103752e-05 0 0.044357043844820157 0.00018418531440186366 0 0.044656549574835482 0.00010258957973145727 0 0.044756740122046668 5.2550931719023457e-05 0 0.044756740122046668 5.2550931719023457e-05 0 0.044999570582699801 3.1406643732599233e-08 0 0.044999728993715467 -4.838748484934909e-09 0 0.044999662160689492 1.115004717586442e-07 0 0.044656549574835482 0.00010258957973145727 0 0.044999570582699801 3.1406643732599233e-08 0 0.044656549574835482 0.00010258957973145727 0 0.044756740122046668 5.2550931719023457e-05 0 0.044999570582699801 3.1406643732599233e-08 0 0.044999952666886167 2.9652693134134378e-09 0 0.04490259325764967 3.5251409985787322e-05 0 0.044999897135040365 -6.3522951326246702e-09 0 0.044906401689450225 1.3582190254337054e-05 0 0.044891214256222882 4.1976864520528231e-05 0 0.044999897135040365 -6.3522951326246702e-09 0 0.044906401689450225 1.3582190254337054e-05 0 0.044999728993715467 -4.838748484934909e-09 0 0.044906401689450225 1.3582190254337054e-05 0 0.044999728993715467 -4.838748484934909e-09 0 0.044740602096606921 5.8606939709103752e-05 0 0.044756740122046668 5.2550931719023457e-05 0 0.044999728993715467 -4.838748484934909e-09 0 0.044740602096606921 5.8606939709103752e-05 0 0.044740602096606921 5.8606939709103752e-05 0 0.044891214256222882 4.1976864520528231e-05 0 0.044666168153314145 0.00014793332269051146 0 0.04490259325764967 3.5251409985787322e-05 0 0.044807861612556676 0.00017248443498647505 0 0.044906401689450225 1.3582190254337054e-05 0 0.044740602096606921 5.8606939709103752e-05 0 0.044891214256222882 4.1976864520528231e-05 0 0.044891214256222882 4.1976864520528231e-05 0 0.044791563912970858 0.00018848735611030293 0 0.044666168153314145 0.00014793332269051146 0 0.044791563912970858 0.00018848735611030293 0 0.044666168153314145 0.00014793332269051146 0 0.044479042816504777 0.00029765179616741792 0 0.044357043844820157 0.00018418531440186366 0 0.044740602096606921 5.8606939709103752e-05 0 0.044666168153314145 0.00014793332269051146 0 0.044357043844820157 0.00018418531440186366 0 0.044666168153314145 0.00014793332269051146 0 0.044479042816504777 0.00029765179616741792 0 0.044479042816504777 0.00029765179616741792 0 0.044732786957698036 0.00045970580864538598 0 0.044393688949778874 0.00075998112477740451 0 0.044479042816504777 0.00029765179616741792 0 0.044393688949778874 0.00075998112477740451 0 0.043778992752995634 0.0004731208832325059 0 0.044791563912970858 0.00018848735611030293 0 0.044479042816504777 0.00029765179616741792 0 0.044732786957698036 0.00045970580864538598 0 0.044819465896495825 0.00013001289327973896 0 0.044732786957698036 0.00045970580864538598 0 0.044867277314815601 0.00025015862014093605 0 0.044807861612556676 0.00017248443498647505 0 0.044750676325970129 0.00043285863310829896 0 0.042124449871255513 0.0013212890051395787 0 0.041438067461551473 0.001364812762737321 0 0.038676981693174538 0.0014913628423419421 0 0.039840847865487479 0.0019948587844815652 0 0.037944329804934132 0.0023224812265881124 0 0.044732786957698036 0.00045970580864538598 0 0.044393688949778874 0.00075998112477740451 0 0.044890394948280447 0.00038854058420561519 0 0.038676981693174538 0.0014913628423419421 0 0.039516081233796116 0.00030063846064758257 0 0.038198403806759908 0.00079597634331456243 0 0.039840847865487479 0.0019948587844815652 0 0.042686620728857851 0.00087558948464185157 0 0.039516081233796116 0.00030063846064758257 0 0.038676981693174538 0.0014913628423419421 0 0.039840847865487479 0.0019948587844815652 0 0.039516081233796116 0.00030063846064758257 0 0.042124449871255513 0.0013212890051395787 0 0.042704252508790723 0.00092079721843557551 0 0.044393688949778874 0.00075998112477740451 0 0.043778992752995634 0.0004731208832325059 0 0.042686620728857851 0.00087558948464185157 0 0.043778992752995634 0.0004731208832325059 0 0.043370305988634825 0.000675193142145086 0 0.042686620728857851 0.00087558948464185157 0 0.043838264413548135 0.00043088697335114942 0 0.043778992752995634 0.0004731208832325059 0 0.043370305988634825 0.000675193142145086 0 0.043375713940291029 0.00029407357838847264 0 0.043370305988634825 0.000675193142145086 0 0.042686620728857851 0.00087558948464185157 0 0.042686620728857851 0.00087558948464185157 0 0.041239852790287031 -0.00034222660766632405 0 0.039516081233796116 0.00030063846064758257 0 0.042686620728857851 0.00087558948464185157 0 0.041239852790287031 -0.00034222660766632405 0 0.042523165920922201 -0.00046741953587937696 0 0.043375713940291029 0.00029407357838847264 0 0.042686620728857851 0.00087558948464185157 0 0.042523165920922201 -0.00046741953587937696 0 0.041999383229342269 -0.0016888409659515111 0 0.042523165920922201 -0.00046741953587937696 0 0.041063348706200063 -0.0013549398249391076 0 0.041239852790287031 -0.00034222660766632405 0 0.042523165920922201 -0.00046741953587937696 0 0.041063348706200063 -0.0013549398249391076 0 0.041239852790287031 -0.00034222660766632405 0 0.041063348706200063 -0.0013549398249391076 0 0.03982564311418469 -0.0011182668244939895 0 0.03982564311418469 -0.0011182668244939895 0 0.038420244490865722 -0.00081183904883749955 0 0.039516081233796116 0.00030063846064758257 0 0.038011355593930311 -0.0021370637660121628 0 0.03982564311418469 -0.0011182668244939895 0 0.038420244490865722 -0.00081183904883749955 0 0.039516081233796116 0.00030063846064758257 0 0.038091758740661785 -5.5540745278863471e-05 0 0.038198403806759908 0.00079597634331456243 0 0.038420244490865722 -0.00081183904883749955 0 0.039516081233796116 0.00030063846064758257 0 0.038091758740661785 -5.5540745278863471e-05 0 0.041239852790287031 -0.00034222660766632405 0 0.03982564311418469 -0.0011182668244939895 0 0.039516081233796116 0.00030063846064758257 0 0.036613929285431515 6.4111287704262347e-05 0 0.037163049656657475 -0.0005924305857744743 0 0.036264560131143445 -0.0005438532031558093 0 0.036613929285431515 6.4111287704262347e-05 0 0.037322194025863696 0.00025366053879364214 0 0.037163049656657475 -0.0005924305857744743 0 0.036613929285431515 6.4111287704262347e-05 0 0.037322194025863696 0.00025366053879364214 0 0.036619508245265338 0.00077590868794165976 0 0.038420244490865722 -0.00081183904883749955 0 0.038091758740661785 -5.5540745278863471e-05 0 0.037163049656657475 -0.0005924305857744743 0 0.037322194025863696 0.00025366053879364214 0 0.038091758740661785 -5.5540745278863471e-05 0 0.037163049656657475 -0.0005924305857744743 0 0.037322194025863696 0.00025366053879364214 0 0.038091758740661785 -5.5540745278863471e-05 0 0.038198403806759908 0.00079597634331456243 0 0.037380639887322688 -0.0014945466397555465 0 0.038420244490865722 -0.00081183904883749955 0 0.037163049656657475 -0.0005924305857744743 0 0.036501097785974955 -0.0012966332218384018 0 0.037163049656657475 -0.0005924305857744743 0 0.036264560131143445 -0.0005438532031558093 0 0.036501097785974955 -0.0012966332218384018 0 0.037380639887322688 -0.0014945466397555465 0 0.037163049656657475 -0.0005924305857744743 0 0.035798219873627878 -0.0015620118737025024 0 0.036501097785974955 -0.0012966332218384018 0 0.035732691951500355 -0.00085977993404796958 0 0.036501097785974955 -0.0012966332218384018 0 0.035732691951500355 -0.00085977993404796958 0 0.036264560131143445 -0.0005438532031558093 0 0.035732691951500355 -0.00085977993404796958 0 0.036264560131143445 -0.0005438532031558093 0 0.035825244363870051 -0.00028996502645203982 0 0.031211044106136124 -0.00032817551248624929 0 0.032713025036406648 -0.00053230566792078927 0 0.031025010435901085 0.00046841877656186187 0 0.034167113289262925 -0.0010357724701657678 0 0.03315894252644698 -4.3393825499735188e-05 0 0.036244811578861863 -0.00099095258648061453 0 0.03315894252644698 -4.3393825499735188e-05 0 0.035798219873627878 -0.0015620118737025024 0 0.035732691951500355 -0.00085977993404796958 0 0.034390295152794306 -0.00061416754489006914 0 0.035732691951500355 -0.00085977993404796958 0 0.035352376332741249 -0.00021024605652448703 0 0.034754130998248409 -0.00057228963169517991 0 0.035732691951500355 -0.00085977993404796958 0 0.035352376332741249 -0.00021024605652448703 0 0.035825244363870051 -0.00028996502645203982 0 0.035352376332741249 -0.00021024605652448703 0 0.035825244363870051 -0.00028996502645203982 0 0.035783492769003916 0.00032472153926017887 0 0.035352376332741249 -0.00021024605652448703 0 0.035783492769003916 0.00032472153926017887 0 0.035288183245578329 0.00048723028710439262 0 0.035352376332741249 -0.00021024605652448703 0 0.035288183245578329 0.00048723028710439262 0 0.034711945089422575 0.00032086803709046642 0 0.036613929285431515 6.4111287704262347e-05 0 0.036264560131143445 -0.0005438532031558093 0 0.036139620327717621 4.490693583817431e-06 0 0.036264560131143445 -0.0005438532031558093 0 0.035825244363870051 -0.00028996502645203982 0 0.036139620327717621 4.490693583817431e-06 0 0.035825244363870051 -0.00028996502645203982 0 0.035783492769003916 0.00032472153926017887 0 0.036139620327717621 4.490693583817431e-06 0 0.035783492769003916 0.00032472153926017887 0 0.036139620327717621 4.490693583817431e-06 0 0.036246104967593895 0.00043407334347845183 0 0.036613929285431515 6.4111287704262347e-05 0 0.036139620327717621 4.490693583817431e-06 0 0.036246104967593895 0.00043407334347845183 0 0.036613929285431515 6.4111287704262347e-05 0 0.036246104967593895 0.00043407334347845183 0 0.036619508245265338 0.00077590868794165976 0 0.036246104967593895 0.00043407334347845183 0 0.036076972610766658 0.00090437440583197414 0 0.036619508245265338 0.00077590868794165976 0 0.035783492769003916 0.00032472153926017887 0 0.036246104967593895 0.00043407334347845183 0 0.036076972610766658 0.00090437440583197414 0 0.035783492769003916 0.00032472153926017887 0 0.036076972610766658 0.00090437440583197414 0 0.035635468013033467 0.00093504355158387199 0 0.036076972610766658 0.00090437440583197414 0 0.036321663162821927 0.0012266425029860797 0 0.035942717446807583 0.0013840523918829584 0 0.036076972610766658 0.00090437440583197414 0 0.035635468013033467 0.00093504355158387199 0 0.035942717446807583 0.0013840523918829584 0 0.036076972610766658 0.00090437440583197414 0 0.036321663162821927 0.0012266425029860797 0 0.036619508245265338 0.00077590868794165976 0 0.035288183245578329 0.00048723028710439262 0 0.035169262636535685 0.0010662521868198126 0 0.034711945089422575 0.00032086803709046642 0 0.035783492769003916 0.00032472153926017887 0 0.035288183245578329 0.00048723028710439262 0 0.035635468013033467 0.00093504355158387199 0 0.035635468013033467 0.00093504355158387199 0 0.035169262636535685 0.0010662521868198126 0 0.035562381375750379 0.0014339334762335856 0 0.035288183245578329 0.00048723028710439262 0 0.035635468013033467 0.00093504355158387199 0 0.035169262636535685 0.0010662521868198126 0 0.035169262636535685 0.0010662521868198126 0 0.035562381375750379 0.0014339334762335856 0 0.035335345599830127 0.0017574176406592562 0 0.035562381375750379 0.0014339334762335856 0 0.035855613058389871 0.0019204409491448849 0 0.035942717446807583 0.0013840523918829584 0 0.035635468013033467 0.00093504355158387199 0 0.035562381375750379 0.0014339334762335856 0 0.035942717446807583 0.0013840523918829584 0 0.035562381375750379 0.0014339334762335856 0 0.035855613058389871 0.0019204409491448849 0 0.035335345599830127 0.0017574176406592562 0 0.035855613058389871 0.0019204409491448849 0 0.035335345599830127 0.0017574176406592562 0 0.035598552996440588 0.0022299170344572488 0 0.036321663162821927 0.0012266425029860797 0 0.035942717446807583 0.0013840523918829584 0 0.036314219095863083 0.001695819601860857 0 0.036321663162821927 0.0012266425029860797 0 0.036314219095863083 0.001695819601860857 0 0.036673159175184558 0.0013516780134801519 0 0.035855613058389871 0.0019204409491448849 0 0.035942717446807583 0.0013840523918829584 0 0.036314219095863083 0.001695819601860857 0 0.035855613058389871 0.0019204409491448849 0 0.036314219095863083 0.001695819601860857 0 0.036307210567653063 0.0021207054330628166 0 0.036314219095863083 0.001695819601860857 0 0.036714243764419632 0.0020009399460313806 0 0.036307210567653063 0.0021207054330628166 0 0.036714243764419632 0.0020009399460313806 0 0.036730976060066284 0.001687360674160176 0 0.037112162635219152 0.0017057069729139694 0 0.036314219095863083 0.001695819601860857 0 0.036714243764419632 0.0020009399460313806 0 0.036730976060066284 0.001687360674160176 0 0.036714243764419632 0.0020009399460313806 0 0.037112162635219152 0.0017057069729139694 0 0.037211384381776992 0.0021263651771663227 0 0.037112162635219152 0.0017057069729139694 0 0.037510737184244879 0.0019371296610632761 0 0.037211384381776992 0.0021263651771663227 0 0.037112162635219152 0.0017057069729139694 0 0.036673159175184558 0.0013516780134801519 0 0.037260117492818087 0.0010685166857663567 0 0.036730976060066284 0.001687360674160176 0 0.037112162635219152 0.0017057069729139694 0 0.036673159175184558 0.0013516780134801519 0 0.036314219095863083 0.001695819601860857 0 0.036730976060066284 0.001687360674160176 0 0.036673159175184558 0.0013516780134801519 0 0.036321663162821927 0.0012266425029860797 0 0.036673159175184558 0.0013516780134801519 0 0.036619508245265338 0.00077590868794165976 0 0.036673159175184558 0.0013516780134801519 0 0.037260117492818087 0.0010685166857663567 0 0.036619508245265338 0.00077590868794165976 0 0.037322194025863696 0.00025366053879364214 0 0.037260117492818087 0.0010685166857663567 0 0.036619508245265338 0.00077590868794165976 0 0.037322194025863696 0.00025366053879364214 0 0.037260117492818087 0.0010685166857663567 0 0.038198403806759908 0.00079597634331456243 0 0.037260117492818087 0.0010685166857663567 0 0.038198403806759908 0.00079597634331456243 0 0.037788147834015282 0.0015923252955714511 0 0.038676981693174538 0.0014913628423419421 0 0.038198403806759908 0.00079597634331456243 0 0.037788147834015282 0.0015923252955714511 0 0.038676981693174538 0.0014913628423419421 0 0.037788147834015282 0.0015923252955714511 0 0.037944329804934132 0.0023224812265881124 0 0.037112162635219152 0.0017057069729139694 0 0.037260117492818087 0.0010685166857663567 0 0.037788147834015282 0.0015923252955714511 0 0.037112162635219152 0.0017057069729139694 0 0.037788147834015282 0.0015923252955714511 0 0.037510737184244879 0.0019371296610632761 0 0.037788147834015282 0.0015923252955714511 0 0.037510737184244879 0.0019371296610632761 0 0.037944329804934132 0.0023224812265881124 0 0.037510737184244879 0.0019371296610632761 0 0.037944329804934132 0.0023224812265881124 0 0.037211384381776992 0.0021263651771663227 0 0.044890394948280447 0.00038854058420561519 0 0.044979182181697989 0.00013706796650203614 0 0.044932163010247862 0.0001536857110512056 0 0.044890394948280447 0.00038854058420561519 0 0.044867277314815601 0.00025015862014093605 0 0.044932163010247862 0.0001536857110512056 0 0.044732786957698036 0.00045970580864538598 0 0.044890394948280447 0.00038854058420561519 0 0.044867277314815601 0.00025015862014093605 0 0.041438067461551473 0.001364812762737321 0 0.040858768699670901 0.0012810579691446453 0 0.044999446023752603 1.7584327103951199e-07 0 0.044991912870425532 1.2543832538386243e-05 0 0.045000709212690788 -3.1983878335184734e-07 0 0.037944329804934132 0.0023224812265881124 0 0.037211384381776992 0.0021263651771663227 0 0.036913513789820239 0.0025261953581443694 0 0.044890394948280447 0.00038854058420561519 0 0.044983240418815962 0.00019551330020025208 0 0.044979182181697989 0.00013706796650203614 0 0.036714243764419632 0.0020009399460313806 0 0.036913513789820239 0.0025261953581443694 0 0.036307210567653063 0.0021207054330628166 0 0.036714243764419632 0.0020009399460313806 0 0.037211384381776992 0.0021263651771663227 0 0.036913513789820239 0.0025261953581443694 0 0.044983240418815962 0.00019551330020025208 0 0.044979182181697989 0.00013706796650203614 0 0.04500293585770572 0.00012404998540013762 0 0.040858768699670901 0.0012810579691446453 0 0.043578347609691051 0.00037087689066888242 0 0.044986686336010842 6.6672377451311391e-05 0 0.044932163010247862 0.0001536857110512056 0 0.044955106554310877 4.9463924648012512e-05 0 0.044979182181697989 0.00013706796650203614 0 0.044986686336010842 6.6672377451311391e-05 0 0.045000056940685158 6.3848529211909174e-05 0 0.044979182181697989 0.00013706796650203614 0 0.045000056940685158 6.3848529211909174e-05 0 0.04500293585770572 0.00012404998540013762 0 0.044979182181697989 0.00013706796650203614 0 0.044986686336010842 6.6672377451311391e-05 0 0.044932163010247862 0.0001536857110512056 0 0.044819465896495825 0.00013001289327973896 0 0.044932163010247862 0.0001536857110512056 0 0.044955106554310877 4.9463924648012512e-05 0 0.044819465896495825 0.00013001289327973896 0 0.044867277314815601 0.00025015862014093605 0 0.044932163010247862 0.0001536857110512056 0 0.044913930672839553 2.8615428536142623e-05 0 0.044819465896495825 0.00013001289327973896 0 0.044955106554310877 4.9463924648012512e-05 0 0.044999446023752603 1.7584327103951199e-07 0 0.044968998613116311 1.8518719646227475e-05 0 0.044991912870425532 1.2543832538386243e-05 0 0.044913930672839553 2.8615428536142623e-05 0 0.044968998613116311 1.8518719646227475e-05 0 0.044955106554310877 4.9463924648012512e-05 0 0.044986686336010842 6.6672377451311391e-05 0 0.044955106554310877 4.9463924648012512e-05 0 0.044991912870425532 1.2543832538386243e-05 0 0.044968998613116311 1.8518719646227475e-05 0 0.044955106554310877 4.9463924648012512e-05 0 0.044991912870425532 1.2543832538386243e-05 0 0.044999446023752603 1.7584327103951199e-07 0 0.044913930672839553 2.8615428536142623e-05 0 0.044968998613116311 1.8518719646227475e-05 0 0.044991912870425532 1.2543832538386243e-05 0 0.044982447499286135 1.3387351945375625e-05 0 0.045000709212690788 -3.1983878335184734e-07 0 0.044991912870425532 1.2543832538386243e-05 0 0.044998523691968023 2.8273073810468034e-05 0 0.044982447499286135 1.3387351945375625e-05 0 0.044986686336010842 6.6672377451311391e-05 0 0.044991912870425532 1.2543832538386243e-05 0 0.044998523691968023 2.8273073810468034e-05 0 0.044982447499286135 1.3387351945375625e-05 0 0.04498333204418762 -3.6928726017500692e-05 0 0.044900458397867653 -1.1559613892513446e-06 0 0.044998523691968023 2.8273073810468034e-05 0 0.044982447499286135 1.3387351945375625e-05 0 0.04498333204418762 -3.6928726017500692e-05 0 0.043695141088293213 0.00014270541877732914 0 0.042984358031210902 0.00071779832307740724 0 0.044009257836815051 0.00041504056744036801 0 0.039169899282947625 0.0016432541031765288 0 0.039843676085163093 0.0013535403091810409 0 0.043695141088293213 0.00014270541877732914 0 0.042265823236973102 0.00074570794731700009 0 0.042984358031210902 0.00071779832307740724 0 0.04433718469526543 8.0531184869482561e-05 0 0.043578347609691051 0.00037087689066888242 0 0.044998523691968023 2.8273073810468034e-05 0 0.04498333204418762 -3.6928726017500692e-05 0 0.045000056940685158 6.3848529211909174e-05 0 0.04498333204418762 -3.6928726017500692e-05 0 0.045000056940685158 6.3848529211909174e-05 0 0.04500293585770572 0.00012404998540013762 0 0.044986686336010842 6.6672377451311391e-05 0 0.044998523691968023 2.8273073810468034e-05 0 0.045000056940685158 6.3848529211909174e-05 0 0.040858768699670901 0.0012810579691446453 0 0.039169899282947625 0.0016432541031765288 0 0.041853221155313279 0.00092647164585244542 0 0.042265823236973102 0.00074570794731700009 0 0.042984358031210902 0.00071779832307740724 0 0.036913513789820239 0.0025261953581443694 0 0.035858173756543592 0.0024907009040375993 0 0.036307210567653063 0.0021207054330628166 0 0.035855613058389871 0.0019204409491448849 0 0.035858173756543592 0.0024907009040375993 0 0.036307210567653063 0.0021207054330628166 0 0.035858173756543592 0.0024907009040375993 0 0.035641054486719649 0.0022898032586901548 0 0.035685202019632517 0.0021763569133009964 0 0.035858173756543592 0.0024907009040375993 0 0.035598552996440588 0.0022299170344572488 0 0.035641054486719649 0.0022898032586901548 0 0.035598552996440588 0.0022299170344572488 0 0.035641054486719649 0.0022898032586901548 0 0.035640213748089747 0.0022876567882741099 0 0.035294921955335359 0.0022687959245265392 0 0.03642988084542758 0.0013801143210515729 0 0.035855613058389871 0.0019204409491448849 0 0.035858173756543592 0.0024907009040375993 0 0.035598552996440588 0.0022299170344572488 0 0.035335345599830127 0.0017574176406592562 0 0.035598552996440588 0.0022299170344572488 0 0.035022511157072174 0.0025093455035182254 0 0.035641054486719649 0.0022898032586901548 0 0.035658856886389825 0.0023579047589293851 0 0.035685202019632517 0.0021763569133009964 0 0.036423350867249571 0.0014393426365279999 0 0.03642988084542758 0.0013801143210515729 0 0.039984951209065839 2.5926702066130867e-05 0 0.039972067922007491 1.5388738844158867e-05 0 0.039936049019669184 -4.2626822855633911e-06 0 0.039972067922007491 1.5388738844158867e-05 0 0.039936049019669184 -4.2626822855633911e-06 0 0.040000382942872142 4.9151646787138886e-05 0 0.044618131191532739 0.00018009439778301676 0 0.044690674966485974 -1.7313512928173986e-05 0 0.044429281772613662 -3.1349773358075706e-05 0 0.044618131191532739 0.00018009439778301676 0 0.044009257836815051 0.00041504056744036801 0 0.044690674966485974 -1.7313512928173986e-05 0 0.04433718469526543 8.0531184869482561e-05 0 0.044655760412502604 -2.1781425781965675e-05 0 0.043695141088293213 0.00014270541877732914 0 0.044009257836815051 0.00041504056744036801 0 0.044690674966485974 -1.7313512928173986e-05 0 0.035658856886389825 0.0023579047589293851 0 0.03655984406420279 0.0020212695774012271 0 0.035685202019632517 0.0021763569133009964 0 0.03642988084542758 0.0013801143210515729 0 0.040890089079586467 0.00050767978386664643 0 0.040890089079586467 0.00050767978386664643 0 0.039843676085163093 0.0013535403091810409 0 0.044690674966485974 -1.7313512928173986e-05 0 0.045000709212690788 -3.1983878335184734e-07 0 0.044995823323472732 1.5539268551474593e-06 0 0.044900458397867653 -1.1559613892513446e-06 0 0.044690674966485974 -1.7313512928173986e-05 0 0.045000709212690788 -3.1983878335184734e-07 0 0.04498333204418762 -3.6928726017500692e-05 0 0.044900458397867653 -1.1559613892513446e-06 0 0.044690674966485974 -1.7313512928173986e-05 0 0.044982447499286135 1.3387351945375625e-05 0 0.044900458397867653 -1.1559613892513446e-06 0 0.045000709212690788 -3.1983878335184734e-07 0 0.044690674966485974 -1.7313512928173986e-05 0 0.044995823323472732 1.5539268551474593e-06 0 0.044429281772613662 -3.1349773358075706e-05 0 0.043701022213810954 -0.00015073177419018855 0 0.043164224076466223 3.4132026149591755e-07 0 0.044995823323472732 1.5539268551474593e-06 0 0.044429281772613662 -3.1349773358075706e-05 0 0.043172054724852194 -2.4524220803055854e-06 0 0.04218984105997306 9.6937257909480024e-06 0 0.043159803612953372 -1.1940664235516968e-07 0 0.042016966244079114 1.2275563776576609e-07 0 0.042009242390095312 -1.384881678646354e-06 0 0.040408934862358456 1.0664296020091212e-06 0 0.040290849561862192 0.00014014021001469872 0 0.042009242390095312 -1.384881678646354e-06 0 0.040138404209593713 -0.0002316320456845264 0 0.040290849561862192 0.00014014021001469872 0 0.04218984105997306 9.6937257909480024e-06 0 0.042016966244079114 1.2275563776576609e-07 0 0.042183506695066049 -1.839917245662579e-05 0 0.042011496767914609 -7.0464975322381671e-08 0 0.041230393129957875 -9.8488110971615045e-05 0 0.040890089079586467 0.00050767978386664643 0 0.043701022213810954 -0.00015073177419018855 0 0.039936049019669184 -4.2626822855633911e-06 0 0.040138404209593713 -0.0002316320456845264 0 0.040000382942872142 4.9151646787138886e-05 0 0.040890089079586467 0.00050767978386664643 0 0.041230393129957875 -9.8488110971615045e-05 0 0.042196284603274424 -1.5573442280880497e-05 0 0.04218984105997306 9.6937257909480024e-06 0 0.042183506695066049 -1.839917245662579e-05 0 0.040138404209593713 -0.0002316320456845264 0 0.040000382942872142 4.9151646787138886e-05 0 0.040290849561862192 0.00014014021001469872 0 0.039972067922007491 1.5388738844158867e-05 0 0.040000382942872142 4.9151646787138886e-05 0 0.039943836977851477 0.00010461016616409708 0 0.040000382942872142 4.9151646787138886e-05 0 0.039943836977851477 0.00010461016616409708 0 0.040290849561862192 0.00014014021001469872 0 0.040408934862358456 1.0664296020091212e-06 0 0.039847340958028866 0.00014399847173574812 0 0.038808300655645951 -7.477728055638208e-07 0 0.040408934862358456 1.0664296020091212e-06 0 0.040290849561862192 0.00014014021001469872 0 0.039847340958028866 0.00014399847173574812 0 0.039943836977851477 0.00010461016616409708 0 0.040290849561862192 0.00014014021001469872 0 0.039847340958028866 0.00014399847173574812 0 0.038800904522623497 1.3815809646997521e-06 0 0.038211930197343771 -1.3410444828796055e-06 0 0.038664903891426336 -3.6536646573167088e-05 0 0.038808300655645951 -7.477728055638208e-07 0 0.039704417164494174 4.3649208122682359e-06 0 0.039807755283801538 -0.00034951384299683735 0 0.038805923939483143 4.0878799064946771e-08 0 0.039248887767758964 -0.000190605025370944 0 0.039847340958028866 0.00014399847173574812 0 0.038808300655645951 -7.477728055638208e-07 0 0.039704417164494174 4.3649208122682359e-06 0 0.039943836977851477 0.00010461016616409708 0 0.039847340958028866 0.00014399847173574812 0 0.039704417164494174 4.3649208122682359e-06 0 0.038206104399084333 2.515937490703313e-07 0 0.038107604298969172 -0.00016749770636409941 0 0.038211930197343771 -1.3410444828796055e-06 0 0.0386821847154495 -0.00024773894108683276 0 0.038664903891426336 -3.6536646573167088e-05 0 0.038201735967512696 -1.0092141267570569e-07 0 0.036753973182479985 0.00018223029809136745 0 0.035651075695813841 9.8136795033718011e-08 0 0.039248887767758964 -0.000190605025370944 0 0.039772907703648885 -0.00044673284209930411 0 0.038107604298969172 -0.00016749770636409941 0 0.036091212612511719 0.0001134465169892754 0 0.0386821847154495 -0.00024773894108683276 0 0.039811135131010589 -0.00042321278890635296 0 0.039801682148218942 -0.00053812521733718685 0 0.0386821847154495 -0.00024773894108683276 0 0.038664903891426336 -3.6536646573167088e-05 0 0.039811135131010589 -0.00042321278890635296 0 0.039807755283801538 -0.00034951384299683735 0 0.039843879128739684 -0.00031613297886507071 0 0.039811135131010589 -0.00042321278890635296 0 0.039807755283801538 -0.00034951384299683735 0 0.039862006164205405 -0.00025151312779628584 0 0.039843879128739684 -0.00031613297886507071 0 0.039843879128739684 -0.00031613297886507071 0 0.039904979064041585 -0.00019745858801622503 0 0.039811135131010589 -0.00042321278890635296 0 0.039862006164205405 -0.00025151312779628584 0 0.039843879128739684 -0.00031613297886507071 0 0.039904979064041585 -0.00019745858801622503 0 0.039972067922007491 1.5388738844158867e-05 0 0.039943836977851477 0.00010461016616409708 0 0.039894278505622972 -0.00010091421301814722 0 0.039972067922007491 1.5388738844158867e-05 0 0.039894278505622972 -0.00010091421301814722 0 0.039904979064041585 -0.00019745858801622503 0 0.039862006164205405 -0.00025151312779628584 0 0.039894278505622972 -0.00010091421301814722 0 0.039904979064041585 -0.00019745858801622503 0 0.039704417164494174 4.3649208122682359e-06 0 0.039807755283801538 -0.00034951384299683735 0 0.039894278505622972 -0.00010091421301814722 0 0.039807755283801538 -0.00034951384299683735 0 0.039862006164205405 -0.00025151312779628584 0 0.039894278505622972 -0.00010091421301814722 0 0.039943836977851477 0.00010461016616409708 0 0.039704417164494174 4.3649208122682359e-06 0 0.039894278505622972 -0.00010091421301814722 0 0.039984951209065839 2.5926702066130867e-05 0 0.039972067922007491 1.5388738844158867e-05 0 0.040037273100308635 -9.0810939669576341e-05 0 0.039972067922007491 1.5388738844158867e-05 0 0.040037273100308635 -9.0810939669576341e-05 0 0.039904979064041585 -0.00019745858801622503 0 0.03642988084542758 0.0013801143210515729 0 0.037379237745031713 0.00061281297247635965 0 0.035335345599830127 0.0017574176406592562 0 0.035022511157072174 0.0025093455035182254 0 0.03427893784508091 0.0013336374199855055 0 0.035169262636535685 0.0010662521868198126 0 0.035335345599830127 0.0017574176406592562 0 0.03427893784508091 0.0013336374199855055 0 0.035169262636535685 0.0010662521868198126 0 0.03427893784508091 0.0013336374199855055 0 0.034711945089422575 0.00032086803709046642 0 0.037379237745031713 0.00061281297247635965 0 0.036091212612511719 0.0001134465169892754 0 0.03427893784508091 0.0013336374199855055 0 0.033635943411954708 0.00022857203709783887 0 0.034711945089422575 0.00032086803709046642 0 0.040037273100308635 -9.0810939669576341e-05 0 0.039811135131010589 -0.00042321278890635296 0 0.039801682148218942 -0.00053812521733718685 0 0.040037273100308635 -9.0810939669576341e-05 0 0.039904979064041585 -0.00019745858801622503 0 0.039811135131010589 -0.00042321278890635296 0 0.034047770780342761 -0.00030686351675561534 0 0.033057625908393957 0.00036222902590504053 0 0.033680604593411934 0.00024857878000921439 0 0.036091212612511719 0.0001134465169892754 0 0.03315894252644698 -4.3393825499735188e-05 0 0.034047770780342761 -0.00030686351675561534 0 0.033680604593411934 0.00024857878000921439 0 0.034302299437074676 0.00013284940803662441 0 0.033635943411954708 0.00022857203709783887 0 0.034711945089422575 0.00032086803709046642 0 0.034754130998248409 -0.00057228963169517991 0 0.035352376332741249 -0.00021024605652448703 0 0.034711945089422575 0.00032086803709046642 0 0.034754130998248409 -0.00057228963169517991 0 0.03315894252644698 -4.3393825499735188e-05 0 0.031502722914427905 0.00045293633039931319 0 0.031025010435901085 0.00046841877656186187 0 0.030173719799863177 0.00050862596959048143 0 0.030399525909244846 5.368661721680274e-05 0 0.031211044106136124 -0.00032817551248624929 0 0.031025010435901085 0.00046841877656186187 0 0.030399525909244846 5.368661721680274e-05 0 0.029144316392569505 -0.00013686428750938755 0 0.032280632763600166 -0.00042005118609823085 0 0.030051378811461953 -0.00043096019505210081 0 0.030173719799863177 0.00050862596959048143 0 0.029489095706116897 0.00055163628530772589 0 0.030051378811461953 -0.00043096019505210081 0 0.030173719799863177 0.00050862596959048143 0 0.030399525909244846 5.368661721680274e-05 0 0.031502722914427905 0.00045293633039931319 0 0.033575140426086517 -0.00010733428648054191 0 0.030270775109358192 -0.00081924392402456204 0 0.029853423382297174 -0.00076579512035270425 0 0.030314852763523723 -0.001448179849033354 0 0.032226767570257095 -0.00034893490049033504 0 0.032280632763600166 -0.00042005118609823085 0 0.030173719799863177 0.00050862596959048143 0 0.029489095706116897 0.00055163628530772589 0 0.029531023814076612 0.00061851219275327047 0 0.030666296951018097 -0.00085840814086977218 0 0.030270775109358192 -0.00081924392402456204 0 0.030314852763523723 -0.001448179849033354 0 0.033877830819227017 -0.00010800471518792428 0 0.034446088706537661 0.0001065754013708619 0 0.033830401271121829 -0.00017215706343666086 0 0.032280632763600166 -0.00042005118609823085 0 0.033575140426086517 -0.00010733428648054191 0 0.033491333952192642 1.0152270304845363e-06 0 0.034446088706537661 0.0001065754013708619 0 0.035642724237096753 -1.0389130762684657e-06 0 0.034446088706537661 0.0001065754013708619 0 0.035642724237096753 -1.0389130762684657e-06 0 0.033830401271121829 -0.00017215706343666086 0 0.03396998827754185 7.7312204347948062e-05 0 0.033877830819227017 -0.00010800471518792428 0 0.034446088706537661 0.0001065754013708619 0 0.033491333952192642 1.0152270304845363e-06 0 0.03396998827754185 7.7312204347948062e-05 0 0.034446088706537661 0.0001065754013708619 0 0.035648732897031819 -5.7981689839483227e-07 0 0.033575140426086517 -0.00010733428648054191 0 0.035651075695813841 9.8136795033718011e-08 0 0.036738304919240933 -3.8029589914459903e-05 0 0.036946369582069226 -0.00049319878597376408 0 0.036753973182479985 0.00018223029809136745 0 0.035651075695813841 9.8136795033718011e-08 0 0.036738304919240933 -3.8029589914459903e-05 0 0.036753973182479985 0.00018223029809136745 0 0.037075475413114373 -3.7707842033799494e-05 0 0.036738304919240933 -3.8029589914459903e-05 0 0.037075475413114373 -3.7707842033799494e-05 0 0.036738304919240933 -3.8029589914459903e-05 0 0.036946369582069226 -0.00049319878597376408 0 0.036091212612511719 0.0001134465169892754 0 0.033575140426086517 -0.00010733428648054191 0 0.032163090997354565 -0.0079826727450761914 0 0.032112280188454037 -0.0081569353712100112 0 0.032078035456191804 -0.0082192483387351009 0 0.031458336326669362 -0.0071735387938350473 0 0.031703825343096258 -0.0076227257982820762 0 0.031818162585550459 -0.0078337296613627001 0 0.032163090997354565 -0.0079826727450761914 0 0.032078035456191804 -0.0082192483387351009 0 0.031818162585550459 -0.0078337296613627001 0 0.032163090997354565 -0.0079826727450761914 0 0.031820337605601504 -0.0072600105345807962 0 0.031360583860799721 -0.0064189353792570656 0 0.031431280900092819 -0.0061357902784886596 0 0.031005295482333793 -0.006034247455557834 0 0.030767749848244715 -0.006383344348080469 0 0.031360583860799721 -0.0064189353792570656 0 0.031005295482333793 -0.006034247455557834 0 0.031360583860799721 -0.0064189353792570656 0 0.031431280900092819 -0.0061357902784886596 0 0.031866111626799143 -0.0062057011174547361 0 0.031421310863025326 -0.0064369902680890103 0 0.031997177573558605 -0.0068976866161991456 0 0.031360583860799721 -0.0064189353792570656 0 0.031739134980080998 -0.0067599710751804791 0 0.031866111626799143 -0.0062057011174547361 0 0.031360583860799721 -0.0064189353792570656 0 0.031260781114163284 -0.0071042832857694171 0 0.03227224380818515 -0.0070122386156640393 0 0.030767749848244715 -0.006383344348080469 0 0.031360583860799721 -0.0064189353792570656 0 0.031260781114163284 -0.0071042832857694171 0 0.031260781114163284 -0.0071042832857694171 0 0.03227224380818515 -0.0070122386156640393 0 0.032227100884803489 -0.007531932348806814 0 0.031260781114163284 -0.0071042832857694171 0 0.032227100884803489 -0.007531932348806814 0 0.032134255931939755 -0.0080488193199827508 0 0.032227100884803489 -0.007531932348806814 0 0.032134255931939755 -0.0080488193199827508 0 0.032563078591498824 -0.0079240106222154758 0 0.031703825343096258 -0.0076227257982820762 0 0.032093146024691571 -0.0080348088674809855 0 0.032134255931939755 -0.0080488193199827508 0 0.032081302217686868 -0.0081399493142717081 0 0.03201164495668745 -0.0081052968142546183 0 0.032112280188454037 -0.0081569353712100112 0 0.032134255931939755 -0.0080488193199827508 0 0.032081302217686868 -0.0081399493142717081 0 0.032081302217686868 -0.0081399493142717081 0 0.032144594089198328 -0.0081394692497431427 0 0.032078035456191804 -0.0082192483387351009 0 0.032178291138916862 -0.0080960611958101995 0 0.032337986211158305 -0.0079394850259595379 0 0.032081302217686868 -0.0081399493142717081 0 0.032144594089198328 -0.0081394692497431427 0 0.03201164495668745 -0.0081052968142546183 0 0.032112280188454037 -0.0081569353712100112 0 0.032081302217686868 -0.0081399493142717081 0 0.032078035456191804 -0.0082192483387351009 0 0.032144594089198328 -0.0081394692497431427 0 0.032078035456191804 -0.0082192483387351009 0 0.032209796001903858 -0.0083507214149071939 0 0.032209796001903858 -0.0083507214149071939 0 0.032053921582077663 -0.0082893725100716444 0 0.03255638547509733 -0.008515337990999447 0 0.032209796001903858 -0.0083507214149071939 0 0.032053921582077663 -0.0082893725100716444 0 0.031875129139539951 -0.0082370221865968717 0 0.032053921582077663 -0.0082893725100716444 0 0.031875129139539951 -0.0082370221865968717 0 0.031544275249640673 -0.0081539543830431715 0 0.032078035456191804 -0.0082192483387351009 0 0.032209796001903858 -0.0083507214149071939 0 0.031875129139539951 -0.0082370221865968717 0 0.032216349084878262 -0.0083282986962779394 0 0.031806971825643543 -0.0081466037375423402 0 0.031876149002204146 -0.0082460882304227455 0 0.032053921582077663 -0.0082893725100716444 0 0.032216349084878262 -0.0083282986962779394 0 0.03255638547509733 -0.008515337990999447 0 0.032053921582077663 -0.0082893725100716444 0 0.032216349084878262 -0.0083282986962779394 0 0.03162030899819572 -0.0080945373108604092 0 0.032053921582077663 -0.0082893725100716444 0 0.03162030899819572 -0.0080945373108604092 0 0.031544275249640673 -0.0081539543830431715 0 0.031806971825643543 -0.0081466037375423402 0 0.03162030899819572 -0.0080945373108604092 0 0.03170031993635871 -0.0081197260426518255 0 0.032216349084878262 -0.0083282986962779394 0 0.031806971825643543 -0.0081466037375423402 0 0.03162030899819572 -0.0080945373108604092 0 0.03162030899819572 -0.0080945373108604092 0 0.03170031993635871 -0.0081197260426518255 0 0.031636289385433392 -0.0081444590889223761 0 0.03162030899819572 -0.0080945373108604092 0 0.030720817414774601 -0.0079927319750163293 0 0.031544275249640673 -0.0081539543830431715 0 0.030720817414774601 -0.0079927319750163293 0 0.029041384963272646 -0.0086626483525908907 0 0.028761800420507678 -0.0076064015431859342 0 0.03162030899819572 -0.0080945373108604092 0 0.030720817414774601 -0.0079927319750163293 0 0.031636289385433392 -0.0081444590889223761 0 0.030707619981419257 -0.0080493881449028287 0 0.030427857247480466 -0.0083280845087266939 0 0.032078035456191804 -0.0082192483387351009 0 0.031875129139539951 -0.0082370221865968717 0 0.031532473162197976 -0.0080348788385896045 0 0.031818162585550459 -0.0078337296613627001 0 0.032078035456191804 -0.0082192483387351009 0 0.031532473162197976 -0.0080348788385896045 0 0.031875129139539951 -0.0082370221865968717 0 0.031544275249640673 -0.0081539543830431715 0 0.031532473162197976 -0.0080348788385896045 0 0.030720817414774601 -0.0079927319750163293 0 0.031532473162197976 -0.0080348788385896045 0 0.030908574712982397 -0.0073150588276284494 0 0.030720817414774601 -0.0079927319750163293 0 0.031544275249640673 -0.0081539543830431715 0 0.031532473162197976 -0.0080348788385896045 0 0.031818162585550459 -0.0078337296613627001 0 0.031532473162197976 -0.0080348788385896045 0 0.030908574712982397 -0.0073150588276284494 0 0.031818162585550459 -0.0078337296613627001 0 0.030908574712982397 -0.0073150588276284494 0 0.031820337605601504 -0.0072600105345807962 0 0.030908574712982397 -0.0073150588276284494 0 0.029976325722006994 -0.0064079166756914165 0 0.030532899915321387 -0.0060606653983407213 0 0.030908574712982397 -0.0073150588276284494 0 0.030532899915321387 -0.0060606653983407213 0 0.031820337605601504 -0.0072600105345807962 0 0.030596926063064467 -0.0060913266792015693 0 0.03111933063808342 -0.0066210025311314253 0 0.030908574712982397 -0.0073150588276284494 0 0.029518452062618276 -0.0069664711057249584 0 0.029976325722006994 -0.0064079166756914165 0 0.030720817414774601 -0.0079927319750163293 0 0.030908574712982397 -0.0073150588276284494 0 0.029518452062618276 -0.0069664711057249584 0 0.030720817414774601 -0.0079927319750163293 0 0.029518452062618276 -0.0069664711057249584 0 0.028761800420507678 -0.0076064015431859342 0 0.029518452062618276 -0.0069664711057249584 0 0.028687379627514484 -0.0065944675677103368 0 0.028761800420507678 -0.0076064015431859342 0 0.029518452062618276 -0.0069664711057249584 0 0.029238691546171505 -0.0062462604348921943 0 0.028687379627514484 -0.0065944675677103368 0 0.029238691546171505 -0.0062462604348921943 0 0.028534404723798017 -0.006027089566782334 0 0.028687379627514484 -0.0065944675677103368 0 0.029238691546171505 -0.0062462604348921943 0 0.029976325722006994 -0.0064079166756914165 0 0.029756946650490078 -0.0057713232823291766 0 0.029518452062618276 -0.0069664711057249584 0 0.029238691546171505 -0.0062462604348921943 0 0.029976325722006994 -0.0064079166756914165 0 0.029238691546171505 -0.0062462604348921943 0 0.029756946650490078 -0.0057713232823291766 0 0.02901137989028247 -0.0056488532089299277 0 0.02901137989028247 -0.0056488532089299277 0 0.028534404723798017 -0.006027089566782334 0 0.02820308008386592 -0.0054837856336026848 0 0.029238691546171505 -0.0062462604348921943 0 0.02901137989028247 -0.0056488532089299277 0 0.028534404723798017 -0.006027089566782334 0 0.029976325722006994 -0.0064079166756914165 0 0.029756946650490078 -0.0057713232823291766 0 0.030532899915321387 -0.0060606653983407213 0 0.029938839960767853 -0.0055129728986583002 0 0.029756946650490078 -0.0057713232823291766 0 0.030532899915321387 -0.0060606653983407213 0 0.029938839960767853 -0.0055129728986583002 0 0.030532899915321387 -0.0060606653983407213 0 0.030424508130231929 -0.0058907220381882001 0 0.030051024180360288 -0.005586692231335697 0 0.029938839960767853 -0.0055129728986583002 0 0.030424508130231929 -0.0058907220381882001 0 0.030051024180360288 -0.005586692231335697 0 0.030337381574433008 -0.0057369986918684958 0 0.030424508130231929 -0.0058907220381882001 0 0.030321318573836378 -0.0054628651489461973 0 0.03055273468226781 -0.0058129762140399022 0 0.030337381574433008 -0.0057369986918684958 0 0.030424508130231929 -0.0058907220381882001 0 0.030591330038745972 -0.0058328317661261557 0 0.030304488609403695 -0.0051629818772288318 0 0.030591330038745972 -0.0058328317661261557 0 0.030785080055135382 -0.0054776566043144397 0 0.030532899915321387 -0.0060606653983407213 0 0.030424508130231929 -0.0058907220381882001 0 0.03046166110237487 -0.0059639387901393014 0 0.030424508130231929 -0.0058907220381882001 0 0.030591330038745972 -0.0058328317661261557 0 0.03046166110237487 -0.0059639387901393014 0 0.030591330038745972 -0.0058328317661261557 0 0.03046166110237487 -0.0059639387901393014 0 0.031005295482333793 -0.006034247455557834 0 0.030767749848244715 -0.006383344348080469 0 0.03046166110237487 -0.0059639387901393014 0 0.031005295482333793 -0.006034247455557834 0 0.031458336326669362 -0.0071735387938350473 0 0.03111933063808342 -0.0066210025311314253 0 0.031431280900092819 -0.0061357902784886596 0 0.031005295482333793 -0.006034247455557834 0 0.03150018892758584 -0.0059072289872528685 0 0.031431280900092819 -0.0061357902784886596 0 0.03150018892758584 -0.0059072289872528685 0 0.031866111626799143 -0.0062057011174547361 0 0.030591330038745972 -0.0058328317661261557 0 0.031005295482333793 -0.006034247455557834 0 0.030990293817395154 -0.005788652113360486 0 0.031005295482333793 -0.006034247455557834 0 0.030990293817395154 -0.005788652113360486 0 0.03150018892758584 -0.0059072289872528685 0 0.030990293817395154 -0.005788652113360486 0 0.03150018892758584 -0.0059072289872528685 0 0.031202168615323947 -0.0055382949118833024 0 0.03156737094448768 -0.0059463158924663376 0 0.031205174291323294 -0.0055870818823450154 0 0.031693800756799513 -0.0057095255705491748 0 0.031541549917971159 -0.0059266535489730385 0 0.031203388018569794 -0.0055558443396922785 0 0.030591330038745972 -0.0058328317661261557 0 0.030990293817395154 -0.005788652113360486 0 0.030785080055135382 -0.0054776566043144397 0 0.030990293817395154 -0.005788652113360486 0 0.031202168615323947 -0.0055382949118833024 0 0.030785080055135382 -0.0054776566043144397 0 0.030873454956588896 -0.00502714200829181 0 0.031202168615323947 -0.0055382949118833024 0 0.030785080055135382 -0.0054776566043144397 0 0.030873454956588896 -0.00502714200829181 0 0.030304488609403695 -0.0051629818772288318 0 0.030785080055135382 -0.0054776566043144397 0 0.031487592056881994 -0.0049116377772470254 0 0.03082075292987304 -0.0050934205386323483 0 0.031466002459065341 -0.0053426665570778303 0 0.030836979125302522 -0.0050528617238387169 0 0.031203388018569794 -0.0055558443396922785 0 0.03082075292987304 -0.0050934205386323483 0 0.031205174291323294 -0.0055870818823450154 0 0.031466002459065341 -0.0053426665570778303 0 0.031487592056881994 -0.0049116377772470254 0 0.031466002459065341 -0.0053426665570778303 0 0.031905581052841588 -0.0054088338382751802 0 0.031205174291323294 -0.0055870818823450154 0 0.031466002459065341 -0.0053426665570778303 0 0.031693800756799513 -0.0057095255705491748 0 0.031466002459065341 -0.0053426665570778303 0 0.031693800756799513 -0.0057095255705491748 0 0.031905581052841588 -0.0054088338382751802 0 0.031905581052841588 -0.0054088338382751802 0 0.032211756591549609 -0.005666635548606868 0 0.032064351097274457 -0.0058876036579090059 0 0.031693800756799513 -0.0057095255705491748 0 0.031905581052841588 -0.0054088338382751802 0 0.032064351097274457 -0.0058876036579090059 0 0.031905581052841588 -0.0054088338382751802 0 0.032288294515021861 -0.0052252699244502805 0 0.032211756591549609 -0.005666635548606868 0 0.031945060859023711 -0.0048941238222566319 0 0.031905581052841588 -0.0054088338382751802 0 0.032288294515021861 -0.0052252699244502805 0 0.032736966082868808 -0.0050081089527298679 0 0.032288294515021861 -0.0052252699244502805 0 0.032580114690815107 -0.0055529837881111944 0 0.032288294515021861 -0.0052252699244502805 0 0.032580114690815107 -0.0055529837881111944 0 0.032211756591549609 -0.005666635548606868 0 0.032580114690815107 -0.0055529837881111944 0 0.032211756591549609 -0.005666635548606868 0 0.032300173295830716 -0.0060557712139921059 0 0.032211756591549609 -0.005666635548606868 0 0.032300173295830716 -0.0060557712139921059 0 0.032064351097274457 -0.0058876036579090059 0 0.032335751408072273 -0.00624282550225285 0 0.032311608437608171 -0.0060293352044564711 0 0.032300173295830716 -0.0060557712139921059 0 0.032263659458907822 -0.0060708161019858596 0 0.032259555883441579 -0.0059876264969845154 0 0.032300173295830716 -0.0060557712139921059 0 0.031978440950563583 -0.0057885158619991562 0 0.032259555883441579 -0.0059876264969845154 0 0.032300173295830716 -0.0060557712139921059 0 0.032064351097274457 -0.0058876036579090059 0 0.032263659458907822 -0.0060708161019858596 0 0.031901701710915567 -0.0059992783549097902 0 0.031866111626799143 -0.0062057011174547361 0 0.032263659458907822 -0.0060708161019858596 0 0.031901701710915567 -0.0059992783549097902 0 0.032064351097274457 -0.0058876036579090059 0 0.032263659458907822 -0.0060708161019858596 0 0.03156737094448768 -0.0059463158924663376 0 0.031901701710915567 -0.0059992783549097902 0 0.031866111626799143 -0.0062057011174547361 0 0.031541549917971159 -0.0059266535489730385 0 0.031818907588978811 -0.0062029688518133964 0 0.03156737094448768 -0.0059463158924663376 0 0.031693800756799513 -0.0057095255705491748 0 0.031901701710915567 -0.0059992783549097902 0 0.031693800756799513 -0.0057095255705491748 0 0.031901701710915567 -0.0059992783549097902 0 0.032064351097274457 -0.0058876036579090059 0 0.030253313908851935 -0.006520577021608482 0 0.030494407932693885 -0.0066451764060105716 0 0.030321506243020799 -0.0068900575816111878 0 0.030494407932693885 -0.0066451764060105716 0 0.030664248556912927 -0.0066183019712782324 0 0.030680746962988354 -0.0064281767142366436 0 0.030494407932693885 -0.0066451764060105716 0 0.030638114191760501 -0.0068061129453985264 0 0.030664248556912927 -0.0066183019712782324 0 0.030494407932693885 -0.0066451764060105716 0 0.030473619662908583 -0.0068578369728428601 0 0.030638114191760501 -0.0068061129453985264 0 0.030494407932693885 -0.0066451764060105716 0 0.030473619662908583 -0.0068578369728428601 0 0.030321506243020799 -0.0068900575816111878 0 0.030321506243020799 -0.0068900575816111878 0 0.030311565327963117 -0.0071242390507543999 0 0.030419526875932103 -0.0070201140321273416 0 0.030209509000099662 -0.0071200577391222408 0 0.030321506243020799 -0.0068900575816111878 0 0.030311565327963117 -0.0071242390507543999 0 0.030260198980757904 -0.0072263066465577874 0 0.030209509000099662 -0.0071200577391222408 0 0.030311565327963117 -0.0071242390507543999 0 0.030311565327963117 -0.0071242390507543999 0 0.030419526875932103 -0.0070201140321273416 0 0.030418350568644718 -0.0071765543262518102 0 0.030473619662908583 -0.0068578369728428601 0 0.030321506243020799 -0.0068900575816111878 0 0.030419526875932103 -0.0070201140321273416 0 0.030473619662908583 -0.0068578369728428601 0 0.030419526875932103 -0.0070201140321273416 0 0.030564292837186705 -0.0070047796761592901 0 0.030419526875932103 -0.0070201140321273416 0 0.030564292837186705 -0.0070047796761592901 0 0.030418350568644718 -0.0071765543262518102 0 0.030599785382565227 -0.0071782665215249101 0 0.030744276615074253 -0.0070064101952342179 0 0.030564292837186705 -0.0070047796761592901 0 0.030418350568644718 -0.0071765543262518102 0 0.030803636325828426 -0.0070274836430595875 0 0.030204342933436001 -0.0072595399922569699 0 0.030418350568644718 -0.0071765543262518102 0 0.030803636325828426 -0.0070274836430595875 0 0.030997617680842283 -0.0071885811646693479 0 0.030803636325828426 -0.0070274836430595875 0 0.030937180652482226 -0.0071071144828782403 0 0.030803636325828426 -0.0070274836430595875 0 0.031089236047644634 -0.0069315280197928325 0 0.030937180652482226 -0.0071071144828782403 0 0.030803636325828426 -0.0070274836430595875 0 0.030850258786093501 -0.0067892492627019997 0 0.031089236047644634 -0.0069315280197928325 0 0.030850258786093501 -0.0067892492627019997 0 0.031090256040035343 -0.0067173893094118363 0 0.031089236047644634 -0.0069315280197928325 0 0.030803636325828426 -0.0070274836430595875 0 0.030850258786093501 -0.0067892492627019997 0 0.030638114191760501 -0.0068061129453985264 0 0.030473619662908583 -0.0068578369728428601 0 0.030564292837186705 -0.0070047796761592901 0 0.030638114191760501 -0.0068061129453985264 0 0.030564292837186705 -0.0070047796761592901 0 0.030803636325828426 -0.0070274836430595875 0 0.030638114191760501 -0.0068061129453985264 0 0.030850258786093501 -0.0067892492627019997 0 0.030638114191760501 -0.0068061129453985264 0 0.030859028857667781 -0.0065925970751269485 0 0.030638114191760501 -0.0068061129453985264 0 0.030664248556912927 -0.0066183019712782324 0 0.030859028857667781 -0.0065925970751269485 0 0.030850258786093501 -0.0067892492627019997 0 0.030859028857667781 -0.0065925970751269485 0 0.031090256040035343 -0.0067173893094118363 0 0.030859028857667781 -0.0065925970751269485 0 0.031090256040035343 -0.0067173893094118363 0 0.031190824688008649 -0.0064262799657667175 0 0.031090256040035343 -0.0067173893094118363 0 0.031430700953155914 -0.006698265800721085 0 0.031190824688008649 -0.0064262799657667175 0 0.031430700953155914 -0.006698265800721085 0 0.031089236047644634 -0.0069315280197928325 0 0.031414150184109466 -0.0070042256777124107 0 0.031090256040035343 -0.0067173893094118363 0 0.031430700953155914 -0.006698265800721085 0 0.031089236047644634 -0.0069315280197928325 0 0.031089236047644634 -0.0069315280197928325 0 0.030937180652482226 -0.0071071144828782403 0 0.031414150184109466 -0.0070042256777124107 0 0.030997617680842283 -0.0071885811646693479 0 0.030937180652482226 -0.0071071144828782403 0 0.030966427725355426 -0.0071713517444993097 0 0.030979142698001238 -0.0071381168731429355 0 0.031224430687100756 -0.007224830379255834 0 0.030937180652482226 -0.0071071144828782403 0 0.031463115637934212 -0.0074246399856580624 0 0.031414150184109466 -0.0070042256777124107 0 0.031894688421715917 -0.0076536029202884902 0 0.032078346142737801 -0.0068404991433901052 0 0.031463115637934212 -0.0074246399856580624 0 0.032197169053660921 -0.0060755132463553583 0 0.032335751408072273 -0.00624282550225285 0 0.032078346142737801 -0.0068404991433901052 0 0.031463115637934212 -0.0074246399856580624 0 0.031414150184109466 -0.0070042256777124107 0 0.032078346142737801 -0.0068404991433901052 0 0.031430700953155914 -0.006698265800721085 0 0.031679158189363753 -0.0062908254965521162 0 0.032078346142737801 -0.0068404991433901052 0 0.031430700953155914 -0.006698265800721085 0 0.031414150184109466 -0.0070042256777124107 0 0.032078346142737801 -0.0068404991433901052 0 0.032300173295830716 -0.0060557712139921059 0 0.031679158189363753 -0.0062908254965521162 0 0.032300173295830716 -0.0060557712139921059 0 0.031679158189363753 -0.0062908254965521162 0 0.031721614752851797 -0.0060057077245231957 0 0.032300173295830716 -0.0060557712139921059 0 0.031721614752851797 -0.0060057077245231957 0 0.031978440950563583 -0.0057885158619991562 0 0.031721614752851797 -0.0060057077245231957 0 0.031222782923454512 -0.0058715684075307025 0 0.031374803347732003 -0.0061409858145750583 0 0.032341419425816816 -0.0059402987061129156 0 0.033487070476636016 -0.0056349669769325175 0 0.031721614752851797 -0.0060057077245231957 0 0.031222782923454512 -0.0058715684075307025 0 0.031978440950563583 -0.0057885158619991562 0 0.031222782923454512 -0.0058715684075307025 0 0.031374803347732003 -0.0061409858145750583 0 0.03103384831441491 -0.0061826464538963198 0 0.031374803347732003 -0.0061409858145750583 0 0.031190824688008649 -0.0064262799657667175 0 0.03103384831441491 -0.0061826464538963198 0 0.031679158189363753 -0.0062908254965521162 0 0.031374803347732003 -0.0061409858145750583 0 0.031190824688008649 -0.0064262799657667175 0 0.031679158189363753 -0.0062908254965521162 0 0.031721614752851797 -0.0060057077245231957 0 0.031374803347732003 -0.0061409858145750583 0 0.031430700953155914 -0.006698265800721085 0 0.031679158189363753 -0.0062908254965521162 0 0.031190824688008649 -0.0064262799657667175 0 0.030859028857667781 -0.0065925970751269485 0 0.031190824688008649 -0.0064262799657667175 0 0.03088801217613726 -0.0063650911742038959 0 0.030664248556912927 -0.0066183019712782324 0 0.030859028857667781 -0.0065925970751269485 0 0.030680746962988354 -0.0064281767142366436 0 0.030859028857667781 -0.0065925970751269485 0 0.03088801217613726 -0.0063650911742038959 0 0.030680746962988354 -0.0064281767142366436 0 0.03088801217613726 -0.0063650911742038959 0 0.03103384831441491 -0.0061826464538963198 0 0.030745799091657394 -0.0061628734747437479 0 0.03088801217613726 -0.0063650911742038959 0 0.030745799091657394 -0.0061628734747437479 0 0.030680746962988354 -0.0064281767142366436 0 0.031190824688008649 -0.0064262799657667175 0 0.03088801217613726 -0.0063650911742038959 0 0.03103384831441491 -0.0061826464538963198 0 0.032341419425816816 -0.0059402987061129156 0 0.031398789936662723 -0.0063198243549533132 0 0.031133388249617908 -0.0059499300499296446 0 0.03103384831441491 -0.0061826464538963198 0 0.030745799091657394 -0.0061628734747437479 0 0.032341419425816816 -0.0059402987061129156 0 0.030462272841196212 -0.0062838333258928639 0 0.031264170359214534 -0.0059993167583906265 0 0.030954302779205054 -0.0059602177444163891 0 0.030745799091657394 -0.0061628734747437479 0 0.031264170359214534 -0.0059993167583906265 0 0.030954302779205054 -0.0059602177444163891 0 0.030928590110076756 -0.005695183009051771 0 0.030954302779205054 -0.0059602177444163891 0 0.030737601170049741 -0.0059362515261444952 0 0.030928590110076756 -0.005695183009051771 0 0.030954302779205054 -0.0059602177444163891 0 0.030745799091657394 -0.0061628734747437479 0 0.030737601170049741 -0.0059362515261444952 0 0.030745799091657394 -0.0061628734747437479 0 0.030493397958661676 -0.0060561631655130285 0 0.030487200765886877 -0.0063338819009275682 0 0.030745799091657394 -0.0061628734747437479 0 0.030737601170049741 -0.0059362515261444952 0 0.030493397958661676 -0.0060561631655130285 0 0.030309442381004328 -0.0059238849329755093 0 0.030493397958661676 -0.0060561631655130285 0 0.030582761702946232 -0.0057909095920188804 0 0.030737601170049741 -0.0059362515261444952 0 0.030493397958661676 -0.0060561631655130285 0 0.030582761702946232 -0.0057909095920188804 0 0.030281599122862591 -0.0061800171322365033 0 0.030493397958661676 -0.0060561631655130285 0 0.030487200765886877 -0.0063338819009275682 0 0.030745799091657394 -0.0061628734747437479 0 0.030487200765886877 -0.0063338819009275682 0 0.030680746962988354 -0.0064281767142366436 0 0.030494407932693885 -0.0066451764060105716 0 0.030487200765886877 -0.0063338819009275682 0 0.030680746962988354 -0.0064281767142366436 0 0.030253313908851935 -0.006520577021608482 0 0.030494407932693885 -0.0066451764060105716 0 0.030487200765886877 -0.0063338819009275682 0 0.039917491526777003 -0.0039167145509496088 0 0.039821801490052426 -0.0044006998929927467 0 0.039306008128743936 -0.0044748586374256617 0 0.036613383631470257 -0.0049711034914734081 0 0.032867265341481204 -0.0057318825662685431 0 0.037124144416298334 -0.0057722452615318245 0 0.036131539564857276 -0.0059584841195298686 0 0.03633235212195899 -0.0065717734948692137 0 0.030386885645426052 -0.0054093104861977787 0 0.03065144399770291 -0.0055628215678629155 0 0.03098173645782459 -0.0052611074058394004 0 0.036613383631470257 -0.0049711034914734081 0 0.037857782928630582 -0.0055736273778823108 0 0.030392387306678995 -0.005695013145156822 0 0.030386885645426052 -0.0054093104861977787 0 0.03065144399770291 -0.0055628215678629155 0 0.030392387306678995 -0.005695013145156822 0 0.030582761702946232 -0.0057909095920188804 0 0.03065144399770291 -0.0055628215678629155 0 0.030737601170049741 -0.0059362515261444952 0 0.030582761702946232 -0.0057909095920188804 0 0.030928590110076756 -0.005695183009051771 0 0.030582761702946232 -0.0057909095920188804 0 0.03065144399770291 -0.0055628215678629155 0 0.030928590110076756 -0.005695183009051771 0 0.030928590110076756 -0.005695183009051771 0 0.031179586158193724 -0.0054744542816381947 0 0.03098173645782459 -0.0052611074058394004 0 0.031264170359214534 -0.0059993167583906265 0 0.030928590110076756 -0.005695183009051771 0 0.031179586158193724 -0.0054744542816381947 0 0.03065144399770291 -0.0055628215678629155 0 0.030928590110076756 -0.005695183009051771 0 0.03098173645782459 -0.0052611074058394004 0 0.031179586158193724 -0.0054744542816381947 0 0.03098173645782459 -0.0052611074058394004 0 0.031327547395774417 -0.0053568675098948897 0 0.036131539564857276 -0.0059584841195298686 0 0.035731199294903114 -0.006557595775080291 0 0.03633235212195899 -0.0065717734948692137 0 0.036131539564857276 -0.0059584841195298686 0 0.035561787891794414 -0.006335113413384939 0 0.035731199294903114 -0.006557595775080291 0 0.03098173645782459 -0.0052611074058394004 0 0.031678612830792083 -0.0051222329456561749 0 0.031327547395774417 -0.0053568675098948897 0 0.031678612830792083 -0.0051222329456561749 0 0.031327547395774417 -0.0053568675098948897 0 0.031473798651796329 -0.0055724575734062334 0 0.032867265341481204 -0.0057318825662685431 0 0.03388950163498812 -0.0056651970534700984 0 0.036131539564857276 -0.0059584841195298686 0 0.035561787891794414 -0.006335113413384939 0 0.03510700829443672 -0.0061384512869442735 0 0.034992864536830627 -0.0063596061303284202 0 0.035138730392495009 -0.005804659894677505 0 0.034876535899134059 -0.0059945897465868781 0 0.03388950163498812 -0.0056651970534700984 0 0.03332810133009647 -0.0056435595065270046 0 0.032341419425816816 -0.0059402987061129156 0 0.03332810133009647 -0.0056435595065270046 0 0.031179586158193724 -0.0054744542816381947 0 0.031327547395774417 -0.0053568675098948897 0 0.031473798651796329 -0.0055724575734062334 0 0.031264170359214534 -0.0059993167583906265 0 0.031179586158193724 -0.0054744542816381947 0 0.031473798651796329 -0.0055724575734062334 0 0.035298801629155586 -0.0053463424176533212 0 0.035138730392495009 -0.005804659894677505 0 0.034653722507761046 -0.0056168489541848126 0 0.035138730392495009 -0.005804659894677505 0 0.034876535899134059 -0.0059945897465868781 0 0.034653722507761046 -0.0056168489541848126 0 0.034876535899134059 -0.0059945897465868781 0 0.034653722507761046 -0.0056168489541848126 0 0.034686225576415243 -0.0061888304458678168 0 0.034653722507761046 -0.0056168489541848126 0 0.034686225576415243 -0.0061888304458678168 0 0.03436987187297217 -0.0061783802469130697 0 0.034992864536830627 -0.0063596061303284202 0 0.034875579200786877 -0.006227608591453943 0 0.034686225576415243 -0.0061888304458678168 0 0.034992864536830627 -0.0063596061303284202 0 0.034876535899134059 -0.0059945897465868781 0 0.034875579200786877 -0.006227608591453943 0 0.034876535899134059 -0.0059945897465868781 0 0.034875579200786877 -0.006227608591453943 0 0.034686225576415243 -0.0061888304458678168 0 0.034992864536830627 -0.0063596061303284202 0 0.034686225576415243 -0.0061888304458678168 0 0.034547069130912572 -0.0065832221339335965 0 0.034686225576415243 -0.0061888304458678168 0 0.034547069130912572 -0.0065832221339335965 0 0.03436987187297217 -0.0061783802469130697 0 0.034805893433196462 -0.0069564498946759869 0 0.034232035147619536 -0.0071199392043774764 0 0.034389845378743601 -0.0073950463529065726 0 0.034547069130912572 -0.0065832221339335965 0 0.034805893433196462 -0.0069564498946759869 0 0.034232035147619536 -0.0071199392043774764 0 0.034992864536830627 -0.0063596061303284202 0 0.034547069130912572 -0.0065832221339335965 0 0.034805893433196462 -0.0069564498946759869 0 0.03388950163498812 -0.0056651970534700984 0 0.034785898724838782 -0.0068907687601575777 0 0.034805893433196462 -0.0069564498946759869 0 0.034596896998167842 -0.0074876213315935381 0 0.034389845378743601 -0.0073950463529065726 0 0.034596896998167842 -0.0074876213315935381 0 0.034389845378743601 -0.0073950463529065726 0 0.034356412240972405 -0.0076457848837649355 0 0.034600586993265757 -0.0077409157005448028 0 0.034596896998167842 -0.0074876213315935381 0 0.034356412240972405 -0.0076457848837649355 0 0.034600586993265757 -0.0077409157005448028 0 0.034596896998167842 -0.0074876213315935381 0 0.035045643725112201 -0.0072607294845026963 0 0.03484694669778951 -0.0067908138678011241 0 0.034596896998167842 -0.0074876213315935381 0 0.035045643725112201 -0.0072607294845026963 0 0.034785898724838782 -0.0068907687601575777 0 0.034624512078168961 -0.0073973135421650481 0 0.035045643725112201 -0.0072607294845026963 0 0.035517113438060119 -0.0074206860545458862 0 0.035272651913468886 -0.0066928137604386796 0 0.034195956095248628 -0.0078393145105276427 0 0.038683127084427484 -0.005768120155506506 0 0.034600586993265757 -0.0077409157005448028 0 0.035045643725112201 -0.0072607294845026963 0 0.035517113438060119 -0.0074206860545458862 0 0.035517113438060119 -0.0074206860545458862 0 0.035272651913468886 -0.0066928137604386796 0 0.035731199294903114 -0.006557595775080291 0 0.03484694669778951 -0.0067908138678011241 0 0.035045643725112201 -0.0072607294845026963 0 0.035272651913468886 -0.0066928137604386796 0 0.035561787891794414 -0.006335113413384939 0 0.03510700829443672 -0.0061384512869442735 0 0.035272651913468886 -0.0066928137604386796 0 0.03510700829443672 -0.0061384512869442735 0 0.03484694669778951 -0.0067908138678011241 0 0.035272651913468886 -0.0066928137604386796 0 0.035561787891794414 -0.006335113413384939 0 0.035272651913468886 -0.0066928137604386796 0 0.035731199294903114 -0.006557595775080291 0 0.038683127084427484 -0.005768120155506506 0 0.037857782928630582 -0.0055736273778823108 0 0.035517113438060119 -0.0074206860545458862 0 0.035731199294903114 -0.006557595775080291 0 0.03633235212195899 -0.0065717734948692137 0 0.038683118704173895 -0.0050844349218370421 0 0.039306008128743936 -0.0044748586374256617 0 0.039511799669059711 -0.0047902255142595607 0 0.043829439590479004 -0.0038657445866608011 0 0.04260805402031223 -0.0042656949859164375 0 0.04297360430595594 -0.0034959651464490601 0 0.038683127084427484 -0.005768120155506506 0 0.041635075738941055 -0.0043122240597014668 0 0.042303234583032687 -0.0035825077945281394 0 0.04260805402031223 -0.0042656949859164375 0 0.04297360430595594 -0.0034959651464490601 0 0.041903043100474678 -0.004055973767515742 0 0.042303234583032687 -0.0035825077945281394 0 0.04260805402031223 -0.0042656949859164375 0 0.039821801490052426 -0.0044006998929927467 0 0.039306008128743936 -0.0044748586374256617 0 0.039511799669059711 -0.0047902255142595607 0 0.031739134980080998 -0.0067599710751804791 0 0.032518225906817549 -0.0063742938524222765 0 0.031866111626799143 -0.0062057011174547361 0 0.032518225906817549 -0.0063742938524222765 0 0.031866111626799143 -0.0062057011174547361 0 0.032263659458907822 -0.0060708161019858596 0 0.032518225906817549 -0.0063742938524222765 0 0.032263659458907822 -0.0060708161019858596 0 0.032325905646633409 -0.0060411031141167091 0 0.032263659458907822 -0.0060708161019858596 0 0.032325905646633409 -0.0060411031141167091 0 0.032259555883441579 -0.0059876264969845154 0 0.033487070476636016 -0.0056349669769325175 0 0.03298282281054795 -0.0060033439027771173 0 0.034653722507761046 -0.0056168489541848126 0 0.033801169599419423 -0.0058831511118250532 0 0.03436987187297217 -0.0061783802469130697 0 0.031978440950563583 -0.0057885158619991562 0 0.032325905646633409 -0.0060411031141167091 0 0.032259555883441579 -0.0059876264969845154 0 0.033801169599419423 -0.0058831511118250532 0 0.03436987187297217 -0.0061783802469130697 0 0.034013994202596036 -0.0065812216527872981 0 0.034547069130912572 -0.0065832221339335965 0 0.03436987187297217 -0.0061783802469130697 0 0.034013994202596036 -0.0065812216527872981 0 0.032518225906817549 -0.0063742938524222765 0 0.033801169599419423 -0.0058831511118250532 0 0.033377920590726702 -0.0066228987206910636 0 0.032543853106070324 -0.0063308449072695906 0 0.03298282281054795 -0.0060033439027771173 0 0.033801169599419423 -0.0058831511118250532 0 0.034013994202596036 -0.0065812216527872981 0 0.033377920590726702 -0.0066228987206910636 0 0.033377920590726702 -0.0066228987206910636 0 0.033679793740039002 -0.007118248699311663 0 0.032873349664914196 -0.0070272393638719424 0 0.034013994202596036 -0.0065812216527872981 0 0.033377920590726702 -0.0066228987206910636 0 0.033679793740039002 -0.007118248699311663 0 0.034547069130912572 -0.0065832221339335965 0 0.034013994202596036 -0.0065812216527872981 0 0.034232035147619536 -0.0071199392043774764 0 0.034013994202596036 -0.0065812216527872981 0 0.033679793740039002 -0.007118248699311663 0 0.034232035147619536 -0.0071199392043774764 0 0.034232035147619536 -0.0071199392043774764 0 0.034389845378743601 -0.0073950463529065726 0 0.034192339442759699 -0.0075576046921228624 0 0.034232035147619536 -0.0071199392043774764 0 0.034192339442759699 -0.0075576046921228624 0 0.033889669240251677 -0.0075298463209525109 0 0.033679793740039002 -0.007118248699311663 0 0.034232035147619536 -0.0071199392043774764 0 0.033889669240251677 -0.0075298463209525109 0 0.034192339442759699 -0.0075576046921228624 0 0.034356412240972405 -0.0076457848837649355 0 0.034056583805810461 -0.0079865059107619499 0 0.034192339442759699 -0.0075576046921228624 0 0.033889669240251677 -0.0075298463209525109 0 0.034056583805810461 -0.0079865059107619499 0 0.034389845378743601 -0.0073950463529065726 0 0.034192339442759699 -0.0075576046921228624 0 0.034356412240972405 -0.0076457848837649355 0 0.033679793740039002 -0.007118248699311663 0 0.033522168771617442 -0.0076329798033204109 0 0.032873349664914196 -0.0070272393638719424 0 0.033679793740039002 -0.007118248699311663 0 0.033889669240251677 -0.0075298463209525109 0 0.033522168771617442 -0.0076329798033204109 0 0.033889669240251677 -0.0075298463209525109 0 0.033522168771617442 -0.0076329798033204109 0 0.03384506399374794 -0.0079385967094169896 0 0.033522168771617442 -0.0076329798033204109 0 0.032508624432095644 -0.0075322335819880638 0 0.033852075143960936 -0.0082278011671047743 0 0.033522168771617442 -0.0076329798033204109 0 0.032508624432095644 -0.0075322335819880638 0 0.032873349664914196 -0.0070272393638719424 0 0.032518225906817549 -0.0063742938524222765 0 0.033377920590726702 -0.0066228987206910636 0 0.032873349664914196 -0.0070272393638719424 0 0.031739134980080998 -0.0067599710751804791 0 0.032518225906817549 -0.0063742938524222765 0 0.032873349664914196 -0.0070272393638719424 0 0.031739134980080998 -0.0067599710751804791 0 0.032508624432095644 -0.0075322335819880638 0 0.032873349664914196 -0.0070272393638719424 0 0.031997177573558605 -0.0068976866161991456 0 0.03281169400943644 -0.0075824899497630655 0 0.03227224380818515 -0.0070122386156640393 0 0.032227100884803489 -0.007531932348806814 0 0.033043598370193182 -0.0076588870593711509 0 0.032227100884803489 -0.007531932348806814 0 0.033043598370193182 -0.0076588870593711509 0 0.032563078591498824 -0.0079240106222154758 0 0.033043598370193182 -0.0076588870593711509 0 0.032563078591498824 -0.0079240106222154758 0 0.033228194064258025 -0.0081096782396316482 0 0.032134255931939755 -0.0080488193199827508 0 0.032563078591498824 -0.0079240106222154758 0 0.032655146765719192 -0.0083749501228224596 0 0.032563078591498824 -0.0079240106222154758 0 0.032655146765719192 -0.0083749501228224596 0 0.033228194064258025 -0.0081096782396316482 0 0.034237946730123106 -0.0082277582176807466 0 0.034298034522392926 -0.0082675484559815871 0 0.034187469529466066 -0.0082207473943884252 0 0.034912256393077906 -0.0079891730652900169 0 0.035462038082710708 -0.0081358897677227243 0 0.033976923957650965 -0.0080094614835116151 0 0.034187469529466066 -0.0082207473943884252 0 0.033132102402929756 -0.0084912281841468314 0 0.034187469529466066 -0.0082207473943884252 0 0.034403307530630409 -0.0082462183621814233 0 0.034912256393077906 -0.0079891730652900169 0 0.034187469529466066 -0.0082207473943884252 0 0.034403307530630409 -0.0082462183621814233 0 0.034156537102076209 -0.0084048350235592095 0 0.03281169400943644 -0.0075824899497630655 0 0.033737206566300207 -0.0082127234785521249 0 0.032655146765719192 -0.0083749501228224596 0 0.033228194064258025 -0.0081096782396316482 0 0.034156537102076209 -0.0084048350235592095 0 0.033304404698192305 -0.008181531673073927 0 0.034080857900959625 -0.0083892487818078114 0 0.033228194064258025 -0.0081096782396316482 0 0.033852075143960936 -0.0082278011671047743 0 0.034156537102076209 -0.0084048350235592095 0 0.033043598370193182 -0.0076588870593711509 0 0.033228194064258025 -0.0081096782396316482 0 0.033852075143960936 -0.0082278011671047743 0 0.033976923957650965 -0.0080094614835116151 0 0.034187469529466066 -0.0082207473943884252 0 0.034156537102076209 -0.0084048350235592095 0 0.033522168771617442 -0.0076329798033204109 0 0.03384506399374794 -0.0079385967094169896 0 0.033852075143960936 -0.0082278011671047743 0 0.033889669240251677 -0.0075298463209525109 0 0.03384506399374794 -0.0079385967094169896 0 0.034056583805810461 -0.0079865059107619499 0 0.03384506399374794 -0.0079385967094169896 0 0.034028892561838268 -0.0082632439318336831 0 0.034056583805810461 -0.0079865059107619499 0 0.034028892561838268 -0.0082632439318336831 0 0.034056583805810461 -0.0079865059107619499 0 0.034130790733113744 -0.0082631919472737434 0 0.034028892561838268 -0.0082632439318336831 0 0.033852075143960936 -0.0082278011671047743 0 0.034156537102076209 -0.0084048350235592095 0 0.03384506399374794 -0.0079385967094169896 0 0.034028892561838268 -0.0082632439318336831 0 0.033852075143960936 -0.0082278011671047743 0 0.034600586993265757 -0.0077409157005448028 0 0.034356412240972405 -0.0076457848837649355 0 0.034056583805810461 -0.0079865059107619499 0 0.034986656771899098 -0.0074150796307965441 0 0.034056583805810461 -0.0079865059107619499 0 0.034575904687268434 -0.0079332938366078621 0 0.034195956095248628 -0.0078393145105276427 0 0.034354277355977986 -0.0078395433025297469 0 0.034056583805810461 -0.0079865059107619499 0 0.034374823552438358 -0.008155004325354499 0 0.034130790733113744 -0.0082631919472737434 0 0.034056583805810461 -0.0079865059107619499 0 0.034374823552438358 -0.008155004325354499 0 0.034575904687268434 -0.0079332938366078621 0 0.034374823552438358 -0.008155004325354499 0 0.034575904687268434 -0.0079332938366078621 0 0.034930855201486199 -0.0081625355092368769 0 0.034374823552438358 -0.008155004325354499 0 0.034125161932642631 -0.0084136208050123364 0 0.034930855201486199 -0.0081625355092368769 0 0.037762335108720665 -0.0058582711310901812 0 0.040499817092880211 -0.0052026652520725056 0 0.045357714066420744 -0.002120675302473674 0 0.044803270828122431 -0.0028412803818260242 0 0.044897288318259253 -0.002351741201707207 0 0.034125161932642631 -0.0084136208050123364 0 0.033998006639040255 -0.0085673231000586228 0 0.034930855201486199 -0.0081625355092368769 0 0.034374823552438358 -0.008155004325354499 0 0.034125161932642631 -0.0084136208050123364 0 0.034130790733113744 -0.0082631919472737434 0 0.035732906384878353 -0.0084456881785556544 0 0.037762335108720665 -0.0058582711310901812 0 0.034156537102076209 -0.0084048350235592095 0 0.03409502585856436 -0.0083594947816885423 0 0.03421450871713267 -0.0083013746063706813 0 0.034028892561838268 -0.0082632439318336831 0 0.034156537102076209 -0.0084048350235592095 0 0.03409502585856436 -0.0083594947816885423 0 0.034028892561838268 -0.0082632439318336831 0 0.034130790733113744 -0.0082631919472737434 0 0.03409502585856436 -0.0083594947816885423 0 0.034125161932642631 -0.0084136208050123364 0 0.034130790733113744 -0.0082631919472737434 0 0.03409502585856436 -0.0083594947816885423 0 0.03409502585856436 -0.0083594947816885423 0 0.034072089892379982 -0.008327533123708309 0 0.03421450871713267 -0.0083013746063706813 0 0.034125161932642631 -0.0084136208050123364 0 0.03409502585856436 -0.0083594947816885423 0 0.034072089892379982 -0.008327533123708309 0 0.034125161932642631 -0.0084136208050123364 0 0.034072089892379982 -0.008327533123708309 0 0.03398854025854698 -0.0082210475578968351 0 0.034072089892379982 -0.008327533123708309 0 0.03421450871713267 -0.0083013746063706813 0 0.034080639828658048 -0.0082300436023890998 0 0.034403307530630409 -0.0082462183621814233 0 0.03421450871713267 -0.0083013746063706813 0 0.034575853429108357 -0.0081056653233659518 0 0.034403307530630409 -0.0082462183621814233 0 0.034156537102076209 -0.0084048350235592095 0 0.03421450871713267 -0.0083013746063706813 0 0.033663776389274598 -0.0083888169055514172 0 0.033943903582129877 -0.0080115362201366568 0 0.034101861787268116 -0.006182310870077673 0 0.034080639828658048 -0.0082300436023890998 0 0.033943903582129877 -0.0080115362201366568 0 0.034575853429108357 -0.0081056653233659518 0 0.037762335108720665 -0.0058582711310901812 0 0.040155053077719216 -0.0036231058198242763 0 0.03421450871713267 -0.0083013746063706813 0 0.034080639828658048 -0.0082300436023890998 0 0.034575853429108357 -0.0081056653233659518 0 0.033943903582129877 -0.0080115362201366568 0 0.034101861787268116 -0.006182310870077673 0 0.034575853429108357 -0.0081056653233659518 0 0.034080639828658048 -0.0082300436023890998 0 0.03398854025854698 -0.0082210475578968351 0 0.033943903582129877 -0.0080115362201366568 0 0.034072089892379982 -0.008327533123708309 0 0.034080639828658048 -0.0082300436023890998 0 0.03398854025854698 -0.0082210475578968351 0 0.037762335108720665 -0.0058582711310901812 0 0.035196045053716506 -0.0078883418372320199 0 0.045357714066420744 -0.002120675302473674 0 0.045139050079012116 -0.0018090629090011237 0 0.044900335314654392 -0.0020838096172271364 0 0.045357714066420744 -0.002120675302473674 0 0.044897288318259253 -0.002351741201707207 0 0.044900335314654392 -0.0020838096172271364 0 0.045357714066420744 -0.002120675302473674 0 0.045139050079012116 -0.0018090629090011237 0 0.045288989109571423 -0.0016225789337125174 0 0.045139050079012116 -0.0018090629090011237 0 0.044900335314654392 -0.0020838096172271364 0 0.044930152875998858 -0.0018366738875232641 0 0.045061023919079915 -0.001578348941889801 0 0.044883214803214146 -0.0013199463755095195 0 0.045229897064733231 -0.0013000582540322399 0 0.045139050079012116 -0.0018090629090011237 0 0.045061023919079915 -0.001578348941889801 0 0.044930152875998858 -0.0018366738875232641 0 0.045139050079012116 -0.0018090629090011237 0 0.045061023919079915 -0.001578348941889801 0 0.045288989109571423 -0.0016225789337125174 0 0.045061023919079915 -0.001578348941889801 0 0.045288989109571423 -0.0016225789337125174 0 0.045229897064733231 -0.0013000582540322399 0 0.045357714066420744 -0.002120675302473674 0 0.045288989109571423 -0.0016225789337125174 0 0.045573865494498614 -0.001448718708055786 0 0.045288989109571423 -0.0016225789337125174 0 0.045573865494498614 -0.001448718708055786 0 0.045229897064733231 -0.0013000582540322399 0 0.034101861787268116 -0.006182310870077673 0 0.034575853429108357 -0.0081056653233659518 0 0.035235571475397139 -0.0077957219761106847 0 0.034101861787268116 -0.006182310870077673 0 0.035235571475397139 -0.0077957219761106847 0 0.037132837405640669 -0.005151060422350146 0 0.035484929657253389 -0.0077864092182780139 0 0.037795873274152778 -0.007361335377506076 0 0.037132837405640669 -0.005151060422350146 0 0.040021384032218388 -0.0047432744572478919 0 0.040615970655063657 -0.0071872388976771352 0 0.035235571475397139 -0.0077957219761106847 0 0.037132837405640669 -0.005151060422350146 0 0.040615970655063657 -0.0071872388976771352 0 0.034912256393077906 -0.0079891730652900169 0 0.035364836356452503 -0.0075704068728954209 0 0.035462038082710708 -0.0081358897677227243 0 0.034912256393077906 -0.0079891730652900169 0 0.035235571475397139 -0.0077957219761106847 0 0.035364836356452503 -0.0075704068728954209 0 0.034912256393077906 -0.0079891730652900169 0 0.034809660010779266 -0.0080507942830091907 0 0.035235571475397139 -0.0077957219761106847 0 0.034403307530630409 -0.0082462183621814233 0 0.034912256393077906 -0.0079891730652900169 0 0.034809660010779266 -0.0080507942830091907 0 0.034403307530630409 -0.0082462183621814233 0 0.034809660010779266 -0.0080507942830091907 0 0.034575853429108357 -0.0081056653233659518 0 0.034809660010779266 -0.0080507942830091907 0 0.034575853429108357 -0.0081056653233659518 0 0.035235571475397139 -0.0077957219761106847 0 0.042067473532671457 -0.0021739755983543646 0 0.04286664455689522 -0.002218551869754417 0 0.042581900586104456 -0.0028870241713963942 0 0.041842958177867387 -0.0029463864380281082 0 0.042303234583032687 -0.0035825077945281394 0 0.042581900586104456 -0.0028870241713963942 0 0.042303234583032687 -0.0035825077945281394 0 0.042581900586104456 -0.0028870241713963942 0 0.04297360430595594 -0.0034959651464490601 0 0.042581900586104456 -0.0028870241713963942 0 0.043550582820390461 -0.0028699980814309071 0 0.04297360430595594 -0.0034959651464490601 0 0.043829439590479004 -0.0038657445866608011 0 0.043550582820390461 -0.0028699980814309071 0 0.04297360430595594 -0.0034959651464490601 0 0.04286664455689522 -0.002218551869754417 0 0.042581900586104456 -0.0028870241713963942 0 0.043550582820390461 -0.0028699980814309071 0 0.04286664455689522 -0.002218551869754417 0 0.043550582820390461 -0.0028699980814309071 0 0.043519929331964267 -0.0018314942588372361 0 0.043550582820390461 -0.0028699980814309071 0 0.044170093441414253 -0.0029792079146524464 0 0.044478208933941873 -0.0023516492493859515 0 0.044439312916260076 -0.0023083743274308704 0 0.043884799892515827 -0.001934435750129897 0 0.043550582820390461 -0.0028699980814309071 0 0.044478208933941873 -0.0023516492493859515 0 0.043519929331964267 -0.0018314942588372361 0 0.043829439590479004 -0.0038657445866608011 0 0.044170093441414253 -0.0029792079146524464 0 0.044803270828122431 -0.0028412803818260242 0 0.043829439590479004 -0.0038657445866608011 0 0.043550582820390461 -0.0028699980814309071 0 0.044170093441414253 -0.0029792079146524464 0 0.034986656771899098 -0.0074150796307965441 0 0.036313023196738299 -0.0069891985849800525 0 0.034930855201486199 -0.0081625355092368769 0 0.038683127084427484 -0.005768120155506506 0 0.040499817092880211 -0.0052026652520725056 0 0.034986656771899098 -0.0074150796307965441 0 0.034575904687268434 -0.0079332938366078621 0 0.034930855201486199 -0.0081625355092368769 0 0.044803270828122431 -0.0028412803818260242 0 0.044478208933941873 -0.0023516492493859515 0 0.044897288318259253 -0.002351741201707207 0 0.044170093441414253 -0.0029792079146524464 0 0.044803270828122431 -0.0028412803818260242 0 0.044478208933941873 -0.0023516492493859515 0 0.044478208933941873 -0.0023516492493859515 0 0.044897288318259253 -0.002351741201707207 0 0.044900335314654392 -0.0020838096172271364 0 0.044478208933941873 -0.0023516492493859515 0 0.044900335314654392 -0.0020838096172271364 0 0.044601267358455057 -0.0019013301154058317 0 0.044900335314654392 -0.0020838096172271364 0 0.044601267358455057 -0.0019013301154058317 0 0.044930152875998858 -0.0018366738875232641 0 0.044601267358455057 -0.0019013301154058317 0 0.044930152875998858 -0.0018366738875232641 0 0.044832805138014499 -0.001650305086786 0 0.045061023919079915 -0.001578348941889801 0 0.044930152875998858 -0.0018366738875232641 0 0.044832805138014499 -0.001650305086786 0 0.045061023919079915 -0.001578348941889801 0 0.044832805138014499 -0.001650305086786 0 0.044883214803214146 -0.0013199463755095195 0 0.044832805138014499 -0.001650305086786 0 0.044641989501907224 -0.0015721315000328132 0 0.044883214803214146 -0.0013199463755095195 0 0.044641989501907224 -0.0015721315000328132 0 0.044572995621232847 -0.001343632084267311 0 0.044883214803214146 -0.0013199463755095195 0 0.044601267358455057 -0.0019013301154058317 0 0.044832805138014499 -0.001650305086786 0 0.044641989501907224 -0.0015721315000328132 0 0.044435600128357684 -0.0016614474179229024 0 0.0441846623709682 -0.0019902226892618857 0 0.044196212013303982 -0.0014759839822456532 0 0.044435600128357684 -0.0016614474179229024 0 0.044196212013303982 -0.0014759839822456532 0 0.044572995621232847 -0.001343632084267311 0 0.044601267358455057 -0.0019013301154058317 0 0.044641989501907224 -0.0015721315000328132 0 0.044435600128357684 -0.0016614474179229024 0 0.044641989501907224 -0.0015721315000328132 0 0.044435600128357684 -0.0016614474179229024 0 0.044572995621232847 -0.001343632084267311 0 0.044601267358455057 -0.0019013301154058317 0 0.044435600128357684 -0.0016614474179229024 0 0.0441846623709682 -0.0019902226892618857 0 0.044478208933941873 -0.0023516492493859515 0 0.044601267358455057 -0.0019013301154058317 0 0.0441846623709682 -0.0019902226892618857 0 0.04286664455689522 -0.002218551869754417 0 0.043519929331964267 -0.0018314942588372361 0 0.042624179469842087 -0.0013406600369142885 0 0.043884799892515827 -0.001934435750129897 0 0.043111875470654246 -0.0015258903622142126 0 0.0441846623709682 -0.0019902226892618857 0 0.044196212013303982 -0.0014759839822456532 0 0.043809257210518662 -0.0017197034695453537 0 0.044196212013303982 -0.0014759839822456532 0 0.043809257210518662 -0.0017197034695453537 0 0.043933399602887425 -0.0013145273797308978 0 0.043681630905988436 -0.0013872798333497171 0 0.043809257210518662 -0.0017197034695453537 0 0.043933399602887425 -0.0013145273797308978 0 0.043261580690643196 -0.00082111453757729134 0 0.043111875470654246 -0.0015258903622142126 0 0.043375629589703868 -0.0014628345112612411 0 0.043681630905988436 -0.0013872798333497171 0 0.043809257210518662 -0.0017197034695453537 0 0.042067473532671457 -0.0021739755983543646 0 0.04286664455689522 -0.002218551869754417 0 0.042624179469842087 -0.0013406600369142885 0 0.04493346234250431 -0.00010120734430622983 0 0.044942753411322568 -3.8674841990327899e-05 0 0.044978469252545013 -2.1396441497548115e-05 0 0.044952389760794402 -1.3247729409216065e-05 0 0.044978469252545013 -2.1396441497548115e-05 0 0.04497800420287773 -3.7027062702091581e-06 0 0.043735239943918411 -0.00097862688887354141 0 0.044057188406359866 -0.00059782172695870385 0 0.043884419867664164 -0.00073547871239517911 0 0.043797626188299167 -0.00088339098021367603 0 0.04408860893727469 -0.00058856862552851953 0 0.043768167863474872 -0.00092114618867277561 0 0.044133763993641453 -0.00091442625404682153 0 0.04408860893727469 -0.00058856862552851953 0 0.044942753411322568 -3.8674841990327899e-05 0 0.044952389760794402 -1.3247729409216065e-05 0 0.044978469252545013 -2.1396441497548115e-05 0 0.043532183915759116 -0.0011792356155961509 0 0.043884419867664164 -0.00073547871239517911 0 0.043797626188299167 -0.00088339098021367603 0 0.043522774754502502 -0.0012389639046845088 0 0.043768167863474872 -0.00092114618867277561 0 0.043770920623151036 -0.0011920076354671925 0 0.043972561446833057 -0.00076411475208189295 0 0.044471183571626806 -0.00034626902896545142 0 0.043972561446833057 -0.00076411475208189295 0 0.043735239943918411 -0.00097862688887354141 0 0.043522774754502502 -0.0012389639046845088 0 0.043681630905988436 -0.0013872798333497171 0 0.043770920623151036 -0.0011920076354671925 0 0.043770920623151036 -0.0011920076354671925 0 0.043933399602887425 -0.0013145273797308978 0 0.043941296693727976 -0.0010820476750826203 0 0.043681630905988436 -0.0013872798333497171 0 0.043770920623151036 -0.0011920076354671925 0 0.043933399602887425 -0.0013145273797308978 0 0.043768167863474872 -0.00092114618867277561 0 0.043770920623151036 -0.0011920076354671925 0 0.043941296693727976 -0.0010820476750826203 0 0.043768167863474872 -0.00092114618867277561 0 0.043941296693727976 -0.0010820476750826203 0 0.044133763993641453 -0.00091442625404682153 0 0.043941296693727976 -0.0010820476750826203 0 0.044111592529775187 -0.0011628879429056045 0 0.044133763993641453 -0.00091442625404682153 0 0.043933399602887425 -0.0013145273797308978 0 0.043941296693727976 -0.0010820476750826203 0 0.044111592529775187 -0.0011628879429056045 0 0.044196212013303982 -0.0014759839822456532 0 0.043933399602887425 -0.0013145273797308978 0 0.044111592529775187 -0.0011628879429056045 0 0.044196212013303982 -0.0014759839822456532 0 0.044111592529775187 -0.0011628879429056045 0 0.044333842370379399 -0.0011225750309053462 0 0.044333842370379399 -0.0011225750309053462 0 0.04436716132898736 -0.00087622033708506172 0 0.044133763993641453 -0.00091442625404682153 0 0.044111592529775187 -0.0011628879429056045 0 0.044333842370379399 -0.0011225750309053462 0 0.044133763993641453 -0.00091442625404682153 0 0.04436716132898736 -0.00087622033708506172 0 0.044133763993641453 -0.00091442625404682153 0 0.044288676952443762 -0.0007069192765188011 0 0.044133763993641453 -0.00091442625404682153 0 0.04408860893727469 -0.00058856862552851953 0 0.044288676952443762 -0.0007069192765188011 0 0.04408860893727469 -0.00058856862552851953 0 0.044288676952443762 -0.0007069192765188011 0 0.044348496319968095 -0.0005228768522259115 0 0.044288676952443762 -0.0007069192765188011 0 0.044523730434708191 -0.00065482226576944757 0 0.044348496319968095 -0.0005228768522259115 0 0.04436716132898736 -0.00087622033708506172 0 0.044288676952443762 -0.0007069192765188011 0 0.044523730434708191 -0.00065482226576944757 0 0.044523730434708191 -0.00065482226576944757 0 0.044744084843825249 -0.00072961255170448432 0 0.044837645007274232 -0.00040042030668574149 0 0.044523730434708191 -0.00065482226576944757 0 0.044574990964977523 -0.00097185818117217972 0 0.044744084843825249 -0.00072961255170448432 0 0.04436716132898736 -0.00087622033708506172 0 0.044523730434708191 -0.00065482226576944757 0 0.044574990964977523 -0.00097185818117217972 0 0.044333842370379399 -0.0011225750309053462 0 0.04436716132898736 -0.00087622033708506172 0 0.044574990964977523 -0.00097185818117217972 0 0.044333842370379399 -0.0011225750309053462 0 0.044572995621232847 -0.001343632084267311 0 0.044574990964977523 -0.00097185818117217972 0 0.044196212013303982 -0.0014759839822456532 0 0.044333842370379399 -0.0011225750309053462 0 0.044572995621232847 -0.001343632084267311 0 0.044572995621232847 -0.001343632084267311 0 0.044574990964977523 -0.00097185818117217972 0 0.044828919149918489 -0.00097245027957251165 0 0.044572995621232847 -0.001343632084267311 0 0.044828919149918489 -0.00097245027957251165 0 0.044883214803214146 -0.0013199463755095195 0 0.044828919149918489 -0.00097245027957251165 0 0.044883214803214146 -0.0013199463755095195 0 0.045096957338983168 -0.00098487576010199314 0 0.044828919149918489 -0.00097245027957251165 0 0.044959415634582299 -0.00068149670716958881 0 0.045096957338983168 -0.00098487576010199314 0 0.044828919149918489 -0.00097245027957251165 0 0.044744084843825249 -0.00072961255170448432 0 0.044959415634582299 -0.00068149670716958881 0 0.044574990964977523 -0.00097185818117217972 0 0.044828919149918489 -0.00097245027957251165 0 0.044744084843825249 -0.00072961255170448432 0 0.044744084843825249 -0.00072961255170448432 0 0.044959415634582299 -0.00068149670716958881 0 0.044837645007274232 -0.00040042030668574149 0 0.044959415634582299 -0.00068149670716958881 0 0.044837645007274232 -0.00040042030668574149 0 0.045044647191968344 -0.0004067742634784663 0 0.044837645007274232 -0.00040042030668574149 0 0.044976933586298097 -0.00024592552551797633 0 0.044946353537966527 -0.00011834833189027764 0 0.044837645007274232 -0.00040042030668574149 0 0.044946353537966527 -0.00011834833189027764 0 0.044828470976856535 -0.00019369502802533823 0 0.044837645007274232 -0.00040042030668574149 0 0.044976933586298097 -0.00024592552551797633 0 0.045044647191968344 -0.0004067742634784663 0 0.044946353537966527 -0.00011834833189027764 0 0.044998814979042678 4.2943876941100692e-08 0 0.04500038642577793 -1.656331595477003e-07 0 0.044976933586298097 -0.00024592552551797633 0 0.044946353537966527 -0.00011834833189027764 0 0.045053790022472048 -8.0756841758922477e-05 0 0.044946353537966527 -0.00011834833189027764 0 0.045053790022472048 -8.0756841758922477e-05 0 0.04500038642577793 -1.656331595477003e-07 0 0.044946353537966527 -0.00011834833189027764 0 0.044828470976856535 -0.00019369502802533823 0 0.044998814979042678 4.2943876941100692e-08 0 0.044828470976856535 -0.00019369502802533823 0 0.044998814979042678 4.2943876941100692e-08 0 0.044313743007736148 -0.00029262354937155025 0 0.044828470976856535 -0.00019369502802533823 0 0.04458659741142515 -0.00041145040339656105 0 0.044313743007736148 -0.00029262354937155025 0 0.044837645007274232 -0.00040042030668574149 0 0.044828470976856535 -0.00019369502802533823 0 0.04458659741142515 -0.00041145040339656105 0 0.044523730434708191 -0.00065482226576944757 0 0.044837645007274232 -0.00040042030668574149 0 0.04458659741142515 -0.00041145040339656105 0 0.044523730434708191 -0.00065482226576944757 0 0.04458659741142515 -0.00041145040339656105 0 0.044348496319968095 -0.0005228768522259115 0 0.043884419867664164 -0.00073547871239517911 0 0.04408860893727469 -0.00058856862552851953 0 0.044313743007736148 -0.00029262354937155025 0 0.044471183571626806 -0.00034626902896545142 0 0.04464996078178262 -0.00017920815076097332 0 0.04458659741142515 -0.00041145040339656105 0 0.044348496319968095 -0.0005228768522259115 0 0.044313743007736148 -0.00029262354937155025 0 0.04408860893727469 -0.00058856862552851953 0 0.044348496319968095 -0.0005228768522259115 0 0.044313743007736148 -0.00029262354937155025 0 0.04499984811487448 -5.6208814648945429e-08 0 0.04464996078178262 -0.00017920815076097332 0 0.044999999920681238 -2.5860997008768912e-09 0 0.044993581002132174 2.0691781433658518e-07 0 0.044999988509442486 3.7488818179873829e-09 0 0.044993581002132174 2.0691781433658518e-07 0 0.044987316669956062 2.2621479423948177e-06 0 0.044999988509442486 3.7488818179873829e-09 0 0.044968954508782071 3.1729030699927605e-06 0 0.044999954859126175 1.1243191128854928e-08 0 0.044987316669956062 2.2621479423948177e-06 0 0.044999954859126175 1.1243191128854928e-08 0 0.044987316669956062 2.2621479423948177e-06 0 0.044999988509442486 3.7488818179873829e-09 0 0.044978469252545013 -2.1396441497548115e-05 0 0.044993581002132174 2.0691781433658518e-07 0 0.04497800420287773 -3.7027062702091581e-06 0 0.044968954508782071 3.1729030699927605e-06 0 0.044987316669956062 2.2621479423948177e-06 0 0.04497800420287773 -3.7027062702091581e-06 0 0.044993581002132174 2.0691781433658518e-07 0 0.044987316669956062 2.2621479423948177e-06 0 0.04497800420287773 -3.7027062702091581e-06 0 0.044952389760794402 -1.3247729409216065e-05 0 0.044968954508782071 3.1729030699927605e-06 0 0.04497800420287773 -3.7027062702091581e-06 0 0.035773484107747888 -0.0023529894068543707 0 0.038954354320214074 -0.0027140652146777546 0 0.038674647157547683 -0.00069508676617967562 0 0.038954354320214074 -0.0027140652146777546 0 0.038674647157547683 -0.00069508676617967562 0 0.040535366709712181 -0.0011719913977700433 0 0.038954354320214074 -0.0027140652146777546 0 0.037132837405640669 -0.005151060422350146 0 0.040021384032218388 -0.0047432744572478919 0 0.034101861787268116 -0.006182310870077673 0 0.035773484107747888 -0.0023529894068543707 0 0.037132837405640669 -0.005151060422350146 0 0.040155053077719216 -0.0036231058198242763 0 0.040542207553465187 -0.0015337741367608653 0 0.035773484107747888 -0.0023529894068543707 0 0.038954354320214074 -0.0027140652146777546 0 0.037132837405640669 -0.005151060422350146 0 0.045573865494498614 -0.001448718708055786 0 0.045229897064733231 -0.0013000582540322399 0 0.045415051038687572 -0.00095449640538078633 0 0.045573865494498614 -0.001448718708055786 0 0.045772281794018287 -0.00083049187410022638 0 0.045415051038687572 -0.00095449640538078633 0 0.044883214803214146 -0.0013199463755095195 0 0.045229897064733231 -0.0013000582540322399 0 0.045096957338983168 -0.00098487576010199314 0 0.045229897064733231 -0.0013000582540322399 0 0.045096957338983168 -0.00098487576010199314 0 0.045415051038687572 -0.00095449640538078633 0 0.044959415634582299 -0.00068149670716958881 0 0.045096957338983168 -0.00098487576010199314 0 0.04523843142590013 -0.00065965417330405651 0 0.045096957338983168 -0.00098487576010199314 0 0.04523843142590013 -0.00065965417330405651 0 0.045415051038687572 -0.00095449640538078633 0 0.044959415634582299 -0.00068149670716958881 0 0.04523843142590013 -0.00065965417330405651 0 0.045044647191968344 -0.0004067742634784663 0 0.04523843142590013 -0.00065965417330405651 0 0.045415051038687572 -0.00095449640538078633 0 0.045541604464421417 -0.00054794841372897711 0 0.045772281794018287 -0.00083049187410022638 0 0.045415051038687572 -0.00095449640538078633 0 0.045541604464421417 -0.00054794841372897711 0 0.045541604464421417 -0.00054794841372897711 0 0.04528963032803026 -0.00038450368109829583 0 0.045549102038329202 -0.00019882101661819872 0 0.04523843142590013 -0.00065965417330405651 0 0.045541604464421417 -0.00054794841372897711 0 0.04528963032803026 -0.00038450368109829583 0 0.04523843142590013 -0.00065965417330405651 0 0.045044647191968344 -0.0004067742634784663 0 0.04528963032803026 -0.00038450368109829583 0 0.045044647191968344 -0.0004067742634784663 0 0.04528963032803026 -0.00038450368109829583 0 0.045053790022472048 -8.0756841758922477e-05 0 0.044976933586298097 -0.00024592552551797633 0 0.045044647191968344 -0.0004067742634784663 0 0.045053790022472048 -8.0756841758922477e-05 0 0.04528963032803026 -0.00038450368109829583 0 0.045053790022472048 -8.0756841758922477e-05 0 0.045549102038329202 -0.00019882101661819872 0 0.044894745240134079 -5.7108145018131221e-05 0 0.045717410733475107 -0.00015243355047846752 0 0.045053790022472048 -8.0756841758922477e-05 0 0.04500038642577793 -1.656331595477003e-07 0 0.044999944721754857 3.0570514170293173e-09 0 0.045053790022472048 -8.0756841758922477e-05 0 0.045009067339164481 -1.0257952140382024e-05 0 0.044999944721754857 3.0570514170293173e-09 0 0.044999944721754857 3.0570514170293173e-09 0 0.044999595547102804 -4.0740401230965442e-06 0 0.045000021207568124 -9.3726451613803699e-09 0 0.044999595547102804 -4.0740401230965442e-06 0 0.044992588339094024 -1.8915000443116761e-06 0 0.045000021207568124 -9.3726451613803699e-09 0 0.045717410733475107 -0.00015243355047846752 0 0.043294941930276706 -0.00011363959858922775 0 0.045009067339164481 -1.0257952140382024e-05 0 0.044999944721754857 3.0570514170293173e-09 0 0.044999595547102804 -4.0740401230965442e-06 0 0.045009067339164481 -1.0257952140382024e-05 0 0.044999595547102804 -4.0740401230965442e-06 0 0.044992588339094024 -1.8915000443116761e-06 0 0.040542207553465187 -0.0015337741367608653 0 0.043294941930276706 -0.00011363959858922775 0 0.045541604464421417 -0.00054794841372897711 0 0.045549102038329202 -0.00019882101661819872 0 0.045964155948858762 -0.00027672025111226379 0 0.035773484107747888 -0.0023529894068543707 0 0.037562308122488279 0.0016866598057977639 0 0.038674647157547683 -0.00069508676617967562 0 0.045772281794018287 -0.00083049187410022638 0 0.045541604464421417 -0.00054794841372897711 0 0.045964155948858762 -0.00027672025111226379 0 0.037562308122488279 0.0016866598057977639 0 0.038674647157547683 -0.00069508676617967562 0 0.04065736378506387 0.0012296912926496645 0 0.043294941930276706 -0.00011363959858922775 0 0.042407639164343196 0.00074147207462112251 0 0.038674647157547683 -0.00069508676617967562 0 0.04065736378506387 0.0012296912926496645 0 0.040535366709712181 -0.0011719913977700433 0 0.04509306867713217 0.00014259976091616727 0 0.044989346470654723 7.9476080936990667e-05 0 0.045000151374066592 5.2305093000097069e-08 0 0.043294941930276706 -0.00011363959858922775 0 0.045129335953146679 0.00025997608439693967 0 0.04509306867713217 0.00014259976091616727 0 0.044989346470654723 7.9476080936990667e-05 0 0.0449290413370909 0.00022794178264286618 0 0.044989346470654723 7.9476080936990667e-05 0 0.045000151374066592 5.2305093000097069e-08 0 0.044999928084620208 -8.6012874252490619e-08 0 0.044999928084620208 -8.6012874252490619e-08 0 0.044788355178169682 1.3128303653317258e-05 0 0.04499895150038432 2.6193192798220222e-07 0 0.044989346470654723 7.9476080936990667e-05 0 0.044999928084620208 -8.6012874252490619e-08 0 0.044788355178169682 1.3128303653317258e-05 0 0.044989346470654723 7.9476080936990667e-05 0 0.044788355178169682 1.3128303653317258e-05 0 0.0449290413370909 0.00022794178264286618 0 0.044788355178169682 1.3128303653317258e-05 0 0.04499895150038432 2.6193192798220222e-07 0 0.044076949433177276 0.00022682566656834785 0 0.04499895150038432 2.6193192798220222e-07 0 0.044076949433177276 0.00022682566656834785 0 0.04493252584263769 3.7066157918442653e-05 0 0.044076949433177276 0.00022682566656834785 0 0.042577927787102114 -0.00064598271064987675 0 0.044980233213594074 -0.00047866061583556494 0 0.044052732957630951 0.00032983730266070637 0 0.042407639164343196 0.00074147207462112251 0 0.044788355178169682 1.3128303653317258e-05 0 0.044076949433177276 0.00022682566656834785 0 0.0449290413370909 0.00022794178264286618 0 0.044076949433177276 0.00022682566656834785 0 0.042577927787102114 -0.00064598271064987675 0 0.04065736378506387 0.0012296912926496645 0 0.042577927787102114 -0.00064598271064987675 0 0.04065736378506387 0.0012296912926496645 0 0.040535366709712181 -0.0011719913977700433 0 0.04500014721861182 -2.6606134155213391e-08 0 0.04493252584263769 3.7066157918442653e-05 0 0.04506111127990612 -0.00010942251728255151 0 0.04499895150038432 2.6193192798220222e-07 0 0.04500014721861182 -2.6606134155213391e-08 0 0.04493252584263769 3.7066157918442653e-05 0 0.04493252584263769 3.7066157918442653e-05 0 0.045038245357997331 -0.00021677707805116056 0 0.044980233213594074 -0.00047866061583556494 0 0.044076949433177276 0.00022682566656834785 0 0.04493252584263769 3.7066157918442653e-05 0 0.044980233213594074 -0.00047866061583556494 0 0.04493252584263769 3.7066157918442653e-05 0 0.045038245357997331 -0.00021677707805116056 0 0.04506111127990612 -0.00010942251728255151 0 0.045038245357997331 -0.00021677707805116056 0 0.045068898753207839 -0.00024277376028973005 0 0.04506111127990612 -0.00010942251728255151 0 0.047450405715286741 -0.0027820831780684474 0 0.044981055118208067 -0.0018891275584378637 0 0.045855560454814301 -0.0038238603577810614 0 0.046718642625366319 -0.0015054012614567655 0 0.044763029154156204 -0.0011506409575305231 0 0.045038245357997331 -0.00021677707805116056 0 0.045068898753207839 -0.00024277376028973005 0 0.044980233213594074 -0.00047866061583556494 0 0.044981055118208067 -0.0018891275584378637 0 0.045855560454814301 -0.0038238603577810614 0 0.04419715038742926 -0.0038286450995717535 0 0.045855560454814301 -0.0038238603577810614 0 0.047623611241774486 -0.0047719725316511053 0 0.044709380426739095 -0.0057869566073960373 0 0.045855560454814301 -0.0038238603577810614 0 0.04419715038742926 -0.0038286450995717535 0 0.044709380426739095 -0.0057869566073960373 0 0.047450405715286741 -0.0027820831780684474 0 0.045855560454814301 -0.0038238603577810614 0 0.047623611241774486 -0.0047719725316511053 0 0.041308825151470163 -0.0026653823641642877 0 0.04325327906058736 -0.0025158567076466309 0 0.042424415976670633 -0.0040060903781534169 0 0.038954354320214074 -0.0027140652146777546 0 0.041308825151470163 -0.0026653823641642877 0 0.040535366709712181 -0.0011719913977700433 0 0.042577927787102114 -0.00064598271064987675 0 0.041308825151470163 -0.0026653823641642877 0 0.040535366709712181 -0.0011719913977700433 0 0.042577927787102114 -0.00064598271064987675 0 0.041308825151470163 -0.0026653823641642877 0 0.04325327906058736 -0.0025158567076466309 0 0.042713807505707919 -0.00066041820254383117 0 0.044763029154156204 -0.0011506409575305231 0 0.044981055118208067 -0.0018891275584378637 0 0.04325327906058736 -0.0025158567076466309 0 0.04419715038742926 -0.0038286450995717535 0 0.042577927787102114 -0.00064598271064987675 0 0.044981055118208067 -0.0018891275584378637 0 0.04325327906058736 -0.0025158567076466309 0 0.04325327906058736 -0.0025158567076466309 0 0.042424415976670633 -0.0040060903781534169 0 0.04419715038742926 -0.0038286450995717535 0 0.04419715038742926 -0.0038286450995717535 0 0.042962553162111776 -0.0052276839950336235 0 0.044709380426739095 -0.0057869566073960373 0 0.042424415976670633 -0.0040060903781534169 0 0.04419715038742926 -0.0038286450995717535 0 0.042962553162111776 -0.0052276839950336235 0 0.042424415976670633 -0.0040060903781534169 0 0.042962553162111776 -0.0052276839950336235 0 0.041520904122071274 -0.005284041076675643 0 0.042424415976670633 -0.0040060903781534169 0 0.041520904122071274 -0.005284041076675643 0 0.040021384032218388 -0.0047432744572478919 0 0.041308825151470163 -0.0026653823641642877 0 0.042424415976670633 -0.0040060903781534169 0 0.040021384032218388 -0.0047432744572478919 0 0.038954354320214074 -0.0027140652146777546 0 0.041308825151470163 -0.0026653823641642877 0 0.040021384032218388 -0.0047432744572478919 0 0.041520904122071274 -0.005284041076675643 0 0.040021384032218388 -0.0047432744572478919 0 0.040615970655063657 -0.0071872388976771352 0 0.042962553162111776 -0.0052276839950336235 0 0.041520904122071274 -0.005284041076675643 0 0.040615970655063657 -0.0071872388976771352 0 0.035364836356452503 -0.0075704068728954209 0 0.03590247391765828 -0.0077047644980486841 0 0.035462038082710708 -0.0081358897677227243 0 0.034383869019916476 -0.0079006816996385291 0 0.034298034522392926 -0.0082675484559815871 0 0.03236999721220294 -0.0081701089254175331 0 0.032227018654195125 -0.0081498451558391343 0 0.033132102402929756 -0.0084912281841468314 0 0.03236999721220294 -0.0081701089254175331 0 0.033132102402929756 -0.0084912281841468314 0 0.032631348895215434 -0.0082082858314732367 0 0.03590247391765828 -0.0077047644980486841 0 0.036340325066119027 -0.0077832468960586801 0 0.035462038082710708 -0.0081358897677227243 0 0.03236999721220294 -0.0081701089254175331 0 0.032220176235532805 -0.0080731027394390746 0 0.032346024385168398 -0.0081154196480358043 0 0.03236999721220294 -0.0081701089254175331 0 0.032227018654195125 -0.0081498451558391343 0 0.032151013135191406 -0.0080866620354426919 0 0.03590247391765828 -0.0077047644980486841 0 0.036340325066119027 -0.0077832468960586801 0 0.036511729717670673 -0.0071683934627773255 0 0.042962553162111776 -0.0052276839950336235 0 0.040615970655063657 -0.0071872388976771352 0 0.044709380426739095 -0.0057869566073960373 0 0.035364836356452503 -0.0075704068728954209 0 0.03590247391765828 -0.0077047644980486841 0 0.036511729717670673 -0.0071683934627773255 0 0.037795873274152778 -0.007361335377506076 0 0.041284467969417503 -0.0064439527582914836 0 0.033323717116733202 -0.007593302526123993 0 0.034549714936562705 -0.0077560522984513446 0 0.03203687676414161 -0.0074875723541765931 0 0.032066613212541908 -0.0076903650089312726 0 0.032151013135191406 -0.0080866620354426919 0 0.036511729717670673 -0.0071683934627773255 0 0.037213445250681772 -0.0073768760878761145 0 0.036461690153410581 -0.007725957345750962 0 0.036340325066119027 -0.0077832468960586801 0 0.036511729717670673 -0.0071683934627773255 0 0.036461690153410581 -0.007725957345750962 0 0.039781936898481723 -0.0057122258945946332 0 0.041284467969417503 -0.0064439527582914836 0 0.038077000786987426 -0.0067459888329143673 0 0.036511729717670673 -0.0071683934627773255 0 0.037213445250681772 -0.0073768760878761145 0 0.032175102829819086 -0.0069037413053258034 0 0.032278208887987367 -0.0072865424876863627 0 0.03234923200301177 -0.0069456138253625125 0 0.032245800717300141 -0.0066673125094130516 0 0.031818769377815019 -0.0073672428412849805 0 0.032175102829819086 -0.0069037413053258034 0 0.032245800717300141 -0.0066673125094130516 0 0.032175102829819086 -0.0069037413053258034 0 0.03234923200301177 -0.0069456138253625125 0 0.039781936898481723 -0.0057122258945946332 0 0.033323717116733202 -0.007593302526123993 0 0.033323717116733202 -0.007593302526123993 0 0.0319845285412255 -0.0072994654398900191 0 0.03203687676414161 -0.0074875723541765931 0 0.032066613212541908 -0.0076903650089312726 0 0.032175102829819086 -0.0069037413053258034 0 0.032066613212541908 -0.0076903650089312726 0 0.032175102829819086 -0.0069037413053258034 0 0.032156808278700773 -0.0074366045757294427 0 0.032066613212541908 -0.0076903650089312726 0 0.032156808278700773 -0.0074366045757294427 0 0.032119262632409711 -0.0077170203564094235 0 0.032175102829819086 -0.0069037413053258034 0 0.032156808278700773 -0.0074366045757294427 0 0.032278208887987367 -0.0072865424876863627 0 0.032156808278700773 -0.0074366045757294427 0 0.032278208887987367 -0.0072865424876863627 0 0.032197658443599765 -0.0075985695885909151 0 0.032197658443599765 -0.0075985695885909151 0 0.032176994895228281 -0.0078392660647616484 0 0.03230969600821252 -0.0076549884536001355 0 0.032278208887987367 -0.0072865424876863627 0 0.032197658443599765 -0.0075985695885909151 0 0.03230969600821252 -0.0076549884536001355 0 0.032197658443599765 -0.0075985695885909151 0 0.032119262632409711 -0.0077170203564094235 0 0.032176994895228281 -0.0078392660647616484 0 0.032119262632409711 -0.0077170203564094235 0 0.032139573771299119 -0.0079069205162549429 0 0.032176994895228281 -0.0078392660647616484 0 0.032156808278700773 -0.0074366045757294427 0 0.032197658443599765 -0.0075985695885909151 0 0.032119262632409711 -0.0077170203564094235 0 0.032119262632409711 -0.0077170203564094235 0 0.032139573771299119 -0.0079069205162549429 0 0.032109239354558949 -0.0078827766439280838 0 0.032139573771299119 -0.0079069205162549429 0 0.032176994895228281 -0.0078392660647616484 0 0.03216504833371886 -0.0080441850727024228 0 0.032176994895228281 -0.0078392660647616484 0 0.03228176492655635 -0.0080176908766206589 0 0.03230969600821252 -0.0076549884536001355 0 0.03236999721220294 -0.0081701089254175331 0 0.032201461196894592 -0.0080716011595210885 0 0.032151013135191406 -0.0080866620354426919 0 0.032149295348980013 -0.0079993829781531099 0 0.032201461196894592 -0.0080716011595210885 0 0.032153338304276913 -0.0080302823438356784 0 0.032149295348980013 -0.0079993829781531099 0 0.032153338304276913 -0.0080302823438356784 0 0.032119136121430081 -0.0079330916522387124 0 0.032201461196894592 -0.0080716011595210885 0 0.032151013135191406 -0.0080866620354426919 0 0.032153338304276913 -0.0080302823438356784 0 0.034383869019916476 -0.0079006816996385291 0 0.034549714936562705 -0.0077560522984513446 0 0.032151013135191406 -0.0080866620354426919 0 0.032153338304276913 -0.0080302823438356784 0 0.032119136121430081 -0.0079330916522387124 0 0.032066613212541908 -0.0076903650089312726 0 0.032151013135191406 -0.0080866620354426919 0 0.032119136121430081 -0.0079330916522387124 0 0.032066613212541908 -0.0076903650089312726 0 0.032119136121430081 -0.0079330916522387124 0 0.032109239354558949 -0.0078827766439280838 0 0.032066613212541908 -0.0076903650089312726 0 0.032119262632409711 -0.0077170203564094235 0 0.032109239354558949 -0.0078827766439280838 0 0.032149295348980013 -0.0079993829781531099 0 0.032109239354558949 -0.0078827766439280838 0 0.032153305809115233 -0.0079930704399955536 0 0.032149295348980013 -0.0079993829781531099 0 0.032119136121430081 -0.0079330916522387124 0 0.032109239354558949 -0.0078827766439280838 0 0.032139573771299119 -0.0079069205162549429 0 0.032153305809115233 -0.0079930704399955536 0 0.03216504833371886 -0.0080441850727024228 0 0.032139573771299119 -0.0079069205162549429 0 0.032109239354558949 -0.0078827766439280838 0 0.032153305809115233 -0.0079930704399955536 0 0.032153305809115233 -0.0079930704399955536 0 0.032220176235532805 -0.0080731027394390746 0 0.032208945550706844 -0.0080593676962129254 0 0.032149295348980013 -0.0079993829781531099 0 0.032153305809115233 -0.0079930704399955536 0 0.032220176235532805 -0.0080731027394390746 0 0.032149295348980013 -0.0079993829781531099 0 0.032201461196894592 -0.0080716011595210885 0 0.032220176235532805 -0.0080731027394390746 0 0.03236999721220294 -0.0081701089254175331 0 0.032201461196894592 -0.0080716011595210885 0 0.032220176235532805 -0.0080731027394390746 0 0.032208945550706844 -0.0080593676962129254 0 0.032253191165351636 -0.0080697805608235165 0 0.032346024385168398 -0.0081154196480358043 0 0.032220176235532805 -0.0080731027394390746 0 0.032208945550706844 -0.0080593676962129254 0 0.032346024385168398 -0.0081154196480358043 0 0.032208945550706844 -0.0080593676962129254 0 0.032253191165351636 -0.0080697805608235165 0 0.03216504833371886 -0.0080441850727024228 0 0.032153305809115233 -0.0079930704399955536 0 0.032208945550706844 -0.0080593676962129254 0 0.03216504833371886 -0.0080441850727024228 0 0.032253191165351636 -0.0080697805608235165 0 0.03216504833371886 -0.0080441850727024228 0 0.032196069092233978 -0.008108911418654002 0 0.03216504833371886 -0.0080441850727024228 0 0.032228391867275705 -0.0082120982812596503 0 0.03228176492655635 -0.0080176908766206589 0 0.032176994895228281 -0.0078392660647616484 0 0.03216504833371886 -0.0080441850727024228 0 0.03228176492655635 -0.0080176908766206589 0 0.03216504833371886 -0.0080441850727024228 0 0.032228391867275705 -0.0082120982812596503 0 0.032196069092233978 -0.008108911418654002 0 0.032144594089198328 -0.0081394692497431427 0 0.032228391867275705 -0.0082120982812596503 0 0.032196069092233978 -0.008108911418654002 0 0.032144594089198328 -0.0081394692497431427 0 0.032209796001903858 -0.0083507214149071939 0 0.032228391867275705 -0.0082120982812596503 0 0.032144594089198328 -0.0081394692497431427 0 0.032309928753249395 -0.0079979761196840166 0 0.032599083987245557 -0.0076933306817938947 0 0.032253191165351636 -0.0080697805608235165 0 0.032309928753249395 -0.0079979761196840166 0 0.032196069092233978 -0.008108911418654002 0 0.032144594089198328 -0.0081394692497431427 0 0.032309928753249395 -0.0079979761196840166 0 0.032196069092233978 -0.008108911418654002 0 0.032309928753249395 -0.0079979761196840166 0 0.032599083987245557 -0.0076933306817938947 0 0.032540299362476564 -0.0080574865502811288 0 0.032599083987245557 -0.0076933306817938947 0 0.033121430772747047 -0.0080437649198518337 0 0.032540299362476564 -0.0080574865502811288 0 0.033304404698192305 -0.008181531673073927 0 0.032337986211158305 -0.0079394850259595379 0 0.032134255931939755 -0.0080488193199827508 0 0.032655146765719192 -0.0083749501228224596 0 0.03201164495668745 -0.0081052968142546183 0 0.033976923957650965 -0.0080094614835116151 0 0.032599083987245557 -0.0076933306817938947 0 0.033121430772747047 -0.0080437649198518337 0 0.033976923957650965 -0.0080094614835116151 0 0.033121430772747047 -0.0080437649198518337 0 0.033132102402929756 -0.0084912281841468314 0 0.033121430772747047 -0.0080437649198518337 0 0.032864288169512187 -0.0081999347103154149 0 0.032540299362476564 -0.0080574865502811288 0 0.033121430772747047 -0.0080437649198518337 0 0.032864288169512187 -0.0081999347103154149 0 0.033132102402929756 -0.0084912281841468314 0 0.032864288169512187 -0.0081999347103154149 0 0.033132102402929756 -0.0084912281841468314 0 0.032631348895215434 -0.0082082858314732367 0 0.032631348895215434 -0.0082082858314732367 0 0.032346024385168398 -0.0081154196480358043 0 0.032540299362476564 -0.0080574865502811288 0 0.03236999721220294 -0.0081701089254175331 0 0.032631348895215434 -0.0082082858314732367 0 0.032346024385168398 -0.0081154196480358043 0 0.032253191165351636 -0.0080697805608235165 0 0.032309928753249395 -0.0079979761196840166 0 0.032540299362476564 -0.0080574865502811288 0 0.032253191165351636 -0.0080697805608235165 0 0.032346024385168398 -0.0081154196480358043 0 0.032540299362476564 -0.0080574865502811288 0 0.032864288169512187 -0.0081999347103154149 0 0.032631348895215434 -0.0082082858314732367 0 0.032540299362476564 -0.0080574865502811288 0 0.033420657182046849 -0.0090482408474260867 0 0.032992514380821507 -0.0081898781773184076 0 0.033847323082891227 -0.0076269454838410891 0 0.033420657182046849 -0.0090482408474260867 0 0.03612841461614541 -0.0080373549458616841 0 0.038079471078492834 -0.010816749363449615 0 0.033413011094214788 -0.0090561099067333044 0 0.035250246721736767 -0.010212458139658268 0 0.032216349084878262 -0.0083282986962779394 0 0.033420657182046849 -0.0090482408474260867 0 0.03194404784421899 -0.0089338813873912556 0 0.032216349084878262 -0.0083282986962779394 0 0.033420657182046849 -0.0090482408474260867 0 0.03255638547509733 -0.008515337990999447 0 0.032209796001903858 -0.0083507214149071939 0 0.03255638547509733 -0.008515337990999447 0 0.032585869988969764 -0.0084459529598119934 0 0.033420657182046849 -0.0090482408474260867 0 0.03255638547509733 -0.008515337990999447 0 0.032585869988969764 -0.0084459529598119934 0 0.032209796001903858 -0.0083507214149071939 0 0.032228391867275705 -0.0082120982812596503 0 0.032585869988969764 -0.0084459529598119934 0 0.032228391867275705 -0.0082120982812596503 0 0.032585869988969764 -0.0084459529598119934 0 0.03228176492655635 -0.0080176908766206589 0 0.032585869988969764 -0.0084459529598119934 0 0.03228176492655635 -0.0080176908766206589 0 0.032576843663565849 -0.0078062757174817655 0 0.032585869988969764 -0.0084459529598119934 0 0.032992514380821507 -0.0081898781773184076 0 0.032576843663565849 -0.0078062757174817655 0 0.033420657182046849 -0.0090482408474260867 0 0.032585869988969764 -0.0084459529598119934 0 0.032992514380821507 -0.0081898781773184076 0 0.032992514380821507 -0.0081898781773184076 0 0.032999425189813789 -0.0072209851641429536 0 0.033847323082891227 -0.0076269454838410891 0 0.032992514380821507 -0.0081898781773184076 0 0.032999425189813789 -0.0072209851641429536 0 0.032576843663565849 -0.0078062757174817655 0 0.032999425189813789 -0.0072209851641429536 0 0.032576843663565849 -0.0078062757174817655 0 0.032563966169457115 -0.0070414309565522137 0 0.03228176492655635 -0.0080176908766206589 0 0.032576843663565849 -0.0078062757174817655 0 0.03230969600821252 -0.0076549884536001355 0 0.032576843663565849 -0.0078062757174817655 0 0.03230969600821252 -0.0076549884536001355 0 0.032563966169457115 -0.0070414309565522137 0 0.032245800717300141 -0.0066673125094130516 0 0.03234923200301177 -0.0069456138253625125 0 0.032895947088687816 -0.0061782041354609355 0 0.032278208887987367 -0.0072865424876863627 0 0.032563966169457115 -0.0070414309565522137 0 0.03234923200301177 -0.0069456138253625125 0 0.032278208887987367 -0.0072865424876863627 0 0.03230969600821252 -0.0076549884536001355 0 0.032563966169457115 -0.0070414309565522137 0 0.032563966169457115 -0.0070414309565522137 0 0.03234923200301177 -0.0069456138253625125 0 0.032895947088687816 -0.0061782041354609355 0 0.032999425189813789 -0.0072209851641429536 0 0.032977574545671538 -0.0064558829582148916 0 0.033682045349410432 -0.0064702805777515802 0 0.032999425189813789 -0.0072209851641429536 0 0.032563966169457115 -0.0070414309565522137 0 0.032977574545671538 -0.0064558829582148916 0 0.032977574545671538 -0.0064558829582148916 0 0.032895947088687816 -0.0061782041354609355 0 0.033072379476428215 -0.0060776346944569652 0 0.032563966169457115 -0.0070414309565522137 0 0.032977574545671538 -0.0064558829582148916 0 0.032895947088687816 -0.0061782041354609355 0 0.032977574545671538 -0.0064558829582148916 0 0.033215807491598637 -0.0059136925565891783 0 0.033682045349410432 -0.0064702805777515802 0 0.032977574545671538 -0.0064558829582148916 0 0.033215807491598637 -0.0059136925565891783 0 0.033072379476428215 -0.0060776346944569652 0 0.033215807491598637 -0.0059136925565891783 0 0.033894676754508982 -0.0055542367981453568 0 0.033682045349410432 -0.0064702805777515802 0 0.033894676754508982 -0.0055542367981453568 0 0.034670012539046294 -0.0055798130612148868 0 0.033682045349410432 -0.0064702805777515802 0 0.034670012539046294 -0.0055798130612148868 0 0.035163630499394499 -0.0065706432929247558 0 0.035916296468226791 -0.0053334841651736025 0 0.034670012539046294 -0.0055798130612148868 0 0.035916296468226791 -0.0053334841651736025 0 0.035075556037182674 -0.0046730856095566304 0 0.033682045349410432 -0.0064702805777515802 0 0.033847323082891227 -0.0076269454838410891 0 0.035163630499394499 -0.0065706432929247558 0 0.034670012539046294 -0.0055798130612148868 0 0.033682045349410432 -0.0064702805777515802 0 0.035163630499394499 -0.0065706432929247558 0 0.032999425189813789 -0.0072209851641429536 0 0.033682045349410432 -0.0064702805777515802 0 0.033847323082891227 -0.0076269454838410891 0 0.033420657182046849 -0.0090482408474260867 0 0.033847323082891227 -0.0076269454838410891 0 0.03612841461614541 -0.0080373549458616841 0 0.03612841461614541 -0.0080373549458616841 0 0.03694521251564839 -0.0062721135097577293 0 0.038433072550156697 -0.007223481616934862 0 0.033847323082891227 -0.0076269454838410891 0 0.03612841461614541 -0.0080373549458616841 0 0.035163630499394499 -0.0065706432929247558 0 0.03612841461614541 -0.0080373549458616841 0 0.03694521251564839 -0.0062721135097577293 0 0.035163630499394499 -0.0065706432929247558 0 0.03694521251564839 -0.0062721135097577293 0 0.035163630499394499 -0.0065706432929247558 0 0.035916296468226791 -0.0053334841651736025 0 0.03694521251564839 -0.0062721135097577293 0 0.035916296468226791 -0.0053334841651736025 0 0.037877680259565949 -0.0043427983023037629 0 0.036108393037645625 -0.004016253450947008 0 0.036616767219133227 -0.0020403283489029578 0 0.037877680259565949 -0.0043427983023037629 0 0.035916296468226791 -0.0053334841651736025 0 0.036108393037645625 -0.004016253450947008 0 0.037877680259565949 -0.0043427983023037629 0 0.036108393037645625 -0.004016253450947008 0 0.034309384974586889 -0.003730699485251919 0 0.036616767219133227 -0.0020403283489029578 0 0.035916296468226791 -0.0053334841651736025 0 0.036108393037645625 -0.004016253450947008 0 0.035075556037182674 -0.0046730856095566304 0 0.036108393037645625 -0.004016253450947008 0 0.035075556037182674 -0.0046730856095566304 0 0.034309384974586889 -0.003730699485251919 0 0.033942214125174459 -0.0036500894585244528 0 0.034309384974586889 -0.003730699485251919 0 0.036616767219133227 -0.0020403283489029578 0 0.034670012539046294 -0.0055798130612148868 0 0.035075556037182674 -0.0046730856095566304 0 0.034325071368131378 -0.0046008418758102113 0 0.035075556037182674 -0.0046730856095566304 0 0.034325071368131378 -0.0046008418758102113 0 0.034309384974586889 -0.003730699485251919 0 0.033215807491598637 -0.0059136925565891783 0 0.033894676754508982 -0.0055542367981453568 0 0.033607419442896497 -0.0049332186074695136 0 0.033894676754508982 -0.0055542367981453568 0 0.034670012539046294 -0.0055798130612148868 0 0.034325071368131378 -0.0046008418758102113 0 0.033894676754508982 -0.0055542367981453568 0 0.033607419442896497 -0.0049332186074695136 0 0.034325071368131378 -0.0046008418758102113 0 0.033607419442896497 -0.0049332186074695136 0 0.034325071368131378 -0.0046008418758102113 0 0.033864082911378254 -0.0044157380787391634 0 0.034325071368131378 -0.0046008418758102113 0 0.033864082911378254 -0.0044157380787391634 0 0.034062999837545689 -0.0040820672351993123 0 0.033864082911378254 -0.0044157380787391634 0 0.033409129814910385 -0.0043641052029263251 0 0.033830283606483505 -0.0039902894153168887 0 0.033607419442896497 -0.0049332186074695136 0 0.033864082911378254 -0.0044157380787391634 0 0.033409129814910385 -0.0043641052029263251 0 0.044903796311281462 0.00013579438276171057 0 0.044902531195711713 0.00013991275542801418 0 0.044880621940868247 0.00012391615759195057 0 0.038927771264782488 -0.0024162256932803135 0 0.041320299963045808 -0.0026304083790822425 0 0.03421004708104574 -0.0045628842711038465 0 0.035541823012901194 -0.0045151444641785875 0 0.038927771264782488 -0.0024162256932803135 0 0.035541823012901194 -0.0045151444641785875 0 0.033830283606483505 -0.0039902894153168887 0 0.03398241376839059 -0.0036969383518617271 0 0.033160375331492173 -0.0041819844859569827 0 0.033409129814910385 -0.0043641052029263251 0 0.033830283606483505 -0.0039902894153168887 0 0.032916307981962024 -0.0041915253320382213 0 0.034325071368131378 -0.0046008418758102113 0 0.034062999837545689 -0.0040820672351993123 0 0.034309384974586889 -0.003730699485251919 0 0.03398241376839059 -0.0036969383518617271 0 0.034062999837545689 -0.0040820672351993123 0 0.034309384974586889 -0.003730699485251919 0 0.033830283606483505 -0.0039902894153168887 0 0.03398241376839059 -0.0036969383518617271 0 0.034062999837545689 -0.0040820672351993123 0 0.033864082911378254 -0.0044157380787391634 0 0.033830283606483505 -0.0039902894153168887 0 0.034062999837545689 -0.0040820672351993123 0 0.038927771264782488 -0.0024162256932803135 0 0.037886628503951393 -0.0023220808616104109 0 0.038927771264782488 -0.0024162256932803135 0 0.040895130444007867 -0.00083623596336260427 0 0.044903796311281462 0.00013579438276171057 0 0.044932109476728876 0.0001642958400215394 0 0.044907189065683001 0.00018998463098042693 0 0.044903796311281462 0.00013579438276171057 0 0.044932692778840759 0.00015614046839076542 0 0.044932109476728876 0.0001642958400215394 0 0.044903796311281462 0.00013579438276171057 0 0.044932692778840759 0.00015614046839076542 0 0.044902531195711713 0.00013991275542801418 0 0.044932692778840759 0.00015614046839076542 0 0.044932109476728876 0.0001642958400215394 0 0.044965463445500065 0.00011395651916210753 0 0.044932109476728876 0.0001642958400215394 0 0.044907189065683001 0.00018998463098042693 0 0.04490050361669308 0.00019300972377802718 0 0.047450405715286741 -0.0027820831780684474 0 0.047623611241774486 -0.0047719725316511053 0 0.049649228897316169 -0.0034052384802895816 0 0.032245800717300141 -0.0066673125094130516 0 0.032895947088687816 -0.0061782041354609355 0 0.033274051684733727 -0.0057198138499859365 0 0.039781936898481723 -0.0057122258945946332 0 0.045118584526181282 -0.0024645383551138646 0 0.039781936898481723 -0.0057122258945946332 0 0.035541823012901194 -0.0045151444641785875 0 0.039872024525429567 -0.0046537371042405067 0 0.040312190984589186 -0.0043482473741998347 0 0.040441704004054078 -0.0044894174214436386 0 0.033215807491598637 -0.0059136925565891783 0 0.033607419442896497 -0.0049332186074695136 0 0.032916307981962024 -0.0041915253320382213 0 0.032895947088687816 -0.0061782041354609355 0 0.033072379476428215 -0.0060776346944569652 0 0.033182465725744237 -0.0058927432266012436 0 0.034257491673136187 -0.0056004738975619743 0 0.035541823012901194 -0.0045151444641785875 0 0.033215807491598637 -0.0059136925565891783 0 0.033072379476428215 -0.0060776346944569652 0 0.033182465725744237 -0.0058927432266012436 0 0.032486717274608334 -0.0062379486003002844 0 0.035541823012901194 -0.0045151444641785875 0 0.033607419442896497 -0.0049332186074695136 0 0.033409129814910385 -0.0043641052029263251 0 0.032916307981962024 -0.0041915253320382213 0 0.038419294446052632 -0.0024771472523561844 0 0.038674935067569999 -0.002353040137376112 0 0.038742481239140134 -0.0025637078067864342 0 0.035541823012901194 -0.0045151444641785875 0 0.041320299963045808 -0.0026304083790822425 0 0.040312190984589186 -0.0043482473741998347 0 0.040441704004054078 -0.0044894174214436386 0 0.040416412774733755 -0.0043744092279795936 0 0.045118584526181282 -0.0024645383551138646 0 0.041320299963045808 -0.0026304083790822425 0 0.044932692778840759 0.00015614046839076542 0 0.044966732852582784 0.00017561299773096291 0 0.045012602112273849 8.8379871993490586e-05 0 0.045155036812360182 -0.00023376878643201901 0 0.045113864386530721 -0.00018673569713129336 0 0.045116993276054007 -0.0001219355961759857 0 0.043987218604602862 -0.00083336637549008422 0 0.045128596281199661 0.00011757763083720083 0 0.045064112258570189 5.7966418475255249e-05 0 0.043987218604602862 -0.00083336637549008422 0 0.044932692778840759 0.00015614046839076542 0 0.044902531195711713 0.00013991275542801418 0 0.044879318875172998 0.00014447223487631185 0 0.044902531195711713 0.00013991275542801418 0 0.044880621940868247 0.00012391615759195057 0 0.044879318875172998 0.00014447223487631185 0 0.041320299963045808 -0.0026304083790822425 0 0.043987218604602862 -0.00083336637549008422 0 0.043559370573784749 -0.0025146252293149502 0 0.043027273862618634 -0.0023781629476510345 0 0.043086116704799428 -0.0028021048056595865 0 0.045118584526181282 -0.0024645383551138646 0 0.043987218604602862 -0.00083336637549008422 0 0.045134056524145851 -0.00024645803354498598 0 0.045155036812360182 -0.00023376878643201901 0 0.045113864386530721 -0.00018673569713129336 0 0.046718642625366319 -0.0015054012614567655 0 0.045118584526181282 -0.0024645383551138646 0 0.045068898753207839 -0.00024277376028973005 0 0.045134056524145851 -0.00024645803354498598 0 0.045113864386530721 -0.00018673569713129336 0 0.045068898753207839 -0.00024277376028973005 0 0.045113864386530721 -0.00018673569713129336 0 0.04506111127990612 -0.00010942251728255151 0 0.045113864386530721 -0.00018673569713129336 0 0.04506111127990612 -0.00010942251728255151 0 0.045116993276054007 -0.0001219355961759857 0 0.04506111127990612 -0.00010942251728255151 0 0.045116993276054007 -0.0001219355961759857 0 0.045000219455218905 -8.0214301187180186e-08 0 0.045128596281199661 0.00011757763083720083 0 0.045000028092242024 -1.7940845470509521e-07 0 0.045012602112273849 8.8379871993490586e-05 0 0.045000055621182186 9.4620284651960157e-10 0 0.044989608769072535 5.2387820643029705e-05 0 0.04500014721861182 -2.6606134155213391e-08 0 0.04506111127990612 -0.00010942251728255151 0 0.045000219455218905 -8.0214301187180186e-08 0 0.044958414460421973 0.00010218125627350597 0 0.04490050361669308 0.00019300972377802718 0 0.044909024903574908 8.012126380841805e-05 0 0.044932109476728876 0.0001642958400215394 0 0.044958414460421973 0.00010218125627350597 0 0.04490050361669308 0.00019300972377802718 0 0.044932109476728876 0.0001642958400215394 0 0.044958414460421973 0.00010218125627350597 0 0.044965463445500065 0.00011395651916210753 0 0.044932692778840759 0.00015614046839076542 0 0.045012602112273849 8.8379871993490586e-05 0 0.044965463445500065 0.00011395651916210753 0 0.045012602112273849 8.8379871993490586e-05 0 0.044965463445500065 0.00011395651916210753 0 0.044989608769072535 5.2387820643029705e-05 0 0.044958414460421973 0.00010218125627350597 0 0.044965463445500065 0.00011395651916210753 0 0.044989608769072535 5.2387820643029705e-05 0 0.045000055621182186 9.4620284651960157e-10 0 0.044989608769072535 5.2387820643029705e-05 0 0.044999997070719742 1.3315679482843637e-07 0 0.044958414460421973 0.00010218125627350597 0 0.044989608769072535 5.2387820643029705e-05 0 0.044999997070719742 1.3315679482843637e-07 0 0.044958414460421973 0.00010218125627350597 0 0.044999997070719742 1.3315679482843637e-07 0 0.044909024903574908 8.012126380841805e-05 0 0.044909024903574908 8.012126380841805e-05 0 0.044999496966568284 -2.4703180362083326e-07 0 0.044716638987856598 0.0001240532144486378 0 0.044999997070719742 1.3315679482843637e-07 0 0.044909024903574908 8.012126380841805e-05 0 0.044999496966568284 -2.4703180362083326e-07 0 0.044909024903574908 8.012126380841805e-05 0 0.044716638987856598 0.0001240532144486378 0 0.044781472345645119 0.00032724673085651621 0 0.04490050361669308 0.00019300972377802718 0 0.044909024903574908 8.012126380841805e-05 0 0.044781472345645119 0.00032724673085651621 0 0.044716638987856598 0.0001240532144486378 0 0.044070674416481312 0.00019401694881491182 0 0.044781472345645119 0.00032724673085651621 0 0.044070674416481312 0.00019401694881491182 0 0.03978957130224952 -0.00049575239849202477 0 0.041888846492434594 -0.0010990111457914306 0 0.043798546417775995 0.00022267410826186965 0 0.042274328094223025 -0.00018774607613341891 0 0.044070674416481312 0.00019401694881491182 0 0.044176394935628908 -0.00038956953435516616 0 0.041888846492434594 -0.0010990111457914306 0 0.044999496966568284 -2.4703180362083326e-07 0 0.044716638987856598 0.0001240532144486378 0 0.044070674416481312 0.00019401694881491182 0 0.044999496966568284 -2.4703180362083326e-07 0 0.044070674416481312 0.00019401694881491182 0 0.04499905574313938 3.3246518171446975e-07 0 0.044070674416481312 0.00019401694881491182 0 0.04499905574313938 3.3246518171446975e-07 0 0.044592571100309931 -2.4274532249408601e-05 0 0.04499905574313938 3.3246518171446975e-07 0 0.044894941616305889 -0.0001057964815642766 0 0.044592571100309931 -2.4274532249408601e-05 0 0.04499905574313938 3.3246518171446975e-07 0 0.044894941616305889 -0.0001057964815642766 0 0.04500030904416262 -1.6010570705460354e-07 0 0.044894941616305889 -0.0001057964815642766 0 0.044983635176064067 -0.0006537671810768384 0 0.045079478457437303 -0.00018981213749624679 0 0.044894941616305889 -0.0001057964815642766 0 0.044983635176064067 -0.0006537671810768384 0 0.044686352760328993 -0.00051797048294684395 0 0.044894941616305889 -0.0001057964815642766 0 0.044592571100309931 -2.4274532249408601e-05 0 0.044686352760328993 -0.00051797048294684395 0 0.044592571100309931 -2.4274532249408601e-05 0 0.044176394935628908 -0.00038956953435516616 0 0.044686352760328993 -0.00051797048294684395 0 0.044070674416481312 0.00019401694881491182 0 0.044592571100309931 -2.4274532249408601e-05 0 0.044176394935628908 -0.00038956953435516616 0 0.044176394935628908 -0.00038956953435516616 0 0.044640193145092426 -0.001211977979088996 0 0.041888846492434594 -0.0010990111457914306 0 0.044270303029283344 -0.0018936695402517652 0 0.041869929091683897 -0.0010372398361984325 0 0.044176394935628908 -0.00038956953435516616 0 0.044640193145092426 -0.001211977979088996 0 0.044686352760328993 -0.00051797048294684395 0 0.044640193145092426 -0.001211977979088996 0 0.044983635176064067 -0.0006537671810768384 0 0.044686352760328993 -0.00051797048294684395 0 0.044640193145092426 -0.001211977979088996 0 0.044983635176064067 -0.0006537671810768384 0 0.045084625493428732 -0.0010743280881834933 0 0.044270303029283344 -0.0018936695402517652 0 0.043993351533347547 -0.0021775187977140903 0 0.04528309570062107 -0.0042951028760444517 0 0.043834509238745739 -0.0037737638415939593 0 0.045794858292583222 -0.0035563592998529019 0 0.04354987134114334 -0.0024690434034533638 0 0.043834509238745739 -0.0037737638415939593 0 0.045794858292583222 -0.0035563592998529019 0 0.041854370929119374 -0.0044492616055116724 0 0.044859787035494245 -0.0043214865713841009 0 0.045519769791186902 -0.0043997671301993909 0 0.043834509238745739 -0.0037737638415939593 0 0.044339294502813618 -0.005032706682654999 0 0.041854370929119374 -0.0044492616055116724 0 0.043993351533347547 -0.0021775187977140903 0 0.04354987134114334 -0.0024690434034533638 0 0.041978345889726078 -0.0035114317490483994 0 0.041343044832812328 -0.0026084996242983086 0 0.04354987134114334 -0.0024690434034533638 0 0.042954866772897914 -0.0035231233824143614 0 0.041978345889726078 -0.0035114317490483994 0 0.04354987134114334 -0.0024690434034533638 0 0.042954866772897914 -0.0035231233824143614 0 0.043834509238745739 -0.0037737638415939593 0 0.043834509238745739 -0.0037737638415939593 0 0.043398891714257606 -0.0050478489099456958 0 0.044339294502813618 -0.005032706682654999 0 0.042954866772897914 -0.0035231233824143614 0 0.043834509238745739 -0.0037737638415939593 0 0.042456865603896929 -0.0043936522606403856 0 0.043834509238745739 -0.0037737638415939593 0 0.042456865603896929 -0.0043936522606403856 0 0.043398891714257606 -0.0050478489099456958 0 0.042954866772897914 -0.0035231233824143614 0 0.042456865603896929 -0.0043936522606403856 0 0.041978345889726078 -0.0035114317490483994 0 0.042456865603896929 -0.0043936522606403856 0 0.040895354075001562 -0.0042199421618090835 0 0.041038744932013753 -0.0055369079615979182 0 0.042456865603896929 -0.0043936522606403856 0 0.041978345889726078 -0.0035114317490483994 0 0.040895354075001562 -0.0042199421618090835 0 0.041978345889726078 -0.0035114317490483994 0 0.040895354075001562 -0.0042199421618090835 0 0.041343044832812328 -0.0026084996242983086 0 0.040895354075001562 -0.0042199421618090835 0 0.03962452290631599 -0.0034997207579425581 0 0.041343044832812328 -0.0026084996242983086 0 0.037877680259565949 -0.0043427983023037629 0 0.03962452290631599 -0.0034997207579425581 0 0.039087611757776863 -0.0054459783894220647 0 0.040895354075001562 -0.0042199421618090835 0 0.03962452290631599 -0.0034997207579425581 0 0.039087611757776863 -0.0054459783894220647 0 0.036616767219133227 -0.0020403283489029578 0 0.037877680259565949 -0.0043427983023037629 0 0.038862617294322249 -0.0024641607886320654 0 0.037877680259565949 -0.0043427983023037629 0 0.03962452290631599 -0.0034997207579425581 0 0.038862617294322249 -0.0024641607886320654 0 0.044907189065683001 0.00018998463098042693 0 0.04490050361669308 0.00019300972377802718 0 0.044781472345645119 0.00032724673085651621 0 0.040895130444007867 -0.00083623596336260427 0 0.042274328094223025 -0.00018774607613341891 0 0.03962452290631599 -0.0034997207579425581 0 0.040356483448524293 -0.0019884577817747147 0 0.038862617294322249 -0.0024641607886320654 0 0.036616767219133227 -0.0020403283489029578 0 0.038862617294322249 -0.0024641607886320654 0 0.03978957130224952 -0.00049575239849202477 0 0.040356483448524293 -0.0019884577817747147 0 0.038862617294322249 -0.0024641607886320654 0 0.03978957130224952 -0.00049575239849202477 0 0.04354987134114334 -0.0024690434034533638 0 0.041888846492434594 -0.0010990111457914306 0 0.041343044832812328 -0.0026084996242983086 0 0.040356483448524293 -0.0019884577817747147 0 0.03978957130224952 -0.00049575239849202477 0 0.041888846492434594 -0.0010990111457914306 0 0.040356483448524293 -0.0019884577817747147 0 0.041888846492434594 -0.0010990111457914306 0 0.041343044832812328 -0.0026084996242983086 0 0.03962452290631599 -0.0034997207579425581 0 0.040356483448524293 -0.0019884577817747147 0 0.041343044832812328 -0.0026084996242983086 0 0.044955949953073872 -1.8608385659568559e-05 0 0.044910899324709236 -5.0005082094130505e-05 0 0.044957005635104151 -2.7712940190723102e-05 0 0.044955949953073872 -1.8608385659568559e-05 0 0.044908903379341961 -3.2811901485888639e-05 0 0.044910899324709236 -5.0005082094130505e-05 0 0.044999943738143054 -1.3454383101229866e-08 0 0.044955949953073872 -1.8608385659568559e-05 0 0.044999872203249525 -9.5886428291441432e-09 0 0.044999943738143054 -1.3454383101229866e-08 0 0.044955949953073872 -1.8608385659568559e-05 0 0.044957005635104151 -2.7712940190723102e-05 0 0.044609770925511258 0.00012199517183338358 0 0.04459022645935061 -0.00018058640872743842 0 0.044609770925511258 0.00012199517183338358 0 0.044557339208298061 -0.00020432300261501992 0 0.044311972294836584 0.00025424499904066165 0 0.044283601688506292 -0.00028640153494067497 0 0.044017932208312405 -0.00016556890598252549 0 0.044955949953073872 -1.8608385659568559e-05 0 0.044999872203249525 -9.5886428291441432e-09 0 0.044908903379341961 -3.2811901485888639e-05 0 0.044557339208298061 -0.00020432300261501992 0 0.044559076884426632 -0.00038717766653227224 0 0.044043990712212371 -0.00047920783576502299 0 0.044017932208312405 -0.00016556890598252549 0 0.043727276849453746 -0.00058832250834490194 0 0.045142709520028579 -0.00013380554447912891 0 0.045079478457437303 -0.00018981213749624679 0 0.045226049362999232 -0.00055463185133347928 0 0.044283601688506292 -0.00028640153494067497 0 0.044043990712212371 -0.00047920783576502299 0 0.044017932208312405 -0.00016556890598252549 0 0.045000138889705998 -1.3135063220525575e-08 0 0.045142709520028579 -0.00013380554447912891 0 0.04500030904416262 -1.6010570705460354e-07 0 0.045142709520028579 -0.00013380554447912891 0 0.04500030904416262 -1.6010570705460354e-07 0 0.045079478457437303 -0.00018981213749624679 0 0.044894941616305889 -0.0001057964815642766 0 0.04500030904416262 -1.6010570705460354e-07 0 0.045079478457437303 -0.00018981213749624679 0 0.044983635176064067 -0.0006537671810768384 0 0.045079478457437303 -0.00018981213749624679 0 0.045226049362999232 -0.00055463185133347928 0 0.044983635176064067 -0.0006537671810768384 0 0.045226049362999232 -0.00055463185133347928 0 0.045084625493428732 -0.0010743280881834933 0 0.044559076884426632 -0.00038717766653227224 0 0.043993351533347547 -0.0021775187977140903 0 0.042293314465368222 -0.0032452012627338651 0 0.042056045907627619 -0.0035918763360437071 0 0.04131744776628235 -0.0028917694328046161 0 0.043993351533347547 -0.0021775187977140903 0 0.042288049302288015 -0.0021273275921786985 0 0.043727276849453746 -0.00058832250834490194 0 0.043440123370837254 -0.0010104516894890389 0 0.043824930000356477 -0.0011836523838813986 0 0.042056045907627619 -0.0035918763360437071 0 0.041196845079830235 -0.0031978465148883822 0 0.04131744776628235 -0.0028917694328046161 0 0.043727276849453746 -0.00058832250834490194 0 0.043824930000356477 -0.0011836523838813986 0 0.044246907010568173 -0.00082507980939607679 0 0.043824930000356477 -0.0011836523838813986 0 0.044246907010568173 -0.00082507980939607679 0 0.044207365744372194 -0.001355550623371622 0 0.044043990712212371 -0.00047920783576502299 0 0.043727276849453746 -0.00058832250834490194 0 0.044246907010568173 -0.00082507980939607679 0 0.04459022645935061 -0.00018058640872743842 0 0.044671051096556891 -0.00036772872014317524 0 0.044908903379341961 -3.2811901485888639e-05 0 0.044841096990784444 -7.1361352720298834e-05 0 0.044866508636259711 -6.9380022094665456e-05 0 0.044283601688506292 -0.00028640153494067497 0 0.044043990712212371 -0.00047920783576502299 0 0.044246907010568173 -0.00082507980939607679 0 0.044841096990784444 -7.1361352720298834e-05 0 0.044823024928351038 -9.228556763593282e-05 0 0.044787993451099933 -0.00011072303592202222 0 0.044671051096556891 -0.00036772872014317524 0 0.042995190664456652 -0.0010918538702101505 0 0.044841096990784444 -7.1361352720298834e-05 0 0.044823024928351038 -9.228556763593282e-05 0 0.044866508636259711 -6.9380022094665456e-05 0 0.044823024928351038 -9.228556763593282e-05 0 0.044866508636259711 -6.9380022094665456e-05 0 0.044826996215621376 -9.8041755129036685e-05 0 0.044866508636259711 -6.9380022094665456e-05 0 0.044826996215621376 -9.8041755129036685e-05 0 0.04486229450956021 -7.8235959744558063e-05 0 0.044910899324709236 -5.0005082094130505e-05 0 0.044866508636259711 -6.9380022094665456e-05 0 0.04486229450956021 -7.8235959744558063e-05 0 0.044908903379341961 -3.2811901485888639e-05 0 0.044910899324709236 -5.0005082094130505e-05 0 0.044866508636259711 -6.9380022094665456e-05 0 0.04480460483463377 -0.00011418541416688288 0 0.044826996215621376 -9.8041755129036685e-05 0 0.044809380116733445 -0.00010501599052405285 0 0.044823024928351038 -9.228556763593282e-05 0 0.044826996215621376 -9.8041755129036685e-05 0 0.044789339089918632 -0.00011431101640330277 0 0.04480460483463377 -0.00011418541416688288 0 0.044826996215621376 -9.8041755129036685e-05 0 0.044789339089918632 -0.00011431101640330277 0 0.040996967525400059 -0.0017256764849138942 0 0.039682331330334303 -0.0034408650305495793 0 0.04480460483463377 -0.00011418541416688288 0 0.044789339089918632 -0.00011431101640330277 0 0.044765564100426022 -0.00012958084372548636 0 0.044823024928351038 -9.228556763593282e-05 0 0.044789339089918632 -0.00011431101640330277 0 0.044787993451099933 -0.00011072303592202222 0 0.044168791552707011 -0.00098361291423484996 0 0.042995190664456652 -0.0010918538702101505 0 0.042995190664456652 -0.0010918538702101505 0 0.039682331330334303 -0.0034408650305495793 0 0.044789339089918632 -0.00011431101640330277 0 0.044764012507209121 -0.00011324702268413976 0 0.044765564100426022 -0.00012958084372548636 0 0.039682331330334303 -0.0034408650305495793 0 0.036392765882348896 -0.0046570092077653858 0 0.036441116118962759 -0.0035135159894076297 0 0.036561948174297795 -0.0035605761620972165 0 0.036524708157441271 -0.0034424184348797022 0 0.036980945483703613 -0.0054372767379765007 0 0.037005958958267242 -0.0054227281405425116 0 0.036951478931603193 -0.0053764340566723415 0 0.037005958958267242 -0.0054227281405425116 0 0.036987393340958123 -0.0053897947333035896 0 0.036951478931603193 -0.0053764340566723415 0 0.037005958958267242 -0.0054227281405425116 0 0.037032118558600613 -0.005409539181825255 0 0.036987393340958123 -0.0053897947333035896 0 0.039682331330334303 -0.0034408650305495793 0 0.038663695372861545 -0.0040696132008513708 0 0.036980945483703613 -0.0054372767379765007 0 0.037005958958267242 -0.0054227281405425116 0 0.037038555792818478 -0.0054685094429535079 0 0.037005958958267242 -0.0054227281405425116 0 0.037038555792818478 -0.0054685094429535079 0 0.037040452663665881 -0.0054278610136297917 0 0.041196845079830235 -0.0031978465148883822 0 0.04036729358782682 -0.0028124010750802202 0 0.04131744776628235 -0.0028917694328046161 0 0.04036729358782682 -0.0028124010750802202 0 0.040376465206242482 -0.0025485255841120338 0 0.04131744776628235 -0.0028917694328046161 0 0.042288049302288015 -0.0021273275921786985 0 0.042995190664456652 -0.0010918538702101505 0 0.037125571900111946 -0.0054929850755205947 0 0.037038555792818478 -0.0054685094429535079 0 0.037103934108717325 -0.0054658461632231007 0 0.037038555792818478 -0.0054685094429535079 0 0.037074451972116791 -0.005448511725906025 0 0.037103934108717325 -0.0054658461632231007 0 0.041854370929119374 -0.0044492616055116724 0 0.038663695372861545 -0.0040696132008513708 0 0.037038555792818478 -0.0054685094429535079 0 0.037074451972116791 -0.005448511725906025 0 0.037040452663665881 -0.0054278610136297917 0 0.037074451972116791 -0.005448511725906025 0 0.037069132256471633 -0.0054281820353117719 0 0.037040452663665881 -0.0054278610136297917 0 0.037074451972116791 -0.005448511725906025 0 0.037069132256471633 -0.0054281820353117719 0 0.037101276184379861 -0.0054467332416665258 0 0.037069132256471633 -0.0054281820353117719 0 0.037040452663665881 -0.0054278610136297917 0 0.037032118558600613 -0.005409539181825255 0 0.037005958958267242 -0.0054227281405425116 0 0.037040452663665881 -0.0054278610136297917 0 0.037032118558600613 -0.005409539181825255 0 0.037069132256471633 -0.0054281820353117719 0 0.037032118558600613 -0.005409539181825255 0 0.037068046968319168 -0.0054089709705456871 0 0.037032118558600613 -0.005409539181825255 0 0.037023811769335911 -0.005378376189981591 0 0.037068046968319168 -0.0054089709705456871 0 0.037032118558600613 -0.005409539181825255 0 0.037023811769335911 -0.005378376189981591 0 0.036987393340958123 -0.0053897947333035896 0 0.03523347486688528 -0.0051860266397150299 0 0.033821742193256878 -0.0049871727368257061 0 0.034665768760853297 -0.0060537492821623974 0 0.037023811769335911 -0.005378376189981591 0 0.036984386817509422 -0.0053290462824507265 0 0.036940408516945307 -0.0053615234232306077 0 0.037023811769335911 -0.005378376189981591 0 0.036984386817509422 -0.0053290462824507265 0 0.037071098872449554 -0.0053436003086067795 0 0.036192325185481392 -0.0052858389413599962 0 0.035163028963552653 -0.0050101487748837195 0 0.036940408516945307 -0.0053615234232306077 0 0.036951478931603193 -0.0053764340566723415 0 0.03694185289905192 -0.0053445201040430964 0 0.036192325185481392 -0.0052858389413599962 0 0.036763767024311826 -0.0053951725487915384 0 0.036984386817509422 -0.0053290462824507265 0 0.036940408516945307 -0.0053615234232306077 0 0.036840639802706313 -0.0054152973791586484 0 0.03523347486688528 -0.0051860266397150299 0 0.036840639802706313 -0.0054152973791586484 0 0.03591292032989981 -0.0057709570494276106 0 0.036940408516945307 -0.0053615234232306077 0 0.036840639802706313 -0.0054152973791586484 0 0.03694185289905192 -0.0053445201040430964 0 0.037023811769335911 -0.005378376189981591 0 0.036940408516945307 -0.0053615234232306077 0 0.036987393340958123 -0.0053897947333035896 0 0.036940408516945307 -0.0053615234232306077 0 0.036987393340958123 -0.0053897947333035896 0 0.036951478931603193 -0.0053764340566723415 0 0.036524708157441271 -0.0034424184348797022 0 0.036433387664869095 -0.0033358934923024192 0 0.036438878948729839 -0.0034270782366245377 0 0.036392765882348896 -0.0046570092077653858 0 0.037056407463849465 -0.0042845224770111856 0 0.036524708157441271 -0.0034424184348797022 0 0.036469720308933154 -0.0033255802139371031 0 0.036433387664869095 -0.0033358934923024192 0 0.036469720308933154 -0.0033255802139371031 0 0.036433387664869095 -0.0033358934923024192 0 0.036413734866996422 -0.0032992808022490406 0 0.036433387664869095 -0.0033358934923024192 0 0.036384747848898211 -0.0033656821376312511 0 0.036438878948729839 -0.0034270782366245377 0 0.036433387664869095 -0.0033358934923024192 0 0.036392624604848885 -0.0033138183443096937 0 0.036384747848898211 -0.0033656821376312511 0 0.036433387664869095 -0.0033358934923024192 0 0.036392624604848885 -0.0033138183443096937 0 0.036401118361641172 -0.0032986243446399967 0 0.036392624604848885 -0.0033138183443096937 0 0.036384747848898211 -0.0033656821376312511 0 0.03635382762496072 -0.0033063716423691269 0 0.036392624604848885 -0.0033138183443096937 0 0.036378939747527768 -0.0032804478530731925 0 0.03635382762496072 -0.0033063716423691269 0 0.036384747848898211 -0.0033656821376312511 0 0.036438878948729839 -0.0034270782366245377 0 0.036384668949997867 -0.0034584254697695954 0 0.036441116118962759 -0.0035135159894076297 0 0.036524708157441271 -0.0034424184348797022 0 0.036438878948729839 -0.0034270782366245377 0 0.036441116118962759 -0.0035135159894076297 0 0.036438878948729839 -0.0034270782366245377 0 0.036384668949997867 -0.0034584254697695954 0 0.040251587245217539 -0.0079501741878046841 0 0.039916169618800616 -0.0065264463239084894 0 0.041297189718529241 -0.0066190461655986198 0 0.04165743468797084 -0.0076399864918284613 0 0.040251587245217539 -0.0079501741878046841 0 0.041297189718529241 -0.0066190461655986198 0 0.04165743468797084 -0.0076399864918284613 0 0.041719214542236566 -0.0086491291575835749 0 0.040251587245217539 -0.0079501741878046841 0 0.041719214542236566 -0.0086491291575835749 0 0.040251587245217539 -0.0079501741878046841 0 0.04048889738568711 -0.0095523279642571214 0 0.040251587245217539 -0.0079501741878046841 0 0.038696083717343323 -0.0087665668408245766 0 0.04048889738568711 -0.0095523279642571214 0 0.03612841461614541 -0.0080373549458616841 0 0.038696083717343323 -0.0087665668408245766 0 0.038433072550156697 -0.007223481616934862 0 0.040251587245217539 -0.0079501741878046841 0 0.038696083717343323 -0.0087665668408245766 0 0.038433072550156697 -0.007223481616934862 0 0.040251587245217539 -0.0079501741878046841 0 0.038433072550156697 -0.007223481616934862 0 0.039916169618800616 -0.0065264463239084894 0 0.038433072550156697 -0.007223481616934862 0 0.039087611757776863 -0.0054459783894220647 0 0.039916169618800616 -0.0065264463239084894 0 0.03694521251564839 -0.0062721135097577293 0 0.038433072550156697 -0.007223481616934862 0 0.039087611757776863 -0.0054459783894220647 0 0.03694521251564839 -0.0062721135097577293 0 0.037877680259565949 -0.0043427983023037629 0 0.039087611757776863 -0.0054459783894220647 0 0.040895354075001562 -0.0042199421618090835 0 0.039087611757776863 -0.0054459783894220647 0 0.041038744932013753 -0.0055369079615979182 0 0.039916169618800616 -0.0065264463239084894 0 0.041297189718529241 -0.0066190461655986198 0 0.041038744932013753 -0.0055369079615979182 0 0.039087611757776863 -0.0054459783894220647 0 0.039916169618800616 -0.0065264463239084894 0 0.041038744932013753 -0.0055369079615979182 0 0.041297189718529241 -0.0066190461655986198 0 0.041038744932013753 -0.0055369079615979182 0 0.04232445565174453 -0.0056320547871585112 0 0.042456865603896929 -0.0043936522606403856 0 0.041038744932013753 -0.0055369079615979182 0 0.04232445565174453 -0.0056320547871585112 0 0.042456865603896929 -0.0043936522606403856 0 0.04232445565174453 -0.0056320547871585112 0 0.043398891714257606 -0.0050478489099456958 0 0.043398891714257606 -0.0050478489099456958 0 0.04391017036098626 -0.0056271608151728623 0 0.043323127967838534 -0.0060669070726137291 0 0.04232445565174453 -0.0056320547871585112 0 0.043398891714257606 -0.0050478489099456958 0 0.043323127967838534 -0.0060669070726137291 0 0.043398891714257606 -0.0050478489099456958 0 0.04391017036098626 -0.0056271608151728623 0 0.044339294502813618 -0.005032706682654999 0 0.04391017036098626 -0.0056271608151728623 0 0.043323127967838534 -0.0060669070726137291 0 0.043737913081571038 -0.0061778587496217115 0 0.043323127967838534 -0.0060669070726137291 0 0.043737913081571038 -0.0061778587496217115 0 0.04344991615985129 -0.0067332195936129751 0 0.043737913081571038 -0.0061778587496217115 0 0.04344991615985129 -0.0067332195936129751 0 0.044267966489771389 -0.0062927806459761931 0 0.043323127967838534 -0.0060669070726137291 0 0.042493466839563142 -0.0065384218522174789 0 0.042971750443523346 -0.0069770107566195193 0 0.043323127967838534 -0.0060669070726137291 0 0.04344991615985129 -0.0067332195936129751 0 0.042971750443523346 -0.0069770107566195193 0 0.04232445565174453 -0.0056320547871585112 0 0.043323127967838534 -0.0060669070726137291 0 0.042493466839563142 -0.0065384218522174789 0 0.041297189718529241 -0.0066190461655986198 0 0.04232445565174453 -0.0056320547871585112 0 0.042493466839563142 -0.0065384218522174789 0 0.037125571900111946 -0.0054929850755205947 0 0.037103934108717325 -0.0054658461632231007 0 0.037132856620397503 -0.0054596931267996479 0 0.041854370929119374 -0.0044492616055116724 0 0.041820729120564587 -0.0061251515561676377 0 0.045519769791186902 -0.0043997671301993909 0 0.044339294502813618 -0.005032706682654999 0 0.044552230099146717 -0.0058593138466201079 0 0.04391017036098626 -0.0056271608151728623 0 0.044339294502813618 -0.005032706682654999 0 0.044267966489771389 -0.0062927806459761931 0 0.037132856620397503 -0.0054596931267996479 0 0.037101276184379861 -0.0054467332416665258 0 0.037112466898901117 -0.0054411691686230565 0 0.044339294502813618 -0.005032706682654999 0 0.044267966489771389 -0.0062927806459761931 0 0.044552230099146717 -0.0058593138466201079 0 0.04391017036098626 -0.0056271608151728623 0 0.043737913081571038 -0.0061778587496217115 0 0.044267966489771389 -0.0062927806459761931 0 0.043020181617107016 -0.0061248784208436805 0 0.041820729120564587 -0.0061251515561676377 0 0.037074451972116791 -0.005448511725906025 0 0.037103934108717325 -0.0054658461632231007 0 0.037101276184379861 -0.0054467332416665258 0 0.037103934108717325 -0.0054658461632231007 0 0.037132856620397503 -0.0054596931267996479 0 0.037101276184379861 -0.0054467332416665258 0 0.044033823862329041 -0.006457281992827104 0 0.044295715756887302 -0.0060433771540083555 0 0.04332822189722501 -0.0086447172218785309 0 0.037132856620397503 -0.0054596931267996479 0 0.037118314200161207 -0.0054289262801668408 0 0.037123519117051675 -0.0054187477193386362 0 0.041820729120564587 -0.0061251515561676377 0 0.040416871208733149 -0.0070507931959793557 0 0.037101276184379861 -0.0054467332416665258 0 0.037097572818029959 -0.0054287454862631517 0 0.037112466898901117 -0.0054411691686230565 0 0.037069132256471633 -0.0054281820353117719 0 0.037101276184379861 -0.0054467332416665258 0 0.037097572818029959 -0.0054287454862631517 0 0.037132856620397503 -0.0054596931267996479 0 0.037112466898901117 -0.0054411691686230565 0 0.037118314200161207 -0.0054289262801668408 0 0.037097572818029959 -0.0054287454862631517 0 0.037112466898901117 -0.0054411691686230565 0 0.037118314200161207 -0.0054289262801668408 0 0.037118314200161207 -0.0054289262801668408 0 0.037112351897256222 -0.0054177813297757822 0 0.03709802764616827 -0.0054128299214093178 0 0.037097572818029959 -0.0054287454862631517 0 0.037118314200161207 -0.0054289262801668408 0 0.03709802764616827 -0.0054128299214093178 0 0.037097572818029959 -0.0054287454862631517 0 0.03709802764616827 -0.0054128299214093178 0 0.037068046968319168 -0.0054089709705456871 0 0.037069132256471633 -0.0054281820353117719 0 0.037097572818029959 -0.0054287454862631517 0 0.037068046968319168 -0.0054089709705456871 0 0.044033823862329041 -0.006457281992827104 0 0.042852581678907438 -0.0082836152992918043 0 0.04332822189722501 -0.0086447172218785309 0 0.04165743468797084 -0.0076399864918284613 0 0.042493466839563142 -0.0065384218522174789 0 0.04248592414618118 -0.0074731716433736849 0 0.04248592414618118 -0.0074731716433736849 0 0.042971750443523346 -0.0069770107566195193 0 0.042852581678907438 -0.0082836152992918043 0 0.04165743468797084 -0.0076399864918284613 0 0.041297189718529241 -0.0066190461655986198 0 0.042493466839563142 -0.0065384218522174789 0 0.04165743468797084 -0.0076399864918284613 0 0.04248592414618118 -0.0074731716433736849 0 0.042178873397690865 -0.0080109333412769872 0 0.042493466839563142 -0.0065384218522174789 0 0.04248592414618118 -0.0074731716433736849 0 0.042971750443523346 -0.0069770107566195193 0 0.04344991615985129 -0.0067332195936129751 0 0.044267966489771389 -0.0062927806459761931 0 0.042852581678907438 -0.0082836152992918043 0 0.043020181617107016 -0.0061248784208436805 0 0.043095851299967604 -0.007965891609869288 0 0.04344991615985129 -0.0067332195936129751 0 0.042971750443523346 -0.0069770107566195193 0 0.042852581678907438 -0.0082836152992918043 0 0.037112351897256222 -0.0054177813297757822 0 0.037123519117051675 -0.0054187477193386362 0 0.037105216617249193 -0.0054058322482567409 0 0.037118314200161207 -0.0054289262801668408 0 0.037112351897256222 -0.0054177813297757822 0 0.037123519117051675 -0.0054187477193386362 0 0.041719214542236566 -0.0086491291575835749 0 0.042852581678907438 -0.0082836152992918043 0 0.042065729178796835 -0.0095815458687377245 0 0.041719214542236566 -0.0086491291575835749 0 0.042852581678907438 -0.0082836152992918043 0 0.042178873397690865 -0.0080109333412769872 0 0.042852581678907438 -0.0082836152992918043 0 0.04332822189722501 -0.0086447172218785309 0 0.042065729178796835 -0.0095815458687377245 0 0.04248592414618118 -0.0074731716433736849 0 0.042852581678907438 -0.0082836152992918043 0 0.042178873397690865 -0.0080109333412769872 0 0.04165743468797084 -0.0076399864918284613 0 0.041719214542236566 -0.0086491291575835749 0 0.042178873397690865 -0.0080109333412769872 0 0.037123519117051675 -0.0054187477193386362 0 0.037110198610874848 -0.0053877485859376018 0 0.037128494410262877 -0.0053752258894614498 0 0.040416871208733149 -0.0070507931959793557 0 0.035967259432477611 -0.0073661909602316059 0 0.04332822189722501 -0.0086447172218785309 0 0.042065729178796835 -0.0095815458687377245 0 0.042070140050323342 -0.011558121628062301 0 0.037123519117051675 -0.0054187477193386362 0 0.037110198610874848 -0.0053877485859376018 0 0.037105216617249193 -0.0054058322482567409 0 0.037023811769335911 -0.005378376189981591 0 0.037068046968319168 -0.0054089709705456871 0 0.037080282438843454 -0.0053894277757718084 0 0.03709802764616827 -0.0054128299214093178 0 0.037068046968319168 -0.0054089709705456871 0 0.037080282438843454 -0.0053894277757718084 0 0.037110198610874848 -0.0053877485859376018 0 0.037105216617249193 -0.0054058322482567409 0 0.037080282438843454 -0.0053894277757718084 0 0.03709802764616827 -0.0054128299214093178 0 0.037105216617249193 -0.0054058322482567409 0 0.037080282438843454 -0.0053894277757718084 0 0.037112351897256222 -0.0054177813297757822 0 0.03709802764616827 -0.0054128299214093178 0 0.037105216617249193 -0.0054058322482567409 0 0.037110198610874848 -0.0053877485859376018 0 0.037080282438843454 -0.0053894277757718084 0 0.037071098872449554 -0.0053436003086067795 0 0.037023811769335911 -0.005378376189981591 0 0.037080282438843454 -0.0053894277757718084 0 0.037071098872449554 -0.0053436003086067795 0 0.033821742193256878 -0.0049871727368257061 0 0.032469232577155831 -0.0047552855595207602 0 0.032924017763898111 -0.0056318302863334613 0 0.032469232577155831 -0.0047552855595207602 0 0.031896075384311114 -0.006013226357293921 0 0.032924017763898111 -0.0056318302863334613 0 0.035163028963552653 -0.0050101487748837195 0 0.035967259432477611 -0.0073661909602316059 0 0.037110198610874848 -0.0053877485859376018 0 0.037071098872449554 -0.0053436003086067795 0 0.037128494410262877 -0.0053752258894614498 0 0.035967259432477611 -0.0073661909602316059 0 0.031472026283832243 -0.0072994234505255389 0 0.031373022159391348 -0.008748015387291511 0 0.031799269096333641 -0.0084926880502520508 0 0.031515322140136484 -0.0083805715039229726 0 0.031373022159391348 -0.008748015387291511 0 0.03194404784421899 -0.0089338813873912556 0 0.031799269096333641 -0.0084926880502520508 0 0.035967259432477611 -0.0073661909602316059 0 0.035250246721736767 -0.010212458139658268 0 0.042065729178796835 -0.0095815458687377245 0 0.042070140050323342 -0.011558121628062301 0 0.04048889738568711 -0.0095523279642571214 0 0.042070140050323342 -0.011558121628062301 0 0.04048889738568711 -0.0095523279642571214 0 0.038079471078492834 -0.010816749363449615 0 0.041719214542236566 -0.0086491291575835749 0 0.042065729178796835 -0.0095815458687377245 0 0.04048889738568711 -0.0095523279642571214 0 0.038696083717343323 -0.0087665668408245766 0 0.04048889738568711 -0.0095523279642571214 0 0.038079471078492834 -0.010816749363449615 0 0.03612841461614541 -0.0080373549458616841 0 0.038696083717343323 -0.0087665668408245766 0 0.038079471078492834 -0.010816749363449615 0 0.032216349084878262 -0.0083282986962779394 0 0.03194404784421899 -0.0089338813873912556 0 0.031799269096333641 -0.0084926880502520508 0 0.032216349084878262 -0.0083282986962779394 0 0.031799269096333641 -0.0084926880502520508 0 0.031876149002204146 -0.0082460882304227455 0 0.031799269096333641 -0.0084926880502520508 0 0.03173439856604264 -0.0082650038790044542 0 0.031876149002204146 -0.0082460882304227455 0 0.03173439856604264 -0.0082650038790044542 0 0.031515322140136484 -0.0083805715039229726 0 0.031644971122078064 -0.0081128183161214059 0 0.031472026283832243 -0.0072994234505255389 0 0.03155542129288564 -0.0077907365246736582 0 0.031799269096333641 -0.0084926880502520508 0 0.03173439856604264 -0.0082650038790044542 0 0.031515322140136484 -0.0083805715039229726 0 0.031690256090991943 -0.0081619737362053114 0 0.031665973690439789 -0.0081375565207729567 0 0.03160363880886375 -0.0081715340128803923 0 0.031896075384311114 -0.006013226357293921 0 0.031338704209053624 -0.00727958893439233 0 0.032433179898553821 -0.0073621455800973352 0 0.03155542129288564 -0.0077907365246736582 0 0.032241913870497033 -0.0078017317796660653 0 0.031690256090991943 -0.0081619737362053114 0 0.031665973690439789 -0.0081375565207729567 0 0.031694259148236703 -0.0081269572704520329 0 0.03155542129288564 -0.0077907365246736582 0 0.031551768284668144 -0.0080193774981283175 0 0.031806971825643543 -0.0081466037375423402 0 0.031876149002204146 -0.0082460882304227455 0 0.031739028822688427 -0.0081399374364876896 0 0.03173439856604264 -0.0082650038790044542 0 0.031644971122078064 -0.0081128183161214059 0 0.031739028822688427 -0.0081399374364876896 0 0.03173439856604264 -0.0082650038790044542 0 0.031876149002204146 -0.0082460882304227455 0 0.031739028822688427 -0.0081399374364876896 0 0.031739028822688427 -0.0081399374364876896 0 0.031694259148236703 -0.0081269572704520329 0 0.03170031993635871 -0.0081197260426518255 0 0.031687619575967781 -0.0081473856589928326 0 0.031739028822688427 -0.0081399374364876896 0 0.031694259148236703 -0.0081269572704520329 0 0.03155542129288564 -0.0077907365246736582 0 0.03172627851320322 -0.0079768816066621631 0 0.031806971825643543 -0.0081466037375423402 0 0.031739028822688427 -0.0081399374364876896 0 0.03170031993635871 -0.0081197260426518255 0 0.031694259148236703 -0.0081269572704520329 0 0.03170031993635871 -0.0081197260426518255 0 0.031665318793099549 -0.0081084010656144768 0 0.03170031993635871 -0.0081197260426518255 0 0.031665318793099549 -0.0081084010656144768 0 0.031636289385433392 -0.0081444590889223761 0 0.029415487181077268 -0.0086345702727995931 0 0.030427857247480466 -0.0083280845087266939 0 0.031665973690439789 -0.0081375565207729567 0 0.031694259148236703 -0.0081269572704520329 0 0.031665318793099549 -0.0081084010656144768 0 0.031665973690439789 -0.0081375565207729567 0 0.031665318793099549 -0.0081084010656144768 0 0.03160363880886375 -0.0081715340128803923 0 0.027869871648085954 -0.0089122668562483347 0 0.028200221307946569 -0.0082895159032147156 0 0.02766487235013353 -0.0083719844887882641 0 0.028200221307946569 -0.0082895159032147156 0 0.02766487235013353 -0.0083719844887882641 0 0.027763431820567057 -0.0077689432271232303 0 0.027869871648085954 -0.0089122668562483347 0 0.028200221307946569 -0.0082895159032147156 0 0.029041384963272646 -0.0086626483525908907 0 0.028200221307946569 -0.0082895159032147156 0 0.029041384963272646 -0.0086626483525908907 0 0.028761800420507678 -0.0076064015431859342 0 0.026744317520031053 -0.0080856387303524756 0 0.027226372136210427 -0.0085755039612671266 0 0.026827760349626282 -0.0087425095509836345 0 0.026744317520031053 -0.0080856387303524756 0 0.027313670380779601 -0.0080200769847619223 0 0.027226372136210427 -0.0085755039612671266 0 0.02766487235013353 -0.0083719844887882641 0 0.027313670380779601 -0.0080200769847619223 0 0.027763431820567057 -0.0077689432271232303 0 0.02766487235013353 -0.0083719844887882641 0 0.027313670380779601 -0.0080200769847619223 0 0.027226372136210427 -0.0085755039612671266 0 0.027869871648085954 -0.0089122668562483347 0 0.02766487235013353 -0.0083719844887882641 0 0.027226372136210427 -0.0085755039612671266 0 0.027869871648085954 -0.0089122668562483347 0 0.027226372136210427 -0.0085755039612671266 0 0.027020964202169928 -0.0091295180641074638 0 0.029415487181077268 -0.0086345702727995931 0 0.030930967666342297 -0.0082364935946059818 0 0.027226372136210427 -0.0085755039612671266 0 0.026827760349626282 -0.0087425095509836345 0 0.027020964202169928 -0.0091295180641074638 0 0.026744317520031053 -0.0080856387303524756 0 0.026827760349626282 -0.0087425095509836345 0 0.026568109915607145 -0.0086865334005588393 0 0.026827760349626282 -0.0087425095509836345 0 0.027020964202169928 -0.0091295180641074638 0 0.026535798725605256 -0.0089237482493158618 0 0.026827760349626282 -0.0087425095509836345 0 0.026568109915607145 -0.0086865334005588393 0 0.026535798725605256 -0.0089237482493158618 0 0.033524020476243178 -0.0074514466404848028 0 0.033647938793199265 -0.0062429694444211294 0 0.034502176663180013 -0.007025658060774302 0 0.030930967666342297 -0.0082364935946059818 0 0.034635431816281592 -0.0069348315747372775 0 0.033524020476243178 -0.0074514466404848028 0 0.032880632183520532 -0.0065251198367421775 0 0.033647938793199265 -0.0062429694444211294 0 0.033524020476243178 -0.0074514466404848028 0 0.032433179898553821 -0.0073621455800973352 0 0.032880632183520532 -0.0065251198367421775 0 0.030930967666342297 -0.0082364935946059818 0 0.032241913870497033 -0.0078017317796660653 0 0.031665318793099549 -0.0081084010656144768 0 0.031484419506284701 -0.0081549458738669391 0 0.03160363880886375 -0.0081715340128803923 0 0.031896075384311114 -0.006013226357293921 0 0.032433179898553821 -0.0073621455800973352 0 0.032880632183520532 -0.0065251198367421775 0 0.032880632183520532 -0.0065251198367421775 0 0.032924017763898111 -0.0056318302863334613 0 0.033647938793199265 -0.0062429694444211294 0 0.031896075384311114 -0.006013226357293921 0 0.032880632183520532 -0.0065251198367421775 0 0.032924017763898111 -0.0056318302863334613 0 0.033821742193256878 -0.0049871727368257061 0 0.032924017763898111 -0.0056318302863334613 0 0.033647938793199265 -0.0062429694444211294 0 0.033821742193256878 -0.0049871727368257061 0 0.033647938793199265 -0.0062429694444211294 0 0.034665768760853297 -0.0060537492821623974 0 0.033647938793199265 -0.0062429694444211294 0 0.034665768760853297 -0.0060537492821623974 0 0.034502176663180013 -0.007025658060774302 0 0.03523347486688528 -0.0051860266397150299 0 0.034665768760853297 -0.0060537492821623974 0 0.03591292032989981 -0.0057709570494276106 0 0.034665768760853297 -0.0060537492821623974 0 0.035501076252838694 -0.006613252899174824 0 0.03591292032989981 -0.0057709570494276106 0 0.034665768760853297 -0.0060537492821623974 0 0.035501076252838694 -0.006613252899174824 0 0.034502176663180013 -0.007025658060774302 0 0.035501076252838694 -0.006613252899174824 0 0.03591292032989981 -0.0057709570494276106 0 0.036887397622900213 -0.0073323927713537613 0 0.036840639802706313 -0.0054152973791586484 0 0.03591292032989981 -0.0057709570494276106 0 0.036887397622900213 -0.0073323927713537613 0 0.029997686468700453 -0.0081336550064077719 0 0.033660799351449971 -0.0054064520124978447 0 0.035501076252838694 -0.006613252899174824 0 0.035308556230730904 -0.00791780450345996 0 0.036887397622900213 -0.0073323927713537613 0 0.030474303252756234 -0.0075147903047388135 0 0.029400046830997971 -0.0074386003383284487 0 0.031883321859758007 -0.0066438823227418196 0 0.028679786612306454 -0.0074231477600127721 0 0.028432875728621791 -0.0074108868812980799 0 0.028744804232678937 -0.007310588964202132 0 0.028488022948109589 -0.0076698309072247136 0 0.030445156725557337 -0.0060686187527773001 0 0.030474303252756234 -0.0075147903047388135 0 0.031883321859758007 -0.0066438823227418196 0 0.0318602937867399 -0.0071012143426348326 0 0.027143584381582556 -0.0076705515058115735 0 0.028488022948109589 -0.0076698309072247136 0 0.027143584381582556 -0.0076705515058115735 0 0.028669902319311668 -0.0066428240942783771 0 0.028437154906977562 -0.0076425721346117482 0 0.02780238719118526 -0.0075911302957168778 0 0.027777252486583501 -0.0081569848577616542 0 0.027143584381582556 -0.0076705515058115735 0 0.027393545533063685 -0.0071953480085388908 0 0.027393545533063685 -0.0071953480085388908 0 0.028669902319311668 -0.0066428240942783771 0 0.028679786612306454 -0.0074231477600127721 0 0.028740798698034035 -0.0073739964450566103 0 0.028744804232678937 -0.007310588964202132 0 0.028488022948109589 -0.0076698309072247136 0 0.029997686468700453 -0.0081336550064077719 0 0.027020964202169928 -0.0091295180641074638 0 0.026304550040248193 -0.0089655940551272694 0 0.026535798725605256 -0.0089237482493158618 0 0.032710432428388517 -0.0077789439248823833 0 0.035308556230730904 -0.00791780450345996 0 0.034103325494254974 -0.0071482663363316486 0 0.029997686468700453 -0.0081336550064077719 0 0.026374544693285651 -0.0090999463286153791 0 0.030930967666342297 -0.0082364935946059818 0 0.029997686468700453 -0.0081336550064077719 0 0.035501076252838694 -0.006613252899174824 0 0.035308556230730904 -0.00791780450345996 0 0.034103325494254974 -0.0071482663363316486 0 0.03522585303568438 -0.0067123418142822824 0 0.034635431816281592 -0.0069348315747372775 0 0.034381584481312483 -0.0033208828675642087 0 0.033837872757263861 -0.003747559818801662 0 0.034588506459531931 -0.0035082312065321209 0 0.036374224439080782 -0.0032813400065858532 0 0.036413734866996422 -0.0032992808022490406 0 0.036412536272415558 -0.0032931656956310174 0 0.035766043556288388 -0.0032760841292175688 0 0.033612186938851984 -0.0038283305195842949 0 0.036374224439080782 -0.0032813400065858532 0 0.036378939747527768 -0.0032804478530731925 0 0.036401118361641172 -0.0032986243446399967 0 0.035766043556288388 -0.0032760841292175688 0 0.035935354655648913 -0.0033587042252487824 0 0.036392624604848885 -0.0033138183443096937 0 0.036378939747527768 -0.0032804478530731925 0 0.036401118361641172 -0.0032986243446399967 0 0.036374224439080782 -0.0032813400065858532 0 0.036413734866996422 -0.0032992808022490406 0 0.036401118361641172 -0.0032986243446399967 0 0.036433387664869095 -0.0033358934923024192 0 0.036413734866996422 -0.0032992808022490406 0 0.036401118361641172 -0.0032986243446399967 0 0.036469720308933154 -0.0033255802139371031 0 0.036417123761754724 -0.0033013529160769808 0 0.036412536272415558 -0.0032931656956310174 0 0.036469720308933154 -0.0033255802139371031 0 0.036413734866996422 -0.0032992808022490406 0 0.036412536272415558 -0.0032931656956310174 0 0.036840639802706313 -0.0054152973791586484 0 0.03694185289905192 -0.0053445201040430964 0 0.036887397622900213 -0.0073323927713537613 0 0.037056407463849465 -0.0042845224770111856 0 0.033660799351449971 -0.0054064520124978447 0 0.028137526140120807 -0.0048148000566500546 0 0.028154473361483426 -0.0047895258341274461 0 0.028200761465836083 -0.0048041472632927192 0 0.028154473361483426 -0.0047895258341274461 0 0.028237608604090809 -0.0047365003805471002 0 0.028200761465836083 -0.0048041472632927192 0 0.027393545533063685 -0.0071953480085388908 0 0.026887017030983978 -0.0056318921139773626 0 0.031172539780048136 -0.0042173868854772489 0 0.031350462966327791 -0.0040641438750006476 0 0.031640255773240034 -0.0040627402640867182 0 0.030304509388952929 -0.0053530541589077813 0 0.029824524550724915 -0.004442886648804001 0 0.033660799351449971 -0.0054064520124978447 0 0.033612186938851984 -0.0038283305195842949 0 0.031560108263342754 -0.0046473013084299313 0 0.032101810578991592 -0.0049910542414109832 0 0.033200001025993062 -0.004127866387165318 0 0.030304509388952929 -0.0053530541589077813 0 0.033612186938851984 -0.0038283305195842949 0 0.028669902319311668 -0.0066428240942783771 0 0.030304509388952929 -0.0053530541589077813 0 0.031560108263342754 -0.0046473013084299313 0 0.031535587989545685 -0.005143121204042477 0 0.032101810578991592 -0.0049910542414109832 0 0.029418316246246846 -0.0056600277152633943 0 0.029429480639608114 -0.0054332774274920143 0 0.029852070344419578 -0.0053192477870268725 0 0.033660799351449971 -0.0054064520124978447 0 0.030445156725557337 -0.0060686187527773001 0 0.030445156725557337 -0.0060686187527773001 0 0.030304509388952929 -0.0053530541589077813 0 0.028137526140120807 -0.0048148000566500546 0 0.028138492629955686 -0.0048073893439218003 0 0.028154473361483426 -0.0047895258341274461 0 0.028669902319311668 -0.0066428240942783771 0 0.030445156725557337 -0.0060686187527773001 0 0.033612186938851984 -0.0038283305195842949 0 0.03347404960905101 -0.0033946834668635187 0 0.031350462966327791 -0.0040641438750006476 0 0.031640255773240034 -0.0040627402640867182 0 0.032004967795627358 -0.0038217758509523068 0 0.028237608604090809 -0.0047365003805471002 0 0.028200761465836083 -0.0048041472632927192 0 0.028284598942635311 -0.0048090950175301963 0 0.022814894268375616 -0.0056873075430173012 0 0.024975382983650252 -0.0052553158703951041 0 0.025248279904661049 -0.0064153884365319193 0 0.025228888382997326 -0.0065945523569305433 0 0.025376845913590712 -0.006416159789576009 0 0.021280537081189925 -0.0047134449042403829 0 0.021356519459010386 -0.0046713043194698475 0 0.021353004669347215 -0.0046348501899905635 0 0.026887017030983978 -0.0056318921139773626 0 0.024975382983650252 -0.0052553158703951041 0 0.025126418982717114 -0.0064149139562515315 0 0.025174141488509702 -0.0065022637324966201 0 0.025094949306141152 -0.0065881355450713875 0 0.025126418982717114 -0.0064149139562515315 0 0.025248279904661049 -0.0064153884365319193 0 0.025174141488509702 -0.0065022637324966201 0 0.025248279904661049 -0.0064153884365319193 0 0.025174141488509702 -0.0065022637324966201 0 0.025228888382997326 -0.0065945523569305433 0 0.025174141488509702 -0.0065022637324966201 0 0.025228888382997326 -0.0065945523569305433 0 0.025094949306141152 -0.0065881355450713875 0 0.025228888382997326 -0.0065945523569305433 0 0.025094949306141152 -0.0065881355450713875 0 0.025071287076246982 -0.0067689561223298377 0 0.021280537081189925 -0.0047134449042403829 0 0.021282708202544923 -0.0047597184906555774 0 0.021354796186836261 -0.0047074406067575784 0 0.026355559137195863 -0.0086041904783521611 0 0.026568109915607145 -0.0086865334005588393 0 0.026358384612591639 -0.0088055720347557879 0 0.026568109915607145 -0.0086865334005588393 0 0.026535798725605256 -0.0089237482493158618 0 0.026358384612591639 -0.0088055720347557879 0 0.026336927915546624 -0.0089480165389100048 0 0.026535798725605256 -0.0089237482493158618 0 0.026358384612591639 -0.0088055720347557879 0 0.026183166621631442 -0.0089243669613222713 0 0.026336927915546624 -0.0089480165389100048 0 0.026358384612591639 -0.0088055720347557879 0 0.027393545533063685 -0.0071953480085388908 0 0.025066397027208542 -0.0076622809713811427 0 0.025321535728537944 -0.0090990751821236997 0 0.025988800424424027 -0.008606196764365897 0 0.025524659151258382 -0.0086939722483230231 0 0.026029582285476215 -0.0089130375932541337 0 0.026183166621631442 -0.0089243669613222713 0 0.026358384612591639 -0.0088055720347557879 0 0.025255372495216002 -0.0090942378831953465 0 0.025524659151258382 -0.0086939722483230231 0 0.025264012138448855 -0.008288685658755398 0 0.027143584381582556 -0.0076705515058115735 0 0.025853934583293905 -0.0088621154608771562 0 0.026029582285476215 -0.0089130375932541337 0 0.026355559137195863 -0.0086041904783521611 0 0.026358384612591639 -0.0088055720347557879 0 0.025321535728537944 -0.0090990751821236997 0 0.025255372495216002 -0.0090942378831953465 0 0.025524659151258382 -0.0086939722483230231 0 0.025264012138448855 -0.008288685658755398 0 0.025780980061223702 -0.00811060678646164 0 0.025266339978269412 -0.0074272971887877426 0 0.025988800424424027 -0.008606196764365897 0 0.025524659151258382 -0.0086939722483230231 0 0.025780980061223702 -0.00811060678646164 0 0.025524659151258382 -0.0086939722483230231 0 0.025264012138448855 -0.008288685658755398 0 0.025780980061223702 -0.00811060678646164 0 0.026744317520031053 -0.0080856387303524756 0 0.025988800424424027 -0.008606196764365897 0 0.025780980061223702 -0.00811060678646164 0 0.026854682850453289 -0.0080140178208868325 0 0.025853934583293905 -0.0088621154608771562 0 0.026744317520031053 -0.0080856387303524756 0 0.026355559137195863 -0.0086041904783521611 0 0.026568109915607145 -0.0086865334005588393 0 0.026744317520031053 -0.0080856387303524756 0 0.025964890658037486 -0.0075246216995333527 0 0.026508655903398584 -0.0073116391402162691 0 0.026744317520031053 -0.0080856387303524756 0 0.025780980061223702 -0.00811060678646164 0 0.025964890658037486 -0.0075246216995333527 0 0.025780980061223702 -0.00811060678646164 0 0.025964890658037486 -0.0075246216995333527 0 0.025266339978269412 -0.0074272971887877426 0 0.025964890658037486 -0.0075246216995333527 0 0.025266339978269412 -0.0074272971887877426 0 0.025583874909175897 -0.0070315969092627495 0 0.025066397027208542 -0.0076622809713811427 0 0.024374383321276241 -0.0065510326976543701 0 0.025219209295447548 -0.0074451366196394411 0 0.025583874909175897 -0.0070315969092627495 0 0.025257650436150126 -0.0062100602747644671 0 0.024374383321276241 -0.0065510326976543701 0 0.022195194673906109 -0.0051886966752181622 0 0.024374383321276241 -0.0065510326976543701 0 0.025332697872407193 -0.0069669591414560908 0 0.025583874909175897 -0.0070315969092627495 0 0.02610220237117505 -0.0069336981948508111 0 0.025779585560626331 -0.0066244579019928808 0 0.02610220237117505 -0.0069336981948508111 0 0.026182254656698229 -0.0063777794757736801 0 0.026601100151461506 -0.0068424965393901888 0 0.025964890658037486 -0.0075246216995333527 0 0.02610220237117505 -0.0069336981948508111 0 0.026508655903398584 -0.0073116391402162691 0 0.02610220237117505 -0.0069336981948508111 0 0.026508655903398584 -0.0073116391402162691 0 0.026601100151461506 -0.0068424965393901888 0 0.025964890658037486 -0.0075246216995333527 0 0.025583874909175897 -0.0070315969092627495 0 0.02610220237117505 -0.0069336981948508111 0 0.022814894268375616 -0.0056873075430173012 0 0.024374383321276241 -0.0065510326976543701 0 0.021280537081189925 -0.0047134449042403829 0 0.021249505232894261 -0.004778873782205954 0 0.021282708202544923 -0.0047597184906555774 0 0.021249505232894261 -0.004778873782205954 0 0.021250365749626628 -0.0047913385374015304 0 0.02125327275344497 -0.0048001196435098793 0 0.021249505232894261 -0.004778873782205954 0 0.021282708202544923 -0.0047597184906555774 0 0.021250365749626628 -0.0047913385374015304 0 0.021282708202544923 -0.0047597184906555774 0 0.021250365749626628 -0.0047913385374015304 0 0.021262108130853299 -0.0047878924282040601 0 0.021250365749626628 -0.0047913385374015304 0 0.021262108130853299 -0.0047878924282040601 0 0.021219900032155022 -0.0048036985387677165 0 0.021219900032155022 -0.0048036985387677165 0 0.021050473379280097 -0.0047771779922444182 0 0.021046433739528903 -0.0048197368554030616 0 0.020766966689693689 -0.0046761454723541823 0 0.022195194673906109 -0.0051886966752181622 0 0.021250365749626628 -0.0047913385374015304 0 0.021219900032155022 -0.0048036985387677165 0 0.02125327275344497 -0.0048001196435098793 0 0.016539283428562191 -0.0045133897167400809 0 0.01763944906527587 -0.0049982141112009529 0 0.017662221562901276 -0.0040129803952097176 0 0.016249160796930999 -0.0041502481142953592 0 0.020818130747735517 -0.0053333483418243344 0 0.021219900032155022 -0.0048036985387677165 0 0.021188312283601771 -0.0048631404461675588 0 0.021046433739528903 -0.0048197368554030616 0 0.021219900032155022 -0.0048036985387677165 0 0.021188312283601771 -0.0048631404461675588 0 0.021268965020189802 -0.0048111071575590702 0 0.022644075095522936 -0.0059993497443752404 0 0.023453161001337135 -0.0063901124851310246 0 0.023289192645471007 -0.0053890609207769124 0 0.023453161001337135 -0.0063901124851310246 0 0.023289192645471007 -0.0053890609207769124 0 0.024722611208527291 -0.0055881681337683316 0 0.02610220237117505 -0.0069336981948508111 0 0.026182254656698229 -0.0063777794757736801 0 0.025779585560626331 -0.0066244579019928808 0 0.026182254656698229 -0.0063777794757736801 0 0.025779585560626331 -0.0066244579019928808 0 0.025257650436150126 -0.0062100602747644671 0 0.025583874909175897 -0.0070315969092627495 0 0.025779585560626331 -0.0066244579019928808 0 0.025257650436150126 -0.0062100602747644671 0 0.022644075095522936 -0.0059993497443752404 0 0.023453161001337135 -0.0063901124851310246 0 0.021275845845483813 -0.0060635075725834703 0 0.025046233390068961 -0.0064772045116857089 0 0.022195194673906109 -0.0051886966752181622 0 0.022195194673906109 -0.0051886966752181622 0 0.020818130747735517 -0.0053333483418243344 0 0.022644075095522936 -0.0059993497443752404 0 0.021275845845483813 -0.0060635075725834703 0 0.021304663487052164 -0.0054080888241532293 0 0.022566478233175723 -0.0059825790201872824 0 0.020818130747735517 -0.0053333483418243344 0 0.022135581932344283 -0.005328510723508352 0 0.02129347664129571 -0.0054246441224776705 0 0.022467493369486041 -0.0045675414573467582 0 0.02129347664129571 -0.0054246441224776705 0 0.022467493369486041 -0.0045675414573467582 0 0.021362534254941595 -0.0032831326521746899 0 0.020818130747735517 -0.0053333483418243344 0 0.014874151231310081 -0.0038974235779319312 0 0.022644075095522936 -0.0059993497443752404 0 0.022135581932344283 -0.005328510723508352 0 0.02129347664129571 -0.0054246441224776705 0 0.022135581932344283 -0.005328510723508352 0 0.022467493369486041 -0.0045675414573467582 0 0.023289192645471007 -0.0053890609207769124 0 0.022644075095522936 -0.0059993497443752404 0 0.022135581932344283 -0.005328510723508352 0 0.023289192645471007 -0.0053890609207769124 0 0.022467493369486041 -0.0045675414573467582 0 0.023289192645471007 -0.0053890609207769124 0 0.023960321613187577 -0.0043284951794701374 0 0.025310314924488451 -0.0044511939685254465 0 0.024722611208527291 -0.0055881681337683316 0 0.026477155033624727 -0.0054701632320299049 0 0.023960321613187577 -0.0043284951794701374 0 0.025310314924488451 -0.0044511939685254465 0 0.024722611208527291 -0.0055881681337683316 0 0.023289192645471007 -0.0053890609207769124 0 0.023960321613187577 -0.0043284951794701374 0 0.024722611208527291 -0.0055881681337683316 0 0.025046233390068961 -0.0064772045116857089 0 0.026299463575271062 -0.0065580968054519198 0 0.023453161001337135 -0.0063901124851310246 0 0.024722611208527291 -0.0055881681337683316 0 0.025653092140127551 -0.0066238566125663258 0 0.026182254656698229 -0.0063777794757736801 0 0.027035182588036801 -0.0065499035915023993 0 0.026601100151461506 -0.0068424965393901888 0 0.025653092140127551 -0.0066238566125663258 0 0.026477155033624727 -0.0054701632320299049 0 0.027763923247272261 -0.0066482351486377451 0 0.024722611208527291 -0.0055881681337683316 0 0.025653092140127551 -0.0066238566125663258 0 0.026477155033624727 -0.0054701632320299049 0 0.026299463575271062 -0.0065580968054519198 0 0.027658878484845325 -0.006671213931010154 0 0.026477155033624727 -0.0054701632320299049 0 0.027918022473119267 -0.0052981644688572214 0 0.026504074871929708 -0.0035112575395271272 0 0.025310314924488451 -0.0044511939685254465 0 0.026477155033624727 -0.0054701632320299049 0 0.026504074871929708 -0.0035112575395271272 0 0.027626159844628347 -0.0055778492183077202 0 0.027616749795540838 -0.0044179978625103998 0 0.027633212985379109 -0.0060279754006285283 0 0.028534404723798017 -0.006027089566782334 0 0.02820308008386592 -0.0054837856336026848 0 0.027633212985379109 -0.0060279754006285283 0 0.028534404723798017 -0.006027089566782334 0 0.028687379627514484 -0.0065944675677103368 0 0.027626159844628347 -0.0055778492183077202 0 0.028641516624287128 -0.0065526278976624731 0 0.026477155033624727 -0.0054701632320299049 0 0.027918022473119267 -0.0052981644688572214 0 0.027763923247272261 -0.0066482351486377451 0 0.027918022473119267 -0.0052981644688572214 0 0.028687379627514484 -0.0065944675677103368 0 0.027763923247272261 -0.0066482351486377451 0 0.027763923247272261 -0.0066482351486377451 0 0.028088827620595443 -0.0072273707898316093 0 0.027188462411795813 -0.0072534278423658166 0 0.028687379627514484 -0.0065944675677103368 0 0.027763923247272261 -0.0066482351486377451 0 0.028088827620595443 -0.0072273707898316093 0 0.028687379627514484 -0.0065944675677103368 0 0.028088827620595443 -0.0072273707898316093 0 0.028761800420507678 -0.0076064015431859342 0 0.028088827620595443 -0.0072273707898316093 0 0.027763431820567057 -0.0077689432271232303 0 0.027188462411795813 -0.0072534278423658166 0 0.028088827620595443 -0.0072273707898316093 0 0.028761800420507678 -0.0076064015431859342 0 0.027763431820567057 -0.0077689432271232303 0 0.028200221307946569 -0.0082895159032147156 0 0.028761800420507678 -0.0076064015431859342 0 0.027763431820567057 -0.0077689432271232303 0 0.027313670380779601 -0.0080200769847619223 0 0.027763431820567057 -0.0077689432271232303 0 0.027188462411795813 -0.0072534278423658166 0 0.026744317520031053 -0.0080856387303524756 0 0.027313670380779601 -0.0080200769847619223 0 0.027188462411795813 -0.0072534278423658166 0 0.026744317520031053 -0.0080856387303524756 0 0.026508655903398584 -0.0073116391402162691 0 0.027188462411795813 -0.0072534278423658166 0 0.027035182588036801 -0.0065499035915023993 0 0.026601100151461506 -0.0068424965393901888 0 0.027188462411795813 -0.0072534278423658166 0 0.026508655903398584 -0.0073116391402162691 0 0.026601100151461506 -0.0068424965393901888 0 0.027188462411795813 -0.0072534278423658166 0 0.027035182588036801 -0.0065499035915023993 0 0.027763923247272261 -0.0066482351486377451 0 0.027188462411795813 -0.0072534278423658166 0 0.0035440789702877664 0.0027743150184193531 0 0.0041591164873110101 0.0032274902908380897 0 0.0037277884595005827 0.0023018757896658974 0 0.019044397675756077 -0.0037002183436806958 0 0.01928921367830606 -0.0033064981095525451 0 0.019135538011269035 -0.0031008408584536208 0 0.011870469220283317 -0.00079658597368172698 0 0.013626800754092833 -0.000729519901908196 0 0.010464100496861552 0.0003393598955376453 0 0.0099248298900227946 0.00011657970077730261 0 0.0098722823070695864 -0.00043600512689977313 0 0.015238295696837182 -0.0022825473858101479 0 0.020061413834518243 -0.0029133019907383092 0 0.019044397675756077 -0.0037002183436806958 0 0.017537963559063237 -0.0043509621040911731 0 0.01836226193639004 -0.0024080957949994021 0 0.011870469220283317 -0.00079658597368172698 0 0.015238295696837182 -0.0022825473858101479 0 0.019867475648676244 -0.0038480490597657016 0 0.019853745486482093 -0.0035507924568390853 0 0.020050234109940675 -0.0034114284399779458 0 0.019044397675756077 -0.0037002183436806958 0 0.01836226193639004 -0.0024080957949994021 0 0.019135538011269035 -0.0031008408584536208 0 0.018580054562834254 -0.0025602891670096729 0 0.019065758685206175 -0.0025567904133902753 0 0.019135538011269035 -0.0031008408584536208 0 0.020061413834518243 -0.0029133019907383092 0 0.019026807238844586 -0.0026245221531716592 0 0.019853745486482093 -0.0035507924568390853 0 0.019969931395377546 -0.0033420584934613592 0 0.020050234109940675 -0.0034114284399779458 0 0.018580054562834254 -0.0025602891670096729 0 0.01878390660154242 -0.0020434790974038805 0 0.019065758685206175 -0.0025567904133902753 0 0.021400759515599655 -0.0028845915856570586 0 0.020061413834518243 -0.0029133019907383092 0 0.020061413834518243 -0.0029133019907383092 0 0.021703258905745437 -0.0018349052631556539 0 0.021400759515599655 -0.0028845915856570586 0 0.021703258905745437 -0.0018349052631556539 0 0.020598407466222168 -0.0025796630693951357 0 0.020899851946993859 -0.0028503801884733602 0 0.021113495523900024 -0.0023208573727320362 0 0.019069144265175 -0.0036190068063697645 0 0.01928921367830606 -0.0033064981095525451 0 0.020966999166579861 -0.0027662545884091388 0 0.01928921367830606 -0.0033064981095525451 0 0.019779793745980847 -0.0025118692415433161 0 0.020966999166579861 -0.0027662545884091388 0 0.011870469220283317 -0.00079658597368172698 0 0.012468458741581718 0.00026597159323236811 0 0.01878390660154242 -0.0020434790974038805 0 0.019065758685206175 -0.0025567904133902753 0 0.019779793745980847 -0.0025118692415433161 0 0.019065758685206175 -0.0025567904133902753 0 0.019135538011269035 -0.0031008408584536208 0 0.019779793745980847 -0.0025118692415433161 0 0.01928921367830606 -0.0033064981095525451 0 0.019135538011269035 -0.0031008408584536208 0 0.019779793745980847 -0.0025118692415433161 0 0.019779793745980847 -0.0025118692415433161 0 0.020966999166579861 -0.0027662545884091388 0 0.020744336868317722 -0.0011840595196840862 0 0.0041591164873110101 0.0032274902908380897 0 0.0045844137824302073 0.002700785526057179 0 0.0050259986021832879 0.0038255023792246987 0 0.012468458741581718 0.00026597159323236811 0 0.013824909504319381 0.00097716173878406674 0 0.0041591164873110101 0.0032274902908380897 0 0.0045844137824302073 0.002700785526057179 0 0.0041961034830820037 0.0023745810399899018 0 0.0041591164873110101 0.0032274902908380897 0 0.0041961034830820037 0.0023745810399899018 0 0.0037277884595005827 0.0023018757896658974 0 0.0041961034830820037 0.0023745810399899018 0 0.0039414125522918685 0.0019014394571712178 0 0.0037277884595005827 0.0023018757896658974 0 0.0041961034830820037 0.0023745810399899018 0 0.0042980330422216087 0.0019107605936304981 0 0.0039414125522918685 0.0019014394571712178 0 0.0045844137824302073 0.002700785526057179 0 0.0045368262114453628 0.0022302690736136768 0 0.0048932361372333102 0.0024152964986245279 0 0.0045368262114453628 0.0022302690736136768 0 0.0047849421753253067 0.0020327496675996309 0 0.0048932361372333102 0.0024152964986245279 0 0.0045844137824302073 0.002700785526057179 0 0.0041961034830820037 0.0023745810399899018 0 0.0045368262114453628 0.0022302690736136768 0 0.0041961034830820037 0.0023745810399899018 0 0.0045368262114453628 0.0022302690736136768 0 0.0042980330422216087 0.0019107605936304981 0 0.0045368262114453628 0.0022302690736136768 0 0.0045380129721468657 0.0018750964587265296 0 0.0042980330422216087 0.0019107605936304981 0 0.0045368262114453628 0.0022302690736136768 0 0.0047849421753253067 0.0020327496675996309 0 0.0045380129721468657 0.0018750964587265296 0 0.0043439986441292247 0.0016683804912964277 0 0.0048034643856365985 0.0014946851052336069 0 0.0045613680601257018 0.00054305845021104945 0 0.0045380129721468657 0.0018750964587265296 0 0.0043439986441292247 0.0016683804912964277 0 0.0048034643856365985 0.0014946851052336069 0 0.0047849421753253067 0.0020327496675996309 0 0.0045380129721468657 0.0018750964587265296 0 0.0048034643856365985 0.0014946851052336069 0 0.0045380129721468657 0.0018750964587265296 0 0.0043439986441292247 0.0016683804912964277 0 0.0042980330422216087 0.0019107605936304981 0 0.0042980330422216087 0.0019107605936304981 0 0.0039414125522918685 0.0019014394571712178 0 0.0040005325990147226 0.0014483484933299063 0 0.0039414125522918685 0.0019014394571712178 0 0.0036693257526735218 0.0016254946646704716 0 0.0040005325990147226 0.0014483484933299063 0 0.0042348044722181431 0.0018644455729173916 0 0.0036944196761711217 0.0012378952192068911 0 0.0043439986441292247 0.0016683804912964277 0 0.0042980330422216087 0.0019107605936304981 0 0.003392462845431292 0.0010600116966421335 0 0.0036717523105685764 0.0018870733221877222 0 0.0037277884595005827 0.0023018757896658974 0 0.0033329675250953288 0.0017247290981469282 0 0.0036693257526735218 0.0016254946646704716 0 0.0036717523105685764 0.0018870733221877222 0 0.0033329675250953288 0.0017247290981469282 0 0.0036693257526735218 0.0016254946646704716 0 0.0033329675250953288 0.0017247290981469282 0 0.0034079051868440508 0.0012817156170793396 0 0.0039414125522918685 0.0019014394571712178 0 0.0036693257526735218 0.0016254946646704716 0 0.0036717523105685764 0.0018870733221877222 0 0.0037104714943793963 0.0022728481052393646 0 0.0034142931698610012 0.0017809846831730045 0 0.0037277884595005827 0.0023018757896658974 0 0.0035215250103472384 0.0021600472580265875 0 0.0035373674692360693 0.0018913916074945823 0 0.0039414125522918685 0.0019014394571712178 0 0.0036717523105685764 0.0018870733221877222 0 0.0037277884595005827 0.0023018757896658974 0 0.0035440789702877664 0.0027743150184193531 0 0.0037277884595005827 0.0023018757896658974 0 0.0035215250103472384 0.0021600472580265875 0 0.011870469220283317 -0.00079658597368172698 0 0.0058358236638535073 0.0011251971509492662 0 0.0035440789702877664 0.0027743150184193531 0 0.0035215250103472384 0.0021600472580265875 0 0.0032686795629221434 0.002148592879458911 0 0.0035215250103472384 0.0021600472580265875 0 0.0032686795629221434 0.002148592879458911 0 0.0033574125103875787 0.0019559641118981181 0 0.0035215250103472384 0.0021600472580265875 0 0.0033574125103875787 0.0019559641118981181 0 0.0035373674692360693 0.0018913916074945823 0 0.0033574125103875787 0.0019559641118981181 0 0.0035373674692360693 0.0018913916074945823 0 0.0034052315246962507 0.0017897800058641511 0 0.0058358236638535073 0.0011251971509492662 0 0.006732804389027491 7.6853202656817547e-05 0 0.0032686795629221434 0.002148592879458911 0 0.0033574125103875787 0.0019559641118981181 0 0.003053233205650895 0.0016897237496240457 0 0.011197822903365663 -0.0010176025684982784 0 0.006732804389027491 7.6853202656817547e-05 0 0.0098722823070695864 -0.00043600512689977313 0 0.009598673473084806 -0.00054329764639700817 0 0.009252761487056331 -0.0011817815342267911 0 0.0033574125103875787 0.0019559641118981181 0 0.0034052315246962507 0.0017897800058641511 0 0.003053233205650895 0.0016897237496240457 0 0.012517220933265013 -0.0016627744711169333 0 0.012735944144342941 -0.0015606017014184468 0 0.012543598494918842 -0.0019243463840783624 0 0.012276383903279002 -0.0017375611834409312 0 0.012235119742692639 -0.0017822180947338329 0 0.012383710420234784 -0.001417940341952939 0 0.012407750341054159 -0.0017394488616169603 0 0.012517220933265013 -0.0016627744711169333 0 0.012383710420234784 -0.001417940341952939 0 0.012407750341054159 -0.0017394488616169603 0 0.012517220933265013 -0.0016627744711169333 0 0.012543598494918842 -0.0019243463840783624 0 0.012407750341054159 -0.0017394488616169603 0 0.012377892689378256 -0.0018699548073932144 0 0.012543598494918842 -0.0019243463840783624 0 0.012407750341054159 -0.0017394488616169603 0 0.012276383903279002 -0.0017375611834409312 0 0.012383710420234784 -0.001417940341952939 0 0.012896203898300337 -0.0018301532881869189 0 0.017286813520682641 -0.0032931972211179858 0 0.012276383903279002 -0.0017375611834409312 0 0.012232340919899812 -0.0017816588204217392 0 0.012377892689378256 -0.0018699548073932144 0 0.012407750341054159 -0.0017394488616169603 0 0.012276383903279002 -0.0017375611834409312 0 0.012377892689378256 -0.0018699548073932144 0 0.012789388607007169 -0.0018812953716228369 0 0.012896203898300337 -0.0018301532881869189 0 0.012517220933265013 -0.0016627744711169333 0 0.012383710420234784 -0.001417940341952939 0 0.012735944144342941 -0.0015606017014184468 0 0.0099248298900227946 0.00011657970077730261 0 0.0098722823070695864 -0.00043600512689977313 0 0.009598673473084806 -0.00054329764639700817 0 0.012920839440042502 -0.001192371671666593 0 0.012383710420234784 -0.001417940341952939 0 0.012735944144342941 -0.0015606017014184468 0 0.015238295696837182 -0.0022825473858101479 0 0.017286813520682641 -0.0032931972211179858 0 0.015238295696837182 -0.0022825473858101479 0 0.011197822903365663 -0.0010176025684982784 0 0.015846302965532091 -0.003397793591808352 0 0.015066852509832779 -0.0037489448894695845 0 0.015420104872833747 -0.0032062774460442137 0 0.016249160796930999 -0.0041502481142953592 0 0.018802469836704153 -0.0040378605637875356 0 0.015066852509832779 -0.0037489448894695845 0 0.015420104872833747 -0.0032062774460442137 0 0.015013203431181619 -0.0030255978002576532 0 0.018802469836704153 -0.0040378605637875356 0 0.012118909424379872 -0.0024983986833610168 0 0.015368875269189569 -0.0028456979693228697 0 0.015458146044388521 -0.0026417706242019114 0 0.015209329761543881 -0.0027482107956928971 0 0.015368875269189569 -0.0028456979693228697 0 0.015209329761543881 -0.0027482107956928971 0 0.015180388874599837 -0.0029835554923000412 0 0.021362741926874092 -0.0048063333765943766 0 0.021292384799793371 -0.0048274857661760959 0 0.02132643856119441 -0.0047696429984977803 0 0.017286813520682641 -0.0032931972211179858 0 0.018802469836704153 -0.0040378605637875356 0 0.021262108130853299 -0.0047878924282040601 0 0.021268965020189802 -0.0048111071575590702 0 0.021304229275819972 -0.0047745032785687438 0 0.021262108130853299 -0.0047878924282040601 0 0.021219900032155022 -0.0048036985387677165 0 0.021268965020189802 -0.0048111071575590702 0 0.018802469836704153 -0.0040378605637875356 0 0.021621583882413153 -0.0049601439712971375 0 0.021282708202544923 -0.0047597184906555774 0 0.021262108130853299 -0.0047878924282040601 0 0.021304229275819972 -0.0047745032785687438 0 0.02132643856119441 -0.0047696429984977803 0 0.021425492276079948 -0.0047463959548979424 0 0.021418832413318881 -0.0046931085853844697 0 0.02132643856119441 -0.0047696429984977803 0 0.021418832413318881 -0.0046931085853844697 0 0.021354796186836261 -0.0047074406067575784 0 0.021282708202544923 -0.0047597184906555774 0 0.021304229275819972 -0.0047745032785687438 0 0.021354796186836261 -0.0047074406067575784 0 0.021621583882413153 -0.0049601439712971375 0 0.021273973584819684 -0.004627969474061148 0 0.019867475648676244 -0.0038480490597657016 0 0.019234905808688713 -0.0041257062410093919 0 0.01944739602548862 -0.0035782480384300487 0 0.019867475648676244 -0.0038480490597657016 0 0.01944739602548862 -0.0035782480384300487 0 0.019590108877121187 -0.0035329798687362131 0 0.019867475648676244 -0.0038480490597657016 0 0.019853745486482093 -0.0035507924568390853 0 0.019590108877121187 -0.0035329798687362131 0 0.021362741926874092 -0.0048063333765943766 0 0.02132643856119441 -0.0047696429984977803 0 0.021425492276079948 -0.0047463959548979424 0 0.017286813520682641 -0.0032931972211179858 0 0.020283029665147209 -0.0045460565931952808 0 0.021400759515599655 -0.0028845915856570586 0 0.019173001412454437 -0.003721553377397737 0 0.01944739602548862 -0.0035782480384300487 0 0.019736176122671163 -0.003294693639762686 0 0.019717897065557738 -0.0028097575951282748 0 0.02022151791917395 -0.003252726845744723 0 0.019736176122671163 -0.003294693639762686 0 0.019590108877121187 -0.0035329798687362131 0 0.019853745486482093 -0.0035507924568390853 0 0.019969931395377546 -0.0033420584934613592 0 0.019590108877121187 -0.0035329798687362131 0 0.020283029665147209 -0.0045460565931952808 0 0.024476101880490198 -0.0031091098591797704 0 0.01944739602548862 -0.0035782480384300487 0 0.019736176122671163 -0.003294693639762686 0 0.019590108877121187 -0.0035329798687362131 0 0.02022151791917395 -0.003252726845744723 0 0.019736176122671163 -0.003294693639762686 0 0.019717897065557738 -0.0028097575951282748 0 0.021400759515599655 -0.0028845915856570586 0 0.024476101880490198 -0.0031091098591797704 0 0.021425492276079948 -0.0047463959548979424 0 0.02149440628226737 -0.0046719921128818044 0 0.021418832413318881 -0.0046931085853844697 0 0.02149440628226737 -0.0046719921128818044 0 0.021418832413318881 -0.0046931085853844697 0 0.021444566876142813 -0.0046333265563502464 0 0.030526192901603473 -0.0032753268363282097 0 0.029396616103801853 -0.0024043733665046292 0 0.030182117347112267 -0.0020068015803978369 0 0.024476101880490198 -0.0031091098591797704 0 0.025606638397155494 -0.0037368301755922747 0 0.030526192901603473 -0.0032753268363282097 0 0.031019323913022024 -0.001759264201524907 0 0.030182117347112267 -0.0020068015803978369 0 0.024476101880490198 -0.0031091098591797704 0 0.02981490929317852 -0.0016182622815110145 0 0.024901865409012878 -0.00202211354914097 0 0.025258681216134865 -0.00099108506506448272 0 0.025518702128158058 -0.0018195006806919819 0 0.021280537081189925 -0.0047134449042403829 0 0.021354796186836261 -0.0047074406067575784 0 0.021356519459010386 -0.0046713043194698475 0 0.021354796186836261 -0.0047074406067575784 0 0.021396520923139699 -0.0046680970654056067 0 0.021356519459010386 -0.0046713043194698475 0 0.021418832413318881 -0.0046931085853844697 0 0.021354796186836261 -0.0047074406067575784 0 0.021396520923139699 -0.0046680970654056067 0 0.021418832413318881 -0.0046931085853844697 0 0.021444566876142813 -0.0046333265563502464 0 0.021396520923139699 -0.0046680970654056067 0 0.021444566876142813 -0.0046333265563502464 0 0.021394296597188972 -0.0046348158260411986 0 0.021396520923139699 -0.0046680970654056067 0 0.025606638397155494 -0.0037368301755922747 0 0.022940808768061347 -0.0042836264186530987 0 0.021394296597188972 -0.0046348158260411986 0 0.021396520923139699 -0.0046680970654056067 0 0.021356519459010386 -0.0046713043194698475 0 0.021394296597188972 -0.0046348158260411986 0 0.021356519459010386 -0.0046713043194698475 0 0.021353004669347215 -0.0046348501899905635 0 0.022940808768061347 -0.0042836264186530987 0 0.024975382983650252 -0.0052553158703951041 0 0.028284598942635311 -0.0048090950175301963 0 0.02838333214983018 -0.004697579961399777 0 0.028362778835028499 -0.0046791569996887349 0 0.031640255773240034 -0.0040627402640867182 0 0.032105214538087026 -0.003912019796821836 0 0.032004967795627358 -0.0038217758509523068 0 0.025545204669046508 -0.0040109218376807778 0 0.025316489403918747 -0.0040011057781298154 0 0.02552371107764986 -0.003765708458005309 0 0.029824524550724915 -0.004442886648804001 0 0.030162348396947234 -0.0030561923139997824 0 0.028237608604090809 -0.0047365003805471002 0 0.028284598942635311 -0.0048090950175301963 0 0.028362778835028499 -0.0046791569996887349 0 0.024975382983650252 -0.0052553158703951041 0 0.028096152406133584 -0.0028091553655971891 0 0.028096152406133584 -0.0028091553655971891 0 0.030162348396947234 -0.0030561923139997824 0 0.028499324615210448 -0.00096068294894133472 0 0.029627404351744442 -0.0011988164732132827 0 0.029393547092151653 -0.0015185890877530263 0 0.025770302362843316 -0.0040240537626437499 0 0.025545204669046508 -0.0040109218376807778 0 0.02552371107764986 -0.003765708458005309 0 0.028220820823020281 -0.0012961717163033589 0 0.028499324615210448 -0.00096068294894133472 0 0.029393547092151653 -0.0015185890877530263 0 0.025606638397155494 -0.0037368301755922747 0 0.028096152406133584 -0.0028091553655971891 0 0.029396616103801853 -0.0024043733665046292 0 0.028220820823020281 -0.0012961717163033589 0 0.029393547092151653 -0.0015185890877530263 0 0.028096152406133584 -0.0028091553655971891 0 0.029480348744091219 -0.00176000329548052 0 0.029164771875400525 -0.00043846212133892879 0 0.028771604859238749 -0.00090704188638223587 0 0.030433122741246852 -0.00044047457037419709 0 0.03188523964022396 -0.0012086794864287897 0 0.03347404960905101 -0.0033946834668635187 0 0.036065021742667673 -0.0031564273746194616 0 0.036261665876646552 -0.0031139983833475813 0 0.036183712721399648 -0.0032484047647564165 0 0.031589750436276549 -0.0022116327420906847 0 0.031508707867190955 -0.0023137830090410212 0 0.031370992343567057 -0.0022995356552647432 0 0.03188523964022396 -0.0012086794864287897 0 0.029480348744091219 -0.00176000329548052 0 0.02897186179441984 -0.0026345644034344007 0 0.029243125584666421 -0.0023166819209228264 0 0.028764267212725125 -0.0024483817132795183 0 0.029480348744091219 -0.00176000329548052 0 0.030162348396947234 -0.0030561923139997824 0 0.031508707867190955 -0.0023137830090410212 0 0.031420156874094135 -0.0023440060871639068 0 0.031370992343567057 -0.0022995356552647432 0 0.030162348396947234 -0.0030561923139997824 0 0.03347404960905101 -0.0033946834668635187 0 0.036261665876646552 -0.0031139983833475813 0 0.03629827685195635 -0.0032489576434314603 0 0.036183712721399648 -0.0032484047647564165 0 0.036357197439156205 -0.0031960398120022791 0 0.036261665876646552 -0.0031139983833475813 0 0.03629827685195635 -0.0032489576434314603 0 0.036353405373629272 -0.0032491736292920722 0 0.036378939747527768 -0.0032804478530731925 0 0.03629827685195635 -0.0032489576434314603 0 0.035766043556288388 -0.0032760841292175688 0 0.036162258487978237 -0.0031273432381434211 0 0.035766043556288388 -0.0032760841292175688 0 0.03347404960905101 -0.0033946834668635187 0 0.031329540167534885 -0.0016906873311712848 0 0.030182117347112267 -0.0020068015803978369 0 0.030289350161582452 -0.0012535866328210548 0 0.02981490929317852 -0.0016182622815110145 0 0.030689498531525663 -0.0018442076994019284 0 0.031329540167534885 -0.0016906873311712848 0 0.030289350161582452 -0.0012535866328210548 0 0.030986601635057873 -0.00092679261405272247 0 0.031329540167534885 -0.0016906873311712848 0 0.030986601635057873 -0.00092679261405272247 0 0.0315776613926739 -0.0008859359283777871 0 0.029396616103801853 -0.0024043733665046292 0 0.030182117347112267 -0.0020068015803978369 0 0.029393547092151653 -0.0015185890877530263 0 0.029627404351744442 -0.0011988164732132827 0 0.029393547092151653 -0.0015185890877530263 0 0.030289350161582452 -0.0012535866328210548 0 0.029627404351744442 -0.0011988164732132827 0 0.030289350161582452 -0.0012535866328210548 0 0.029801584657165269 -0.00092245730929409664 0 0.030182117347112267 -0.0020068015803978369 0 0.029393547092151653 -0.0015185890877530263 0 0.030289350161582452 -0.0012535866328210548 0 0.029480348744091219 -0.00176000329548052 0 0.030029785175912933 -0.00026409511304813601 0 0.029164771875400525 -0.00043846212133892879 0 0.030433122741246852 -0.00044047457037419709 0 0.030808875136013367 0.0001088918981083802 0 0.028499324615210448 -0.00096068294894133472 0 0.029801584657165269 -0.00092245730929409664 0 0.030433122741246852 -0.00044047457037419709 0 0.028499324615210448 -0.00096068294894133472 0 0.029627404351744442 -0.0011988164732132827 0 0.029801584657165269 -0.00092245730929409664 0 0.030289350161582452 -0.0012535866328210548 0 0.029801584657165269 -0.00092245730929409664 0 0.030433122741246852 -0.00044047457037419709 0 0.03188523964022396 -0.0012086794864287897 0 0.030835574009264118 0.00023739189639324139 0 0.031295497032740267 -0.00041650337380627037 0 0.031852231166215314 -5.8231082972128102e-05 0 0.030808875136013367 0.0001088918981083802 0 0.030433122741246852 -0.00044047457037419709 0 0.031295497032740267 -0.00041650337380627037 0 0.030808875136013367 0.0001088918981083802 0 0.030289350161582452 -0.0012535866328210548 0 0.030433122741246852 -0.00044047457037419709 0 0.030986601635057873 -0.00092679261405272247 0 0.030433122741246852 -0.00044047457037419709 0 0.030986601635057873 -0.00092679261405272247 0 0.031295497032740267 -0.00041650337380627037 0 0.030986601635057873 -0.00092679261405272247 0 0.031295497032740267 -0.00041650337380627037 0 0.0315776613926739 -0.0008859359283777871 0 0.031295497032740267 -0.00041650337380627037 0 0.032097922206611784 -0.00052364888086116107 0 0.031852231166215314 -5.8231082972128102e-05 0 0.032097922206611784 -0.00052364888086116107 0 0.032432353717572672 -8.5033872285664812e-05 0 0.031852231166215314 -5.8231082972128102e-05 0 0.032097922206611784 -0.00052364888086116107 0 0.0315776613926739 -0.0008859359283777871 0 0.032336620864390882 -0.0012200848427266697 0 0.031295497032740267 -0.00041650337380627037 0 0.032097922206611784 -0.00052364888086116107 0 0.0315776613926739 -0.0008859359283777871 0 0.03269157393822824 -0.00042668141623032391 0 0.032336620864390882 -0.0012200848427266697 0 0.033232859819259344 -0.00081152712777858376 0 0.033122247986683583 -0.0001353540447229944 0 0.03269157393822824 -0.00042668141623032391 0 0.033232859819259344 -0.00081152712777858376 0 0.033122247986683583 -0.0001353540447229944 0 0.03269157393822824 -0.00042668141623032391 0 0.032833605253096469 -5.5852401627774967e-06 0 0.032097922206611784 -0.00052364888086116107 0 0.03269157393822824 -0.00042668141623032391 0 0.032432353717572672 -8.5033872285664812e-05 0 0.03269157393822824 -0.00042668141623032391 0 0.032833605253096469 -5.5852401627774967e-06 0 0.032432353717572672 -8.5033872285664812e-05 0 0.032097922206611784 -0.00052364888086116107 0 0.03269157393822824 -0.00042668141623032391 0 0.032336620864390882 -0.0012200848427266697 0 0.025871520763271493 -0.0008041905435306713 0 0.025688312653052596 -0.0012851466336773665 0 0.026107337193566879 -0.0015270315802318564 0 0.025871520763271493 -0.0008041905435306713 0 0.026107337193566879 -0.0015270315802318564 0 0.02648893161977009 -0.00061789930683376108 0 0.024133267453174508 -0.001144340872701981 0 0.026314139626538911 -0.00020009896527069709 0 0.029394914459434682 -0.00091507929659294547 0 0.026314139626538911 -0.00020009896527069709 0 0.031361408746457993 -0.0015413647264785123 0 0.0315776613926739 -0.0008859359283777871 0 0.032336620864390882 -0.0012200848427266697 0 0.025258681216134865 -0.00099108506506448272 0 0.025871520763271493 -0.0008041905435306713 0 0.025688312653052596 -0.0012851466336773665 0 0.02981490929317852 -0.0016182622815110145 0 0.029394914459434682 -0.00091507929659294547 0 0.02981490929317852 -0.0016182622815110145 0 0.031177795410742455 -0.00084015871653414021 0 0.025258681216134865 -0.00099108506506448272 0 0.025518702128158058 -0.0018195006806919819 0 0.025688312653052596 -0.0012851466336773665 0 0.025518702128158058 -0.0018195006806919819 0 0.025688312653052596 -0.0012851466336773665 0 0.026107337193566879 -0.0015270315802318564 0 0.021703258905745437 -0.0018349052631556539 0 0.024133267453174508 -0.001144340872701981 0 0.01878390660154242 -0.0020434790974038805 0 0.019779793745980847 -0.0025118692415433161 0 0.020744336868317722 -0.0011840595196840862 0 0.021703258905745437 -0.0018349052631556539 0 0.021283619212817032 -0.0010798456595987459 0 0.021960589697496716 -0.0011130776447017523 0 0.022124690449870008 -0.00070820022803067212 0 0.022360058366800037 -0.0008949436037627305 0 0.025468020067436339 -0.0025469301502877594 0 0.024901865409012878 -0.00202211354914097 0 0.025518702128158058 -0.0018195006806919819 0 0.025710798167515654 -0.0024274240209991812 0 0.025518702128158058 -0.0018195006806919819 0 0.026107337193566879 -0.0015270315802318564 0 0.025468020067436339 -0.0025469301502877594 0 0.025710798167515654 -0.0024274240209991812 0 0.025518702128158058 -0.0018195006806919819 0 0.020966999166579861 -0.0027662545884091388 0 0.021918470012529397 -0.0014243027121455794 0 0.022586654196100127 -0.0018780166179118321 0 0.021918470012529397 -0.0014243027121455794 0 0.020744336868317722 -0.0011840595196840862 0 0.022635529609838275 -0.00072671079311929072 0 0.021918470012529397 -0.0014243027121455794 0 0.022635529609838275 -0.00072671079311929072 0 0.02259458806879671 -0.0012508711382188823 0 0.021918470012529397 -0.0014243027121455794 0 0.022586654196100127 -0.0018780166179118321 0 0.02259458806879671 -0.0012508711382188823 0 0.020966999166579861 -0.0027662545884091388 0 0.021918470012529397 -0.0014243027121455794 0 0.020744336868317722 -0.0011840595196840862 0 0.022360058366800037 -0.0008949436037627305 0 0.022518602959385518 -0.00069239367006228996 0 0.022406325438201563 -0.0005854138278221264 0 0.022124690449870008 -0.00070820022803067212 0 0.022360058366800037 -0.0008949436037627305 0 0.022406325438201563 -0.0005854138278221264 0 0.021283619212817032 -0.0010798456595987459 0 0.022650612682258413 -0.00070253684800323471 0 0.022360058366800037 -0.0008949436037627305 0 0.022518602959385518 -0.00069239367006228996 0 0.022635529609838275 -0.00072671079311929072 0 0.022518602959385518 -0.00069239367006228996 0 0.022635529609838275 -0.00072671079311929072 0 0.022693026664350704 -0.00051859533619131367 0 0.022635529609838275 -0.00072671079311929072 0 0.022693026664350704 -0.00051859533619131367 0 0.022811970260341582 -0.00065217218394941626 0 0.022693026664350704 -0.00051859533619131367 0 0.022612942142569106 -0.00013067305379324304 0 0.023000112630241345 -0.00028035275063894211 0 0.022693026664350704 -0.00051859533619131367 0 0.022494731968726936 -0.00037889214774136431 0 0.022612942142569106 -0.00013067305379324304 0 0.022518602959385518 -0.00069239367006228996 0 0.022693026664350704 -0.00051859533619131367 0 0.022406325438201563 -0.0005854138278221264 0 0.022406325438201563 -0.0005854138278221264 0 0.022494731968726936 -0.00037889214774136431 0 0.022265954814697769 -0.00028493654019233196 0 0.022124690449870008 -0.00070820022803067212 0 0.022406325438201563 -0.0005854138278221264 0 0.022265954814697769 -0.00028493654019233196 0 0.022693026664350704 -0.00051859533619131367 0 0.022406325438201563 -0.0005854138278221264 0 0.022494731968726936 -0.00037889214774136431 0 0.023761716177202276 0.00016790497125996245 0 0.023548184985166594 0.00010970565445772584 0 0.023614924463058136 -6.104080966669648e-05 0 0.026314139626538911 -0.00020009896527069709 0 0.022518145802583611 -0.00016252738532565787 0 0.033122247986683583 -0.0001353540447229944 0 0.033232859819259344 -0.00081152712777858376 0 0.03333302560145094 0.00027694379147963051 0 0.026314139626538911 -0.00020009896527069709 0 0.028742258259201844 0.00013591258468827213 0 0.022494731968726936 -0.00037889214774136431 0 0.022265954814697769 -0.00028493654019233196 0 0.022612942142569106 -0.00013067305379324304 0 0.022518145802583611 -0.00016252738532565787 0 0.023449434945909696 4.4990549227344432e-05 0 0.023548184985166594 0.00010970565445772584 0 0.023487729783868386 -2.7083640905558101e-05 0 0.023276414130263136 -2.6882603934604005e-05 0 0.022612942142569106 -0.00013067305379324304 0 0.023000112630241345 -0.00028035275063894211 0 0.023276414130263136 -2.6882603934604005e-05 0 0.023548184985166594 0.00010970565445772584 0 0.023487729783868386 -2.7083640905558101e-05 0 0.023614924463058136 -6.104080966669648e-05 0 0.023487729783868386 -2.7083640905558101e-05 0 0.023507134771439873 -6.3905702654647593e-05 0 0.023276414130263136 -2.6882603934604005e-05 0 0.023487729783868386 -2.7083640905558101e-05 0 0.023507134771439873 -6.3905702654647593e-05 0 0.023614924463058136 -6.104080966669648e-05 0 0.023507134771439873 -6.3905702654647593e-05 0 0.023547872796318536 -9.3680021377147513e-05 0 0.023629769270542472 -3.1490436870400903e-05 0 0.023507134771439873 -6.3905702654647593e-05 0 0.023614924463058136 -6.104080966669648e-05 0 0.023547872796318536 -9.3680021377147513e-05 0 0.028742258259201844 0.00013591258468827213 0 0.027908729198217422 -0.00035473139547529623 0 0.033379701389431631 5.6141924727490169e-05 0 0.03333302560145094 0.00027694379147963051 0 0.032667642577758428 -0.00052356197234997362 0 0.033405579598329481 -0.00022044538641635897 0 0.033379701389431631 5.6141924727490169e-05 0 0.032667642577758428 -0.00052356197234997362 0 0.033405579598329481 -0.00022044538641635897 0 0.033379701389431631 5.6141924727490169e-05 0 0.033634378834306491 -2.6405475582294529e-05 0 0.033379701389431631 5.6141924727490169e-05 0 0.03333302560145094 0.00027694379147963051 0 0.033255146731730169 0.00022139880861514718 0 0.033122247986683583 -0.0001353540447229944 0 0.03333302560145094 0.00027694379147963051 0 0.033255146731730169 0.00022139880861514718 0 0.033376397893271396 0.0002041997879825102 0 0.03304153746244768 0.0005640219299331698 0 0.033122247986683583 -0.0001353540447229944 0 0.033255146731730169 0.00022139880861514718 0 0.032833605253096469 -5.5852401627774967e-06 0 0.033255146731730169 0.00022139880861514718 0 0.034255444863823155 0.00015648992042286672 0 0.033634378834306491 -2.6405475582294529e-05 0 0.033255146731730169 0.00022139880861514718 0 0.032624023141622112 0.00045744316600953433 0 0.032277395805754165 0.00064634946778620338 0 0.033255146731730169 0.00022139880861514718 0 0.032833605253096469 -5.5852401627774967e-06 0 0.032624023141622112 0.00045744316600953433 0 0.032833605253096469 -5.5852401627774967e-06 0 0.032432353717572672 -8.5033872285664812e-05 0 0.032624023141622112 0.00045744316600953433 0 0.033379701389431631 5.6141924727490169e-05 0 0.033255146731730169 0.00022139880861514718 0 0.033634378834306491 -2.6405475582294529e-05 0 0.032702868198766111 0.0004524067650267263 0 0.030835574009264118 0.00023739189639324139 0 0.032624023141622112 0.00045744316600953433 0 0.032277395805754165 0.00064634946778620338 0 0.031620641141003887 0.00021047183831401816 0 0.032624023141622112 0.00045744316600953433 0 0.031852231166215314 -5.8231082972128102e-05 0 0.030808875136013367 0.0001088918981083802 0 0.032432353717572672 -8.5033872285664812e-05 0 0.032624023141622112 0.00045744316600953433 0 0.031852231166215314 -5.8231082972128102e-05 0 0.034641996599328193 -0.00026489711696018578 0 0.034148645034562199 -0.00061299055574770187 0 0.035270530605420319 -0.00046272621857642329 0 0.034255444863823155 0.00015648992042286672 0 0.034641996599328193 -0.00026489711696018578 0 0.035474689446700694 -0.00019164752487393013 0 0.034255444863823155 0.00015648992042286672 0 0.034641996599328193 -0.00026489711696018578 0 0.033942941812489566 -0.0002223444823155359 0 0.034641996599328193 -0.00026489711696018578 0 0.033942941812489566 -0.0002223444823155359 0 0.034148645034562199 -0.00061299055574770187 0 0.033462436784436597 -0.00022620961662691858 0 0.034849270629824083 -0.00052241360841202931 0 0.033405579598329481 -0.00022044538641635897 0 0.033634378834306491 -2.6405475582294529e-05 0 0.033942941812489566 -0.0002223444823155359 0 0.033405579598329481 -0.00022044538641635897 0 0.033942941812489566 -0.0002223444823155359 0 0.034148645034562199 -0.00061299055574770187 0 0.034255444863823155 0.00015648992042286672 0 0.033634378834306491 -2.6405475582294529e-05 0 0.033942941812489566 -0.0002223444823155359 0 0.033405579598329481 -0.00022044538641635897 0 0.034209556201768389 -0.00090951602721186262 0 0.03528058188842572 -0.00037740019744338191 0 0.034209556201768389 -0.00090951602721186262 0 0.034924783631412187 -0.0013690710858844885 0 0.03528058188842572 -0.00037740019744338191 0 0.034209556201768389 -0.00090951602721186262 0 0.034050341850348442 -0.0017549952115454895 0 0.03339455239672684 -0.00090907587867776029 0 0.034209556201768389 -0.00090951602721186262 0 0.034924783631412187 -0.0013690710858844885 0 0.034050341850348442 -0.0017549952115454895 0 0.034924783631412187 -0.0013690710858844885 0 0.03528058188842572 -0.00037740019744338191 0 0.03593187253317582 -0.0016973284195467512 0 0.03528058188842572 -0.00037740019744338191 0 0.03593187253317582 -0.0016973284195467512 0 0.037131950269303833 -0.00074553375513110483 0 0.03593187253317582 -0.0016973284195467512 0 0.034992480030351013 -0.0022008720585114535 0 0.035821180565756075 -0.0032439694481706379 0 0.034924783631412187 -0.0013690710858844885 0 0.03593187253317582 -0.0016973284195467512 0 0.034992480030351013 -0.0022008720585114535 0 0.034050341850348442 -0.0017549952115454895 0 0.033574514757939773 -0.0024603924850922971 0 0.034238701081951151 -0.0030098085999636535 0 0.034050341850348442 -0.0017549952115454895 0 0.034992480030351013 -0.0022008720585114535 0 0.034238701081951151 -0.0030098085999636535 0 0.034924783631412187 -0.0013690710858844885 0 0.034050341850348442 -0.0017549952115454895 0 0.034992480030351013 -0.0022008720585114535 0 0.033574514757939773 -0.0024603924850922971 0 0.033049452063987947 -0.0017226437976802372 0 0.032926999723182852 -0.0030950071540694814 0 0.034050341850348442 -0.0017549952115454895 0 0.033574514757939773 -0.0024603924850922971 0 0.033049452063987947 -0.0017226437976802372 0 0.033049452063987947 -0.0017226437976802372 0 0.031948391416479698 -0.0020835699210803344 0 0.032926999723182852 -0.0030950071540694814 0 0.029171495376319353 -0.0008294129568532548 0 0.033045744725173271 -0.00070159660478965376 0 0.033049452063987947 -0.0017226437976802372 0 0.031948391416479698 -0.0020835699210803344 0 0.032667642577758428 -0.00052356197234997362 0 0.023580261287475965 0.00064979772027495906 0 0.023708053085222627 0.00010207626795543595 0 0.023547872796318536 -9.3680021377147513e-05 0 0.029171495376319353 -0.0008294129568532548 0 0.027908729198217422 -0.00035473139547529623 0 0.023580261287475965 0.00064979772027495906 0 0.023708053085222627 0.00010207626795543595 0 0.023884880772593254 0.00015120177274459599 0 0.023708053085222627 0.00010207626795543595 0 0.023547872796318536 -9.3680021377147513e-05 0 0.023629769270542472 -3.1490436870400903e-05 0 0.033405579598329481 -0.00022044538641635897 0 0.032667642577758428 -0.00052356197234997362 0 0.03339455239672684 -0.00090907587867776029 0 0.033049452063987947 -0.0017226437976802372 0 0.032667642577758428 -0.00052356197234997362 0 0.03339455239672684 -0.00090907587867776029 0 0.033405579598329481 -0.00022044538641635897 0 0.034209556201768389 -0.00090951602721186262 0 0.03339455239672684 -0.00090907587867776029 0 0.034050341850348442 -0.0017549952115454895 0 0.033049452063987947 -0.0017226437976802372 0 0.03339455239672684 -0.00090907587867776029 0 0.036384668949997867 -0.0034584254697695954 0 0.036246434883298422 -0.0034632260955633925 0 0.036230370321484295 -0.0035786985572509849 0 0.035530340102801948 -0.0040537398932056533 0 0.039171478415312988 -0.0020435928378628411 0 0.036246434883298422 -0.0034632260955633925 0 0.036308905850971837 -0.0033941314041036081 0 0.036188720161106136 -0.0033680028215866947 0 0.036384668949997867 -0.0034584254697695954 0 0.036246434883298422 -0.0034632260955633925 0 0.036308905850971837 -0.0033941314041036081 0 0.036384747848898211 -0.0033656821376312511 0 0.036384668949997867 -0.0034584254697695954 0 0.036308905850971837 -0.0033941314041036081 0 0.036384747848898211 -0.0033656821376312511 0 0.03635382762496072 -0.0033063716423691269 0 0.036282586369687425 -0.003325610860040754 0 0.036384747848898211 -0.0033656821376312511 0 0.036308905850971837 -0.0033941314041036081 0 0.036282586369687425 -0.003325610860040754 0 0.036378939747527768 -0.0032804478530731925 0 0.03635382762496072 -0.0033063716423691269 0 0.03629827685195635 -0.0032489576434314603 0 0.03635382762496072 -0.0033063716423691269 0 0.03629827685195635 -0.0032489576434314603 0 0.036282586369687425 -0.003325610860040754 0 0.03629827685195635 -0.0032489576434314603 0 0.036282586369687425 -0.003325610860040754 0 0.036183712721399648 -0.0032484047647564165 0 0.036282586369687425 -0.003325610860040754 0 0.036188720161106136 -0.0033680028215866947 0 0.036183712721399648 -0.0032484047647564165 0 0.036308905850971837 -0.0033941314041036081 0 0.036282586369687425 -0.003325610860040754 0 0.036188720161106136 -0.0033680028215866947 0 0.036188720161106136 -0.0033680028215866947 0 0.036183712721399648 -0.0032484047647564165 0 0.036075716192844859 -0.0032956845622744294 0 0.036065021742667673 -0.0031564273746194616 0 0.036183712721399648 -0.0032484047647564165 0 0.036075716192844859 -0.0032956845622744294 0 0.036065021742667673 -0.0031564273746194616 0 0.036075716192844859 -0.0032956845622744294 0 0.035944222829802155 -0.0032819426171799703 0 0.036188720161106136 -0.0033680028215866947 0 0.036075716192844859 -0.0032956845622744294 0 0.036014624822273154 -0.0035024258651183303 0 0.036246434883298422 -0.0034632260955633925 0 0.036014624822273154 -0.0035024258651183303 0 0.036230370321484295 -0.0035786985572509849 0 0.036246434883298422 -0.0034632260955633925 0 0.036188720161106136 -0.0033680028215866947 0 0.036014624822273154 -0.0035024258651183303 0 0.036464594198452292 -0.0020400184620988394 0 0.034388497296048454 -0.0011948573592459831 0 0.036990771146646853 -0.0005413095475966602 0 0.035553431402596737 -7.7695348734460357e-05 0 0.035828484035955066 -0.00060568733835572196 0 0.036014624822273154 -0.0035024258651183303 0 0.035944222829802155 -0.0032819426171799703 0 0.035802585374055569 -0.0034203550265451861 0 0.033620797539730622 -0.0014392085977586034 0 0.034388497296048454 -0.0011948573592459831 0 0.036075716192844859 -0.0032956845622744294 0 0.036014624822273154 -0.0035024258651183303 0 0.035944222829802155 -0.0032819426171799703 0 0.030877393392403567 -3.6074512846753888e-05 0 0.031209850475970816 0.00037705503565172268 0 0.031620641141003887 0.00021047183831401816 0 0.03188523964022396 -0.0012086794864287897 0 0.033620797539730622 -0.0014392085977586034 0 0.031209850475970816 0.00037705503565172268 0 0.031563274450574649 0.00051199171907863425 0 0.031569110672558846 0.00083561935290941242 0 0.032277395805754165 0.00064634946778620338 0 0.031620641141003887 0.00021047183831401816 0 0.031756671855750353 0.00055178006921268363 0 0.031563274450574649 0.00051199171907863425 0 0.031620641141003887 0.00021047183831401816 0 0.031756671855750353 0.00055178006921268363 0 0.031209850475970816 0.00037705503565172268 0 0.031563274450574649 0.00051199171907863425 0 0.031620641141003887 0.00021047183831401816 0 0.03304153746244768 0.0005640219299331698 0 0.034388497296048454 -0.0011948573592459831 0 0.032277395805754165 0.00064634946778620338 0 0.031756671855750353 0.00055178006921268363 0 0.031569110672558846 0.00083561935290941242 0 0.031563274450574649 0.00051199171907863425 0 0.031756671855750353 0.00055178006921268363 0 0.031569110672558846 0.00083561935290941242 0 0.035553431402596737 -7.7695348734460357e-05 0 0.035828484035955066 -0.00060568733835572196 0 0.035270530605420319 -0.00046272621857642329 0 0.034388497296048454 -0.0011948573592459831 0 0.035046257210404164 -0.00051305578210848724 0 0.034641996599328193 -0.00026489711696018578 0 0.035474689446700694 -0.00019164752487393013 0 0.035270530605420319 -0.00046272621857642329 0 0.034148645034562199 -0.00061299055574770187 0 0.035270530605420319 -0.00046272621857642329 0 0.035592268672483648 -0.0011434449730016976 0 0.034849270629824083 -0.00052241360841202931 0 0.035803210362055943 -0.00096206337688850107 0 0.035828484035955066 -0.00060568733835572196 0 0.035270530605420319 -0.00046272621857642329 0 0.035592268672483648 -0.0011434449730016976 0 0.03593187253317582 -0.0016973284195467512 0 0.037391001352261963 -0.0022630386188946445 0 0.035821180565756075 -0.0032439694481706379 0 0.03593187253317582 -0.0016973284195467512 0 0.037131950269303833 -0.00074553375513110483 0 0.037391001352261963 -0.0022630386188946445 0 0.041297399251397977 -0.001088690166217254 0 0.041169920765483196 -0.00058477982342825473 0 0.044826486992991299 -4.8389994584507004e-05 0 0.044816755632455532 -0.00010627584373182197 0 0.044832599052177638 -8.1267996659706743e-05 0 0.044826486992991299 -4.8389994584507004e-05 0 0.044832599052177638 -8.1267996659706743e-05 0 0.044861476328863593 -6.9784043655104252e-05 0 0.037131950269303833 -0.00074553375513110483 0 0.037391001352261963 -0.0022630386188946445 0 0.039037457009043201 -0.0011802180940670959 0 0.036990771146646853 -0.0005413095475966602 0 0.035828484035955066 -0.00060568733835572196 0 0.035592268672483648 -0.0011434449730016976 0 0.036990771146646853 -0.0005413095475966602 0 0.035592268672483648 -0.0011434449730016976 0 0.037586707719119539 -0.0016872132382020301 0 0.035803210362055943 -0.00096206337688850107 0 0.041169920765483196 -0.00058477982342825473 0 0.036990771146646853 -0.0005413095475966602 0 0.037586707719119539 -0.0016872132382020301 0 0.038508312226252929 -0.0010770557628163033 0 0.036464594198452292 -0.0020400184620988394 0 0.039171478415312988 -0.0020435928378628411 0 0.045046243241213209 -0.00067416921131849684 0 0.041169920765483196 -0.00058477982342825473 0 0.041169920765483196 -0.00058477982342825473 0 0.039171478415312988 -0.0020435928378628411 0 0.044791802317164606 -0.00010574983651413103 0 0.044705788935302658 -0.0001008299716379212 0 0.044773674779321725 -8.312296466994784e-05 0 0.044832599052177638 -8.1267996659706743e-05 0 0.044836536868129009 -8.7459675152541246e-05 0 0.044861476328863593 -6.9784043655104252e-05 0 0.044791802317164606 -0.00010574983651413103 0 0.044832599052177638 -8.1267996659706743e-05 0 0.044836536868129009 -8.7459675152541246e-05 0 0.044791802317164606 -0.00010574983651413103 0 0.044816755632455532 -0.00010627584373182197 0 0.044832599052177638 -8.1267996659706743e-05 0 0.044826996215621376 -9.8041755129036685e-05 0 0.044836536868129009 -8.7459675152541246e-05 0 0.044809380116733445 -0.00010501599052405285 0 0.044791802317164606 -0.00010574983651413103 0 0.044836536868129009 -8.7459675152541246e-05 0 0.044809380116733445 -0.00010501599052405285 0 0.04480460483463377 -0.00011418541416688288 0 0.044809380116733445 -0.00010501599052405285 0 0.044773674779321725 -8.312296466994784e-05 0 0.036441116118962759 -0.0035135159894076297 0 0.036384668949997867 -0.0034584254697695954 0 0.036395430728191507 -0.0034679455473771471 0 0.040996967525400059 -0.0017256764849138942 0 0.039171478415312988 -0.0020435928378628411 0 0.044791802317164606 -0.00010574983651413103 0 0.044809380116733445 -0.00010501599052405285 0 0.044773674779321725 -8.312296466994784e-05 0 0.044910899324709236 -5.0005082094130505e-05 0 0.04486229450956021 -7.8235959744558063e-05 0 0.044888112277559504 -6.8711464737419338e-05 0 0.044910899324709236 -5.0005082094130505e-05 0 0.044888112277559504 -6.8711464737419338e-05 0 0.044922054439540726 -5.2697245150360983e-05 0 0.044826996215621376 -9.8041755129036685e-05 0 0.044836536868129009 -8.7459675152541246e-05 0 0.04486229450956021 -7.8235959744558063e-05 0 0.044836536868129009 -8.7459675152541246e-05 0 0.04486229450956021 -7.8235959744558063e-05 0 0.044888112277559504 -6.8711464737419338e-05 0 0.044836536868129009 -8.7459675152541246e-05 0 0.044861476328863593 -6.9784043655104252e-05 0 0.044888112277559504 -6.8711464737419338e-05 0 0.044861476328863593 -6.9784043655104252e-05 0 0.044888112277559504 -6.8711464737419338e-05 0 0.044900401283354624 -7.6094750868236518e-05 0 0.044888112277559504 -6.8711464737419338e-05 0 0.044900401283354624 -7.6094750868236518e-05 0 0.044922054439540726 -5.2697245150360983e-05 0 0.044900401283354624 -7.6094750868236518e-05 0 0.044841927366980679 -7.0212698996852639e-05 0 0.044906194154934242 -9.9597099873943129e-05 0 0.044861476328863593 -6.9784043655104252e-05 0 0.044900401283354624 -7.6094750868236518e-05 0 0.044841927366980679 -7.0212698996852639e-05 0 0.044826486992991299 -4.8389994584507004e-05 0 0.044861476328863593 -6.9784043655104252e-05 0 0.044841927366980679 -7.0212698996852639e-05 0 0.041297399251397977 -0.001088690166217254 0 0.039940297774994249 -0.0017975093942014838 0 0.044826486992991299 -4.8389994584507004e-05 0 0.044841927366980679 -7.0212698996852639e-05 0 0.044684708178474725 -3.580559756353928e-05 0 0.044841927366980679 -7.0212698996852639e-05 0 0.044906194154934242 -9.9597099873943129e-05 0 0.044693749000986389 -0.00018439319765576392 0 0.044841927366980679 -7.0212698996852639e-05 0 0.044684708178474725 -3.580559756353928e-05 0 0.044693749000986389 -0.00018439319765576392 0 0.044619078325921137 -6.9178905594172453e-05 0 0.045548230288602887 -0.00013115856632789306 0 0.044971998551861958 -4.4280193962088337e-05 0 0.044906194154934242 -9.9597099873943129e-05 0 0.044942833197604046 -4.6266354691523406e-05 0 0.044971998551861958 -4.4280193962088337e-05 0 0.044906194154934242 -9.9597099873943129e-05 0 0.044969436742562444 -7.6607729300921635e-05 0 0.044971998551861958 -4.4280193962088337e-05 0 0.044999943939892192 -5.6320432653362414e-09 0 0.044999970062397747 -7.2582768028522486e-08 0 0.044999943939892192 -5.6320432653362414e-09 0 0.044942833197604046 -4.6266354691523406e-05 0 0.044999921726076982 -3.3814963371430644e-08 0 0.044971998551861958 -4.4280193962088337e-05 0 0.044999943939892192 -5.6320432653362414e-09 0 0.044942833197604046 -4.6266354691523406e-05 0 0.044900401283354624 -7.6094750868236518e-05 0 0.044906194154934242 -9.9597099873943129e-05 0 0.044942833197604046 -4.6266354691523406e-05 0 0.044942833197604046 -4.6266354691523406e-05 0 0.044922054439540726 -5.2697245150360983e-05 0 0.044957005635104151 -2.7712940190723102e-05 0 0.044900401283354624 -7.6094750868236518e-05 0 0.044942833197604046 -4.6266354691523406e-05 0 0.044922054439540726 -5.2697245150360983e-05 0 0.044942833197604046 -4.6266354691523406e-05 0 0.044999921726076982 -3.3814963371430644e-08 0 0.044957005635104151 -2.7712940190723102e-05 0 0.044999943738143054 -1.3454383101229866e-08 0 0.044999921726076982 -3.3814963371430644e-08 0 0.044957005635104151 -2.7712940190723102e-05 0 0.044910899324709236 -5.0005082094130505e-05 0 0.044922054439540726 -5.2697245150360983e-05 0 0.044957005635104151 -2.7712940190723102e-05 0 0.041036120294041155 -0.0011427822524830782 0 0.041036422920639352 -0.001153255141720362 0 0.041007803470499614 -0.0011342918493343691 0 0.038462186767137162 -0.0019658855834846249 0 0.040278219780516641 -0.0014717345610288811 0 0.043996506084738776 -0.00014387922210397819 0 0.040936974845815884 -0.0015099306747112199 0 0.041036120294041155 -0.0011427822524830782 0 0.041036422920639352 -0.001153255141720362 0 0.041041700289311922 -0.0011475542049316342 0 0.043996506084738776 -0.00014387922210397819 0 0.040278219780516641 -0.0014717345610288811 0 0.040278219780516641 -0.0014717345610288811 0 0.039904322723232119 -1.8626535995759052e-05 0 0.044858067698041217 6.2653169964922831e-05 0 0.044847019884764507 8.3528828823263755e-05 0 0.044777355260350538 0.00010413152181234652 0 0.044868141304722976 5.8835706917793869e-05 0 0.044858067698041217 6.2653169964922831e-05 0 0.044847019884764507 8.3528828823263755e-05 0 0.033966625901733084 0.00058477759364813312 0 0.03608132083201776 -0.0015245925091900837 0 0.03336072653927627 -0.00096751201256344422 0 0.038976766487049661 -0.0016541718631455555 0 0.037215461962231411 0.00013996547529043034 0 0.036699820024954838 -0.0011755472690815291 0 0.035436992518906613 -0.0030599024936077126 0 0.03608132083201776 -0.0015245925091900837 0 0.03336072653927627 -0.00096751201256344422 0 0.040278219780516641 -0.0014717345610288811 0 0.033045744725173271 -0.00070159660478965376 0 0.029171495376319353 -0.0008294129568532548 0 0.034792312454728164 -0.0026202630714770229 0 0.033948790346735987 -0.0041053259693475267 0 0.032926999723182852 -0.0030950071540694814 0 0.034238701081951151 -0.0030098085999636535 0 0.038169200799751682 -0.0036208117815310962 0 0.035436992518906613 -0.0030599024936077126 0 0.03608132083201776 -0.0015245925091900837 0 0.033574514757939773 -0.0024603924850922971 0 0.032926999723182852 -0.0030950071540694814 0 0.034238701081951151 -0.0030098085999636535 0 0.038462186767137162 -0.0019658855834846249 0 0.034792312454728164 -0.0026202630714770229 0 0.034238701081951151 -0.0030098085999636535 0 0.035821180565756075 -0.0032439694481706379 0 0.03436578325487135 -0.0041910046502665697 0 0.034992480030351013 -0.0022008720585114535 0 0.034238701081951151 -0.0030098085999636535 0 0.035821180565756075 -0.0032439694481706379 0 0.045548230288602887 -0.00013115856632789306 0 0.040829880415048467 -0.0016980831470754616 0 0.044684708178474725 -3.580559756353928e-05 0 0.044693749000986389 -0.00018439319765576392 0 0.044405366870429237 -0.00016866948591373195 0 0.039940297774994249 -0.0017975093942014838 0 0.040829880415048467 -0.0016980831470754616 0 0.044969436742562444 -7.6607729300921635e-05 0 0.044946243624170247 -6.4297563242501668e-05 0 0.044965279268934885 -6.5910238500302811e-05 0 0.044938732675355662 -6.7866165556320244e-05 0 0.044944049713945639 -6.4765236274709522e-05 0 0.044965279268934885 -6.5910238500302811e-05 0 0.033948790346735987 -0.0041053259693475267 0 0.034238701081951151 -0.0030098085999636535 0 0.03436578325487135 -0.0041910046502665697 0 0.039624592206948896 -0.0018174145466759851 0 0.040566490414727777 -0.0020153976548279635 0 0.040118293142148036 -0.0023176129651079989 0 0.038462186767137162 -0.0019658855834846249 0 0.040829880415048467 -0.0016980831470754616 0 0.038462186767137162 -0.0019658855834846249 0 0.040936974845815884 -0.0015099306747112199 0 0.044946243624170247 -6.4297563242501668e-05 0 0.044944049713945639 -6.4765236274709522e-05 0 0.044965279268934885 -6.5910238500302811e-05 0 0.040829880415048467 -0.0016980831470754616 0 0.040936974845815884 -0.0015099306747112199 0 0.043996506084738776 -0.00014387922210397819 0 0.04510898519140355 -5.3805594635312572e-05 0 0.044938732675355662 -6.7866165556320244e-05 0 0.044978657300169811 -5.3435970398921563e-05 0 0.044965279268934885 -6.5910238500302811e-05 0 0.044971998551861958 -4.4280193962088337e-05 0 0.044978657300169811 -5.3435970398921563e-05 0 0.044965279268934885 -6.5910238500302811e-05 0 0.044971998551861958 -4.4280193962088337e-05 0 0.044969436742562444 -7.6607729300921635e-05 0 0.044965279268934885 -6.5910238500302811e-05 0 0.04510898519140355 -5.3805594635312572e-05 0 0.044999879416511006 8.696112639111135e-08 0 0.044971998551861958 -4.4280193962088337e-05 0 0.044978657300169811 -5.3435970398921563e-05 0 0.044999970062397747 -7.2582768028522486e-08 0 0.045006379943477663 1.3818867624386465e-05 0 0.044999995854962019 -3.8352894869857405e-09 0 0.045000039639836863 1.7640640898835365e-08 0 0.045006379943477663 1.3818867624386465e-05 0 0.045000039639836863 1.7640640898835365e-08 0 0.044980846582083851 1.5013553806494892e-05 0 0.045000039639836863 1.7640640898835365e-08 0 0.044980846582083851 1.5013553806494892e-05 0 0.044999789720649767 -3.9158626806881276e-08 0 0.044978568052847105 6.4790207797375276e-05 0 0.044980846582083851 1.5013553806494892e-05 0 0.044907259242613809 3.4948432680059314e-05 0 0.044978568052847105 6.4790207797375276e-05 0 0.045006379943477663 1.3818867624386465e-05 0 0.044980846582083851 1.5013553806494892e-05 0 0.043996506084738776 -0.00014387922210397819 0 0.045216309188606967 0.00018879888470036692 0 0.044868141304722976 5.8835706917793869e-05 0 0.044858067698041217 6.2653169964922831e-05 0 0.044907259242613809 3.4948432680059314e-05 0 0.044858067698041217 6.2653169964922831e-05 0 0.044907259242613809 3.4948432680059314e-05 0 0.0448386907252082 4.2216812747699596e-05 0 0.044980846582083851 1.5013553806494892e-05 0 0.044907259242613809 3.4948432680059314e-05 0 0.044999789720649767 -3.9158626806881276e-08 0 0.045000003591583612 5.6541043309706448e-10 0 0.044999990400842953 -8.7254770580194288e-10 0 0.044990433483539226 -8.4267216840086453e-07 0 0.04500025948284786 -1.9108201772574555e-08 0 0.044502949877136225 -7.3593075345095219e-05 0 0.044907259242613809 3.4948432680059314e-05 0 0.044999789720649767 -3.9158626806881276e-08 0 0.0448386907252082 4.2216812747699596e-05 0 0.045000219712085975 8.6060858840327245e-08 0 0.044502949877136225 -7.3593075345095219e-05 0 0.044999992276885288 -8.043397238394085e-09 0 0.04499999468406244 1.5972083795411946e-08 0 0.044982719045194873 1.0036019560915936e-05 0 0.044999992276885288 -8.043397238394085e-09 0 0.044982719045194873 1.0036019560915936e-05 0 0.044991076910250609 2.3111509446702007e-05 0 0.04499999468406244 1.5972083795411946e-08 0 0.044982719045194873 1.0036019560915936e-05 0 0.04495721403745194 5.6858048832972627e-06 0 0.044982719045194873 1.0036019560915936e-05 0 0.044953594559615763 2.5800035470151451e-05 0 0.04495721403745194 5.6858048832972627e-06 0 0.044953594559615763 2.5800035470151451e-05 0 0.044978051903224417 2.9325783118007593e-05 0 0.04494292740442539 6.2365060072123345e-05 0 0.044982719045194873 1.0036019560915936e-05 0 0.044953594559615763 2.5800035470151451e-05 0 0.044978051903224417 2.9325783118007593e-05 0 0.044982719045194873 1.0036019560915936e-05 0 0.044978051903224417 2.9325783118007593e-05 0 0.044991076910250609 2.3111509446702007e-05 0 0.044978051903224417 2.9325783118007593e-05 0 0.044991076910250609 2.3111509446702007e-05 0 0.044975045283741015 4.2134977547916773e-05 0 0.044858067698041217 6.2653169964922831e-05 0 0.0448386907252082 4.2216812747699596e-05 0 0.044777355260350538 0.00010413152181234652 0 0.044502949877136225 -7.3593075345095219e-05 0 0.039904322723232119 -1.8626535995759052e-05 0 0.04254785875418228 -0.00025107105101523317 0 0.042436038501965874 -7.0222368156248522e-05 0 0.042479680358285234 8.3702887963323143e-05 0 0.044502949877136225 -7.3593075345095219e-05 0 0.043409533337155526 0.00010050661657143814 0 0.043409533337155526 0.00010050661657143814 0 0.041970704134073542 0.00038030910357426083 0 0.043409533337155526 0.00010050661657143814 0 0.039904322723232119 -1.8626535995759052e-05 0 0.041940588981585716 0.00025597173016547753 0 0.041939252011489514 0.00025142629620694462 0 0.041931253465381707 0.00025114198385849313 0 0.044510189049609419 0.00029469237053109381 0 0.043409533337155526 0.00010050661657143814 0 0.044978051903224417 2.9325783118007593e-05 0 0.044983840323208742 6.2308474555331568e-05 0 0.04494292740442539 6.2365060072123345e-05 0 0.044953594559615763 2.5800035470151451e-05 0 0.04494292740442539 6.2365060072123345e-05 0 0.044891985531612132 4.1872608401849572e-05 0 0.044983840323208742 6.2308474555331568e-05 0 0.04494292740442539 6.2365060072123345e-05 0 0.044959691980437075 0.00010907199729215335 0 0.04494292740442539 6.2365060072123345e-05 0 0.044959691980437075 0.00010907199729215335 0 0.044875203878953961 0.00013175993539831944 0 0.041970704134073542 0.00038030910357426083 0 0.044984405998858792 0.00014482058951314689 0 0.043591277673357229 0.00042565411288689463 0 0.044085092663355738 0.00031603147747529746 0 0.043848243263240161 -3.1236554135422143e-05 0 0.036695690529204267 -0.00021773781572637232 0 0.036808411391204041 -0.00024197321311765054 0 0.036759133547638316 -7.0508694086386561e-05 0 0.035425975069896296 -0.0001907446117957686 0 0.035451593907522373 -0.00019501917507508756 0 0.035409018749459939 -0.00018741424261614875 0 0.039904322723232119 -1.8626535995759052e-05 0 0.031944318674252875 -0.00027087134818932752 0 0.033045744725173271 -0.00070159660478965376 0 0.031944318674252875 -0.00027087134818932752 0 0.033045744725173271 -0.00070159660478965376 0 0.039904322723232119 -1.8626535995759052e-05 0 0.041970704134073542 0.00038030910357426083 0 0.039904322723232119 -1.8626535995759052e-05 0 0.044984405998858792 0.00014482058951314689 0 0.044412811103786809 0.00016877713626250673 0 0.044875203878953961 0.00013175993539831944 0 0.044783930268897564 6.3618112237593446e-05 0 0.044626030671541979 0.00011282228625037822 0 0.044875203878953961 0.00013175993539831944 0 0.044891985531612132 4.1872608401849572e-05 0 0.044783930268897564 6.3618112237593446e-05 0 0.04494292740442539 6.2365060072123345e-05 0 0.044875203878953961 0.00013175993539831944 0 0.044891985531612132 4.1872608401849572e-05 0 0.044891985531612132 4.1872608401849572e-05 0 0.044783930268897564 6.3618112237593446e-05 0 0.044832580230469397 1.720441033847039e-05 0 0.044891985531612132 4.1872608401849572e-05 0 0.044832580230469397 1.720441033847039e-05 0 0.04495721403745194 5.6858048832972627e-06 0 0.044953594559615763 2.5800035470151451e-05 0 0.044891985531612132 4.1872608401849572e-05 0 0.04495721403745194 5.6858048832972627e-06 0 0.04499999468406244 1.5972083795411946e-08 0 0.04495721403745194 5.6858048832972627e-06 0 0.044999778156717039 -5.9330508059523029e-08 0 0.044882662455300953 2.45114208553593e-05 0 0.044999957881599939 1.5428348419096463e-08 0 0.044832580230469397 1.720441033847039e-05 0 0.04495721403745194 5.6858048832972627e-06 0 0.044999778156717039 -5.9330508059523029e-08 0 0.044943437108761648 2.8703862692201766e-05 0 0.045000029135311793 1.5049809579873479e-08 0 0.044999889404778899 -6.2670176404400187e-09 0 0.044943437108761648 2.8703862692201766e-05 0 0.044999889404778899 -6.2670176404400187e-09 0 0.044861164838730573 4.2354955485575041e-05 0 0.044999889404778899 -6.2670176404400187e-09 0 0.044932948677417477 2.3334693972761212e-05 0 0.044861164838730573 4.2354955485575041e-05 0 0.044999889404778899 -6.2670176404400187e-09 0 0.044999898771285039 3.2615945992282109e-08 0 0.044932948677417477 2.3334693972761212e-05 0 0.044932948677417477 2.3334693972761212e-05 0 0.044885086131796349 2.9362581107146341e-05 0 0.044861164838730573 4.2354955485575041e-05 0 0.044999898771285039 3.2615945992282109e-08 0 0.04494222645868267 2.2695045147510681e-05 0 0.044999955151185739 1.5283458121401582e-08 0 0.044999898771285039 3.2615945992282109e-08 0 0.044932948677417477 2.3334693972761212e-05 0 0.04494222645868267 2.2695045147510681e-05 0 0.044932948677417477 2.3334693972761212e-05 0 0.04494222645868267 2.2695045147510681e-05 0 0.044885086131796349 2.9362581107146341e-05 0 0.04494222645868267 2.2695045147510681e-05 0 0.044885086131796349 2.9362581107146341e-05 0 0.044888506992256515 5.6934459716137249e-06 0 0.04494222645868267 2.2695045147510681e-05 0 0.044888506992256515 5.6934459716137249e-06 0 0.044941381782313203 1.1977517694099583e-05 0 0.044885086131796349 2.9362581107146341e-05 0 0.044888506992256515 5.6934459716137249e-06 0 0.044810862279041769 2.7905778917092915e-05 0 0.044888506992256515 5.6934459716137249e-06 0 0.044810862279041769 2.7905778917092915e-05 0 0.044788013188398666 -4.3858439422225968e-05 0 0.044882662455300953 2.45114208553593e-05 0 0.044764711315472445 6.7170735910659351e-05 0 0.044783930268897564 6.3618112237593446e-05 0 0.044832580230469397 1.720441033847039e-05 0 0.044741387986348788 7.0615746083582068e-05 0 0.044943437108761648 2.8703862692201766e-05 0 0.044861164838730573 4.2354955485575041e-05 0 0.044741387986348788 7.0615746083582068e-05 0 0.044861164838730573 4.2354955485575041e-05 0 0.044810862279041769 2.7905778917092915e-05 0 0.044741387986348788 7.0615746083582068e-05 0 0.044885086131796349 2.9362581107146341e-05 0 0.044861164838730573 4.2354955485575041e-05 0 0.044810862279041769 2.7905778917092915e-05 0 0.044810862279041769 2.7905778917092915e-05 0 0.044741387986348788 7.0615746083582068e-05 0 0.0447062695741509 -1.555027266594299e-06 0 0.044810862279041769 2.7905778917092915e-05 0 0.0447062695741509 -1.555027266594299e-06 0 0.044788013188398666 -4.3858439422225968e-05 0 0.044626030671541979 0.00011282228625037822 0 0.044741387986348788 7.0615746083582068e-05 0 0.0447062695741509 -1.555027266594299e-06 0 0.044783930268897564 6.3618112237593446e-05 0 0.044626030671541979 0.00011282228625037822 0 0.044741387986348788 7.0615746083582068e-05 0 0.044626030671541979 0.00011282228625037822 0 0.044603146010329435 -4.3148813380134683e-05 0 0.04444345531362167 -0.00012572692622407288 0 0.044626030671541979 0.00011282228625037822 0 0.044603146010329435 -4.3148813380134683e-05 0 0.0447062695741509 -1.555027266594299e-06 0 0.0447062695741509 -1.555027266594299e-06 0 0.044678480251417289 -0.00010292112445119158 0 0.044788013188398666 -4.3858439422225968e-05 0 0.044603146010329435 -4.3148813380134683e-05 0 0.0447062695741509 -1.555027266594299e-06 0 0.044678480251417289 -0.00010292112445119158 0 0.044603146010329435 -4.3148813380134683e-05 0 0.044678480251417289 -0.00010292112445119158 0 0.044545587245012168 -0.00021253271210566735 0 0.044678480251417289 -0.00010292112445119158 0 0.044545587245012168 -0.00021253271210566735 0 0.044721959361234263 -0.00020047330785728708 0 0.044603146010329435 -4.3148813380134683e-05 0 0.044545587245012168 -0.00021253271210566735 0 0.04444345531362167 -0.00012572692622407288 0 0.044545587245012168 -0.00021253271210566735 0 0.04436734583025892 -0.0003089116918814795 0 0.04444345531362167 -0.00012572692622407288 0 0.044888506992256515 5.6934459716137249e-06 0 0.044860829400733764 -8.2192289929895293e-05 0 0.044788013188398666 -4.3858439422225968e-05 0 0.044860829400733764 -8.2192289929895293e-05 0 0.044788013188398666 -4.3858439422225968e-05 0 0.044721959361234263 -0.00020047330785728708 0 0.044678480251417289 -0.00010292112445119158 0 0.044788013188398666 -4.3858439422225968e-05 0 0.044721959361234263 -0.00020047330785728708 0 0.044860829400733764 -8.2192289929895293e-05 0 0.044721959361234263 -0.00020047330785728708 0 0.044856979554601259 -0.00023682866644057863 0 0.044721959361234263 -0.00020047330785728708 0 0.044856979554601259 -0.00023682866644057863 0 0.044694014221062416 -0.00043869673279603032 0 0.041011423269339708 0.0002491378824068065 0 0.041647928028814375 -5.2972796994757646e-05 0 0.044721959361234263 -0.00020047330785728708 0 0.044694014221062416 -0.00043869673279603032 0 0.044492748171586986 -0.00043480754379702835 0 0.037445558244212883 0.00083310411271680495 0 0.036879448491018325 0.00031250483227446621 0 0.037566862600399216 1.7576948112789656e-05 0 0.044545587245012168 -0.00021253271210566735 0 0.04436734583025892 -0.0003089116918814795 0 0.044492748171586986 -0.00043480754379702835 0 0.044545587245012168 -0.00021253271210566735 0 0.044721959361234263 -0.00020047330785728708 0 0.044492748171586986 -0.00043480754379702835 0 0.044694014221062416 -0.00043869673279603032 0 0.044492748171586986 -0.00043480754379702835 0 0.044445004370040016 -0.00062793225773096698 0 0.044492748171586986 -0.00043480754379702835 0 0.044284718255622704 -0.00047397657748338205 0 0.044375969443943564 -0.00062345705468894814 0 0.04436734583025892 -0.0003089116918814795 0 0.044492748171586986 -0.00043480754379702835 0 0.044284718255622704 -0.00047397657748338205 0 0.032785999926521703 -0.0017066935705668592 0 0.032783435645580679 -0.0017089944057762808 0 0.032676428526219062 -0.0018716896401805498 0 0.032785999926521703 -0.0017066935705668592 0 0.032783435645580679 -0.0017089944057762808 0 0.032858607177634239 -0.0017222448061362001 0 0.04436734583025892 -0.0003089116918814795 0 0.044096596867613774 -0.00033388091758211147 0 0.044299739991539418 -0.00022587979167662688 0 0.039883049791716509 -0.0014972937819601074 0 0.035809838227918979 -0.00071543487288075664 0 0.04436734583025892 -0.0003089116918814795 0 0.044284718255622704 -0.00047397657748338205 0 0.044096596867613774 -0.00033388091758211147 0 0.035809838227918979 -0.00071543487288075664 0 0.025627186114118083 -0.00107423603577101 0 0.032110541889865667 -0.0010399939316178659 0 0.035809838227918979 -0.00071543487288075664 0 0.035809838227918979 -0.00071543487288075664 0 0.041489085677901716 0.001008657205756747 0 0.032095631670735689 -0.00075941855961048359 0 0.030875953126748221 -0.00078825300033204281 0 0.03201417754229495 -0.0013794187698803332 0 0.032095631670735689 -0.00075941855961048359 0 0.03154398684541098 0.00036116861115513424 0 0.030875953126748221 -0.00078825300033204281 0 0.025627186114118083 -0.00107423603577101 0 0.024430717926563157 -0.00071100955182103686 0 0.023519557550656021 -3.9682650337996397e-05 0 0.023445736400773725 -1.4299893589983751e-05 0 0.023529868806040272 -4.7337583540338498e-05 0 0.023507134771439873 -6.3905702654647593e-05 0 0.023445736400773725 -1.4299893589983751e-05 0 0.023276414130263136 -2.6882603934604005e-05 0 0.023507134771439873 -6.3905702654647593e-05 0 0.023445736400773725 -1.4299893589983751e-05 0 0.023533375834726426 -3.9844069618455972e-05 0 0.023445736400773725 -1.4299893589983751e-05 0 0.023533375834726426 -3.9844069618455972e-05 0 0.023529868806040272 -4.7337583540338498e-05 0 0.023507134771439873 -6.3905702654647593e-05 0 0.023533375834726426 -3.9844069618455972e-05 0 0.023629769270542472 -3.1490436870400903e-05 0 0.023533375834726426 -3.9844069618455972e-05 0 0.023629769270542472 -3.1490436870400903e-05 0 0.023529868806040272 -4.7337583540338498e-05 0 0.027154197344562658 -0.0013337142238283928 0 0.026522499649986524 -0.0026153328932007718 0 0.026056269971734762 -0.0010751391692034645 0 0.026522499649986524 -0.0026153328932007718 0 0.025510790686831972 -0.0014544039190644712 0 0.026056269971734762 -0.0010751391692034645 0 0.025510790686831972 -0.0014544039190644712 0 0.026056269971734762 -0.0010751391692034645 0 0.025004206115209791 -0.00056130155098691251 0 0.027154197344562658 -0.0013337142238283928 0 0.026056269971734762 -0.0010751391692034645 0 0.026163483676356829 -0.00056936971683501844 0 0.036403851612261298 0.00023757980550078857 0 0.036568271073297284 9.3000249971725987e-05 0 0.036537627908178091 2.48729535216088e-05 0 0.026056269971734762 -0.0010751391692034645 0 0.026163483676356829 -0.00056936971683501844 0 0.026011048636069529 -0.00059863400899608785 0 0.026153521406623571 -0.0011484937617267333 0 0.024879627133118525 0.0001287644805886274 0 0.024430717926563157 -0.00071100955182103686 0 0.023916110551085581 0.0001141213847440782 0 0.023629769270542472 -3.1490436870400903e-05 0 0.023529868806040272 -4.7337583540338498e-05 0 0.023884880772593254 0.00015120177274459599 0 0.025510790686831972 -0.0014544039190644712 0 0.025004206115209791 -0.00056130155098691251 0 0.023884880772593254 0.00015120177274459599 0 0.023708053085222627 0.00010207626795543595 0 0.023629769270542472 -3.1490436870400903e-05 0 0.023884880772593254 0.00015120177274459599 0 0.026056269971734762 -0.0010751391692034645 0 0.025004206115209791 -0.00056130155098691251 0 0.024610584756968472 0.0001200006970931294 0 0.025004206115209791 -0.00056130155098691251 0 0.024610584756968472 0.0001200006970931294 0 0.023884880772593254 0.00015120177274459599 0 0.026163483676356829 -0.00056936971683501844 0 0.026011048636069529 -0.00059863400899608785 0 0.026073572265875172 -0.00056018089465558602 0 0.030683648449938778 1.4695172339378021e-05 0 0.031944318674252875 -0.00027087134818932752 0 0.026163483676356829 -0.00056936971683501844 0 0.026073572265875172 -0.00056018089465558602 0 0.026077756558981157 -0.0005450743383489734 0 0.023580261287475965 0.00064979772027495906 0 0.024610584756968472 0.0001200006970931294 0 0.023884880772593254 0.00015120177274459599 0 0.026127830350986495 -0.00055842121172534681 0 0.026011048636069529 -0.00059863400899608785 0 0.026073572265875172 -0.00056018089465558602 0 0.029171495376319353 -0.0008294129568532548 0 0.024879627133118525 0.0001287644805886274 0 0.026127830350986495 -0.00055842121172534681 0 0.026141555357947266 -0.00061998917661560554 0 0.026092380905269857 -0.00058824260976559695 0 0.026127830350986495 -0.00055842121172534681 0 0.026073572265875172 -0.00056018089465558602 0 0.026092380905269857 -0.00058824260976559695 0 0.030599740391651673 -0.0002493266024762332 0 0.031944318674252875 -0.00027087134818932752 0 0.041970704134073542 0.00038030910357426083 0 0.040589446989062493 -1.6821929667994856e-05 0 0.036695690529204267 -0.00021773781572637232 0 0.036759133547638316 -7.0508694086386561e-05 0 0.036537627908178091 2.48729535216088e-05 0 0.036568271073297284 9.3000249971725987e-05 0 0.036759133547638316 -7.0508694086386561e-05 0 0.036537627908178091 2.48729535216088e-05 0 0.044085092663355738 0.00031603147747529746 0 0.043848243263240161 -3.1236554135422143e-05 0 0.044251312449577092 -5.6975923769899756e-05 0 0.044085092663355738 0.00031603147747529746 0 0.044626030671541979 0.00011282228625037822 0 0.044251312449577092 -5.6975923769899756e-05 0 0.044626030671541979 0.00011282228625037822 0 0.044251312449577092 -5.6975923769899756e-05 0 0.04444345531362167 -0.00012572692622407288 0 0.04436734583025892 -0.0003089116918814795 0 0.04444345531362167 -0.00012572692622407288 0 0.044299739991539418 -0.00022587979167662688 0 0.044251312449577092 -5.6975923769899756e-05 0 0.044299739991539418 -0.00022587979167662688 0 0.044141602467394708 -0.00024919103714837791 0 0.044251312449577092 -5.6975923769899756e-05 0 0.04444345531362167 -0.00012572692622407288 0 0.044299739991539418 -0.00022587979167662688 0 0.043848243263240161 -3.1236554135422143e-05 0 0.044251312449577092 -5.6975923769899756e-05 0 0.044141602467394708 -0.00024919103714837791 0 0.035809838227918979 -0.00071543487288075664 0 0.040589446989062493 -1.6821929667994856e-05 0 0.035809838227918979 -0.00071543487288075664 0 0.030683648449938778 1.4695172339378021e-05 0 0.044096596867613774 -0.00033388091758211147 0 0.044299739991539418 -0.00022587979167662688 0 0.044141602467394708 -0.00024919103714837791 0 0.044053194294083227 -0.00041037294233723114 0 0.043848243263240161 -3.1236554135422143e-05 0 0.044141602467394708 -0.00024919103714837791 0 0.039836505390942904 4.7561166244186329e-08 0 0.041653679536650404 -0.00010167370948302795 0 0.042772067950183464 -0.00023194305385414095 0 0.039836505390942904 4.7561166244186329e-08 0 0.041653679536650404 -0.00010167370948302795 0 0.040177769102444763 0.00016549278383438021 0 0.041653679536650404 -0.00010167370948302795 0 0.042557391286276378 8.5876865573361171e-05 0 0.041329378102024347 0.00038438093908883797 0 0.041653679536650404 -0.00010167370948302795 0 0.042772067950183464 -0.00023194305385414095 0 0.043426003033513356 -0.00030267800011553873 0 0.044998244884698294 -5.9476801451453855e-07 0 0.043989753529578547 -0.000216019351949557 0 0.044997252334633676 -3.1367222436737814e-07 0 0.039836505390942904 4.7561166244186329e-08 0 0.042772067950183464 -0.00023194305385414095 0 0.044998244884698294 -5.9476801451453855e-07 0 0.042772067950183464 -0.00023194305385414095 0 0.044998244884698294 -5.9476801451453855e-07 0 0.043989753529578547 -0.000216019351949557 0 0.042772067950183464 -0.00023194305385414095 0 0.043989753529578547 -0.000216019351949557 0 0.043426003033513356 -0.00030267800011553873 0 0.043989753529578547 -0.000216019351949557 0 0.044631762294831998 -8.6076427615664971e-05 0 0.043426003033513356 -0.00030267800011553873 0 0.044631762294831998 -8.6076427615664971e-05 0 0.044997252334633676 -3.1367222436737814e-07 0 0.045001047730439621 -6.2919640706311539e-10 0 0.043989753529578547 -0.000216019351949557 0 0.044631762294831998 -8.6076427615664971e-05 0 0.044997252334633676 -3.1367222436737814e-07 0 0.044529046282247492 -9.775856526368484e-05 0 0.044307380762378293 -0.00011213182906600156 0 0.044631762294831998 -8.6076427615664971e-05 0 0.04370381344760961 -0.0003286690781033026 0 0.043426003033513356 -0.00030267800011553873 0 0.04370381344760961 -0.0003286690781033026 0 0.043426003033513356 -0.00030267800011553873 0 0.043457137514493246 4.7709184657246389e-05 0 0.041653679536650404 -0.00010167370948302795 0 0.043426003033513356 -0.00030267800011553873 0 0.042557391286276378 8.5876865573361171e-05 0 0.043426003033513356 -0.00030267800011553873 0 0.042557391286276378 8.5876865573361171e-05 0 0.043457137514493246 4.7709184657246389e-05 0 0.042557391286276378 8.5876865573361171e-05 0 0.043457137514493246 4.7709184657246389e-05 0 0.043139029766520606 0.00059974639895443911 0 0.044156508870722706 4.6352815955645823e-05 0 0.040675504283438163 0.001258524683262804 0 0.043457137514493246 4.7709184657246389e-05 0 0.044035459490532523 -7.4741847632648216e-05 0 0.043849147880441683 0.00078221402783963613 0 0.044913741875947606 3.7281671160691e-05 0 0.044907762319456986 2.6854427643737863e-05 0 0.044935002349362416 1.7457424486484502e-05 0 0.04301946029909931 0.00049024746249913629 0 0.042433826263589651 -0.0001443024649459587 0 0.041746968622139384 0.0015161212406781131 0 0.042456172971898742 0.00046443943389648426 0 0.044156508870722706 4.6352815955645823e-05 0 0.044156508870722706 4.6352815955645823e-05 0 0.045022502131789599 3.5531259464843175e-05 0 0.044907762319456986 2.6854427643737863e-05 0 0.044942205113929219 1.0019073189143307e-05 0 0.044935002349362416 1.7457424486484502e-05 0 0.044742123977959354 8.9355940043759781e-05 0 0.044850264304196814 0.00021590132613591911 0 0.044925238097694213 7.7363599287207883e-05 0 0.044307380762378293 -0.00011213182906600156 0 0.044156508870722706 4.6352815955645823e-05 0 0.04370381344760961 -0.0003286690781033026 0 0.043457137514493246 4.7709184657246389e-05 0 0.044035459490532523 -7.4741847632648216e-05 0 0.044631762294831998 -8.6076427615664971e-05 0 0.044742123977959354 8.9355940043759781e-05 0 0.044925238097694213 7.7363599287207883e-05 0 0.044631762294831998 -8.6076427615664971e-05 0 0.044925238097694213 7.7363599287207883e-05 0 0.045001047730439621 -6.2919640706311539e-10 0 0.045022502131789599 3.5531259464843175e-05 0 0.044999921971612747 5.0598046692947843e-08 0 0.044942205113929219 1.0019073189143307e-05 0 0.04496645343461745 1.120244937712005e-05 0 0.044935002349362416 1.7457424486484502e-05 0 0.044942205113929219 1.0019073189143307e-05 0 0.04496645343461745 1.120244937712005e-05 0 0.044999911026946803 -3.1523726360187467e-09 0 0.04494222645868267 2.2695045147510681e-05 0 0.04496645343461745 1.120244937712005e-05 0 0.044999955151185739 1.5283458121401582e-08 0 0.04496645343461745 1.120244937712005e-05 0 0.044999911026946803 -3.1523726360187467e-09 0 0.044999955151185739 1.5283458121401582e-08 0 0.04494222645868267 2.2695045147510681e-05 0 0.04496645343461745 1.120244937712005e-05 0 0.044941381782313203 1.1977517694099583e-05 0 0.044913741875947606 3.7281671160691e-05 0 0.044941381782313203 1.1977517694099583e-05 0 0.044935002349362416 1.7457424486484502e-05 0 0.04496645343461745 1.120244937712005e-05 0 0.044941381782313203 1.1977517694099583e-05 0 0.044935002349362416 1.7457424486484502e-05 0 0.042456172971898742 0.00046443943389648426 0 0.04591107677316203 -0.00033442689260744865 0 0.044948029930021782 -2.7813659004202715e-05 0 0.044941381782313203 1.1977517694099583e-05 0 0.044922003560427637 -3.0370457924991839e-05 0 0.044888506992256515 5.6934459716137249e-06 0 0.044860829400733764 -8.2192289929895293e-05 0 0.044922003560427637 -3.0370457924991839e-05 0 0.044888506992256515 5.6934459716137249e-06 0 0.044941381782313203 1.1977517694099583e-05 0 0.044922003560427637 -3.0370457924991839e-05 0 0.044860829400733764 -8.2192289929895293e-05 0 0.044922003560427637 -3.0370457924991839e-05 0 0.044927308982353503 -9.3675634270157297e-05 0 0.042456172971898742 0.00046443943389648426 0 0.041368148203904893 0.0006676553260023877 0 0.044948029930021782 -2.7813659004202715e-05 0 0.044922003560427637 -3.0370457924991839e-05 0 0.044927308982353503 -9.3675634270157297e-05 0 0.037979474918642869 0.0013254806553766819 0 0.037891309674360246 0.00065241818856104296 0 0.038225523242235118 0.00085193339373291414 0 0.037979474918642869 0.0013254806553766819 0 0.038225523242235118 0.00085193339373291414 0 0.038489412317745324 0.0010720275772874018 0 0.037445558244212883 0.00083310411271680495 0 0.037979474918642869 0.0013254806553766819 0 0.037891309674360246 0.00065241818856104296 0 0.041011423269339708 0.0002491378824068065 0 0.041368148203904893 0.0006676553260023877 0 0.044860829400733764 -8.2192289929895293e-05 0 0.044856979554601259 -0.00023682866644057863 0 0.044927308982353503 -9.3675634270157297e-05 0 0.037445558244212883 0.00083310411271680495 0 0.037891309674360246 0.00065241818856104296 0 0.037566862600399216 1.7576948112789656e-05 0 0.038179007447215661 0.00027836512013350154 0 0.037891309674360246 0.00065241818856104296 0 0.038339957644904006 0.00051253455160977981 0 0.03553424538262083 0.0004759996065299291 0 0.035208431058790235 0.00090235759316349988 0 0.038179007447215661 0.00027836512013350154 0 0.037891309674360246 0.00065241818856104296 0 0.037566862600399216 1.7576948112789656e-05 0 0.037891309674360246 0.00065241818856104296 0 0.038225523242235118 0.00085193339373291414 0 0.038339957644904006 0.00051253455160977981 0 0.038558440525419152 0.00078514919213076536 0 0.038339957644904006 0.00051253455160977981 0 0.038893423965217132 0.00058649169078230068 0 0.038225523242235118 0.00085193339373291414 0 0.038558440525419152 0.00078514919213076536 0 0.038339957644904006 0.00051253455160977981 0 0.038225523242235118 0.00085193339373291414 0 0.038558440525419152 0.00078514919213076536 0 0.038489412317745324 0.0010720275772874018 0 0.038170598006027935 0.00026833833149731453 0 0.038339957644904006 0.00051253455160977981 0 0.038893423965217132 0.00058649169078230068 0 0.033165849130118885 -0.00053643678902737452 0 0.034642727268792105 3.6168679961892865e-05 0 0.034444240422916245 -0.00092311639952078167 0 0.03553424538262083 0.0004759996065299291 0 0.036615761123636702 0.00018984916511538831 0 0.03553424538262083 0.0004759996065299291 0 0.037768078006790988 0.001028507881514583 0 0.034642727268792105 3.6168679961892865e-05 0 0.035641018797738254 -0.00064674354543333746 0 0.034444240422916245 -0.00092311639952078167 0 0.038893423965217132 0.00058649169078230068 0 0.039062509038081838 0.0010704652517720507 0 0.038757535365282272 0.00093691002496680304 0 0.038558440525419152 0.00078514919213076536 0 0.038893423965217132 0.00058649169078230068 0 0.038757535365282272 0.00093691002496680304 0 0.039062509038081838 0.0010704652517720507 0 0.038782331273471818 0.0011686895581148249 0 0.038931430597682767 0.0014271914333978944 0 0.039089741515682015 0.0013766555320641838 0 0.040675504283438163 0.001258524683262804 0 0.039062509038081838 0.0010704652517720507 0 0.038782331273471818 0.0011686895581148249 0 0.038757535365282272 0.00093691002496680304 0 0.038558440525419152 0.00078514919213076536 0 0.038757535365282272 0.00093691002496680304 0 0.038489412317745324 0.0010720275772874018 0 0.038782331273471818 0.0011686895581148249 0 0.038757535365282272 0.00093691002496680304 0 0.038489412317745324 0.0010720275772874018 0 0.037979474918642869 0.0013254806553766819 0 0.038489412317745324 0.0010720275772874018 0 0.038530505534973503 0.0014116932775512809 0 0.038782331273471818 0.0011686895581148249 0 0.038489412317745324 0.0010720275772874018 0 0.038530505534973503 0.0014116932775512809 0 0.038487545538808988 0.0018055441498459972 0 0.038530505534973503 0.0014116932775512809 0 0.038931430597682767 0.0014271914333978944 0 0.038487545538808988 0.0018055441498459972 0 0.037979474918642869 0.0013254806553766819 0 0.038530505534973503 0.0014116932775512809 0 0.042456172971898742 0.00046443943389648426 0 0.040675504283438163 0.001258524683262804 0 0.038782331273471818 0.0011686895581148249 0 0.038530505534973503 0.0014116932775512809 0 0.038931430597682767 0.0014271914333978944 0 0.043849147880441683 0.00078221402783963613 0 0.043139029766520606 0.00059974639895443911 0 0.043314707550006513 0.0014573390677724756 0 0.043457137514493246 4.7709184657246389e-05 0 0.043849147880441683 0.00078221402783963613 0 0.043139029766520606 0.00059974639895443911 0 0.043139029766520606 0.00059974639895443911 0 0.042420309891765984 0.00091338924707364141 0 0.043314707550006513 0.0014573390677724756 0 0.040675504283438163 0.001258524683262804 0 0.041515820781707631 0.0010999949780734245 0 0.042557391286276378 8.5876865573361171e-05 0 0.043139029766520606 0.00059974639895443911 0 0.042420309891765984 0.00091338924707364141 0 0.042557391286276378 8.5876865573361171e-05 0 0.042420309891765984 0.00091338924707364141 0 0.041329378102024347 0.00038438093908883797 0 0.042420309891765984 0.00091338924707364141 0 0.041520715237040658 0.0011203297235778896 0 0.041329378102024347 0.00038438093908883797 0 0.038563526447736328 0.00078598302329885251 0 0.0391717194790717 0.0011359666851276258 0 0.042420309891765984 0.00091338924707364141 0 0.042449874031810587 0.0023800660486622206 0 0.041520715237040658 0.0011203297235778896 0 0.042420309891765984 0.00091338924707364141 0 0.043314707550006513 0.0014573390677724756 0 0.042449874031810587 0.0023800660486622206 0 0.042449874031810587 0.0023800660486622206 0 0.041090851963588117 0.002003606127947984 0 0.041520715237040658 0.0011203297235778896 0 0.041515820781707631 0.0010999949780734245 0 0.038563526447736328 0.00078598302329885251 0 0.039062509038081838 0.0010704652517720507 0 0.03923960992969764 0.0011419588338911989 0 0.039549984796816186 0.00088631037426731621 0 0.039062509038081838 0.0010704652517720507 0 0.038963940307531933 0.0013671940516579197 0 0.03923960992969764 0.0011419588338911989 0 0.036615761123636702 0.00018984916511538831 0 0.038563526447736328 0.00078598302329885251 0 0.038893423965217132 0.00058649169078230068 0 0.039062509038081838 0.0010704652517720507 0 0.039549984796816186 0.00088631037426731621 0 0.034642727268792105 3.6168679961892865e-05 0 0.035641018797738254 -0.00064674354543333746 0 0.036073484080862431 0.00059318168615776128 0 0.035641018797738254 -0.00064674354543333746 0 0.036447977799341578 -0.00075317845395053381 0 0.036306401914862549 -0.00021856628416062955 0 0.036447977799341578 -0.00075317845395053381 0 0.036306401914862549 -0.00021856628416062955 0 0.036994332706411573 -0.00027188105402607953 0 0.038563526447736328 0.00078598302329885251 0 0.036304576591473618 -8.0207779809467541e-05 0 0.035641018797738254 -0.00064674354543333746 0 0.036306401914862549 -0.00021856628416062955 0 0.036073484080862431 0.00059318168615776128 0 0.036306401914862549 -0.00021856628416062955 0 0.036073484080862431 0.00059318168615776128 0 0.036994332706411573 -0.00027188105402607953 0 0.036552269134985306 0.00010507349285860532 0 0.037084556610780028 -1.9076960102723807e-05 0 0.036994332706411573 -0.00027188105402607953 0 0.037084556610780028 -1.9076960102723807e-05 0 0.036994332706411573 -0.00027188105402607953 0 0.037379784117740421 -0.00047675016895659949 0 0.037084556610780028 -1.9076960102723807e-05 0 0.037379784117740421 -0.00047675016895659949 0 0.037508408549712019 0.00021903544745385678 0 0.034936932578582401 4.8267500974658595e-06 0 0.035855880839071805 9.8220042700665647e-07 0 0.032566243374338361 -2.3191203635948489e-05 0 0.037379784117740421 -0.00047675016895659949 0 0.03720109949082976 -0.0013261319557062291 0 0.036927542114134217 -0.00099391075606111452 0 0.036447977799341578 -0.00075317845395053381 0 0.036994332706411573 -0.00027188105402607953 0 0.036927542114134217 -0.00099391075606111452 0 0.036994332706411573 -0.00027188105402607953 0 0.037379784117740421 -0.00047675016895659949 0 0.036927542114134217 -0.00099391075606111452 0 0.034936932578582401 4.8267500974658595e-06 0 0.035855880839071805 9.8220042700665647e-07 0 0.037508408549712019 0.00021903544745385678 0 0.036398801693070949 -0.00071086170258937689 0 0.037205075964144532 0.00021236401019506684 0 0.039836505390942904 4.7561166244186329e-08 0 0.035855880839071805 9.8220042700665647e-07 0 0.038370886500530658 0.00042791713491227161 0 0.035855880839071805 9.8220042700665647e-07 0 0.038370886500530658 0.00042791713491227161 0 0.037508408549712019 0.00021903544745385678 0 0.037084556610780028 -1.9076960102723807e-05 0 0.037508408549712019 0.00021903544745385678 0 0.036948708013009354 0.00033074180338650192 0 0.038354575163572567 0.00057170141866977147 0 0.0391717194790717 0.0011359666851276258 0 0.036552269134985306 0.00010507349285860532 0 0.037084556610780028 -1.9076960102723807e-05 0 0.036948708013009354 0.00033074180338650192 0 0.038370886500530658 0.00042791713491227161 0 0.041090851963588117 0.002003606127947984 0 0.040417640710912472 0.00067214538803290634 0 0.038370886500530658 0.00042791713491227161 0 0.037508408549712019 0.00021903544745385678 0 0.036948708013009354 0.00033074180338650192 0 0.041090851963588117 0.002003606127947984 0 0.041520715237040658 0.0011203297235778896 0 0.040417640710912472 0.00067214538803290634 0 0.041653679536650404 -0.00010167370948302795 0 0.041329378102024347 0.00038438093908883797 0 0.040177769102444763 0.00016549278383438021 0 0.040417640710912472 0.00067214538803290634 0 0.041329378102024347 0.00038438093908883797 0 0.040177769102444763 0.00016549278383438021 0 0.038370886500530658 0.00042791713491227161 0 0.040417640710912472 0.00067214538803290634 0 0.040177769102444763 0.00016549278383438021 0 0.041520715237040658 0.0011203297235778896 0 0.040417640710912472 0.00067214538803290634 0 0.041329378102024347 0.00038438093908883797 0 0.039836505390942904 4.7561166244186329e-08 0 0.038370886500530658 0.00042791713491227161 0 0.040177769102444763 0.00016549278383438021 0 0.028928848704648708 -4.0609606072230419e-07 0 0.028708262139664018 -1.7167058371567389e-05 0 0.027425689062507714 4.1917780571052364e-07 0 0.028928848704648708 -4.0609606072230419e-07 0 0.028708262139664018 -1.7167058371567389e-05 0 0.029890849027266179 4.0768550561693341e-06 0 0.025561407928872817 0.0019148288234388756 0 0.025466245665961767 0.0019037621876579088 0 0.025552480539802018 0.0020013111574847028 0 0.027148017053159855 0.00079158587322609064 0 0.028939969779381267 0.00110680868484399 0 0.025561407928872817 0.0019148288234388756 0 0.025466245665961767 0.0019037621876579088 0 0.025462377254768978 0.0017939968282110793 0 0.025415744941614488 0.0018648609546316442 0 0.025466245665961767 0.0019037621876579088 0 0.025462377254768978 0.0017939968282110793 0 0.025466245665961767 0.0019037621876579088 0 0.025552480539802018 0.0020013111574847028 0 0.025375357048191358 0.0019055681421275353 0 0.025415744941614488 0.0018648609546316442 0 0.025466245665961767 0.0019037621876579088 0 0.025375357048191358 0.0019055681421275353 0 0.025415744941614488 0.0018648609546316442 0 0.025375357048191358 0.0019055681421275353 0 0.025366470393672531 0.0018521892716069253 0 0.029860249061523032 0.0019298779600112775 0 0.031126894920288552 0.0014200829902563999 0 0.029444532366849852 0.000685833022049741 0 0.028939969779381267 0.00110680868484399 0 0.027585791847949501 0.001283309941730129 0 0.028928848704648708 -4.0609606072230419e-07 0 0.029890849027266179 4.0768550561693341e-06 0 0.030431376577676333 4.2003382720384033e-07 0 0.028939969779381267 0.00110680868484399 0 0.030431770970717222 1.5790100646465027e-06 0 0.029860249061523032 0.0019298779600112775 0 0.031126894920288552 0.0014200829902563999 0 0.03091251486541129 0.0028978700170821455 0 0.028939969779381267 0.00110680868484399 0 0.033488837901515717 0.00058161803449512973 0 0.035855880839071805 9.8220042700665647e-07 0 0.030435592928157722 -4.1839437870462698e-08 0 0.032566243374338361 -2.3191203635948489e-05 0 0.030730572930770465 0.00013661582033817725 0 0.030435592928157722 -4.1839437870462698e-08 0 0.032566243374338361 -2.3191203635948489e-05 0 0.037379784117740421 -0.00047675016895659949 0 0.037437512317366924 -0.0016031131887721101 0 0.03720109949082976 -0.0013261319557062291 0 0.036398801693070949 -0.00071086170258937689 0 0.033488837901515717 0.00058161803449512973 0 0.037437512317366924 -0.0016031131887721101 0 0.03720109949082976 -0.0013261319557062291 0 0.036339393767070863 -0.0016574790399874226 0 0.03720109949082976 -0.0013261319557062291 0 0.036927542114134217 -0.00099391075606111452 0 0.036339393767070863 -0.0016574790399874226 0 0.033488837901515717 0.00058161803449512973 0 0.032995684282396062 0.00065038509551327954 0 0.036447977799341578 -0.00075317845395053381 0 0.036927542114134217 -0.00099391075606111452 0 0.036339393767070863 -0.0016574790399874226 0 0.029860249061523032 0.0019298779600112775 0 0.03091251486541129 0.0028978700170821455 0 0.029373927102871313 0.0029441716063805714 0 0.029860249061523032 0.0019298779600112775 0 0.029373927102871313 0.0029441716063805714 0 0.028401803771808787 0.0017069025744510234 0 0.035641018797738254 -0.00064674354543333746 0 0.036447977799341578 -0.00075317845395053381 0 0.036339393767070863 -0.0016574790399874226 0 0.032995684282396062 0.00065038509551327954 0 0.031404851280598715 0.00067051571806315277 0 0.035641018797738254 -0.00064674354543333746 0 0.035072475273817488 -0.0016744091103291202 0 0.034444240422916245 -0.00092311639952078167 0 0.035641018797738254 -0.00064674354543333746 0 0.036339393767070863 -0.0016574790399874226 0 0.035072475273817488 -0.0016744091103291202 0 0.029373927102871313 0.0029441716063805714 0 0.027792790899674728 0.0029974959402959554 0 0.028401803771808787 0.0017069025744510234 0 0.028401803771808787 0.0017069025744510234 0 0.028188978063772532 0.00081176911450252796 0 0.0271786780204261 0.00091383092579474547 0 0.028401803771808787 0.0017069025744510234 0 0.029444532366849852 0.000685833022049741 0 0.028188978063772532 0.00081176911450252796 0 0.029860249061523032 0.0019298779600112775 0 0.028401803771808787 0.0017069025744510234 0 0.029444532366849852 0.000685833022049741 0 0.025375357048191358 0.0019055681421275353 0 0.025273709109012523 0.0018486922622661334 0 0.025366470393672531 0.0018521892716069253 0 0.028188978063772532 0.00081176911450252796 0 0.0271786780204261 0.00091383092579474547 0 0.027733852057630515 -6.9886378451800891e-05 0 0.029444532366849852 0.000685833022049741 0 0.028188978063772532 0.00081176911450252796 0 0.027733852057630515 -6.9886378451800891e-05 0 0.027585791847949501 0.001283309941730129 0 0.025012206108893129 0.0017407753805766142 0 0.027016695830129937 0.0010832989568090154 0 0.026324536920443089 0.00027063866354269932 0 0.027457957948458549 0.00026204221859493424 0 0.027353505790768673 0.00059772170920562788 0 0.025012206108893129 0.0017407753805766142 0 0.027016695830129937 0.0010832989568090154 0 0.026101002198635016 0.0011749391242622629 0 0.026324536920443089 0.00027063866354269932 0 0.026101002198635016 0.0011749391242622629 0 0.025117749955363391 0.00027903544130164368 0 0.026324536920443089 0.00027063866354269932 0 0.027016695830129937 0.0010832989568090154 0 0.026101002198635016 0.0011749391242622629 0 0.026610597752919025 0.0019265723287372734 0 0.026101002198635016 0.0011749391242622629 0 0.026610597752919025 0.0019265723287372734 0 0.025795715354168202 0.0022304255378252404 0 0.028401803771808787 0.0017069025744510234 0 0.0271786780204261 0.00091383092579474547 0 0.026610597752919025 0.0019265723287372734 0 0.027353505790768673 0.00059772170920562788 0 0.026571592769133776 0.0019704872307826902 0 0.027792790899674728 0.0029974959402959554 0 0.026610597752919025 0.0019265723287372734 0 0.026233322506943341 0.0030181692815515839 0 0.027792790899674728 0.0029974959402959554 0 0.028401803771808787 0.0017069025744510234 0 0.026610597752919025 0.0019265723287372734 0 0.035072475273817488 -0.0016744091103291202 0 0.034444240422916245 -0.00092311639952078167 0 0.033749200171665029 -0.0016585084041017993 0 0.031404851280598715 0.00067051571806315277 0 0.029971827523607178 0.00058791493747495773 0 0.033165849130118885 -0.00053643678902737452 0 0.034444240422916245 -0.00092311639952078167 0 0.033749200171665029 -0.0016585084041017993 0 0.026610597752919025 0.0019265723287372734 0 0.026233322506943341 0.0030181692815515839 0 0.025795715354168202 0.0022304255378252404 0 0.026233322506943341 0.0030181692815515839 0 0.025795715354168202 0.0022304255378252404 0 0.024775529794072989 0.0030425073515106837 0 0.025795715354168202 0.0022304255378252404 0 0.024775529794072989 0.0030425073515106837 0 0.025129652774987247 0.0016177040778498541 0 0.033219119995291577 0.0024287846359304496 0 0.032230889934451841 0.00098933084720430721 0 0.03158845473548294 0.0017338234355954451 0 0.03553424538262083 0.0004759996065299291 0 0.028719514219244152 0.0016086384799760105 0 0.033165849130118885 -0.00053643678902737452 0 0.033749200171665029 -0.0016585084041017993 0 0.032392408570764225 -0.0016159428290824333 0 0.029971827523607178 0.00058791493747495773 0 0.028719514219244152 0.0016086384799760105 0 0.032230889934451841 0.00098933084720430721 0 0.03158845473548294 0.0017338234355954451 0 0.031101394317083034 0.0010131489508642404 0 0.028719514219244152 0.0016086384799760105 0 0.027188199823222247 0.0028931477434251504 0 0.024775529794072989 0.0030425073515106837 0 0.024029930195254658 0.001986167993306291 0 0.025129652774987247 0.0016177040778498541 0 0.025816944842933825 0.0048341629244878928 0 0.024661051464064554 0.0031532245320015058 0 0.02433141721607926 0.0048705385130878671 0 0.028719514219244152 0.0016086384799760105 0 0.024479561626450992 0.0027481573860930219 0 0.024029930195254658 0.001986167993306291 0 0.025129652774987247 0.0016177040778498541 0 0.024326846155851557 0.0010511329894778165 0 0.024029930195254658 0.001986167993306291 0 0.024326846155851557 0.0010511329894778165 0 0.023263446802423936 0.00092145751054348074 0 0.026101002198635016 0.0011749391242622629 0 0.025795715354168202 0.0022304255378252404 0 0.025129652774987247 0.0016177040778498541 0 0.026101002198635016 0.0011749391242622629 0 0.025129652774987247 0.0016177040778498541 0 0.025117749955363391 0.00027903544130164368 0 0.025129652774987247 0.0016177040778498541 0 0.024326846155851557 0.0010511329894778165 0 0.025117749955363391 0.00027903544130164368 0 0.017998705627127454 0.0029851040555104067 0 0.023159867850606222 0.0017057398984892285 0 0.024326846155851557 0.0010511329894778165 0 0.023847587787247482 0.00031663408044776769 0 0.025117749955363391 0.00027903544130164368 0 0.012073823330143577 0.004827043816012816 0 0.013282291831452039 0.0035743017008917875 0 0.011438112104483332 0.0037751070158366169 0 0.017998705627127454 0.0029851040555104067 0 0.016002878065036332 0.003095382099036256 0 0.018364086710257577 0.0033337276355611643 0 0.020086540744379357 0.0025684442439487137 0 0.019731810860483218 0.0019544505740293544 0 0.018364086710257577 0.0033337276355611643 0 0.019996280004178309 0.00329294525558502 0 0.020086540744379357 0.0025684442439487137 0 0.019996280004178309 0.00329294525558502 0 0.020086540744379357 0.0025684442439487137 0 0.020792746186590157 0.0027097685782377268 0 0.020086540744379357 0.0025684442439487137 0 0.020302233571618006 0.0019096233046491616 0 0.020792746186590157 0.0027097685782377268 0 0.020086540744379357 0.0025684442439487137 0 0.019731810860483218 0.0019544505740293544 0 0.020302233571618006 0.0019096233046491616 0 0.016002878065036332 0.003095382099036256 0 0.017749814039099227 0.0015176912087296874 0 0.019731810860483218 0.0019544505740293544 0 0.020302233571618006 0.0019096233046491616 0 0.020880055258170462 0.00080901623441486542 0 0.013282291831452039 0.0035743017008917875 0 0.012713729686390861 0.0019518118619337361 0 0.011639406448150046 0.0025817016542813279 0 0.013282291831452039 0.0035743017008917875 0 0.011438112104483332 0.0037751070158366169 0 0.011639406448150046 0.0025817016542813279 0 0.012234277315018137 0.00093514213626941635 0 0.013866257336221223 0.0009287444511461505 0 0.012950900220231737 0.00017998227248089996 0 0.012713729686390861 0.0019518118619337361 0 0.012234277315018137 0.00093514213626941635 0 0.011495841647752452 0.0016015929737142871 0 0.012713729686390861 0.0019518118619337361 0 0.012234277315018137 0.00093514213626941635 0 0.013866257336221223 0.0009287444511461505 0 0.012713729686390861 0.0019518118619337361 0 0.013866257336221223 0.0009287444511461505 0 0.014495860454882832 0.0023245428977483385 0 0.013282291831452039 0.0035743017008917875 0 0.012713729686390861 0.0019518118619337361 0 0.014495860454882832 0.0023245428977483385 0 0.017749814039099227 0.0015176912087296874 0 0.018994160721530935 0.00024719046572388724 0 0.013866257336221223 0.0009287444511461505 0 0.015706816638233572 0.0010838399897635982 0 0.015152488694102939 -0.0001178754171155272 0 0.013866257336221223 0.0009287444511461505 0 0.014495860454882832 0.0023245428977483385 0 0.015706816638233572 0.0010838399897635982 0 0.021964614286758839 -0.00032276007281677909 0 0.022131181254438966 0.001185654281622781 0 0.02286828428682303 0.00041313763529008204 0 0.020880055258170462 0.00080901623441486542 0 0.021964614286758839 -0.00032276007281677909 0 0.022131181254438966 0.001185654281622781 0 0.022131181254438966 0.001185654281622781 0 0.021988796676192277 0.0020027808904324856 0 0.021124293424065081 0.001641270655683913 0 0.022131181254438966 0.001185654281622781 0 0.021988796676192277 0.0020027808904324856 0 0.022599761756732849 0.0021153632657544188 0 0.020880055258170462 0.00080901623441486542 0 0.022131181254438966 0.001185654281622781 0 0.021124293424065081 0.001641270655683913 0 0.020302233571618006 0.0019096233046491616 0 0.020880055258170462 0.00080901623441486542 0 0.021124293424065081 0.001641270655683913 0 0.020302233571618006 0.0019096233046491616 0 0.021124293424065081 0.001641270655683913 0 0.021486154431138785 0.0024248176419095781 0 0.021988796676192277 0.0020027808904324856 0 0.021124293424065081 0.001641270655683913 0 0.021486154431138785 0.0024248176419095781 0 0.020302233571618006 0.0019096233046491616 0 0.02191722793890289 0.0025008247284362558 0 0.020792746186590157 0.0027097685782377268 0 0.020522866588600783 0.0019752082106874037 0 0.021417362132934496 0.0024730007336547046 0 0.019996280004178309 0.00329294525558502 0 0.020792746186590157 0.0027097685782377268 0 0.021717909850614919 0.0032794307684240252 0 0.023159867850606222 0.0017057398984892285 0 0.024013567226488251 0.0017764486147133387 0 0.02191722793890289 0.0025008247284362558 0 0.020792746186590157 0.0027097685782377268 0 0.021717909850614919 0.0032794307684240252 0 0.021417362132934496 0.0024730007336547046 0 0.025012206108893129 0.0017407753805766142 0 0.021988796676192277 0.0020027808904324856 0 0.021486154431138785 0.0024248176419095781 0 0.02271427894383847 0.0029413556036405695 0 0.024013567226488251 0.0017764486147133387 0 0.025012206108893129 0.0017407753805766142 0 0.02191722793890289 0.0025008247284362558 0 0.021717909850614919 0.0032794307684240252 0 0.023654992763659406 0.0032087976598249848 0 0.021988796676192277 0.0020027808904324856 0 0.022599761756732849 0.0021153632657544188 0 0.02271427894383847 0.0029413556036405695 0 0.022599761756732849 0.0021153632657544188 0 0.02271427894383847 0.0029413556036405695 0 0.023497190210031167 0.0015624188148455674 0 0.02342043804156595 0.0019145897976294206 0 0.024400275932164244 0.0018910945858151898 0 0.024013156317829867 0.0015535969031123557 0 0.025012206108893129 0.0017407753805766142 0 0.024740461150931432 0.0018811876348823998 0 0.02342043804156595 0.0019145897976294206 0 0.024013156317829867 0.0015535969031123557 0 0.023888674414680997 0.0010467760239411968 0 0.025012206108893129 0.0017407753805766142 0 0.02339159162813496 0.0015190454423075037 0 0.024400275932164244 0.0018910945858151898 0 0.024335529628819696 0.0013474197010856354 0 0.024884289658365637 0.0013791284879113102 0 0.024400275932164244 0.0018910945858151898 0 0.024013156317829867 0.0015535969031123557 0 0.024335529628819696 0.0013474197010856354 0 0.024335529628819696 0.0013474197010856354 0 0.024486531318553533 0.00093285016415062304 0 0.023888674414680997 0.0010467760239411968 0 0.024013156317829867 0.0015535969031123557 0 0.024335529628819696 0.0013474197010856354 0 0.023888674414680997 0.0010467760239411968 0 0.024335529628819696 0.0013474197010856354 0 0.024486531318553533 0.00093285016415062304 0 0.024884289658365637 0.0013791284879113102 0 0.022131181254438966 0.001185654281622781 0 0.022599761756732849 0.0021153632657544188 0 0.023497190210031167 0.0015624188148455674 0 0.023497190210031167 0.0015624188148455674 0 0.02286828428682303 0.00041313763529008204 0 0.023599525479012402 0.00025647975994362034 0 0.022131181254438966 0.001185654281622781 0 0.023497190210031167 0.0015624188148455674 0 0.02286828428682303 0.00041313763529008204 0 0.02286828428682303 0.00041313763529008204 0 0.023125952218376801 -0.00034553736711763158 0 0.023599525479012402 0.00025647975994362034 0 0.021964614286758839 -0.00032276007281677909 0 0.02286828428682303 0.00041313763529008204 0 0.023125952218376801 -0.00034553736711763158 0 0.021964614286758839 -0.00032276007281677909 0 0.023125952218376801 -0.00034553736711763158 0 0.023058187756152097 -0.0014763684999886696 0 0.023125952218376801 -0.00034553736711763158 0 0.024204010529106753 -0.00017875212206079632 0 0.023058187756152097 -0.0014763684999886696 0 0.02337896464866876 -0.00014600050167869986 0 0.019101857198485363 -0.00019814648457089403 0 0.023125952218376801 -0.00034553736711763158 0 0.024204010529106753 -0.00017875212206079632 0 0.023599525479012402 0.00025647975994362034 0 0.024204010529106753 -0.00017875212206079632 0 0.024298982528772332 0.00011203897185697994 0 0.023599525479012402 0.00025647975994362034 0 0.02339159162813496 0.0015190454423075037 0 0.024374520045547021 7.192692041482628e-05 0 0.024486531318553533 0.00093285016415062304 0 0.023888674414680997 0.0010467760239411968 0 0.024298982528772332 0.00011203897185697994 0 0.023497190210031167 0.0015624188148455674 0 0.024298982528772332 0.00011203897185697994 0 0.023599525479012402 0.00025647975994362034 0 0.02337896464866876 -0.00014600050167869986 0 0.023647430043083239 0.00084415582402649588 0 0.024486531318553533 0.00093285016415062304 0 0.024298982528772332 0.00011203897185697994 0 0.025038076361253526 0.00073041745549663241 0 0.021569113861817524 -0.00010291997399282083 0 0.022633318932972758 0.00064415297879352881 0 0.02236219890893296 -0.00024488045973783851 0 0.024204010529106753 -0.00017875212206079632 0 0.024298982528772332 0.00011203897185697994 0 0.025038076361253526 0.00073041745549663241 0 0.021569113861817524 -0.00010291997399282083 0 0.02236219890893296 -0.00024488045973783851 0 0.021502501814214918 -0.00037202302231037319 0 0.02236219890893296 -0.00024488045973783851 0 0.024733785072286952 -1.0325036384115345e-06 0 0.02204156606879203 -6.9476919384278566e-07 0 0.022633318932972758 0.00064415297879352881 0 0.024733785072286952 -1.0325036384115345e-06 0 0.024971703012742576 3.1199361116717494e-06 0 0.022633318932972758 0.00064415297879352881 0 0.02236219890893296 -0.00024488045973783851 0 0.024733785072286952 -1.0325036384115345e-06 0 0.025038076361253526 0.00073041745549663241 0 0.025686749668938934 0.0015455718877844672 0 0.025267550581557493 0.0013722007910437896 0 0.023647430043083239 0.00084415582402649588 0 0.026206380747587629 0.0009435451338776086 0 0.022633318932972758 0.00064415297879352881 0 0.024971703012742576 3.1199361116717494e-06 0 0.024643776312612553 0.0028431920553480291 0 0.02512813364650732 0.000158181379141714 0 0.026206380747587629 0.0009435451338776086 0 0.024975939097105087 2.5558857438688379e-09 0 0.027423805953660389 9.3620659177557454e-09 0 0.027107565086126151 8.2733587455082839e-07 0 0.024486531318553533 0.00093285016415062304 0 0.025038076361253526 0.00073041745549663241 0 0.024884289658365637 0.0013791284879113102 0 0.025038076361253526 0.00073041745549663241 0 0.024884289658365637 0.0013791284879113102 0 0.025267550581557493 0.0013722007910437896 0 0.024400275932164244 0.0018910945858151898 0 0.024884289658365637 0.0013791284879113102 0 0.025462377254768978 0.0017939968282110793 0 0.025415744941614488 0.0018648609546316442 0 0.025366470393672531 0.0018521892716069253 0 0.025462377254768978 0.0017939968282110793 0 0.024740461150931432 0.0018811876348823998 0 0.025488519741222453 0.0018035926851226092 0 0.024884289658365637 0.0013791284879113102 0 0.025462377254768978 0.0017939968282110793 0 0.025267550581557493 0.0013722007910437896 0 0.027148017053159855 0.00079158587322609064 0 0.026206380747587629 0.0009435451338776086 0 0.025561407928872817 0.0019148288234388756 0 0.025462377254768978 0.0017939968282110793 0 0.025686749668938934 0.0015455718877844672 0 0.028708262139664018 -1.7167058371567389e-05 0 0.027425689062507714 4.1917780571052364e-07 0 0.027335243614829148 4.7041675542483829e-05 0 0.027422156495846454 1.9279141874101343e-06 0 0.026206380747587629 0.0009435451338776086 0 0.025462377254768978 0.0017939968282110793 0 0.025686749668938934 0.0015455718877844672 0 0.025267550581557493 0.0013722007910437896 0 0.015827734582171307 0.0020563924511178599 0 0.014637241541604947 0.0015788603804905701 0 0.023698429888792744 -0.00097009110818251966 0 0.023441772580704748 -0.00079386536223798856 0 0.023607672041019309 -0.00066228077747622946 0 0.023698429888792744 -0.00097009110818251966 0 0.023339628126514991 -0.0012204559610647207 0 0.023441772580704748 -0.00079386536223798856 0 0.023698429888792744 -0.00097009110818251966 0 0.023824433820302755 -0.00064515413349322656 0 0.024169170475073738 -0.00078830265637350389 0 0.015827734582171307 0.0020563924511178599 0 0.014588162113659162 0.0028809714216202695 0 0.0079655514998677752 0.0050506581669348145 0 0.0072563144219014971 0.005062330621588406 0 0.0085804002699328887 0.0056544180132860108 0 0.0079655514998677752 0.0050506581669348145 0 0.0072563144219014971 0.005062330621588406 0 0.0076312397993363191 0.0043403877176643371 0 0.0072563144219014971 0.005062330621588406 0 0.0076312397993363191 0.0043403877176643371 0 0.0068597547235605362 0.0041272144662153473 0 0.0079655514998677752 0.0050506581669348145 0 0.0076312397993363191 0.0043403877176643371 0 0.0083771050179001442 0.0046836203721236161 0 0.0072563144219014971 0.005062330621588406 0 0.0068597547235605362 0.0041272144662153473 0 0.0060888284844210329 0.0044394240432925674 0 0.0068597547235605362 0.0041272144662153473 0 0.0060888284844210329 0.0044394240432925674 0 0.0062603459294528494 0.0034328582831156772 0 0.0060888284844210329 0.0044394240432925674 0 0.0050259986021832879 0.0038255023792246987 0 0.0062603459294528494 0.0034328582831156772 0 0.023339628126514991 -0.0012204559610647207 0 0.022586654196100127 -0.0018780166179118321 0 0.02259458806879671 -0.0012508711382188823 0 0.023339628126514991 -0.0012204559610647207 0 0.02259458806879671 -0.0012508711382188823 0 0.02291535519048981 -0.00092028485391996897 0 0.014637241541604947 0.0015788603804905701 0 0.013824909504319381 0.00097716173878406674 0 0.022635529609838275 -0.00072671079311929072 0 0.02259458806879671 -0.0012508711382188823 0 0.02291535519048981 -0.00092028485391996897 0 0.02291535519048981 -0.00092028485391996897 0 0.022811970260341582 -0.00065217218394941626 0 0.023009660960428321 -0.00048150655801202107 0 0.022635529609838275 -0.00072671079311929072 0 0.02291535519048981 -0.00092028485391996897 0 0.022811970260341582 -0.00065217218394941626 0 0.023339628126514991 -0.0012204559610647207 0 0.023224419730463321 -0.00092270295572917068 0 0.023441772580704748 -0.00079386536223798856 0 0.023339628126514991 -0.0012204559610647207 0 0.02291535519048981 -0.00092028485391996897 0 0.023224419730463321 -0.00092270295572917068 0 0.02291535519048981 -0.00092028485391996897 0 0.023224419730463321 -0.00092270295572917068 0 0.023268177750300757 -0.00072640143131389302 0 0.023224419730463321 -0.00092270295572917068 0 0.023441772580704748 -0.00079386536223798856 0 0.023268177750300757 -0.00072640143131389302 0 0.023441772580704748 -0.00079386536223798856 0 0.023268177750300757 -0.00072640143131389302 0 0.023489142743405432 -0.00046329204229665372 0 0.02291535519048981 -0.00092028485391996897 0 0.023268177750300757 -0.00072640143131389302 0 0.023225951239066848 -0.00053567987126095049 0 0.023268177750300757 -0.00072640143131389302 0 0.023225951239066848 -0.00053567987126095049 0 0.023489142743405432 -0.00046329204229665372 0 0.02340407006577 -0.00022631959354746682 0 0.023009660960428321 -0.00048150655801202107 0 0.023000112630241345 -0.00028035275063894211 0 0.023016919896686115 -0.00091926330075931624 0 0.023040386826098457 -0.00027333440179218884 0 0.02291535519048981 -0.00092028485391996897 0 0.02340407006577 -0.00022631959354746682 0 0.023009660960428321 -0.00048150655801202107 0 0.022693026664350704 -0.00051859533619131367 0 0.022811970260341582 -0.00065217218394941626 0 0.023009660960428321 -0.00048150655801202107 0 0.022693026664350704 -0.00051859533619131367 0 0.023009660960428321 -0.00048150655801202107 0 0.023000112630241345 -0.00028035275063894211 0 0.02340407006577 -0.00022631959354746682 0 0.023000112630241345 -0.00028035275063894211 0 0.023276414130263136 -2.6882603934604005e-05 0 0.023445736400773725 -1.4299893589983751e-05 0 0.02340407006577 -0.00022631959354746682 0 0.023276414130263136 -2.6882603934604005e-05 0 0.023519557550656021 -3.9682650337996397e-05 0 0.023445736400773725 -1.4299893589983751e-05 0 0.02340407006577 -0.00022631959354746682 0 0.025627186114118083 -0.00107423603577101 0 0.023040386826098457 -0.00027333440179218884 0 0.023463108365854978 -0.00011124553683686475 0 0.023225951239066848 -0.00053567987126095049 0 0.023489142743405432 -0.00046329204229665372 0 0.025627186114118083 -0.00107423603577101 0 0.026458193140441212 -0.0012113517806454888 0 0.023463108365854978 -0.00011124553683686475 0 0.02373839509079629 -0.00047110401372624358 0 0.023489142743405432 -0.00046329204229665372 0 0.030875953126748221 -0.00078825300033204281 0 0.031748852383104063 -0.0019432223716942332 0 0.03201417754229495 -0.0013794187698803332 0 0.026458193140441212 -0.0012113517806454888 0 0.023008869813860681 -0.00064507770966883474 0 0.023441772580704748 -0.00079386536223798856 0 0.023489142743405432 -0.00046329204229665372 0 0.023607672041019309 -0.00066228077747622946 0 0.023693998526766905 -0.00046918498536461107 0 0.023489142743405432 -0.00046329204229665372 0 0.023607672041019309 -0.00066228077747622946 0 0.023698429888792744 -0.00097009110818251966 0 0.023607672041019309 -0.00066228077747622946 0 0.023824433820302755 -0.00064515413349322656 0 0.023693998526766905 -0.00046918498536461107 0 0.023607672041019309 -0.00066228077747622946 0 0.023824433820302755 -0.00064515413349322656 0 0.023824433820302755 -0.00064515413349322656 0 0.024029597529611747 -0.00044490699832261523 0 0.024197007436784681 -0.00057049067360847867 0 0.023708534464463436 -0.00045833348589274786 0 0.023824433820302755 -0.00064515413349322656 0 0.024029597529611747 -0.00044490699832261523 0 0.026458193140441212 -0.0012113517806454888 0 0.023824706681318773 1.4543491827933091e-05 0 0.032095631670735689 -0.00075941855961048359 0 0.032676428526219062 -0.0018716896401805498 0 0.03201417754229495 -0.0013794187698803332 0 0.032783435645580679 -0.0017089944057762808 0 0.032765242076306017 -0.0019017980047527951 0 0.032676428526219062 -0.0018716896401805498 0 0.026458193140441212 -0.0012113517806454888 0 0.027806426240580769 -0.0011691420658000802 0 0.031748852383104063 -0.0019432223716942332 0 0.032765242076306017 -0.0019017980047527951 0 0.032676428526219062 -0.0018716896401805498 0 0.032110541889865667 -0.0010399939316178659 0 0.032755519438768692 -0.0019294355046943245 0 0.031748852383104063 -0.0019432223716942332 0 0.032676428526219062 -0.0018716896401805498 0 0.03201417754229495 -0.0013794187698803332 0 0.027806426240580769 -0.0011691420658000802 0 0.033389029591820017 -0.0012873737179199529 0 0.039883049791716509 -0.0014972937819601074 0 0.033389029591820017 -0.0012873737179199529 0 0.032783435645580679 -0.0017089944057762808 0 0.032765242076306017 -0.0019017980047527951 0 0.032955170400508126 -0.0018962510007515657 0 0.024029597529611747 -0.00044490699832261523 0 0.024418001194330009 -0.00042662658978653048 0 0.024197007436784681 -0.00057049067360847867 0 0.044492748171586986 -0.00043480754379702835 0 0.044445004370040016 -0.00062793225773096698 0 0.044375969443943564 -0.00062345705468894814 0 0.035057547103321762 0.00089645832034037623 0 0.033389029591820017 -0.0012873737179199529 0 0.031504967667127536 -0.00014932101631405357 0 0.031115517702554357 -0.00015538316340495581 0 0.031310219859822117 -0.00035433766962316842 0 0.033389029591820017 -0.0012873737179199529 0 0.027486600824362762 0.00067951056440296483 0 0.0094928992125973746 0.0060668849209904747 0 0.0085217236502843144 0.0056427977526530585 0 0.0092510209750566539 0.0054689295824176774 0 0.021207097676382909 0.0048849662489000526 0 0.022804093177631577 0.0032366420250823078 0 0.017404581646879736 0.00084777379210489677 0 0.02715163778628597 0.0027600424059637222 0 0.026762180109242893 0.0023474086652521381 0 0.027289584589349561 0.0017959795543196011 0 0.019104946863988257 0.0042590488125736478 0 0.014588162113659162 0.0028809714216202695 0 0.035057547103321762 0.00089645832034037623 0 0.027486600824362762 0.00067951056440296483 0 0.027486600824362762 0.00067951056440296483 0 0.019104946863988257 0.0042590488125736478 0 0.027486600824362762 0.00067951056440296483 0 0.014588162113659162 0.0028809714216202695 0 0.023824433820302755 -0.00064515413349322656 0 0.024169170475073738 -0.00078830265637350389 0 0.024197007436784681 -0.00057049067360847867 0 0.024501664033413802 -0.00051465561572635265 0 0.024169170475073738 -0.00078830265637350389 0 0.024197007436784681 -0.00057049067360847867 0 0.024418001194330009 -0.00042662658978653048 0 0.024501664033413802 -0.00051465561572635265 0 0.024197007436784681 -0.00057049067360847867 0 0.035208431058790235 0.00090235759316349988 0 0.03010803445966112 0.0021449793049003233 0 0.036879448491018325 0.00031250483227446621 0 0.037566862600399216 1.7576948112789656e-05 0 0.036908575473037109 -0.00025969237129148162 0 0.027188199823222247 0.0028931477434251504 0 0.03010803445966112 0.0021449793049003233 0 0.03158845473548294 0.0017338234355954451 0 0.031101394317083034 0.0010131489508642404 0 0.02997451611024983 0.001034647128266557 0 0.041647928028814375 -5.2972796994757646e-05 0 0.035057547103321762 0.00089645832034037623 0 0.036879448491018325 0.00031250483227446621 0 0.036290122984467835 -0.00024572984104096244 0 0.036908575473037109 -0.00025969237129148162 0 0.035057547103321762 0.00089645832034037623 0 0.03010803445966112 0.0021449793049003233 0 0.019104946863988257 0.0042590488125736478 0 0.03010803445966112 0.0021449793049003233 0 0.022860760962633703 0.0048991584206602165 0 0.023521106317813689 0.0034348808812443973 0 0.022246429842050421 0.0027821645690533367 0 0.02715163778628597 0.0027600424059637222 0 0.027289584589349561 0.0017959795543196011 0 0.029419614296698111 0.0027474028302467957 0 0.020976900813215699 0.0040901427720047125 0 0.022860760962633703 0.0048991584206602165 0 0.022246429842050421 0.0027821645690533367 0 0.019104946863988257 0.0042590488125736478 0 0.015504250157467574 0.0045819479654600767 0 0.02433141721607926 0.0048705385130878671 0 0.022860760962633703 0.0048991584206602165 0 0.023521106317813689 0.0034348808812443973 0 0.024661051464064554 0.0031532245320015058 0 0.02433141721607926 0.0048705385130878671 0 0.023521106317813689 0.0034348808812443973 0 0.024661051464064554 0.0031532245320015058 0 0.023521106317813689 0.0034348808812443973 0 0.02350388505543426 0.0014764498057504277 0 0.024479561626450992 0.0027481573860930219 0 0.019165751238514817 0.002695508499859809 0 0.023521106317813689 0.0034348808812443973 0 0.022246429842050421 0.0027821645690533367 0 0.02350388505543426 0.0014764498057504277 0 0.010221843510922457 0.0053145495578851452 0 0.01011147556300165 0.0045391767515602886 0 0.0091475089037262956 0.0048233745680755381 0 0.010221843510922457 0.0053145495578851452 0 0.01011147556300165 0.0045391767515602886 0 0.011052609950441845 0.0045164454264320216 0 0.015504250157467574 0.0045819479654600767 0 0.019165751238514817 0.002695508499859809 0 0.01011147556300165 0.0045391767515602886 0 0.010661672893467635 0.003943321207215772 0 0.0095666036957469461 0.0040438317023750335 0 0.011754786799928056 0.0034510917865914256 0 0.0092529300040553649 0.0040465121448870186 0 0.01011147556300165 0.0045391767515602886 0 0.011052609950441845 0.0045164454264320216 0 0.010661672893467635 0.003943321207215772 0 0.024326846155851557 0.0010511329894778165 0 0.023847587787247482 0.00031663408044776769 0 0.023263446802423936 0.00092145751054348074 0 0.017661870755661974 0.0026946093756551838 0 0.016205596511756598 0.0041892463546881996 0 0.015264383386228694 0.0027683432944125086 0 0.017998705627127454 0.0029851040555104067 0 0.011754786799928056 0.0034510917865914256 0 0.019165751238514817 0.002695508499859809 0 0.011754786799928056 0.0034510917865914256 0 0.017998705627127454 0.0029851040555104067 0 0.019165751238514817 0.002695508499859809 0 0.0085217236502843144 0.0056427977526530585 0 0.0091475089037262956 0.0048233745680755381 0 0.0083771050179001442 0.0046836203721236161 0 0.0079655514998677752 0.0050506581669348145 0 0.0085217236502843144 0.0056427977526530585 0 0.0083771050179001442 0.0046836203721236161 0 0.0081291560301271857 0.0042575246321780932 0 0.014588162113659162 0.0028809714216202695 0 0.010221843510922457 0.0053145495578851452 0 0.0092510209750566539 0.0054689295824176774 0 0.0091475089037262956 0.0048233745680755381 0 0.0085217236502843144 0.0056427977526530585 0 0.0092510209750566539 0.0054689295824176774 0 0.0091475089037262956 0.0048233745680755381 0 0.0094928992125973746 0.0060668849209904747 0 0.010221843510922457 0.0053145495578851452 0 0.0092510209750566539 0.0054689295824176774 0 0.01011147556300165 0.0045391767515602886 0 0.0091475089037262956 0.0048233745680755381 0 0.0095666036957469461 0.0040438317023750335 0 0.0091475089037262956 0.0048233745680755381 0 0.0095666036957469461 0.0040438317023750335 0 0.0083831182450289886 0.0040492482532650011 0 0.0091475089037262956 0.0048233745680755381 0 0.0083771050179001442 0.0046836203721236161 0 0.0083831182450289886 0.0040492482532650011 0 0.0076312397993363191 0.0043403877176643371 0 0.0083771050179001442 0.0046836203721236161 0 0.0083831182450289886 0.0040492482532650011 0 0.0083831182450289886 0.0040492482532650011 0 0.008268355054908685 0.0030765127728641785 0 0.0073799244313781263 0.0034220131946711418 0 0.0083831182450289886 0.0040492482532650011 0 0.0090464281548270405 0.0033439383627419483 0 0.008268355054908685 0.0030765127728641785 0 0.0095666036957469461 0.0040438317023750335 0 0.0090464281548270405 0.0033439383627419483 0 0.0097988957809434507 0.003190110438567686 0 0.0095666036957469461 0.0040438317023750335 0 0.0083831182450289886 0.0040492482532650011 0 0.0090464281548270405 0.0033439383627419483 0 0.0090464281548270405 0.0033439383627419483 0 0.008268355054908685 0.0030765127728641785 0 0.0091972073092489604 0.0023553895194705224 0 0.0098669676018877991 0.0034864656668968101 0 0.0092647920234781352 0.0024220313243224294 0 0.0090464281548270405 0.0033439383627419483 0 0.0097988957809434507 0.003190110438567686 0 0.0091972073092489604 0.0023553895194705224 0 0.008268355054908685 0.0030765127728641785 0 0.0081652206035159498 0.0022375712315623451 0 0.0091972073092489604 0.0023553895194705224 0 0.008268355054908685 0.0030765127728641785 0 0.0081652206035159498 0.0022375712315623451 0 0.0075718127567088673 0.002766445898002201 0 0.012073823330143577 0.004827043816012816 0 0.010909865560358081 0.0048719573591184603 0 0.011438112104483332 0.0037751070158366169 0 0.010909865560358081 0.0048719573591184603 0 0.011438112104483332 0.0037751070158366169 0 0.010062178343345265 0.0036421737279000474 0 0.011754786799928056 0.0034510917865914256 0 0.0098669676018877991 0.0034864656668968101 0 0.010373198910933436 0.0040125982098710052 0 0.0095666036957469461 0.0040438317023750335 0 0.0097988957809434507 0.003190110438567686 0 0.010062178343345265 0.0036421737279000474 0 0.010896272632664475 0.0030583728972084752 0 0.010441365921875194 0.0022330277620106948 0 0.011438112104483332 0.0037751070158366169 0 0.010062178343345265 0.0036421737279000474 0 0.010896272632664475 0.0030583728972084752 0 0.010062178343345265 0.0036421737279000474 0 0.010441365921875194 0.0022330277620106948 0 0.0091972073092489604 0.0023553895194705224 0 0.010896272632664475 0.0030583728972084752 0 0.011639406448150046 0.0025817016542813279 0 0.010441365921875194 0.0022330277620106948 0 0.011438112104483332 0.0037751070158366169 0 0.010896272632664475 0.0030583728972084752 0 0.011639406448150046 0.0025817016542813279 0 0.011639406448150046 0.0025817016542813279 0 0.011495841647752452 0.0016015929737142871 0 0.010441365921875194 0.0022330277620106948 0 0.012713729686390861 0.0019518118619337361 0 0.011639406448150046 0.0025817016542813279 0 0.011495841647752452 0.0016015929737142871 0 0.011495841647752452 0.0016015929737142871 0 0.010441365921875194 0.0022330277620106948 0 0.010593368364550953 0.0011267604080021673 0 0.0098202345094662476 0.0015745974236752078 0 0.010441365921875194 0.0022330277620106948 0 0.0091972073092489604 0.0023553895194705224 0 0.0098202345094662476 0.0015745974236752078 0 0.010441365921875194 0.0022330277620106948 0 0.010593368364550953 0.0011267604080021673 0 0.0098202345094662476 0.0015745974236752078 0 0.010593368364550953 0.0011267604080021673 0 0.010062204859464604 0.00041115062750860556 0 0.010593368364550953 0.0011267604080021673 0 0.010801609305051715 0.0003004328467958201 0 0.010062204859464604 0.00041115062750860556 0 0.011495841647752452 0.0016015929737142871 0 0.010593368364550953 0.0011267604080021673 0 0.011350398897645761 0.00078253338641763506 0 0.010593368364550953 0.0011267604080021673 0 0.011350398897645761 0.00078253338641763506 0 0.010801609305051715 0.0003004328467958201 0 0.012234277315018137 0.00093514213626941635 0 0.011350398897645761 0.00078253338641763506 0 0.011904312496512024 -4.6355181555731589e-05 0 0.012234277315018137 0.00093514213626941635 0 0.011495841647752452 0.0016015929737142871 0 0.011350398897645761 0.00078253338641763506 0 0.0081652206035159498 0.0022375712315623451 0 0.0091972073092489604 0.0023553895194705224 0 0.0090506601434610819 0.001192201078348696 0 0.0098202345094662476 0.0015745974236752078 0 0.0091972073092489604 0.0023553895194705224 0 0.0090506601434610819 0.001192201078348696 0 0.0098202345094662476 0.0015745974236752078 0 0.0090506601434610819 0.001192201078348696 0 0.010062204859464604 0.00041115062750860556 0 0.0081652206035159498 0.0022375712315623451 0 0.0090506601434610819 0.001192201078348696 0 0.0076785143307535868 0.001380898494406205 0 0.0090506601434610819 0.001192201078348696 0 0.0076785143307535868 0.001380898494406205 0 0.0087724766266384854 -0.00026758871205389802 0 0.0076785143307535868 0.001380898494406205 0 0.0065193536497951017 0.0013634664265006527 0 0.0070800400536580373 0.00076651106855344189 0 0.0076785143307535868 0.001380898494406205 0 0.0065193536497951017 0.0013634664265006527 0 0.0070955808499260772 0.0021649627907965371 0 0.0065193536497951017 0.0013634664265006527 0 0.0070955808499260772 0.0021649627907965371 0 0.0060400705374450466 0.0023907711221388566 0 0.0081652206035159498 0.0022375712315623451 0 0.0076785143307535868 0.001380898494406205 0 0.0070955808499260772 0.0021649627907965371 0 0.0081652206035159498 0.0022375712315623451 0 0.0070955808499260772 0.0021649627907965371 0 0.0075718127567088673 0.002766445898002201 0 0.0075718127567088673 0.002766445898002201 0 0.0067371297875521551 0.0029129625490134517 0 0.0073799244313781263 0.0034220131946711418 0 0.0070955808499260772 0.0021649627907965371 0 0.0075718127567088673 0.002766445898002201 0 0.0067371297875521551 0.0029129625490134517 0 0.008268355054908685 0.0030765127728641785 0 0.0075718127567088673 0.002766445898002201 0 0.0073799244313781263 0.0034220131946711418 0 0.0070955808499260772 0.0021649627907965371 0 0.0067371297875521551 0.0029129625490134517 0 0.0060400705374450466 0.0023907711221388566 0 0.0067371297875521551 0.0029129625490134517 0 0.0062603459294528494 0.0034328582831156772 0 0.0060400705374450466 0.0023907711221388566 0 0.0068597547235605362 0.0041272144662153473 0 0.0073799244313781263 0.0034220131946711418 0 0.0062603459294528494 0.0034328582831156772 0 0.0067371297875521551 0.0029129625490134517 0 0.0073799244313781263 0.0034220131946711418 0 0.0062603459294528494 0.0034328582831156772 0 0.0076312397993363191 0.0043403877176643371 0 0.0083831182450289886 0.0040492482532650011 0 0.0073799244313781263 0.0034220131946711418 0 0.0076312397993363191 0.0043403877176643371 0 0.0068597547235605362 0.0041272144662153473 0 0.0073799244313781263 0.0034220131946711418 0 0.0050259986021832879 0.0038255023792246987 0 0.0062603459294528494 0.0034328582831156772 0 0.0053035510409514246 0.0028326069942244307 0 0.0062603459294528494 0.0034328582831156772 0 0.0053035510409514246 0.0028326069942244307 0 0.0060400705374450466 0.0023907711221388566 0 0.0045844137824302073 0.002700785526057179 0 0.0050259986021832879 0.0038255023792246987 0 0.0053035510409514246 0.0028326069942244307 0 0.0045844137824302073 0.002700785526057179 0 0.0053035510409514246 0.0028326069942244307 0 0.0048932361372333102 0.0024152964986245279 0 0.0053035510409514246 0.0028326069942244307 0 0.0052325402376541177 0.0020085992537256878 0 0.0060400705374450466 0.0023907711221388566 0 0.0053035510409514246 0.0028326069942244307 0 0.0048932361372333102 0.0024152964986245279 0 0.0052325402376541177 0.0020085992537256878 0 0.0047849421753253067 0.0020327496675996309 0 0.0048932361372333102 0.0024152964986245279 0 0.0052325402376541177 0.0020085992537256878 0 0.0052325402376541177 0.0020085992537256878 0 0.0060400705374450466 0.0023907711221388566 0 0.0057441868221720302 0.0016293881032104036 0 0.0065193536497951017 0.0013634664265006527 0 0.0060400705374450466 0.0023907711221388566 0 0.0057441868221720302 0.0016293881032104036 0 0.0057441868221720302 0.0016293881032104036 0 0.0052584964685212891 0.0011809385097893744 0 0.0057838026508188053 0.00097814519598439682 0 0.0065193536497951017 0.0013634664265006527 0 0.0057441868221720302 0.0016293881032104036 0 0.0057838026508188053 0.00097814519598439682 0 0.0052325402376541177 0.0020085992537256878 0 0.0057441868221720302 0.0016293881032104036 0 0.0052584964685212891 0.0011809385097893744 0 0.0052325402376541177 0.0020085992537256878 0 0.0052584964685212891 0.0011809385097893744 0 0.0048034643856365985 0.0014946851052336069 0 0.0047849421753253067 0.0020327496675996309 0 0.0052325402376541177 0.0020085992537256878 0 0.0048034643856365985 0.0014946851052336069 0 0.0052584964685212891 0.0011809385097893744 0 0.0054032468667646319 0.00040119074997303886 0 0.0045613680601257018 0.00054305845021104945 0 0.0052584964685212891 0.0011809385097893744 0 0.0048034643856365985 0.0014946851052336069 0 0.0045613680601257018 0.00054305845021104945 0 0.0052584964685212891 0.0011809385097893744 0 0.0057838026508188053 0.00097814519598439682 0 0.0054032468667646319 0.00040119074997303886 0 0.0057838026508188053 0.00097814519598439682 0 0.0054032468667646319 0.00040119074997303886 0 0.0063026288650467159 0.0002582473478811801 0 0.0054032468667646319 0.00040119074997303886 0 0.0055554569532123149 -0.00028299715447508653 0 0.0063026288650467159 0.0002582473478811801 0 0.0054032468667646319 0.00040119074997303886 0 0.0046320122412352657 -0.00041711178783778894 0 0.0045613680601257018 0.00054305845021104945 0 0.0054032468667646319 0.00040119074997303886 0 0.0046320122412352657 -0.00041711178783778894 0 0.0055554569532123149 -0.00028299715447508653 0 0.0046320122412352657 -0.00041711178783778894 0 0.0055554569532123149 -0.00028299715447508653 0 0.0053388937402366592 -0.00093572347203450172 0 0.0055554569532123149 -0.00028299715447508653 0 0.0053388937402366592 -0.00093572347203450172 0 0.0061078537437329336 -0.00050461534251925225 0 0.0053388937402366592 -0.00093572347203450172 0 0.0061463572723312859 -0.001142393685704913 0 0.0052900938031418283 -0.0018621965694576475 0 0.0046320122412352657 -0.00041711178783778894 0 0.0053388937402366592 -0.00093572347203450172 0 0.0044729729109622461 -0.0014239053079101709 0 0.0044147028094388367 -0.00040233166392440826 0 0.0044949878863524686 -0.0013777353440183535 0 0.0067902342440046967 -0.0012230354672099313 0 0.0074557110396089067 -0.00074101633096507842 0 0.0072301259368324272 -0.0020046716881951319 0 0.0067902342440046967 -0.0012230354672099313 0 0.0068185651635641348 -0.00048725874658432503 0 0.0074557110396089067 -0.00074101633096507842 0 0.0067902342440046967 -0.0012230354672099313 0 0.0061463572723312859 -0.001142393685704913 0 0.0068185651635641348 -0.00048725874658432503 0 0.0061463572723312859 -0.001142393685704913 0 0.0061078537437329336 -0.00050461534251925225 0 0.0068185651635641348 -0.00048725874658432503 0 0.0053388937402366592 -0.00093572347203450172 0 0.0061463572723312859 -0.001142393685704913 0 0.0061078537437329336 -0.00050461534251925225 0 0.0061078537437329336 -0.00050461534251925225 0 0.0068185651635641348 -0.00048725874658432503 0 0.0063026288650467159 0.0002582473478811801 0 0.0055554569532123149 -0.00028299715447508653 0 0.0061078537437329336 -0.00050461534251925225 0 0.0063026288650467159 0.0002582473478811801 0 0.0068185651635641348 -0.00048725874658432503 0 0.0072449693917395674 0.00016409692059332794 0 0.0074637937987011788 -0.00027911669253559575 0 0.0072449693917395674 0.00016409692059332794 0 0.0063026288650467159 0.0002582473478811801 0 0.0070800400536580373 0.00076651106855344189 0 0.0068185651635641348 -0.00048725874658432503 0 0.0072449693917395674 0.00016409692059332794 0 0.0063026288650467159 0.0002582473478811801 0 0.0065193536497951017 0.0013634664265006527 0 0.0057838026508188053 0.00097814519598439682 0 0.0063026288650467159 0.0002582473478811801 0 0.0065193536497951017 0.0013634664265006527 0 0.0063026288650467159 0.0002582473478811801 0 0.0070800400536580373 0.00076651106855344189 0 0.0076785143307535868 0.001380898494406205 0 0.0070800400536580373 0.00076651106855344189 0 0.0079276660895968749 0.00062786402741181013 0 0.00767359141779416 0.0013396550365961989 0 0.0083903249252444065 0.00013177688903393149 0 0.0072449693917395674 0.00016409692059332794 0 0.0070800400536580373 0.00076651106855344189 0 0.0079276660895968749 0.00062786402741181013 0 0.0090506601434610819 0.001192201078348696 0 0.0087724766266384854 -0.00026758871205389802 0 0.010062204859464604 0.00041115062750860556 0 0.0087724766266384854 -0.00026758871205389802 0 0.010062204859464604 0.00041115062750860556 0 0.0099179925093851543 -0.00058573816337294151 0 0.0079276660895968749 0.00062786402741181013 0 0.0077764832075983966 3.5399878167034836e-05 0 0.0084092041111458148 -0.00016275446161925634 0 0.0087724766266384854 -0.00026758871205389802 0 0.0099179925093851543 -0.00058573816337294151 0 0.0098716997534207228 -0.0017904651607850363 0 0.0083903249252444065 0.00013177688903393149 0 0.008995259166943801 -0.0006386947641230001 0 0.0072449693917395674 0.00016409692059332794 0 0.0079276660895968749 0.00062786402741181013 0 0.0077764832075983966 3.5399878167034836e-05 0 0.0072449693917395674 0.00016409692059332794 0 0.0077764832075983966 3.5399878167034836e-05 0 0.0074637937987011788 -0.00027911669253559575 0 0.011904312496512024 -4.6355181555731589e-05 0 0.011369298812475274 -0.0006270983292108208 0 0.011674288200913789 -0.0011203888066809748 0 0.011904312496512024 -4.6355181555731589e-05 0 0.011333233863421598 -0.00023876946797470259 0 0.011369298812475274 -0.0006270983292108208 0 0.011904312496512024 -4.6355181555731589e-05 0 0.01128816187524471 0.00016871883178893926 0 0.011333233863421598 -0.00023876946797470259 0 0.011350398897645761 0.00078253338641763506 0 0.011904312496512024 -4.6355181555731589e-05 0 0.01128816187524471 0.00016871883178893926 0 0.011350398897645761 0.00078253338641763506 0 0.01128816187524471 0.00016871883178893926 0 0.010801609305051715 0.0003004328467958201 0 0.01128816187524471 0.00016871883178893926 0 0.010988287892366796 -0.00019923301812736598 0 0.010801609305051715 0.0003004328467958201 0 0.010988287892366796 -0.00019923301812736598 0 0.011333233863421598 -0.00023876946797470259 0 0.011103757971866747 -0.00054200819404264433 0 0.01128816187524471 0.00016871883178893926 0 0.010988287892366796 -0.00019923301812736598 0 0.011333233863421598 -0.00023876946797470259 0 0.011333233863421598 -0.00023876946797470259 0 0.011103757971866747 -0.00054200819404264433 0 0.011369298812475274 -0.0006270983292108208 0 0.010988287892366796 -0.00019923301812736598 0 0.010883073085840345 -0.00049307944133810972 0 0.011103757971866747 -0.00054200819404264433 0 0.010883073085840345 -0.00049307944133810972 0 0.011103757971866747 -0.00054200819404264433 0 0.010948514081761529 -0.00076732845366264235 0 0.010988287892366796 -0.00019923301812736598 0 0.010492707146521115 -0.00046373897958867038 0 0.010801609305051715 0.0003004328467958201 0 0.010988287892366796 -0.00019923301812736598 0 0.010883073085840345 -0.00049307944133810972 0 0.010492707146521115 -0.00046373897958867038 0 0.010883073085840345 -0.00049307944133810972 0 0.010492707146521115 -0.00046373897958867038 0 0.010948514081761529 -0.00076732845366264235 0 0.010492707146521115 -0.00046373897958867038 0 0.010801609305051715 0.0003004328467958201 0 0.010062204859464604 0.00041115062750860556 0 0.010492707146521115 -0.00046373897958867038 0 0.010062204859464604 0.00041115062750860556 0 0.0099179925093851543 -0.00058573816337294151 0 0.010066581515572161 -0.00019667045304012841 0 0.008995259166943801 -0.0006386947641230001 0 0.010334942895139152 -0.0011984601551229218 0 0.011073963806732864 -0.0013232428581764503 0 0.0098716997534207228 -0.0017904651607850363 0 0.0099179925093851543 -0.00058573816337294151 0 0.010334942895139152 -0.0011984601551229218 0 0.0098716997534207228 -0.0017904651607850363 0 0.010492707146521115 -0.00046373897958867038 0 0.0099179925093851543 -0.00058573816337294151 0 0.010334942895139152 -0.0011984601551229218 0 0.010334942895139152 -0.0011984601551229218 0 0.010764581720131918 -0.001044117034172934 0 0.011073963806732864 -0.0013232428581764503 0 0.010492707146521115 -0.00046373897958867038 0 0.010334942895139152 -0.0011984601551229218 0 0.010764581720131918 -0.001044117034172934 0 0.010492707146521115 -0.00046373897958867038 0 0.010764581720131918 -0.001044117034172934 0 0.010948514081761529 -0.00076732845366264235 0 0.010508775003519745 -0.00027023631562783266 0 0.010438158529689642 -0.00044769076709110065 0 0.010682970736573254 -0.00035339450074403856 0 0.011103757971866747 -0.00054200819404264433 0 0.010948514081761529 -0.00076732845366264235 0 0.011251965791549625 -0.00091643078914370425 0 0.010950058822185527 -0.00075494522367723497 0 0.010820553932381139 -0.00068957228642705216 0 0.011103757971866747 -0.00054200819404264433 0 0.011369298812475274 -0.0006270983292108208 0 0.011251965791549625 -0.00091643078914370425 0 0.010928774854076862 -0.00064624757244654077 0 0.010820553932381139 -0.00068957228642705216 0 0.010820553932381139 -0.00068957228642705216 0 0.010066581515572161 -0.00019667045304012841 0 0.010764581720131918 -0.001044117034172934 0 0.010948514081761529 -0.00076732845366264235 0 0.011238207359137355 -0.00090524466139962152 0 0.010764581720131918 -0.001044117034172934 0 0.011238207359137355 -0.00090524466139962152 0 0.011073963806732864 -0.0013232428581764503 0 0.0090903518090369746 0.0011014834751980871 0 0.0094129203359921386 0.0012311670311667701 0 0.0092483681667584264 0.00064782867073830944 0 0.010066581515572161 -0.00019667045304012841 0 0.010872086692074966 -0.0004834815727448688 0 0.010820553932381139 -0.00068957228642705216 0 0.010872086692074966 -0.0004834815727448688 0 0.011369298812475274 -0.0006270983292108208 0 0.01125410608800333 -0.00091958768445783387 0 0.011674288200913789 -0.0011203888066809748 0 0.0090903518090369746 0.0011014834751980871 0 0.0092483681667584264 0.00064782867073830944 0 0.0087800340330029345 0.00033927646727640389 0 0.0095088089767653722 0.00048533860815023843 0 0.0092668630952837412 0.00032178401234550188 0 0.0098704270626464811 0.00028981567883122167 0 0.0095088089767653722 0.00048533860815023843 0 0.0092668630952837412 0.00032178401234550188 0 0.0092483681667584264 0.00064782867073830944 0 0.0094129203359921386 0.0012311670311667701 0 0.0092483681667584264 0.00064782867073830944 0 0.0097115687248783746 0.00073679901941850077 0 0.0095088089767653722 0.00048533860815023843 0 0.0092483681667584264 0.00064782867073830944 0 0.0097115687248783746 0.00073679901941850077 0 0.0092668630952837412 0.00032178401234550188 0 0.0092483681667584264 0.00064782867073830944 0 0.0087800340330029345 0.00033927646727640389 0 0.0090802611653991398 -8.650529224474449e-05 0 0.008975530150876522 -0.00032808893549705838 0 0.0088641273541612206 -0.00016963011439225499 0 0.010066581515572161 -0.00019667045304012841 0 0.0078196119152014049 0.00015571930352281961 0 0.0078196119152014049 0.00015571930352281961 0 0.008995259166943801 -0.0006386947641230001 0 0.0084291637281585126 -0.00058175215113041997 0 0.0081971541079258452 -0.00025415091987751251 0 0.0081297998363209119 -0.00060129422250358765 0 0.0084291637281585126 -0.00058175215113041997 0 0.0082454801798691399 -0.001019617615456582 0 0.0081297998363209119 -0.00060129422250358765 0 0.0054865081796779368 0.0021464139011664021 0 0.0055373150835722742 0.0023443638040048435 0 0.0053964748845558835 0.0022714995976872801 0 0.0078196119152014049 0.00015571930352281961 0 0.0024683200844353641 0.0038463525722001774 0 0.0023431882903647322 0.0046772971509621581 0 0.0045307445285626023 0.0055916169434291297 0 0.0042226312676257689 0.0039196480944999734 0 0.0024683200844353641 0.0038463525722001774 0 0.0064168779852224475 0.0026853483247634867 0 0.0078196119152014049 0.00015571930352281961 0 0.0064168779852224475 0.0026853483247634867 0 0.0059718688823483055 0.0028771132095339663 0 0.0066938814927926847 0.0018903143456052531 0 0.0073589538605441703 0.002570523462002863 0 0.0092668630952837412 0.00032178401234550188 0 0.0090569343888176734 -4.5983561614063574e-05 0 0.0098704270626464811 0.00028981567883122167 0 0.0064168779852224475 0.0026853483247634867 0 0.0086926242974930349 0.0019195695050210045 0 0.0092668630952837412 0.00032178401234550188 0 0.0087800340330029345 0.00033927646727640389 0 0.0090569343888176734 -4.5983561614063574e-05 0 0.0068185651635641348 -0.00048725874658432503 0 0.0074637937987011788 -0.00027911669253559575 0 0.0074557110396089067 -0.00074101633096507842 0 0.0074637937987011788 -0.00027911669253559575 0 0.0078869204893190336 -0.00036095412517808326 0 0.0074557110396089067 -0.00074101633096507842 0 0.0077764832075983966 3.5399878167034836e-05 0 0.0074637937987011788 -0.00027911669253559575 0 0.0078869204893190336 -0.00036095412517808326 0 0.0077764832075983966 3.5399878167034836e-05 0 0.0084092041111458148 -0.00016275446161925634 0 0.0078869204893190336 -0.00036095412517808326 0 0.0078869204893190336 -0.00036095412517808326 0 0.0081297998363209119 -0.00060129422250358765 0 0.0078885342270026693 -0.0008204632697594278 0 0.008995259166943801 -0.0006386947641230001 0 0.00785119516160117 -0.00046155595876968197 0 0.0081971541079258452 -0.00025415091987751251 0 0.0078869204893190336 -0.00036095412517808326 0 0.0081297998363209119 -0.00060129422250358765 0 0.0082454801798691399 -0.001019617615456582 0 0.0078885342270026693 -0.0008204632697594278 0 0.0077320517700129382 -0.0012625194257277427 0 0.0078885342270026693 -0.0008204632697594278 0 0.0074557110396089067 -0.00074101633096507842 0 0.0077320517700129382 -0.0012625194257277427 0 0.0078869204893190336 -0.00036095412517808326 0 0.0078885342270026693 -0.0008204632697594278 0 0.0074557110396089067 -0.00074101633096507842 0 0.0082454801798691399 -0.001019617615456582 0 0.0081297998363209119 -0.00060129422250358765 0 0.0078885342270026693 -0.0008204632697594278 0 0.0074557110396089067 -0.00074101633096507842 0 0.0072031890234201925 -0.0014800308508576853 0 0.0077320517700129382 -0.0012625194257277427 0 0.0089601745810444933 -0.00076353711311852085 0 0.0014404630001094171 -0.0013650689288025322 0 -0.011259532714433312 0.0046702824842266479 0 -0.0076586581006806648 0.006245422704727715 0 -0.0086803313540086066 0.0037884035563665232 0 0.0014404630001094171 -0.0013650689288025322 0 -0.00042307533987738326 0.0024177370880266945 0 -0.0039730737885649361 0.0077743208085818546 0 -0.0076586581006806648 0.006245422704727715 0 -0.0059606591794368223 0.0030097599317777633 0 0.0024683200844353641 0.0038463525722001774 0 -0.00042307533987738326 0.0024177370880266945 0 -0.0076586581006806648 0.006245422704727715 0 -0.0059606591794368223 0.0030097599317777633 0 -0.0086803313540086066 0.0037884035563665232 0 -0.0059606591794368223 0.0030097599317777633 0 -0.0086803313540086066 0.0037884035563665232 0 -0.0098013649909031043 0.0012221504139649894 0 -0.011259532714433312 0.0046702824842266479 0 -0.0098013649909031043 0.0012221504139649894 0 -0.012565108124350126 -0.0011815911429459743 0 -0.011259532714433312 0.0046702824842266479 0 -0.0086803313540086066 0.0037884035563665232 0 -0.0098013649909031043 0.0012221504139649894 0 0.0064168779852224475 0.0026853483247634867 0 0.006210683036221575 0.0028364511699443592 0 0.0045307445285626023 0.0055916169434291297 0 0.0061546701963682993 0.0032636959706336638 0 0.0042226312676257689 0.0039196480944999734 0 0.0061546701963682993 0.0032636959706336638 0 0.0042226312676257689 0.0039196480944999734 0 0.0038738714587749998 0.0021620654980329538 0 0.0024683200844353641 0.0038463525722001774 0 -0.0023703634334213772 0.0023705259929745746 0 0.0023431882903647322 0.0046772971509621581 0 0.0042226312676257689 0.0039196480944999734 0 0.0038738714587749998 0.0021620654980329538 0 0.0023431882903647322 0.0046772971509621581 0 0.00078371070745785159 0.0010095871600522359 0 0.0038738714587749998 0.0021620654980329538 0 0.00078371070745785159 0.0010095871600522359 0 0.0038738714587749998 0.0021620654980329538 0 0.0035339329648541883 -0.00055538057199571193 0 0.0061546701963682993 0.0032636959706336638 0 0.0038738714587749998 0.0021620654980329538 0 0.0063330400636188782 0.00070228244256862111 0 0.0038738714587749998 0.0021620654980329538 0 0.0063330400636188782 0.00070228244256862111 0 0.0035339329648541883 -0.00055538057199571193 0 0.0063330400636188782 0.00070228244256862111 0 0.0058157751647678968 -0.0010165760755113486 0 0.0072733615674476833 -0.00015073317563593479 0 0.0072295622355375367 -2.7458356120002608e-05 0 0.0010960787756075698 -3.6874143835605515e-05 0 0.0063330400636188782 0.00070228244256862111 0 0.0035339329648541883 -0.00055538057199571193 0 0.0046328488667648866 -0.0033872658576048361 0 0.00078371070745785159 0.0010095871600522359 0 0.0035339329648541883 -0.00055538057199571193 0 0.0019040187487304812 -0.0030990903231808923 0 0.0035339329648541883 -0.00055538057199571193 0 0.0019040187487304812 -0.0030990903231808923 0 0.0046328488667648866 -0.0033872658576048361 0 -0.011647457042174672 0.00068980847814721906 0 -0.011971671426099629 -0.00095842688568614906 0 -0.0091465364958059243 0.00047163174195083478 0 0.0010960787756075698 -3.6874143835605515e-05 0 -0.0088420432651157305 0.0001570309044500871 0 -0.0050667548724208505 -0.0011885008368461908 0 0.0010960787756075698 -3.6874143835605515e-05 0 -0.011971671426099629 -0.00095842688568614906 0 -0.0091465364958059243 0.00047163174195083478 0 -0.010422576291249678 -0.002626619213828041 0 0.0012048681356034167 0.0023651292528288573 0 0.0041006392495403507 0.0020491761320191601 0 0.0025682596556807834 0.00029785303216032404 0 0.0012048681356034167 0.0023651292528288573 0 0.0025682596556807834 0.00029785303216032404 0 0.00015473724520248229 -0.00017691714084799241 0 -0.0090316232157215109 -0.0015404091191420753 0 -0.012964260466374878 -0.0011388803555599258 0 -0.0098013649909031043 0.0012221504139649894 0 -0.0079316014340811182 -0.0017627059986055713 0 -0.012381812181384117 -0.0011674083437329048 0 -0.0098013649909031043 0.0012221504139649894 0 -0.012565108124350126 -0.0011815911429459743 0 -0.012381812181384117 -0.0011674083437329048 0 -0.0059606591794368223 0.0030097599317777633 0 -0.0098013649909031043 0.0012221504139649894 0 -0.0079316014340811182 -0.0017627059986055713 0 0.00078371070745785159 0.0010095871600522359 0 0.0019040187487304812 -0.0030990903231808923 0 -0.00083867474014027283 -0.0028145326420794181 0 -0.0023703634334213772 0.0023705259929745746 0 -0.0090316232157215109 -0.0015404091191420753 0 -0.011647457042174672 0.00068980847814721906 0 -0.013634344645917937 0.00058428014748810285 0 -0.013282522188652614 0.00050880817916814573 0 -0.013634344645917937 0.00058428014748810285 0 -0.013446171600348509 0.00048476532831997316 0 -0.01348790328848623 0.00052242031467218957 0 -0.013634344645917937 0.00058428014748810285 0 -0.013282522188652614 0.00050880817916814573 0 -0.013446171600348509 0.00048476532831997316 0 -0.0050667548724208505 -0.0011885008368461908 0 -0.0090316232157215109 -0.0015404091191420753 0 -0.011647457042174672 0.00068980847814721906 0 -0.011971671426099629 -0.00095842688568614906 0 -0.013282522188652614 0.00050880817916814573 0 -0.012873144513768281 4.6013197880507676e-05 0 -0.013215979324837254 0.00035776105968590103 0 -0.013688204006758162 0.00047372611039180935 0 -0.013282522188652614 0.00050880817916814573 0 -0.013446171600348509 0.00048476532831997316 0 -0.013688204006758162 0.00047372611039180935 0 -0.013446171600348509 0.00048476532831997316 0 -0.01348790328848623 0.00052242031467218957 0 -0.013817857292974986 -0.0010851838030507446 0 -0.013110505307717143 -0.00040730485720719665 0 -0.012381812181384117 -0.0011674083437329048 0 -0.0090316232157215109 -0.0015404091191420753 0 -0.014684747104544715 0.00082392940029135241 0 -0.013817857292974986 -0.0010851838030507446 0 -0.013110505307717143 -0.00040730485720719665 0 -0.013344121971326737 0.00054850257045772216 0 -0.013634344645917937 0.00058428014748810285 0 -0.013344121971326737 0.00054850257045772216 0 -0.01348790328848623 0.00052242031467218957 0 -0.013110505307717143 -0.00040730485720719665 0 -0.012787535833882441 -0.00037673393026916723 0 -0.012381812181384117 -0.0011674083437329048 0 -0.012787535833882441 -0.00037673393026916723 0 -0.012565108124350126 -0.0011815911429459743 0 -0.012474711786829172 0.00043690575709504558 0 -0.0075222502603380873 -0.0021121159755850558 0 -0.0045400450637966315 -0.0019597090134980391 0 0.0016679209609869045 -0.004425067730779839 0 -0.0045400450637966315 -0.0019597090134980391 0 -2.7632700089037824e-05 -0.0038746589164755057 0 0.00032415381510206677 -0.0038957539587588953 0 2.7822386853488397e-05 -0.0027622721552891666 0 -0.012787535833882441 -0.00037673393026916723 0 -0.012565108124350126 -0.0011815911429459743 0 -0.012381812181384117 -0.0011674083437329048 0 -2.7632700089037824e-05 -0.0038746589164755057 0 0.00023251322414104831 -0.0040600132999442139 0 0.00015937492034495847 -0.0043090243412744226 0 -2.7632700089037824e-05 -0.0038746589164755057 0 0.00032415381510206677 -0.0038957539587588953 0 0.00023251322414104831 -0.0040600132999442139 0 0.00023251322414104831 -0.0040600132999442139 0 0.00045242346821760572 -0.004144088054578954 0 0.00015937492034495847 -0.0043090243412744226 0 0.00032415381510206677 -0.0038957539587588953 0 0.00023251322414104831 -0.0040600132999442139 0 0.00045242346821760572 -0.004144088054578954 0 0.00045242346821760572 -0.004144088054578954 0 0.00080518009251302129 -0.0039278806324010958 0 0.00063600624037053353 -0.0043575624144829659 0 0.00032415381510206677 -0.0038957539587588953 0 0.00045242346821760572 -0.004144088054578954 0 0.00080518009251302129 -0.0039278806324010958 0 0.00056530228704613041 -0.0035462652973373213 0 0.00080518009251302129 -0.0039278806324010958 0 0.00090944025085016905 -0.0034002330433080285 0 0.00032415381510206677 -0.0038957539587588953 0 0.00056530228704613041 -0.0035462652973373213 0 0.00080518009251302129 -0.0039278806324010958 0 0.00032415381510206677 -0.0038957539587588953 0 0.00056530228704613041 -0.0035462652973373213 0 0.00024978323455919423 -0.0032562322728966432 0 0.0014658781913322884 -0.003531334558986193 0 0.00080518009251302129 -0.0039278806324010958 0 0.00090944025085016905 -0.0034002330433080285 0 0.0014658781913322884 -0.003531334558986193 0 0.001374721666663255 -0.0040915184649708714 0 0.00080518009251302129 -0.0039278806324010958 0 0.0027950893732284999 -0.0036040095130892586 0 0.0037002102465496412 -0.0037273522418301819 0 0.001374721666663255 -0.0040915184649708714 0 0.00080518009251302129 -0.0039278806324010958 0 0.00063600624037053353 -0.0043575624144829659 0 0.004394405722713021 -0.0032267378458497456 0 0.0052900938031418283 -0.0018621965694576475 0 0.0059650043054577861 -0.0026124655417026211 0 0.004394405722713021 -0.0032267378458497456 0 0.0052900938031418283 -0.0018621965694576475 0 0.0037676157914537461 -0.0022940612945750042 0 0.0044729729109622461 -0.0014239053079101709 0 0.0052900938031418283 -0.0018621965694576475 0 0.0037676157914537461 -0.0022940612945750042 0 0.0053388937402366592 -0.00093572347203450172 0 0.0044729729109622461 -0.0014239053079101709 0 0.0052900938031418283 -0.0018621965694576475 0 0.0061463572723312859 -0.001142393685704913 0 0.0052900938031418283 -0.0018621965694576475 0 0.0063001386029364935 -0.0017639304798003112 0 0.0052900938031418283 -0.0018621965694576475 0 0.0063001386029364935 -0.0017639304798003112 0 0.0059650043054577861 -0.0026124655417026211 0 0.0067902342440046967 -0.0012230354672099313 0 0.0061463572723312859 -0.001142393685704913 0 0.0063001386029364935 -0.0017639304798003112 0 0.0067902342440046967 -0.0012230354672099313 0 0.0072301259368324272 -0.0020046716881951319 0 0.0063001386029364935 -0.0017639304798003112 0 -9.7689029454932911e-05 -0.0046403275987285924 0 -2.7632700089037824e-05 -0.0038746589164755057 0 0.00015937492034495847 -0.0043090243412744226 0 0.0014404630001094171 -0.0013650689288025322 0 -0.0075222502603380873 -0.0021121159755850558 0 0.0014404630001094171 -0.0013650689288025322 0 0.0037002102465496412 -0.0037273522418301819 0 -9.7689029454932911e-05 -0.0046403275987285924 0 0.00015937492034495847 -0.0043090243412744226 0 0.00063600624037053353 -0.0043575624144829659 0 0.0072301259368324272 -0.0020046716881951319 0 0.0063001386029364935 -0.0017639304798003112 0 0.0059650043054577861 -0.0026124655417026211 0 0.00045242346821760572 -0.004144088054578954 0 0.00015937492034495847 -0.0043090243412744226 0 0.00063600624037053353 -0.0043575624144829659 0 0.019914424902823118 0.00025381567423947286 0 0.019351361272774811 -7.0866919926474836e-07 0 0.016662683060142822 1.7769193379762432e-06 0 0.017741212320020114 0.00045192493844688078 0 0.016660378202940158 2.2855954858291059e-08 0 0.015431067633952513 0.0010123554115129888 0 0.015390431834898662 0.00029559905447864996 0 0.016653942637546885 1.2042903798894049e-06 0 0.015431067633952513 0.0010123554115129888 0 0.015064240516954647 0.00067210910364501645 0 0.015390431834898662 0.00029559905447864996 0 0.015431067633952513 0.0010123554115129888 0 0.015037274167267103 0.00096971626152822326 0 0.015064240516954647 0.00067210910364501645 0 0.015064240516954647 0.00067210910364501645 0 0.015124337563815347 0.0004128403411078299 0 0.015390431834898662 0.00029559905447864996 0 0.019914424902823118 0.00025381567423947286 0 0.020953754266997006 -0.00028251899657840703 0 0.021321319226354826 -0.00016820733670174079 0 0.017741212320020114 0.00045192493844688078 0 0.017964668386785097 0.0006415872071914284 0 0.015431067633952513 0.0010123554115129888 0 0.0150110334702754 0.0011720690324557197 0 0.015037274167267103 0.00096971626152822326 0 0.019914424902823118 0.00025381567423947286 0 0.019351361272774811 -7.0866919926474836e-07 0 0.020953754266997006 -0.00028251899657840703 0 0.019351361272774811 -7.0866919926474836e-07 0 0.02204156606879203 -6.9476919384278566e-07 0 0.020953754266997006 -0.00028251899657840703 0 0.02236219890893296 -0.00024488045973783851 0 0.02204156606879203 -6.9476919384278566e-07 0 0.020953754266997006 -0.00028251899657840703 0 0.02236219890893296 -0.00024488045973783851 0 0.020953754266997006 -0.00028251899657840703 0 0.021502501814214918 -0.00037202302231037319 0 0.020953754266997006 -0.00028251899657840703 0 0.021321319226354826 -0.00016820733670174079 0 0.021502501814214918 -0.00037202302231037319 0 0.0150110334702754 0.0011720690324557197 0 0.014954569274185082 0.0011453006150764782 0 0.014954801083065019 0.0011438055751350584 0 0.017964668386785097 0.0006415872071914284 0 0.019101857198485363 -0.00019814648457089403 0 0.0150110334702754 0.0011720690324557197 0 0.014954801083065019 0.0011438055751350584 0 0.014925309513228511 0.0010859975633551544 0 0.021321319226354826 -0.00016820733670174079 0 0.021502501814214918 -0.00037202302231037319 0 0.021416333256738009 -0.0003394424306957767 0 0.021569113861817524 -0.00010291997399282083 0 0.021502501814214918 -0.00037202302231037319 0 0.021416333256738009 -0.0003394424306957767 0 0.019101857198485363 -0.00019814648457089403 0 0.014802714192869852 0.00026716368137893087 0 0.014954569274185082 0.0011453006150764782 0 0.014946106787694724 0.0011448679983203209 0 0.014954801083065019 0.0011438055751350584 0 0.014954569274185082 0.0011453006150764782 0 0.014946106787694724 0.0011448679983203209 0 0.014956371822266994 0.0011348465562853786 0 0.014954801083065019 0.0011438055751350584 0 0.014930312816579139 0.00111903904520303 0 0.014925309513228511 0.0010859975633551544 0 0.014946106787694724 0.0011448679983203209 0 0.014954801083065019 0.0011438055751350584 0 0.014930312816579139 0.00111903904520303 0 0.014946106787694724 0.0011448679983203209 0 0.014930312816579139 0.00111903904520303 0 0.014877923263708567 0.0011285121875065013 0 0.015084429656039466 0.0011422677998001341 0 0.014802714192869852 0.00026716368137893087 0 0.014930312816579139 0.00111903904520303 0 0.014914546460955009 0.0010967596806247008 0 0.014877923263708567 0.0011285121875065013 0 0.014469013424084911 0.0011298079548770726 0 0.014586198709741231 0.00090709004999676881 0 0.014925309513228511 0.0010859975633551544 0 0.014930312816579139 0.00111903904520303 0 0.014914546460955009 0.0010967596806247008 0 0.014925309513228511 0.0010859975633551544 0 0.014769075941225068 0.001105275860922452 0 0.014870918824848377 0.0010946884875697551 0 0.014586198709741231 0.00090709004999676881 0 0.014421881943297079 0.00073002682786270736 0 0.014273067119528767 0.00097875786056849387 0 0.014469013424084911 0.0011298079548770726 0 0.014586198709741231 0.00090709004999676881 0 0.014273067119528767 0.00097875786056849387 0 0.014586198709741231 0.00090709004999676881 0 0.014925309513228511 0.0010859975633551544 0 0.0147743820608537 0.00077904268859831766 0 0.0150110334702754 0.0011720690324557197 0 0.014925309513228511 0.0010859975633551544 0 0.015037274167267103 0.00096971626152822326 0 0.014925309513228511 0.0010859975633551544 0 0.015037274167267103 0.00096971626152822326 0 0.0147743820608537 0.00077904268859831766 0 0.015037274167267103 0.00096971626152822326 0 0.015064240516954647 0.00067210910364501645 0 0.0147743820608537 0.00077904268859831766 0 0.015064240516954647 0.00067210910364501645 0 0.014867656042057281 0.00045276362080405146 0 0.015124337563815347 0.0004128403411078299 0 0.015064240516954647 0.00067210910364501645 0 0.0147743820608537 0.00077904268859831766 0 0.014867656042057281 0.00045276362080405146 0 0.013454286555345897 0.0016254731862417598 0 0.014229181701512454 0.0011757603398864908 0 0.014652727383690735 0.00059209528992430164 0 0.0147743820608537 0.00077904268859831766 0 0.014867656042057281 0.00045276362080405146 0 0.013454286555345897 0.0016254731862417598 0 0.013789815650911069 0.0012508360700021282 0 0.012736509998649148 0.0026615791758288522 0 0.011383807480504127 0.0024666580786248276 0 0.0120944573133006 0.0018899708822629677 0 0.014586198709741231 0.00090709004999676881 0 0.014421881943297079 0.00073002682786270736 0 0.0147743820608537 0.00077904268859831766 0 0.014652727383690735 0.00059209528992430164 0 0.014421881943297079 0.00073002682786270736 0 0.0147743820608537 0.00077904268859831766 0 0.012736509998649148 0.0026615791758288522 0 0.010678580206964822 0.0035286787007230464 0 0.011383807480504127 0.0024666580786248276 0 0.013396543337975188 0.0014682841934352585 0 0.013003335229980369 0.0017122216789986439 0 0.01248391257744519 0.0018542042945467116 0 0.013454286555345897 0.0016254731862417598 0 0.011415727443958018 0.0027060496413517069 0 0.013003335229980369 0.0017122216789986439 0 0.01248391257744519 0.0018542042945467116 0 0.01223223818216298 0.0021921877766223731 0 0.010678580206964822 0.0035286787007230464 0 0.011383807480504127 0.0024666580786248276 0 0.010557265223867273 0.002714585825615587 0 0.010557265223867273 0.002714585825615587 0 0.0099119902797395083 0.0031984522805435889 0 0.0098555072831531948 0.002313001210300915 0 0.0092960810976107748 0.0031443890518507342 0 0.0099119902797395083 0.0031984522805435889 0 0.0098555072831531948 0.002313001210300915 0 0.0092960810976107748 0.0031443890518507342 0 0.0089612459414888657 0.0021977761612971647 0 0.0098555072831531948 0.002313001210300915 0 0.0092960810976107748 0.0031443890518507342 0 0.0099119902797395083 0.0031984522805435889 0 0.0089307457684527827 0.004237973804136947 0 0.010678580206964822 0.0035286787007230464 0 0.0099119902797395083 0.0031984522805435889 0 0.0098942277840361557 0.0038261769373054196 0 0.010678580206964822 0.0035286787007230464 0 0.010557265223867273 0.002714585825615587 0 0.0099119902797395083 0.0031984522805435889 0 0.011415727443958018 0.0027060496413517069 0 0.011509158260216144 0.0021620478924356864 0 0.013630538801850053 -0.00012920894770120762 0 0.014802714192869852 0.00026716368137893087 0 0.01248391257744519 0.0018542042945467116 0 0.012097036956389858 0.0020338451756414882 0 0.01223223818216298 0.0021921877766223731 0 0.012267645735008355 0.00088053692341760921 0 0.012412871019379434 0.0010507887757121612 0 0.012101982620634139 0.0011089752569697611 0 0.011509158260216144 0.0021620478924356864 0 0.012809853851537704 0.0012092862921836618 0 0.011509158260216144 0.0021620478924356864 0 0.010592246966982187 0.0011995442327507925 0 0.0099119902797395083 0.0031984522805435889 0 0.0098942277840361557 0.0038261769373054196 0 0.0089307457684527827 0.004237973804136947 0 0.012267645735008355 0.00088053692341760921 0 0.012101982620634139 0.0011089752569697611 0 0.011727578010157634 0.0011326112346029629 0 0.011978178913334924 0.0012392535901979806 0 0.012101982620634139 0.0011089752569697611 0 0.011727578010157634 0.0011326112346029629 0 0.01272173016522748 0.00015798631495147385 0 0.010592246966982187 0.0011995442327507925 0 0.01272173016522748 0.00015798631495147385 0 0.013630538801850053 -0.00012920894770120762 0 0.011978178913334924 0.0012392535901979806 0 0.012101982620634139 0.0011089752569697611 0 0.012119629799189898 0.0012366876266440641 0 0.014317801631159397 -0.0019657382892868253 0 0.014520053845607638 -0.001966668803973295 0 0.014031409713637278 -0.0016580424527755607 0 0.013630538801850053 -0.00012920894770120762 0 0.014510922458394488 -0.001375774772847663 0 0.013423027526457812 0.00044151492221772553 0 0.013456092010148286 0.00041694016575044042 0 0.013407226914226397 0.00042246847141572629 0 0.013630538801850053 -0.00012920894770120762 0 0.013983183885100602 0.00082993887270623715 0 0.012809853851537704 0.0012092862921836618 0 0.013983183885100602 0.00082993887270623715 0 0.012412871019379434 0.0010507887757121612 0 0.012101982620634139 0.0011089752569697611 0 0.012119629799189898 0.0012366876266440641 0 0.012809853851537704 0.0012092862921836618 0 0.013630538801850053 -0.00012920894770120762 0 0.013744205713840425 6.2616080357976077e-05 0 0.014221251525883712 5.2500075034818428e-05 0 0.014602013644152071 0.00049628089837143138 0 0.014469013424084911 0.0011298079548770726 0 0.014020356520457602 0.0011432836407124424 0 0.014273067119528767 0.00097875786056849387 0 0.014421881943297079 0.00073002682786270736 0 0.013927028103248276 0.0010349969267532645 0 0.014273067119528767 0.00097875786056849387 0 0.014769075941225068 0.001105275860922452 0 0.013983183885100602 0.00082993887270623715 0 0.013983183885100602 0.00082993887270623715 0 0.014802714192869852 0.00026716368137893087 0 0.014914546460955009 0.0010967596806247008 0 0.014838366620557151 0.0010883273326652567 0 0.014877923263708567 0.0011285121875065013 0 0.013789815650911069 0.0012508360700021282 0 0.012809853851537704 0.0012092862921836618 0 0.013927028103248276 0.0010349969267532645 0 0.014020356520457602 0.0011432836407124424 0 0.014273067119528767 0.00097875786056849387 0 0.018994160721530935 0.00024719046572388724 0 0.019101857198485363 -0.00019814648457089403 0 0.015706816638233572 0.0010838399897635982 0 0.016920706234694452 -0.00015221267215993555 0 0.015152488694102939 -0.0001178754171155272 0 0.016920706234694452 -0.00015221267215993555 0 0.015855276405860971 -0.0013675822277545032 0 0.015152488694102939 -0.0001178754171155272 0 0.015152488694102939 -0.0001178754171155272 0 0.014640937381871432 -0.00096771140234895895 0 0.013928695742833511 -0.00023572210865659856 0 0.013866257336221223 0.0009287444511461505 0 0.015152488694102939 -0.0001178754171155272 0 0.013928695742833511 -0.00023572210865659856 0 0.014571897686447406 -0.002005114433840707 0 0.015855276405860971 -0.0013675822277545032 0 0.014640937381871432 -0.00096771140234895895 0 0.015855276405860971 -0.0013675822277545032 0 0.015152488694102939 -0.0001178754171155272 0 0.014640937381871432 -0.00096771140234895895 0 0.014640937381871432 -0.00096771140234895895 0 0.014010636841289253 -0.00098268171171895483 0 0.013928695742833511 -0.00023572210865659856 0 0.014571897686447406 -0.002005114433840707 0 0.014640937381871432 -0.00096771140234895895 0 0.014031409713637278 -0.0016580424527755607 0 0.014640937381871432 -0.00096771140234895895 0 0.014031409713637278 -0.0016580424527755607 0 0.014010636841289253 -0.00098268171171895483 0 0.014031409713637278 -0.0016580424527755607 0 0.013362179673744683 -0.0011432639064690717 0 0.013569795719133257 -0.0019718419143263458 0 0.013362179673744683 -0.0011432639064690717 0 0.013928695742833511 -0.00023572210865659856 0 0.012798898399244522 -0.00064436638021645658 0 0.014031409713637278 -0.0016580424527755607 0 0.013362179673744683 -0.0011432639064690717 0 0.014010636841289253 -0.00098268171171895483 0 0.013362179673744683 -0.0011432639064690717 0 0.014010636841289253 -0.00098268171171895483 0 0.013928695742833511 -0.00023572210865659856 0 0.013928695742833511 -0.00023572210865659856 0 0.012950900220231737 0.00017998227248089996 0 0.012809119945013001 -0.0006837983380578648 0 0.013762085764486023 -0.00029721776358803884 0 0.012908433883636071 -0.00062047461342020762 0 0.013866257336221223 0.0009287444511461505 0 0.013928695742833511 -0.00023572210865659856 0 0.012950900220231737 0.00017998227248089996 0 0.011904312496512024 -4.6355181555731589e-05 0 0.011674288200913789 -0.0011203888066809748 0 0.012809119945013001 -0.0006837983380578648 0 0.012234277315018137 0.00093514213626941635 0 0.011904312496512024 -4.6355181555731589e-05 0 0.012950900220231737 0.00017998227248089996 0 0.011904312496512024 -4.6355181555731589e-05 0 0.012950900220231737 0.00017998227248089996 0 0.012809119945013001 -0.0006837983380578648 0 0.011671956248701586 -0.0010747348842838026 0 0.013362179673744683 -0.0011432639064690717 0 0.013569795719133257 -0.0019718419143263458 0 0.0094129203359921386 0.0012311670311667701 0 0.0097115687248783746 0.00073679901941850077 0 0.010517631305717123 0.00071698180060355611 0 0.010872086692074966 -0.0004834815727448688 0 0.012908433883636071 -0.00062047461342020762 0 0.010872086692074966 -0.0004834815727448688 0 0.011581286425924561 0.0001269665166182616 0 0.011671956248701586 -0.0010747348842838026 0 0.013362179673744683 -0.0011432639064690717 0 0.012798898399244522 -0.00064436638021645658 0 0.0093760922441758557 0.0007881736426351534 0 0.011581286425924561 0.0001269665166182616 0 0.0097115687248783746 0.00073679901941850077 0 0.010445973075969854 0.00072748906127186269 0 0.0098704270626464811 0.00028981567883122167 0 0.0095088089767653722 0.00048533860815023843 0 0.0097115687248783746 0.00073679901941850077 0 0.0098704270626464811 0.00028981567883122167 0 0.0089307457684527827 0.004237973804136947 0 0.0084805765995261025 0.0034731291005966761 0 0.0074030810143037749 0.0035216076245227642 0 0.010592246966982187 0.0011995442327507925 0 0.0086926242974930349 0.0019195695050210045 0 0.010445973075969854 0.00072748906127186269 0 0.010656275295649806 0.00062912091233988674 0 0.0098704270626464811 0.00028981567883122167 0 0.014317801631159397 -0.0019657382892868253 0 0.014031409713637278 -0.0016580424527755607 0 0.013569795719133257 -0.0019718419143263458 0 0.01272173016522748 0.00015798631495147385 0 0.011581286425924561 0.0001269665166182616 0 0.012059182270477687 0.00031316535365653674 0 0.011192502127249759 0.00032631867731302004 0 0.011622275843071411 0.00012378317431400467 0 0.011581286425924561 0.0001269665166182616 0 0.010592246966982187 0.0011995442327507925 0 0.0092960810976107748 0.0031443890518507342 0 0.0089307457684527827 0.004237973804136947 0 0.0084805765995261025 0.0034731291005966761 0 0.0084805765995261025 0.0034731291005966761 0 0.0083202183115955348 0.0029769739624486619 0 0.0074030810143037749 0.0035216076245227642 0 0.0092960810976107748 0.0031443890518507342 0 0.0084805765995261025 0.0034731291005966761 0 0.0083202183115955348 0.0029769739624486619 0 0.0092960810976107748 0.0031443890518507342 0 0.0083202183115955348 0.0029769739624486619 0 0.0089612459414888657 0.0021977761612971647 0 0.0083202183115955348 0.0029769739624486619 0 0.0081486227985343874 0.0022231878932924276 0 0.0089612459414888657 0.0021977761612971647 0 0.0059718688823483055 0.0028771132095339663 0 0.0073589538605441703 0.002570523462002863 0 0.0074030810143037749 0.0035216076245227642 0 0.0083202183115955348 0.0029769739624486619 0 0.0073589538605441703 0.002570523462002863 0 0.0081486227985343874 0.0022231878932924276 0 0.0083202183115955348 0.0029769739624486619 0 0.0073589538605441703 0.002570523462002863 0 0.0074030810143037749 0.0035216076245227642 0 0.0075850584886256716 0.0018141750823935463 0 0.0083619492383803767 0.0012705344287746536 0 0.0073786359655798129 0.0009977454198229342 0 0.006210683036221575 0.0028364511699443592 0 0.0073462668792328408 0.0011258183718715271 0 0.0066938814927926847 0.0018903143456052531 0 0.0075850584886256716 0.0018141750823935463 0 0.0073786359655798129 0.0009977454198229342 0 0.0066938814927926847 0.0018903143456052531 0 0.0073589538605441703 0.002570523462002863 0 0.0075850584886256716 0.0018141750823935463 0 0.0073589538605441703 0.002570523462002863 0 0.0075850584886256716 0.0018141750823935463 0 0.0081486227985343874 0.0022231878932924276 0 0.0089612459414888657 0.0021977761612971647 0 0.0083619492383803767 0.0012705344287746536 0 0.0095863244590451546 0.001211399665945806 0 0.0081486227985343874 0.0022231878932924276 0 0.0089612459414888657 0.0021977761612971647 0 0.0083619492383803767 0.0012705344287746536 0 0.0075850584886256716 0.0018141750823935463 0 0.0081486227985343874 0.0022231878932924276 0 0.0083619492383803767 0.0012705344287746536 0 0.0083619492383803767 0.0012705344287746536 0 0.0087200961836522393 0.00015060996793620618 0 0.0095863244590451546 0.001211399665945806 0 0.0083619492383803767 0.0012705344287746536 0 0.0079515080395270703 0.00035458258741606787 0 0.0087200961836522393 0.00015060996793620618 0 0.0061546701963682993 0.0032636959706336638 0 0.0063330400636188782 0.00070228244256862111 0 0.0073786359655798129 0.0009977454198229342 0 0.0079515080395270703 0.00035458258741606787 0 0.0073786359655798129 0.0009977454198229342 0 0.0072733615674476833 -0.00015073317563593479 0 0.0083619492383803767 0.0012705344287746536 0 0.0079515080395270703 0.00035458258741606787 0 0.0073786359655798129 0.0009977454198229342 0 0.0063330400636188782 0.00070228244256862111 0 0.0073786359655798129 0.0009977454198229342 0 0.0072733615674476833 -0.00015073317563593479 0 0.0058157751647678968 -0.0010165760755113486 0 0.0072733615674476833 -0.00015073317563593479 0 0.0075928798955826084 -0.0010662772301492688 0 0.0072733615674476833 -0.00015073317563593479 0 0.0075928798955826084 -0.0010662772301492688 0 0.0083939484918060889 -0.00035359600198904957 0 0.0041006392495403507 0.0020491761320191601 0 0.0050099224059094206 0.0007852552978693814 0 0.0025682596556807834 0.00029785303216032404 0 0.0010960787756075698 -3.6874143835605515e-05 0 0.006322874797703661 0.00053866213002231309 0 0.0050099224059094206 0.0007852552978693814 0 0.0069458652476104147 0.0015543172821065913 0 0.0063118005919419132 0.00031298264355155971 0 0.0075928798955826084 -0.0010662772301492688 0 0.0083939484918060889 -0.00035359600198904957 0 0.0089885592821667346 -0.00075510921640051059 0 0.0041006392495403507 0.0020491761320191601 0 0.0050099224059094206 0.0007852552978693814 0 0.0069458652476104147 0.0015543172821065913 0 0.006322874797703661 0.00053866213002231309 0 0.0078011864260960732 0.00039071297271795169 0 0.0079515080395270703 0.00035458258741606787 0 0.0072733615674476833 -0.00015073317563593479 0 0.0083939484918060889 -0.00035359600198904957 0 0.0083939484918060889 -0.00035359600198904957 0 0.0087200961836522393 0.00015060996793620618 0 0.0092002389421265637 -0.00013561308392557307 0 0.0079515080395270703 0.00035458258741606787 0 0.0083939484918060889 -0.00035359600198904957 0 0.0087200961836522393 0.00015060996793620618 0 0.0083939484918060889 -0.00035359600198904957 0 0.0092002389421265637 -0.00013561308392557307 0 0.0089885592821667346 -0.00075510921640051059 0 0.0087200961836522393 0.00015060996793620618 0 0.0092002389421265637 -0.00013561308392557307 0 0.0096437159254340772 0.0003491377214158103 0 0.0092002389421265637 -0.00013561308392557307 0 0.0089885592821667346 -0.00075510921640051059 0 0.0098802688190413254 -0.00044466595340223163 0 0.0069458652476104147 0.0015543172821065913 0 0.0090978006018758214 0.00082508134949483972 0 0.0074073459060117518 0.00055918301010832443 0 0.0069458652476104147 0.0015543172821065913 0 0.0074073459060117518 0.00055918301010832443 0 0.0063118005919419132 0.00031298264355155971 0 0.0078011864260960732 0.00039071297271795169 0 0.0094545840683840452 0.00017728554267905768 0 0.0092002389421265637 -0.00013561308392557307 0 0.0098802688190413254 -0.00044466595340223163 0 0.0096437159254340772 0.0003491377214158103 0 0.0098802688190413254 -0.00044466595340223163 0 0.0096437159254340772 0.0003491377214158103 0 0.010254879774092835 4.3878823080372619e-05 0 0.01086969469262454 -0.00029039620571489044 0 0.01092968037248168 0.0016040896997073786 0 0.012445466234626648 0.0008561293420643165 0 0.01086969469262454 -0.00029039620571489044 0 0.0095863244590451546 0.001211399665945806 0 0.01092968037248168 0.0016040896997073786 0 0.0088593092822409868 0.00011745429681066503 0 0.010265050159905354 4.4087795644505013e-05 0 0.0087200961836522393 0.00015060996793620618 0 0.01086969469262454 -0.00029039620571489044 0 0.0095863244590451546 0.001211399665945806 0 0.0095863244590451546 0.001211399665945806 0 0.0098555072831531948 0.002313001210300915 0 0.01092968037248168 0.0016040896997073786 0 0.0089612459414888657 0.0021977761612971647 0 0.0095863244590451546 0.001211399665945806 0 0.0098555072831531948 0.002313001210300915 0 0.011383807480504127 0.0024666580786248276 0 0.010557265223867273 0.002714585825615587 0 0.01092968037248168 0.0016040896997073786 0 0.010557265223867273 0.002714585825615587 0 0.0098555072831531948 0.002313001210300915 0 0.01092968037248168 0.0016040896997073786 0 0.01092968037248168 0.0016040896997073786 0 0.012445466234626648 0.0008561293420643165 0 0.0120944573133006 0.0018899708822629677 0 0.011383807480504127 0.0024666580786248276 0 0.01092968037248168 0.0016040896997073786 0 0.0120944573133006 0.0018899708822629677 0 0.012736509998649148 0.0026615791758288522 0 0.0120944573133006 0.0018899708822629677 0 0.013643376669711545 0.0019924987269863128 0 0.012445466234626648 0.0008561293420643165 0 0.0120944573133006 0.0018899708822629677 0 0.013643376669711545 0.0019924987269863128 0 0.012445466234626648 0.0008561293420643165 0 0.013643376669711545 0.0019924987269863128 0 0.013977200517886264 0.00050754852521589543 0 0.014229181701512454 0.0011757603398864908 0 0.015071123488810389 0.00044465092600624677 0 0.014867656042057281 0.00045276362080405146 0 0.015147612254518716 0.00030589271940416367 0 0.015124337563815347 0.0004128403411078299 0 0.013643376669711545 0.0019924987269863128 0 0.013977200517886264 0.00050754852521589543 0 0.015147612254518716 0.00030589271940416367 0 0.013977200517886264 0.00050754852521589543 0 0.013220437555111908 -0.0004918046770739352 0 0.015249007345439849 -0.00022359379301212356 0 0.011832083439139728 6.841026953072622e-05 0 0.0132618991475612 0.00022421973865502335 0 0.010265050159905354 4.4087795644505013e-05 0 0.011832083439139728 6.841026953072622e-05 0 0.01086969469262454 -0.00029039620571489044 0 0.012445466234626648 0.0008561293420643165 0 0.013220437555111908 -0.0004918046770739352 0 0.012445466234626648 0.0008561293420643165 0 0.013977200517886264 0.00050754852521589543 0 0.013220437555111908 -0.0004918046770739352 0 0.0096437159254340772 0.0003491377214158103 0 0.010392029009979998 0.00057243351508228695 0 0.010254879774092835 4.3878823080372619e-05 0 0.0094545840683840452 0.00017728554267905768 0 0.010333159774877506 -4.640138639681883e-05 0 0.0098802688190413254 -0.00044466595340223163 0 0.010254879774092835 4.3878823080372619e-05 0 0.010465090560137015 -0.00010361374825244512 0 0.010254879774092835 4.3878823080372619e-05 0 0.010465090560137015 -0.00010361374825244512 0 0.010819942135086387 0.00024366215276250405 0 0.010465090560137015 -0.00010361374825244512 0 0.010819942135086387 0.00024366215276250405 0 0.011344472117341988 -0.00013212971184135803 0 0.010392029009979998 0.00057243351508228695 0 0.010819942135086387 0.00024366215276250405 0 0.01139672359903259 0.00078362180339635419 0 0.010392029009979998 0.00057243351508228695 0 0.010254879774092835 4.3878823080372619e-05 0 0.010819942135086387 0.00024366215276250405 0 0.011344472117341988 -0.00013212971184135803 0 0.012431269850407538 1.045332245538339e-05 0 0.01139672359903259 0.00078362180339635419 0 0.010819942135086387 0.00024366215276250405 0 0.011344472117341988 -0.00013212971184135803 0 0.01139672359903259 0.00078362180339635419 0 0.010465090560137015 -0.00010361374825244512 0 0.011344472117341988 -0.00013212971184135803 0 0.010619732819927711 -0.00048386508460152814 0 0.011344472117341988 -0.00013212971184135803 0 0.012268851834142953 -1.2464325685582119e-06 0 0.010619732819927711 -0.00048386508460152814 0 0.011344472117341988 -0.00013212971184135803 0 0.012268851834142953 -1.2464325685582119e-06 0 0.012431269850407538 1.045332245538339e-05 0 0.012431269850407538 1.045332245538339e-05 0 0.014333317745443266 2.6456810741361064e-06 0 0.01139672359903259 0.00078362180339635419 0 0.012268851834142953 -1.2464325685582119e-06 0 0.012431269850407538 1.045332245538339e-05 0 0.014333317745443266 2.6456810741361064e-06 0 0.014342766065715017 -6.5231585332544139e-07 0 0.015291227792375038 -9.7843567123005395e-05 0 0.015249007345439849 -0.00022359379301212356 0 0.014336772310204209 1.3866848466538111e-07 0 0.0132618991475612 0.00022421973865502335 0 0.014342766065715017 -6.5231585332544139e-07 0 0.015291227792375038 -9.7843567123005395e-05 0 0.016653942637546885 1.2042903798894049e-06 0 0.013977200517886264 0.00050754852521589543 0 0.015249007345439849 -0.00022359379301212356 0 0.015147612254518716 0.00030589271940416367 0 0.015291227792375038 -9.7843567123005395e-05 0 0.015249007345439849 -0.00022359379301212356 0 0.015147612254518716 0.00030589271940416367 0 0.015291227792375038 -9.7843567123005395e-05 0 0.015147612254518716 0.00030589271940416367 0 0.015390431834898662 0.00029559905447864996 0 0.015147612254518716 0.00030589271940416367 0 0.015124337563815347 0.0004128403411078299 0 0.015390431834898662 0.00029559905447864996 0 0.015291227792375038 -9.7843567123005395e-05 0 0.015390431834898662 0.00029559905447864996 0 0.016653942637546885 1.2042903798894049e-06 0 0.0059286394338756328 -7.8822241036751447e-07 0 0.0053452053612326224 0.00039942720288406702 0 0.0081267974704789733 4.5816105359929192e-06 0 0.0059286394338756328 -7.8822241036751447e-07 0 0.0053452053612326224 0.00039942720288406702 0 0.0039968647766251073 0.00022657780734467169 0 0.0053452053612326224 0.00039942720288406702 0 0.0032602872421339342 0.0010119071288938522 0 0.0039968647766251073 0.00022657780734467169 0 0.0053452053612326224 0.00039942720288406702 0 0.0039819441100993292 0.0020488148504712294 0 0.0032602872421339342 0.0010119071288938522 0 0.0069973271074133432 0.00086129092520403948 0 0.0081311393298275116 3.9140559557842767e-07 0 0.0053452053612326224 0.00039942720288406702 0 0.0039819441100993292 0.0020488148504712294 0 0.0081267974704789733 4.5816105359929192e-06 0 0.0081360832906788132 7.0191313565663657e-07 0 0.010198995962675995 -6.1844416382142734e-07 0 0.010619732819927711 -0.00048386508460152814 0 0.012268851834142953 -1.2464325685582119e-06 0 0.010198995962675995 -6.1844416382142734e-07 0 0.010619732819927711 -0.00048386508460152814 0 0.010405877301758619 -0.00016613030000453872 0 0.010619732819927711 -0.00048386508460152814 0 0.010348310775267771 -0.00047124956098886265 0 0.010405877301758619 -0.00016613030000453872 0 0.0081360832906788132 7.0191313565663657e-07 0 0.010619732819927711 -0.00048386508460152814 0 0.0069973271074133432 0.00086129092520403948 0 0.006531899712049735 0.00031015680276997708 0 0.010405877301758619 -0.00016613030000453872 0 0.010348310775267771 -0.00047124956098886265 0 0.0098306515614573122 -0.0010844390837826013 0 0.010465090560137015 -0.00010361374825244512 0 0.010619732819927711 -0.00048386508460152814 0 0.010348310775267771 -0.00047124956098886265 0 0.010465090560137015 -0.00010361374825244512 0 0.010348310775267771 -0.00047124956098886265 0 0.009474010979609709 -0.00032863610490797964 0 0.0090978006018758214 0.00082508134949483972 0 0.010465090560137015 -0.00010361374825244512 0 0.009474010979609709 -0.00032863610490797964 0 0.010348310775267771 -0.00047124956098886265 0 0.009474010979609709 -0.00032863610490797964 0 0.0098306515614573122 -0.0010844390837826013 0 0.002263274373331172 0.002073319478460272 0 0.0023147187951086633 0.0010508049600007733 0 0.0015840356636671088 0.0012543223041284652 0 0.002263274373331172 0.002073319478460272 0 0.0032602872421339342 0.0010119071288938522 0 0.0023147187951086633 0.0010508049600007733 0 0.0039819441100993292 0.0020488148504712294 0 0.002263274373331172 0.002073319478460272 0 0.0032602872421339342 0.0010119071288938522 0 0.0032602872421339342 0.0010119071288938522 0 0.0025478587583573952 0.00077472742521586513 0 0.0039968647766251073 0.00022657780734467169 0 0.0032602872421339342 0.0010119071288938522 0 0.0023147187951086633 0.0010508049600007733 0 0.0025478587583573952 0.00077472742521586513 0 0.0023147187951086633 0.0010508049600007733 0 0.0020961250582298059 0.0005738778514816753 0 0.0025478587583573952 0.00077472742521586513 0 0.0023147187951086633 0.0010508049600007733 0 0.0015840356636671088 0.0012543223041284652 0 0.0020961250582298059 0.0005738778514816753 0 -0.0019810548921915801 0.0047218964775189087 0 -0.0002784030135180462 0.0026040155907454021 0 -0.004195951575849427 0.006587829562616168 0 -0.0057643304968703572 0.0058879932796037709 0 -0.0064666852356277489 0.0073218514948186235 0 -0.004195951575849427 0.006587829562616168 0 -0.0057643304968703572 0.0058879932796037709 0 -0.0051919758678474516 0.0041987516524147209 0 -0.004195951575849427 0.006587829562616168 0 -0.0052596835872243258 0.0083938320809326308 0 -0.0064666852356277489 0.0073218514948186235 0 -0.0019810548921915801 0.0047218964775189087 0 0.0021981594544295121 0.0019601889601309147 0 0.002263274373331172 0.002073319478460272 0 0.0015840356636671088 0.0012543223041284652 0 0.0010919934793422283 0.0021585051739883058 0 0.009474010979609709 -0.00032863610490797964 0 0.0098306515614573122 -0.0010844390837826013 0 0.0078187232728404756 -0.0014269830097320209 0 0.006531899712049735 0.00031015680276997708 0 0.0021981594544295121 0.0019601889601309147 0 0.009474010979609709 -0.00032863610490797964 0 0.0081218293219066928 -9.8390449343159549e-05 0 0.0078187232728404756 -0.0014269830097320209 0 0.0090978006018758214 0.00082508134949483972 0 0.009474010979609709 -0.00032863610490797964 0 0.0081218293219066928 -9.8390449343159549e-05 0 0.0090978006018758214 0.00082508134949483972 0 0.0081218293219066928 -9.8390449343159549e-05 0 0.0074073459060117518 0.00055918301010832443 0 0.0064513442615483719 -0.000793729229609858 0 0.0074579265598735062 -0.0020829370700955374 0 0.0063118005919419132 0.00031298264355155971 0 0.0081218293219066928 -9.8390449343159549e-05 0 0.0074073459060117518 0.00055918301010832443 0 0.0063118005919419132 0.00031298264355155971 0 0.0081218293219066928 -9.8390449343159549e-05 0 0.0078187232728404756 -0.0014269830097320209 0 0.0063118005919419132 0.00031298264355155971 0 0.0021981594544295121 0.0019601889601309147 0 0.0082043729157879434 -0.0015896598729625761 0 0.0021981594544295121 0.0019601889601309147 0 0.0011149341860067223 0.00037560582567054576 0 0.0064513442615483719 -0.000793729229609858 0 0.0074579265598735062 -0.0020829370700955374 0 0.0051736497182191497 -0.0018321762326290343 0 -0.0052596835872243258 0.0083938320809326308 0 -0.0073164904969057112 0.008541833271834649 0 -0.0064666852356277489 0.0073218514948186235 0 0.0011149341860067223 0.00037560582567054576 0 0.0042522704261566523 -0.00089837464527692604 0 0.0049874350853246823 -0.0021136478978441707 0 0.0045042795168131027 -0.0012276689861003528 0 0.0039568924529322404 -0.0020164384626545412 0 0.0049874350853246823 -0.0021136478978441707 0 0.0045042795168131027 -0.0012276689861003528 0 0.0054394994251769236 -0.00052890047582309686 0 0.0064513442615483719 -0.000793729229609858 0 0.0049874350853246823 -0.0021136478978441707 0 0.0054394994251769236 -0.00052890047582309686 0 0.0064969301448599207 -0.00049769421895373516 0 0.0011149341860067223 0.00037560582567054576 0 0.0064513442615483719 -0.000793729229609858 0 0.0054394994251769236 -0.00052890047582309686 0 0.0063118005919419132 0.00031298264355155971 0 0.0045042795168131027 -0.0012276689861003528 0 0.0046854283686774021 -0.0004334054129552815 0 0.0054394994251769236 -0.00052890047582309686 0 0.0050099224059094206 0.0007852552978693814 0 0.0046854283686774021 -0.0004334054129552815 0 0.0054394994251769236 -0.00052890047582309686 0 0.0050099224059094206 0.0007852552978693814 0 0.0054394994251769236 -0.00052890047582309686 0 0.0063118005919419132 0.00031298264355155971 0 0.0050099224059094206 0.0007852552978693814 0 0.0046854283686774021 -0.0004334054129552815 0 0.0025682596556807834 0.00029785303216032404 0 0.0046854283686774021 -0.0004334054129552815 0 0.0033369026323340038 -0.0008909656976228774 0 0.0025682596556807834 0.00029785303216032404 0 0.0045042795168131027 -0.0012276689861003528 0 0.0046854283686774021 -0.0004334054129552815 0 0.0033369026323340038 -0.0008909656976228774 0 0.0039568924529322404 -0.0020164384626545412 0 0.0032305829792359806 -0.0034521998047195028 0 0.0017298603665530014 -0.0018528477656387635 0 0.0033369026323340038 -0.0008909656976228774 0 0.0039568924529322404 -0.0020164384626545412 0 0.0017298603665530014 -0.0018528477656387635 0 0.0045042795168131027 -0.0012276689861003528 0 0.0033369026323340038 -0.0008909656976228774 0 0.0039568924529322404 -0.0020164384626545412 0 0.0011149341860067223 0.00037560582567054576 0 -0.005107208865556166 0.0035567298751584529 0 0.0048541632357359489 -0.0020875440592261082 0 0.0039568924529322404 -0.0020164384626545412 0 0.0032305829792359806 -0.0034521998047195028 0 -0.005107208865556166 0.0035567298751584529 0 -0.0089980580870739745 0.0079041286664294844 0 -0.0073164904969057112 0.008541833271834649 0 -0.0085662051333558475 0.0075010124886020378 0 -0.0064666852356277489 0.0073218514948186235 0 -0.0085662051333558475 0.0075010124886020378 0 -0.0064666852356277489 0.0073218514948186235 0 -0.0074950198278668743 0.0062282360709242975 0 -0.0057643304968703572 0.0058879932796037709 0 -0.0064666852356277489 0.0073218514948186235 0 -0.0074950198278668743 0.0062282360709242975 0 -0.0057643304968703572 0.0058879932796037709 0 -0.0074950198278668743 0.0062282360709242975 0 -0.0073718101018107642 0.0037558935953977833 0 -0.0089975545929593895 0.007857596302131899 0 -0.0074950198278668743 0.0062282360709242975 0 -0.0093719404669215488 0.005093244335932349 0 -0.0074950198278668743 0.0062282360709242975 0 -0.0093719404669215488 0.005093244335932349 0 -0.0073718101018107642 0.0037558935953977833 0 -0.0093719404669215488 0.005093244335932349 0 -0.0073718101018107642 0.0037558935953977833 0 -0.0097503837547905543 0.0034004594368761093 0 -0.0076237039824649296 0.0037798887182105621 0 -0.0077415017070475503 0.0020799606900439396 0 -0.0057662879317048332 0.0022477138761364426 0 -0.007467501508313777 0.0037715673678742358 0 -0.0095956741044084214 0.0034051325883191321 0 -0.0076237039824649296 0.0037798887182105621 0 -0.0077415017070475503 0.0020799606900439396 0 -0.0097503837547905543 0.0034004594368761093 0 -0.0092881952778406662 0.00114129958816572 0 -0.0077415017070475503 0.0020799606900439396 0 -0.0097503837547905543 0.0034004594368761093 0 -0.0093832383135276885 -0.00064477489643138374 0 -0.0092881952778406662 0.00114129958816572 0 -0.0072623391510482794 0.00042755393973032931 0 -0.0072623391510482794 0.00042755393973032931 0 -0.0077415017070475503 0.0020799606900439396 0 -0.0061208538636737652 0.0013172098588179709 0 -0.0092881952778406662 0.00114129958816572 0 -0.0072623391510482794 0.00042755393973032931 0 -0.0077415017070475503 0.0020799606900439396 0 -0.0077415017070475503 0.0020799606900439396 0 -0.0061208538636737652 0.0013172098588179709 0 -0.0057662879317048332 0.0022477138761364426 0 -0.0061208538636737652 0.0013172098588179709 0 -0.0043444199856496569 0.0010591196251920393 0 -0.0057662879317048332 0.0022477138761364426 0 -0.0072623391510482794 0.00042755393973032931 0 -0.0061208538636737652 0.0013172098588179709 0 -0.0045389655363769609 0.00010442436200554215 0 -0.0045389655363769609 0.00010442436200554215 0 -0.0043444199856496569 0.0010591196251920393 0 -0.0036346999695156773 0.00078362631385014904 0 -0.0043444199856496569 0.0010591196251920393 0 -0.0028399642546027108 0.0011786832671034067 0 -0.0036346999695156773 0.00078362631385014904 0 -0.0061208538636737652 0.0013172098588179709 0 -0.0045389655363769609 0.00010442436200554215 0 -0.0043444199856496569 0.0010591196251920393 0 -0.0043444199856496569 0.0010591196251920393 0 -0.0028399642546027108 0.0011786832671034067 0 -0.0057662879317048332 0.0022477138761364426 0 -0.0028399642546027108 0.0011786832671034067 0 -0.0057662879317048332 0.0022477138761364426 0 -0.0052888723830663911 0.0042844140332514626 0 -0.0076237039824649296 0.0037798887182105621 0 -0.0057662879317048332 0.0022477138761364426 0 -0.0052888723830663911 0.0042844140332514626 0 -0.007467501508313777 0.0037715673678742358 0 -0.0055608812168402213 0.0043943024605239403 0 -0.0057643304968703572 0.0058879932796037709 0 -0.0073718101018107642 0.0037558935953977833 0 -0.0051919758678474516 0.0041987516524147209 0 -0.004195951575849427 0.006587829562616168 0 -0.0051919758678474516 0.0041987516524147209 0 -0.003077182639643565 0.0046318586072136058 0 -0.0028399642546027108 0.0011786832671034067 0 -0.0052888723830663911 0.0042844140332514626 0 -0.0016407425354562721 0.0052055000896515588 0 -0.0055608812168402213 0.0043943024605239403 0 -0.0002784030135180462 0.0026040155907454021 0 0.0014674670805177696 0.0011492491556599747 0 0.0022334639843745764 0.00076197951140792445 0 0.0009003231851558187 0.0013724032149820262 0 -0.0002784030135180462 0.0026040155907454021 0 0.0029961979636818452 0.00083207045043531391 0 -0.0002784030135180462 0.0026040155907454021 0 0.00080606485476919271 0.0016257920146816032 0 0.0014674670805177696 0.0011492491556599747 0 0.0025478587583573952 0.00077472742521586513 0 0.0022334639843745764 0.00076197951140792445 0 0.0025478587583573952 0.00077472742521586513 0 0.0022334639843745764 0.00076197951140792445 0 0.0039968647766251073 0.00022657780734467169 0 0.0023859907272068231 0.0001980680105997709 0 0.0009003231851558187 0.0013724032149820262 0 0.0020034496514049756 -0.00088378865378043337 0 0.0022334639843745764 0.00076197951140792445 0 0.0023859907272068231 0.0001980680105997709 0 0.0009003231851558187 0.0013724032149820262 0 0.0022334639843745764 0.00076197951140792445 0 0.0023859907272068231 0.0001980680105997709 0 0.0031247836546072559 0.00016170124069949356 0 -0.0028399642546027108 0.0011786832671034067 0 0.0009003231851558187 0.0013724032149820262 0 0.0020034496514049756 -0.00088378865378043337 0 -0.0028399642546027108 0.0011786832671034067 0 -0.0016407425354562721 0.0052055000896515588 0 0.0009003231851558187 0.0013724032149820262 0 -0.0027443573767510373 0.0011471557983108865 0 -0.00081606792767598244 0.00010651226573423014 0 -0.0028399642546027108 0.0011786832671034067 0 -0.0036346999695156773 0.00078362631385014904 0 -0.003396647068538856 0.00085235562972800808 0 -0.0036346999695156773 0.00078362631385014904 0 -0.0036073690152289414 0.00043184773204778541 0 -0.003396647068538856 0.00085235562972800808 0 -0.0045389655363769609 0.00010442436200554215 0 -0.0036346999695156773 0.00078362631385014904 0 -0.0036073690152289414 0.00043184773204778541 0 -0.00081606792767598244 0.00010651226573423014 0 -0.00027905646780845188 0.00018571218498337726 0 -0.0036073690152289414 0.00043184773204778541 0 -0.003396647068538856 0.00085235562972800808 0 -0.0026742607161877098 0.00070576599098945674 0 0.0023859907272068231 0.0001980680105997709 0 0.0020034496514049756 -0.00088378865378043337 0 0.0026282702864521431 -0.00025984548854403571 0 0.0020034496514049756 -0.00088378865378043337 0 0.0026282702864521431 -0.00025984548854403571 0 0.0020876381267780756 -9.1175698052248566e-05 0 -0.00067444646009457159 1.6582383419051808e-06 0 0.0020876381267780756 -9.1175698052248566e-05 0 0.0015241564909065986 -1.1983019489654637e-06 0 0.0026282702864521431 -0.00025984548854403571 0 0.0020876381267780756 -9.1175698052248566e-05 0 0.0015241564909065986 -1.1983019489654637e-06 0 0.0026282702864521431 -0.00025984548854403571 0 0.0015241564909065986 -1.1983019489654637e-06 0 0.0037266093215793869 2.2548576773800549e-09 0 0.0026282702864521431 -0.00025984548854403571 0 0.0037266093215793869 2.2548576773800549e-09 0 0.0031247836546072559 0.00016170124069949356 0 0.0023859907272068231 0.0001980680105997709 0 0.0026282702864521431 -0.00025984548854403571 0 0.0031247836546072559 0.00016170124069949356 0 0.0022334639843745764 0.00076197951140792445 0 0.0031247836546072559 0.00016170124069949356 0 0.0039968647766251073 0.00022657780734467169 0 0.0037266093215793869 2.2548576773800549e-09 0 0.0031247836546072559 0.00016170124069949356 0 0.0039968647766251073 0.00022657780734467169 0 0.0059286394338756328 -7.8822241036751447e-07 0 0.0037266093215793869 2.2548576773800549e-09 0 0.0039968647766251073 0.00022657780734467169 0 -0.015961858278094244 -0.00082273829616689737 0 -0.01589777718067506 -0.00074908472738686549 0 -0.015747329951133811 -0.00083722847372658539 0 0.00032440972891956723 -0.0026390068851013474 0 0.00093996029545649238 -0.0026556064576221295 0 0.00072481626633374497 -0.0030429869201579183 0 -0.009155016155136907 0.00039134189277690115 0 -0.0072116292530278086 -0.0019869989466423528 0 -0.009155016155136907 0.00039134189277690115 0 -0.013182523158321567 0.0020827831676074313 0 -0.015317138685201711 0.0034477294475502773 0 -0.014873047442631777 0.0034983500957923813 0 -0.014769654814215058 0.0026082057554890235 0 -0.013112380474518173 0.0014752744428570678 0 -0.013342315697559668 0.0014367621547294034 0 -0.013234720846510025 0.001053759604813906 0 -0.013182523158321567 0.0020827831676074313 0 -0.013278828321227155 0.0019429756629987097 0 -0.013324453176395024 0.0014438556468296801 0 -0.013342315697559668 0.0014367621547294034 0 -0.013650046127467126 0.0015629699620001202 0 -0.013324453176395024 0.0014438556468296801 0 -0.013816283435646271 0.0016891419173534132 0 -0.013650046127467126 0.0015629699620001202 0 -0.015317138685201711 0.0034477294475502773 0 -0.014769654814215058 0.0026082057554890235 0 -0.015609229505741343 0.0023540921525016926 0 -0.013182523158321567 0.0020827831676074313 0 -0.014346879671331195 0.0021771244005366732 0 -0.016024083731434696 -0.00060919590944749234 0 -0.01589777718067506 -0.00074908472738686549 0 -0.015831676867321051 -0.00068207819392753313 0 -0.015961858278094244 -0.00082273829616689737 0 -0.016024083731434696 -0.00060919590944749234 0 -0.01589777718067506 -0.00074908472738686549 0 -0.009155016155136907 0.00039134189277690115 0 -0.016415169341818178 0.00091645289623440841 0 -0.015831676867321051 -0.00068207819392753313 0 -0.015654939255676067 -0.00068247223217252117 0 -0.015747329951133811 -0.00083722847372658539 0 -0.015831676867321051 -0.00068207819392753313 0 -0.015654939255676067 -0.00068247223217252117 0 -0.015858759030192893 -0.00051867664280934929 0 -0.01589777718067506 -0.00074908472738686549 0 -0.015831676867321051 -0.00068207819392753313 0 -0.015747329951133811 -0.00083722847372658539 0 -0.015654939255676067 -0.00068247223217252117 0 -0.015747329951133811 -0.00083722847372658539 0 -0.01543957771540771 -0.0008789492678251946 0 0.00093996029545649238 -0.0026556064576221295 0 0.0014494054662237325 -0.0027847638750650404 0 0.0015163567706086816 -0.0030308726652938326 0 -0.0072116292530278086 -0.0019869989466423528 0 -0.0067273347186935541 -0.0017795698616982134 0 0.00093996029545649238 -0.0026556064576221295 0 0.0012361999989183123 -0.003165255972828138 0 0.00072481626633374497 -0.0030429869201579183 0 0.00093996029545649238 -0.0026556064576221295 0 0.0012361999989183123 -0.003165255972828138 0 0.0015163567706086816 -0.0030308726652938326 0 0.0014658781913322884 -0.003531334558986193 0 0.0012361999989183123 -0.003165255972828138 0 0.0018207794470236902 -0.0033348885587006069 0 0.0014658781913322884 -0.003531334558986193 0 0.0012361999989183123 -0.003165255972828138 0 0.00090944025085016905 -0.0034002330433080285 0 0.0012361999989183123 -0.003165255972828138 0 0.00090944025085016905 -0.0034002330433080285 0 0.00072481626633374497 -0.0030429869201579183 0 0.00090944025085016905 -0.0034002330433080285 0 0.00060969057656084418 -0.0033081725317283526 0 0.00072481626633374497 -0.0030429869201579183 0 0.00056530228704613041 -0.0035462652973373213 0 0.00090944025085016905 -0.0034002330433080285 0 0.00060969057656084418 -0.0033081725317283526 0 0.00060969057656084418 -0.0033081725317283526 0 0.00072481626633374497 -0.0030429869201579183 0 0.00024978323455919423 -0.0032562322728966432 0 0.00056530228704613041 -0.0035462652973373213 0 0.00060969057656084418 -0.0033081725317283526 0 0.00024978323455919423 -0.0032562322728966432 0 0.00032440972891956723 -0.0026390068851013474 0 0.00072481626633374497 -0.0030429869201579183 0 0.00024978323455919423 -0.0032562322728966432 0 -0.012474711786829172 0.00043690575709504558 0 -0.013344121971326737 0.00054850257045772216 0 -0.013234720846510025 0.001053759604813906 0 -0.009155016155136907 0.00039134189277690115 0 -0.0045400450637966315 -0.0019597090134980391 0 -0.0080072082613917434 0.00084432740974843675 0 -0.0088153166782165854 0.00074862774856499675 0 -0.0084274280534287205 -0.0016123727398473751 0 -0.013182523158321567 0.0020827831676074313 0 -0.0045400450637966315 -0.0019597090134980391 0 -0.013112380474518173 0.0014752744428570678 0 -0.012474711786829172 0.00043690575709504558 0 -0.013234720846510025 0.001053759604813906 0 -0.012787535833882441 -0.00037673393026916723 0 -0.012474711786829172 0.00043690575709504558 0 -0.013344121971326737 0.00054850257045772216 0 -0.013110505307717143 -0.00040730485720719665 0 -0.012787535833882441 -0.00037673393026916723 0 -0.013344121971326737 0.00054850257045772216 0 -0.013688204006758162 0.00047372611039180935 0 -0.01348790328848623 0.00052242031467218957 0 -0.013669516943035951 0.00074503492659124557 0 -0.013344121971326737 0.00054850257045772216 0 -0.01348790328848623 0.00052242031467218957 0 -0.013669516943035951 0.00074503492659124557 0 -0.013669516943035951 0.00074503492659124557 0 -0.013575246551177212 0.0011278007168229176 0 -0.013919009292221248 0.0012616916629658139 0 -0.013344121971326737 0.00054850257045772216 0 -0.013575246551177212 0.0011278007168229176 0 -0.013234720846510025 0.001053759604813906 0 -0.013344121971326737 0.00054850257045772216 0 -0.013669516943035951 0.00074503492659124557 0 -0.013575246551177212 0.0011278007168229176 0 -0.013575246551177212 0.0011278007168229176 0 -0.013234720846510025 0.001053759604813906 0 -0.013426215635431725 0.0012369222210292788 0 0.0025682596556807834 0.00029785303216032404 0 0.00015473724520248229 -0.00017691714084799241 0 0.0017298603665530014 -0.0018528477656387635 0 0.0033369026323340038 -0.0008909656976228774 0 0.0025682596556807834 0.00029785303216032404 0 0.0017298603665530014 -0.0018528477656387635 0 -0.0088420432651157305 0.0001570309044500871 0 -0.0024813111663831654 -0.00085170411313216824 0 -0.013688204006758162 0.00047372611039180935 0 -0.013669516943035951 0.00074503492659124557 0 -0.013958991164402254 0.00065759486744538435 0 -0.012873144513768281 4.6013197880507676e-05 0 -0.0088420432651157305 0.0001570309044500871 0 -0.013669516943035951 0.00074503492659124557 0 -0.013958991164402254 0.00065759486744538435 0 -0.013919009292221248 0.0012616916629658139 0 -0.0088420432651157305 0.0001570309044500871 0 -0.012035928695475892 0.001663195528343902 0 -0.0090601910598761669 0.0024466081189283622 0 -0.0086165616550823391 0.0019873562221625744 0 -0.009455525508012359 0.0016165597887271394 0 -0.005107208865556166 0.0035567298751584529 0 -0.0024813111663831654 -0.00085170411313216824 0 -0.005107208865556166 0.0035567298751584529 0 -0.010487020269930401 0.0035563622663761815 0 -0.0081562063999068846 0.0015251048163337552 0 -0.0087209643302628183 0.0014831079935810922 0 -0.0088586116368810624 0.00096612197023563122 0 -0.0081562063999068846 0.0015251048163337552 0 -0.0086165616550823391 0.0019873562221625744 0 -0.0087209643302628183 0.0014831079935810922 0 -0.0086165616550823391 0.0019873562221625744 0 -0.0087209643302628183 0.0014831079935810922 0 -0.009455525508012359 0.0016165597887271394 0 -0.0087209643302628183 0.0014831079935810922 0 -0.009455525508012359 0.0016165597887271394 0 -0.0088586116368810624 0.00096612197023563122 0 -0.010487020269930401 0.0035563622663761815 0 -0.010997995775063218 0.0026452789553333723 0 -0.009455525508012359 0.0016165597887271394 0 -0.0088586116368810624 0.00096612197023563122 0 -0.009882675903660083 0.00074179892069457722 0 -0.0088586116368810624 0.00096612197023563122 0 -0.009882675903660083 0.00074179892069457722 0 -0.0095764416286896799 0.00040087770476211916 0 -0.0089975545929593895 0.007857596302131899 0 -0.0093719404669215488 0.005093244335932349 0 -0.010999354946180909 0.0062231580513215671 0 -0.013575246551177212 0.0011278007168229176 0 -0.013734956670004621 0.001535833955963604 0 -0.013548756345649723 0.0014100991001476755 0 -0.013734956670004621 0.001535833955963604 0 -0.013548756345649723 0.0014100991001476755 0 -0.013650046127467126 0.0015629699620001202 0 -0.013342315697559668 0.0014367621547294034 0 -0.013548756345649723 0.0014100991001476755 0 -0.013650046127467126 0.0015629699620001202 0 -0.013342315697559668 0.0014367621547294034 0 -0.013234720846510025 0.001053759604813906 0 -0.013426215635431725 0.0012369222210292788 0 -0.013342315697559668 0.0014367621547294034 0 -0.013426215635431725 0.0012369222210292788 0 -0.013548756345649723 0.0014100991001476755 0 -0.013575246551177212 0.0011278007168229176 0 -0.013426215635431725 0.0012369222210292788 0 -0.013548756345649723 0.0014100991001476755 0 -0.013575246551177212 0.0011278007168229176 0 -0.013919009292221248 0.0012616916629658139 0 -0.013734956670004621 0.001535833955963604 0 -0.013919009292221248 0.0012616916629658139 0 -0.013734956670004621 0.001535833955963604 0 -0.01384780596825756 0.0017070465347517961 0 -0.012035928695475892 0.001663195528343902 0 -0.011691478258818985 0.0011033821927213365 0 -0.013734956670004621 0.001535833955963604 0 -0.013650046127467126 0.0015629699620001202 0 -0.01398681662206184 0.0017148842472743517 0 -0.013734956670004621 0.001535833955963604 0 -0.01384780596825756 0.0017070465347517961 0 -0.01398681662206184 0.0017148842472743517 0 -0.013816283435646271 0.0016891419173534132 0 -0.013650046127467126 0.0015629699620001202 0 -0.01398681662206184 0.0017148842472743517 0 -0.01398681662206184 0.0017148842472743517 0 -0.014191356360892053 0.0013431608184133208 0 -0.01455101014275768 0.0016014151249785008 0 -0.01384780596825756 0.0017070465347517961 0 -0.01398681662206184 0.0017148842472743517 0 -0.014191356360892053 0.0013431608184133208 0 -0.013816283435646271 0.0016891419173534132 0 -0.01398681662206184 0.0017148842472743517 0 -0.01455101014275768 0.0016014151249785008 0 -0.010997995775063218 0.0026452789553333723 0 -0.013366693243930869 0.0011466909076695414 0 -0.011691478258818985 0.0011033821927213365 0 -0.013366693243930869 0.0011466909076695414 0 -0.009882675903660083 0.00074179892069457722 0 -0.0095764416286896799 0.00040087770476211916 0 -0.010336022672471305 -0.0001751093162394069 0 -0.013194803577953784 0.0028789792812691176 0 -0.014738573311579553 0.0030394390494849219 0 -0.014085991259604008 0.0019010352040923892 0 -0.012916256522445407 0.0046548691798016422 0 -0.013194803577953784 0.0028789792812691176 0 -0.014738573311579553 0.0030394390494849219 0 -0.013366693243930869 0.0011466909076695414 0 -0.015273155086544759 0.00063021357643140198 0 -0.014191356360892053 0.0013431608184133208 0 -0.015043181606321333 0.00089402363070696948 0 -0.014737639415326333 0.0012652703615319914 0 -0.014191356360892053 0.0013431608184133208 0 -0.014737639415326333 0.0012652703615319914 0 -0.01455101014275768 0.0016014151249785008 0 -0.0093719404669215488 0.005093244335932349 0 -0.010999354946180909 0.0062231580513215671 0 -0.011450794685901666 0.003528646380779636 0 -0.0093719404669215488 0.005093244335932349 0 -0.011450794685901666 0.003528646380779636 0 -0.0097503837547905543 0.0034004594368761093 0 -0.010999354946180909 0.0062231580513215671 0 -0.012916256522445407 0.0046548691798016422 0 -0.011450794685901666 0.003528646380779636 0 -0.012916256522445407 0.0046548691798016422 0 -0.013194803577953784 0.0028789792812691176 0 -0.011450794685901666 0.003528646380779636 0 -0.013194803577953784 0.0028789792812691176 0 -0.011450794685901666 0.003528646380779636 0 -0.01277665382757058 0.0016499177993919581 0 -0.011450794685901666 0.003528646380779636 0 -0.0097503837547905543 0.0034004594368761093 0 -0.010996339992930383 0.0019063327360196835 0 -0.0092881952778406662 0.00114129958816572 0 -0.0097503837547905543 0.0034004594368761093 0 -0.010996339992930383 0.0019063327360196835 0 -0.011450794685901666 0.003528646380779636 0 -0.010996339992930383 0.0019063327360196835 0 -0.01277665382757058 0.0016499177993919581 0 -0.010996339992930383 0.0019063327360196835 0 -0.01277665382757058 0.0016499177993919581 0 -0.011625147521107581 0.00022672838505816319 0 -0.01277665382757058 0.0016499177993919581 0 -0.011625147521107581 0.00022672838505816319 0 -0.013356130366679373 0.00051172303134444414 0 -0.0092881952778406662 0.00114129958816572 0 -0.010996339992930383 0.0019063327360196835 0 -0.011625147521107581 0.00022672838505816319 0 -0.0093832383135276885 -0.00064477489643138374 0 -0.0092881952778406662 0.00114129958816572 0 -0.011625147521107581 0.00022672838505816319 0 -0.014738573311579553 0.0030394390494849219 0 -0.015203496872976755 0.0011209724495770813 0 -0.014085991259604008 0.0019010352040923892 0 -0.015402021012093162 0.00057820789502227555 0 -0.015203496872976755 0.0011209724495770813 0 -0.015043181606321333 0.00089402363070696948 0 -0.013366693243930869 0.0011466909076695414 0 -0.015285128978037431 0.001248432924891392 0 -0.015203496872976755 0.0011209724495770813 0 -0.014085991259604008 0.0019010352040923892 0 -0.01447787246395346 0.00082294191323080076 0 -0.015203496872976755 0.0011209724495770813 0 -0.01447787246395346 0.00082294191323080076 0 -0.015301120543543736 0.00065915886480627398 0 -0.015203496872976755 0.0011209724495770813 0 -0.015301120543543736 0.00065915886480627398 0 -0.015328590852712556 0.00076443145033155968 0 -0.01277665382757058 0.0016499177993919581 0 -0.014085991259604008 0.0019010352040923892 0 -0.01447787246395346 0.00082294191323080076 0 -0.013194803577953784 0.0028789792812691176 0 -0.01277665382757058 0.0016499177993919581 0 -0.014085991259604008 0.0019010352040923892 0 -0.01277665382757058 0.0016499177993919581 0 -0.013356130366679373 0.00051172303134444414 0 -0.01447787246395346 0.00082294191323080076 0 -0.014525965463740681 1.0225872867337484e-05 0 -0.013356130366679373 0.00051172303134444414 0 -0.01447787246395346 0.00082294191323080076 0 -0.014525965463740681 1.0225872867337484e-05 0 -0.01447787246395346 0.00082294191323080076 0 -0.015383084150260323 0.0001525011582622758 0 -0.01447787246395346 0.00082294191323080076 0 -0.015301120543543736 0.00065915886480627398 0 -0.015383084150260323 0.0001525011582622758 0 -0.015920911669971546 -0.00022856304461965008 0 -0.01571163298793327 0.00034469960761062226 0 -0.016121693762031587 -5.2297520604125541e-05 0 -0.015920911669971546 -0.00022856304461965008 0 -0.015383084150260323 0.0001525011582622758 0 -0.01571163298793327 0.00034469960761062226 0 -0.015301120543543736 0.00065915886480627398 0 -0.015383084150260323 0.0001525011582622758 0 -0.01571163298793327 0.00034469960761062226 0 -0.015301120543543736 0.00065915886480627398 0 -0.01571163298793327 0.00034469960761062226 0 -0.015328590852712556 0.00076443145033155968 0 -0.01571163298793327 0.00034469960761062226 0 -0.016121693762031587 -5.2297520604125541e-05 0 -0.016177067818998844 0.00014493678808335701 0 -0.016371662751066805 -9.2867825600447264e-05 0 -0.016121693762031587 -5.2297520604125541e-05 0 -0.016177067818998844 0.00014493678808335701 0 -0.016177067818998844 0.00014493678808335701 0 -0.015538475202336605 0.00072270769613302574 0 -0.015931998518962074 0.0012622419737024881 0 -0.01571163298793327 0.00034469960761062226 0 -0.016177067818998844 0.00014493678808335701 0 -0.015538475202336605 0.00072270769613302574 0 -0.016162921039482029 0.00016756117249943454 0 -0.015960887517451283 0.00047873736065147968 0 -0.01571163298793327 0.00034469960761062226 0 -0.015328590852712556 0.00076443145033155968 0 -0.015538475202336605 0.00072270769613302574 0 -0.015538475202336605 0.00072270769613302574 0 -0.015043181606321333 0.00089402363070696948 0 -0.0151780709522475 0.0012215985624804311 0 -0.015328590852712556 0.00076443145033155968 0 -0.015538475202336605 0.00072270769613302574 0 -0.015043181606321333 0.00089402363070696948 0 -0.015203496872976755 0.0011209724495770813 0 -0.015328590852712556 0.00076443145033155968 0 -0.015043181606321333 0.00089402363070696948 0 -0.015043181606321333 0.00089402363070696948 0 -0.014737639415326333 0.0012652703615319914 0 -0.0151780709522475 0.0012215985624804311 0 -0.014737639415326333 0.0012652703615319914 0 -0.0151780709522475 0.0012215985624804311 0 -0.01455101014275768 0.0016014151249785008 0 -0.0151780709522475 0.0012215985624804311 0 -0.01455101014275768 0.0016014151249785008 0 -0.015254118417545556 0.0017906590605586132 0 -0.0151780709522475 0.0012215985624804311 0 -0.015931998518962074 0.0012622419737024881 0 -0.015254118417545556 0.0017906590605586132 0 -0.015538475202336605 0.00072270769613302574 0 -0.0151780709522475 0.0012215985624804311 0 -0.015931998518962074 0.0012622419737024881 0 -0.015609229505741343 0.0023540921525016926 0 -0.015931998518962074 0.0012622419737024881 0 -0.015254118417545556 0.0017906590605586132 0 -0.016024083731434696 -0.00060919590944749234 0 -0.016106491146884356 -0.00032004038380666018 0 -0.015858759030192893 -0.00051867664280934929 0 -0.016415169341818178 0.00091645289623440841 0 -0.015960887517451283 0.00047873736065147968 0 -0.014769654814215058 0.0026082057554890235 0 -0.015609229505741343 0.0023540921525016926 0 -0.015254118417545556 0.0017906590605586132 0 -0.014346879671331195 0.0021771244005366732 0 -0.01444984924401433 0.0015754758333218159 0 -0.014769654814215058 0.0026082057554890235 0 -0.01455101014275768 0.0016014151249785008 0 -0.015254118417545556 0.0017906590605586132 0 -0.015654939255676067 -0.00068247223217252117 0 -0.015630757538573872 -0.00045895675299660751 0 -0.015858759030192893 -0.00051867664280934929 0 -0.015630757538573872 -0.00045895675299660751 0 -0.015858759030192893 -0.00051867664280934929 0 -0.015823916415751735 -0.00031803198759439274 0 -0.015654939255676067 -0.00068247223217252117 0 -0.015630757538573872 -0.00045895675299660751 0 -0.015427712333506293 -0.00061763893849282512 0 -0.016024083731434696 -0.00060919590944749234 0 -0.015831676867321051 -0.00068207819392753313 0 -0.015858759030192893 -0.00051867664280934929 0 -0.016106491146884356 -0.00032004038380666018 0 -0.015858759030192893 -0.00051867664280934929 0 -0.015823916415751735 -0.00031803198759439274 0 -0.016106491146884356 -0.00032004038380666018 0 -0.015823916415751735 -0.00031803198759439274 0 -0.015890705787248199 -7.8421929514241808e-05 0 -0.015630757538573872 -0.00045895675299660751 0 -0.015823916415751735 -0.00031803198759439274 0 -0.01567887517428676 -0.00020425223999766417 0 -0.015823916415751735 -0.00031803198759439274 0 -0.015890705787248199 -7.8421929514241808e-05 0 -0.01567887517428676 -0.00020425223999766417 0 -0.015890705787248199 -7.8421929514241808e-05 0 -0.015838259912145325 -0.00017838716663680956 0 -0.01567887517428676 -0.00020425223999766417 0 -0.016177067818998844 0.00014493678808335701 0 -0.016106491146884356 -0.00032004038380666018 0 -0.015890705787248199 -7.8421929514241808e-05 0 -0.016371662751066805 -9.2867825600447264e-05 0 -0.016177067818998844 0.00014493678808335701 0 -0.015890705787248199 -7.8421929514241808e-05 0 -0.016136051861605053 -0.00017226990566584653 0 -0.015930961691255987 -0.00011802268188986325 0 -0.015906339703834163 -0.0002378857754636446 0 -0.015890705787248199 -7.8421929514241808e-05 0 -0.015838259912145325 -0.00017838716663680956 0 -0.015872548664304632 -0.00037245027898189458 0 -0.015838259912145325 -0.00017838716663680956 0 -0.01572098945621217 -0.00015611628354648055 0 -0.015838259912145325 -0.00017838716663680956 0 -0.01572098945621217 -0.00015611628354648055 0 -0.01567887517428676 -0.00020425223999766417 0 -0.014830587552214702 -0.00010851448835851237 0 -0.013553469130673314 -0.00088417566648534398 0 -0.015270265017406021 -0.00066383281523581738 0 -0.015529382659585859 -0.0013288257661677816 0 -0.014301409829930735 -0.001410934291261686 0 -0.015619754650345565 -0.0007424807073006742 0 -0.015123244599153665 -0.0014453865511733449 0 -0.015529382659585859 -0.0013288257661677816 0 -0.014301409829930735 -0.001410934291261686 0 -0.01493799421447985 -0.0025350144385099037 0 -0.01572098945621217 -0.00015611628354648055 0 -0.01567887517428676 -0.00020425223999766417 0 -0.015410302109546973 -0.00024271788233520605 0 -0.013089950453955574 -0.0023016422043730107 0 -0.014833671662016825 -0.0024043196827208805 0 -0.012966558353928704 -0.003982417169869067 0 -0.013411087537746553 -0.0010941128340046741 0 -0.011464937212761293 -0.0023237519452401615 0 -0.01400219230433356 0.0010859805017592301 0 -0.012073325402464143 0.0001989266885446874 0 -0.012823034905002193 -0.00040209064473368579 0 -0.012073325402464143 0.0001989266885446874 0 -0.012823034905002193 -0.00040209064473368579 0 -0.011636715678075225 -0.0019025469992328267 0 -0.013553469130673314 -0.00088417566648534398 0 -0.012419385560493268 -0.0021815397582410205 0 -0.014301409829930735 -0.001410934291261686 0 -0.013273640134910936 -0.0024213517364216493 0 -0.01493799421447985 -0.0025350144385099037 0 -0.011636715678075225 -0.0019025469992328267 0 -0.0096202100467386812 -0.0021304915255655641 0 -0.010128797204576559 -0.00069778389736308965 0 -0.012073325402464143 0.0001989266885446874 0 -0.011636715678075225 -0.0019025469992328267 0 -0.010128797204576559 -0.00069778389736308965 0 -0.013273640134910936 -0.0024213517364216493 0 -0.013497778376982262 -0.003532527044337526 0 -0.012243565937025155 -0.0035319224196411784 0 -0.012419385560493268 -0.0021815397582410205 0 -0.011618857519486292 -0.003538523525734551 0 -0.011636715678075225 -0.0019025469992328267 0 -0.010442809968018232 -0.0034064764550314429 0 -0.0096202100467386812 -0.0021304915255655641 0 -0.014290045956301942 -0.0038900324316112869 0 -0.013497778376982262 -0.003532527044337526 0 -0.01493799421447985 -0.0025350144385099037 0 -0.013273640134910936 -0.0024213517364216493 0 -0.013497778376982262 -0.003532527044337526 0 -0.01493799421447985 -0.0025350144385099037 0 -0.014290045956301942 -0.0038900324316112869 0 -0.013546981086575854 -0.0044652729860334868 0 -0.013497778376982262 -0.003532527044337526 0 -0.013546981086575854 -0.0044652729860334868 0 -0.013497778376982262 -0.003532527044337526 0 -0.012934746234912003 -0.0044309772006424549 0 -0.012243565937025155 -0.0035319224196411784 0 -0.012934746234912003 -0.0044309772006424549 0 -0.012331541194642266 -0.0047217481810768441 0 -0.013497778376982262 -0.003532527044337526 0 -0.012243565937025155 -0.0035319224196411784 0 -0.012934746234912003 -0.0044309772006424549 0 -0.015630757538573872 -0.00045895675299660751 0 -0.01567887517428676 -0.00020425223999766417 0 -0.015458952260081633 -0.00040049586242265419 0 -0.01567887517428676 -0.00020425223999766417 0 -0.015458952260081633 -0.00040049586242265419 0 -0.015410302109546973 -0.00024271788233520605 0 -0.015101261883591748 -0.0005225553826088584 0 -0.015458952260081633 -0.00040049586242265419 0 -0.015410302109546973 -0.00024271788233520605 0 -0.015113351147787944 -0.0020677582273340902 0 -0.015123244599153665 -0.0014453865511733449 0 -0.015101261883591748 -0.0005225553826088584 0 -0.015458952260081633 -0.00040049586242265419 0 -0.015427712333506293 -0.00061763893849282512 0 -0.015101261883591748 -0.0005225553826088584 0 -0.015427712333506293 -0.00061763893849282512 0 -0.015234000058106233 -0.00073339606003391413 0 -0.015630757538573872 -0.00045895675299660751 0 -0.015458952260081633 -0.00040049586242265419 0 -0.015427712333506293 -0.00061763893849282512 0 -0.015427712333506293 -0.00061763893849282512 0 -0.01543957771540771 -0.0008789492678251946 0 -0.015234000058106233 -0.00073339606003391413 0 -0.015654939255676067 -0.00068247223217252117 0 -0.015427712333506293 -0.00061763893849282512 0 -0.01543957771540771 -0.0008789492678251946 0 0.0014494054662237325 -0.0027847638750650404 0 0.0016378121575029907 -0.0029788770555921884 0 0.0015163567706086816 -0.0030308726652938326 0 0.0014494054662237325 -0.0027847638750650404 0 0.0016378121575029907 -0.0029788770555921884 0 0.0017117234643187426 -0.0029212273031237199 0 0.0017346114689693263 -0.0030293940937630996 0 0.0016378121575029907 -0.0029788770555921884 0 0.0017906294264211518 -0.0031548835281485573 0 0.0017346114689693263 -0.0030293940937630996 0 0.0016378121575029907 -0.0029788770555921884 0 0.0017117234643187426 -0.0029212273031237199 0 -0.01543957771540771 -0.0008789492678251946 0 -0.01511458549155585 -0.00088263316744786218 0 -0.015234000058106233 -0.00073339606003391413 0 -0.0081486530505761826 -0.0020097968850482351 0 -0.012948831068981545 -0.0012169460103433492 0 -0.015020814413945219 -0.00091253968311277465 0 -0.01511458549155585 -0.00088263316744786218 0 -0.015070956355246055 -0.000750366698647577 0 -0.01543957771540771 -0.0008789492678251946 0 -0.015014671568257625 -0.00091803813708492461 0 -0.01511458549155585 -0.00088263316744786218 0 -0.0067273347186935541 -0.0017795698616982134 0 -0.0081486530505761826 -0.0020097968850482351 0 -0.01511458549155585 -0.00088263316744786218 0 -0.015234000058106233 -0.00073339606003391413 0 -0.015070956355246055 -0.000750366698647577 0 -0.015101261883591748 -0.0005225553826088584 0 -0.015234000058106233 -0.00073339606003391413 0 -0.015070956355246055 -0.000750366698647577 0 -0.014290045956301942 -0.0038900324316112869 0 -0.013546981086575854 -0.0044652729860334868 0 -0.013627551658887804 -0.0053053699188967216 0 -0.015113351147787944 -0.0020677582273340902 0 -0.01037112334322004 -0.0030234138327133167 0 -0.015101261883591748 -0.0005225553826088584 0 -0.015070956355246055 -0.000750366698647577 0 -0.014825504086661891 -0.00089995509222759505 0 -0.013546981086575854 -0.0044652729860334868 0 -0.012934746234912003 -0.0044309772006424549 0 -0.013210526189282231 -0.0052562629119291254 0 -0.013546981086575854 -0.0044652729860334868 0 -0.013210526189282231 -0.0052562629119291254 0 -0.013627551658887804 -0.0053053699188967216 0 -0.012691112514370769 -0.0038694509149262467 0 -0.01037112334322004 -0.0030234138327133167 0 -0.013210526189282231 -0.0052562629119291254 0 -0.013550822224984231 -0.0052989112125575721 0 -0.013485946523346956 -0.0054783518289468732 0 -0.01037112334322004 -0.0030234138327133167 0 -0.005324219642028922 -0.0034341723671656036 0 -0.0081486530505761826 -0.0020097968850482351 0 -0.005324219642028922 -0.0034341723671656036 0 -0.015020814413945219 -0.00091253968311277465 0 -0.015070956355246055 -0.000750366698647577 0 -0.014825504086661891 -0.00089995509222759505 0 -0.0081478214358412758 -0.0020897083179753128 0 -0.0080367376314862994 -0.0020871149028587744 0 -0.00802043237144732 -0.002123722795203353 0 -0.0081486530505761826 -0.0020097968850482351 0 -0.01037112334322004 -0.0030234138327133167 0 -0.013210526189282231 -0.0052562629119291254 0 -0.012498004811851543 -0.0056623733987104042 0 -0.013485946523346956 -0.0054783518289468732 0 -0.012934746234912003 -0.0044309772006424549 0 -0.012331541194642266 -0.0047217481810768441 0 -0.012756816423704485 -0.0050629955076835261 0 -0.012934746234912003 -0.0044309772006424549 0 -0.013210526189282231 -0.0052562629119291254 0 -0.012756816423704485 -0.0050629955076835261 0 -0.013210526189282231 -0.0052562629119291254 0 -0.012756816423704485 -0.0050629955076835261 0 -0.012498004811851543 -0.0056623733987104042 0 -0.012331541194642266 -0.0047217481810768441 0 -0.012756816423704485 -0.0050629955076835261 0 -0.012498004811851543 -0.0056623733987104042 0 -0.0053110563135342044 -0.0033514437726007533 0 -0.005324219642028922 -0.0034341723671656036 0 -0.00040795774478410876 -0.0024644385165166565 0 -0.00037654718265846959 -0.0024521727452560195 0 -0.00040887276346453314 -0.0024618944221792057 0 -0.00037654718265846959 -0.0024521727452560195 0 -0.00040887276346453314 -0.0024618944221792057 0 -0.0003197427592767441 -0.0024366910982882516 0 -0.0053110563135342044 -0.0033514437726007533 0 -0.0010292723980719705 -0.0015100325284938946 0 -0.00035957344998187568 -0.0024534304291000098 0 -0.00037654718265846959 -0.0024521727452560195 0 -0.00033794462160397008 -0.0024460847061182896 0 -0.00035957344998187568 -0.0024534304291000098 0 -0.00033794462160397008 -0.0024460847061182896 0 -0.0003425551377682227 -0.0024483757992632676 0 0.0018415183292600375 -0.0029589068516714784 0 0.0017961424897068618 -0.0030718808821189793 0 0.0018796634204117785 -0.0033419146526805789 0 -0.005324219642028922 -0.0034341723671656036 0 0.0014768932331440368 -0.0029540586786054599 0 0.0017346114689693263 -0.0030293940937630996 0 0.0017117234643187426 -0.0029212273031237199 0 0.0017961424897068618 -0.0030718808821189793 0 0.0017117234643187426 -0.0029212273031237199 0 0.0018415183292600375 -0.0029589068516714784 0 0.0017961424897068618 -0.0030718808821189793 0 0.0017346114689693263 -0.0030293940937630996 0 0.0017961424897068618 -0.0030718808821189793 0 0.0017906294264211518 -0.0031548835281485573 0 0.0017906294264211518 -0.0031548835281485573 0 0.0018500314711303678 -0.0033114914359086791 0 0.0018796634204117785 -0.0033419146526805789 0 0.0017961424897068618 -0.0030718808821189793 0 0.0017906294264211518 -0.0031548835281485573 0 0.0018796634204117785 -0.0033419146526805789 0 -0.00033794462160397008 -0.0024460847061182896 0 -0.0003197427592767441 -0.0024366910982882516 0 -0.00030925356804788727 -0.0024180604937233496 0 -0.00037654718265846959 -0.0024521727452560195 0 -0.00033794462160397008 -0.0024460847061182896 0 -0.0003197427592767441 -0.0024366910982882516 0 0.0018796634204117785 -0.0033419146526805789 0 0.0019090662883394873 -0.0034495967643209777 0 0.0015205964055416505 -0.0034527552052651513 0 0.0014768932331440368 -0.0029540586786054599 0 0.0005418772218415323 -0.0028344980637569806 0 -0.0003197427592767441 -0.0024366910982882516 0 -0.00030925356804788727 -0.0024180604937233496 0 -0.00023279601217361757 -0.0023613073645621274 0 0.0018500314711303678 -0.0033114914359086791 0 0.0019090662883394873 -0.0034495967643209777 0 0.0017796492767838262 -0.003233246211577891 0 0.0018500314711303678 -0.0033114914359086791 0 0.0018796634204117785 -0.0033419146526805789 0 0.0019090662883394873 -0.0034495967643209777 0 0.0019090662883394873 -0.0034495967643209777 0 0.0018207794470236902 -0.0033348885587006069 0 0.0017796492767838262 -0.003233246211577891 0 0.0016378121575029907 -0.0029788770555921884 0 0.0015163567706086816 -0.0030308726652938326 0 0.0017796492767838262 -0.003233246211577891 0 0.0018207794470236902 -0.0033348885587006069 0 0.0015163567706086816 -0.0030308726652938326 0 0.0017796492767838262 -0.003233246211577891 0 0.0012361999989183123 -0.003165255972828138 0 0.0018207794470236902 -0.0033348885587006069 0 0.0015163567706086816 -0.0030308726652938326 0 0.0016378121575029907 -0.0029788770555921884 0 0.0017906294264211518 -0.0031548835281485573 0 0.0017796492767838262 -0.003233246211577891 0 0.0017906294264211518 -0.0031548835281485573 0 0.0018500314711303678 -0.0033114914359086791 0 0.0017796492767838262 -0.003233246211577891 0 -0.00072829080239201365 -0.00230658989737439 0 -0.00073125153185290323 -0.0021508235160431007 0 -0.00052196088492936072 -0.0024116727841573928 0 -0.00072829080239201365 -0.00230658989737439 0 -0.00083578410377310752 -0.0022205600892628631 0 -0.00073125153185290323 -0.0021508235160431007 0 -0.00072829080239201365 -0.00230658989737439 0 -0.00087362036670462519 -0.0023026915648471534 0 -0.00083578410377310752 -0.0022205600892628631 0 -0.00072829080239201365 -0.00230658989737439 0 -0.00052196088492936072 -0.0024116727841573928 0 -0.00065658564585909115 -0.0025067628191520427 0 -0.00072829080239201365 -0.00230658989737439 0 -0.00087362036670462519 -0.0023026915648471534 0 -0.00065658564585909115 -0.0025067628191520427 0 -0.00087362036670462519 -0.0023026915648471534 0 -0.00099913122691804609 -0.0022563331093965193 0 -0.0010783868269412819 -0.0022827587034438832 0 -0.00087362036670462519 -0.0023026915648471534 0 -0.00099913122691804609 -0.0022563331093965193 0 -0.00083578410377310752 -0.0022205600892628631 0 -0.00083578410377310752 -0.0022205600892628631 0 -0.00085446668310372128 -0.0020929656576115854 0 -0.00073125153185290323 -0.0021508235160431007 0 -0.00099913122691804609 -0.0022563331093965193 0 -0.00085446668310372128 -0.0020929656576115854 0 -0.001012031245897823 -0.0021942686462204358 0 -0.00099913122691804609 -0.0022563331093965193 0 -0.00083578410377310752 -0.0022205600892628631 0 -0.00085446668310372128 -0.0020929656576115854 0 -0.00085446668310372128 -0.0020929656576115854 0 -0.00073125153185290323 -0.0021508235160431007 0 -0.00074498334373069924 -0.0019267901523332476 0 -0.00073125153185290323 -0.0021508235160431007 0 -0.00059785630210426393 -0.0020304359434081256 0 -0.00052196088492936072 -0.0024116727841573928 0 -0.00073125153185290323 -0.0021508235160431007 0 -0.00059785630210426393 -0.0020304359434081256 0 -0.00074498334373069924 -0.0019267901523332476 0 -0.00031370974443530443 -0.0023510113998361911 0 -0.00035829137543981298 -0.0023789970057009561 0 -0.00052196088492936072 -0.0024116727841573928 0 -0.00031370974443530443 -0.0023510113998361911 0 -0.00035829137543981298 -0.0023789970057009561 0 -0.00027847628719371715 -0.0023558610005001354 0 -0.00035829137543981298 -0.0023789970057009561 0 -0.00027847628719371715 -0.0023558610005001354 0 -0.00031672511510072682 -0.0023918905404913446 0 -0.00027847628719371715 -0.0023558610005001354 0 -0.00031672511510072682 -0.0023918905404913446 0 -0.00023279601217361757 -0.0023613073645621274 0 -0.00030925356804788727 -0.0024180604937233496 0 -0.00031672511510072682 -0.0023918905404913446 0 -0.00023279601217361757 -0.0023613073645621274 0 -0.00030925356804788727 -0.0024180604937233496 0 -0.00031672511510072682 -0.0023918905404913446 0 -0.0003425551377682227 -0.0024483757992632676 0 -0.00031672511510072682 -0.0023918905404913446 0 -0.0003425551377682227 -0.0024483757992632676 0 -0.00037858383697051432 -0.0024159256398201497 0 -0.00033794462160397008 -0.0024460847061182896 0 -0.00030925356804788727 -0.0024180604937233496 0 -0.0003425551377682227 -0.0024483757992632676 0 -0.00045512854987153156 -0.0021981782859631788 0 -0.00051267933609794867 -0.0024170859560238241 0 -0.00035829137543981298 -0.0023789970057009561 0 -0.00031672511510072682 -0.0023918905404913446 0 -0.00037858383697051432 -0.0024159256398201497 0 -0.00035829137543981298 -0.0023789970057009561 0 -0.00037858383697051432 -0.0024159256398201497 0 -0.00052196088492936072 -0.0024116727841573928 0 -0.0033300640753634986 -0.0021912212250010353 0 -0.0027569351157671158 -0.0018903084729208206 0 -0.0022250674915269015 -0.0022889641814379689 0 -0.0013056112948886588 -0.0023105599801835487 0 -0.001556329688177457 -0.0023662537609454555 0 -0.00052196088492936072 -0.0024116727841573928 0 -0.00037049239082926998 -0.0024958845539998424 0 -0.00065658564585909115 -0.0025067628191520427 0 -0.00037858383697051432 -0.0024159256398201497 0 -0.00052196088492936072 -0.0024116727841573928 0 -0.00037049239082926998 -0.0024958845539998424 0 -0.0033300640753634986 -0.0021912212250010353 0 -0.0027569351157671158 -0.0018903084729208206 0 -0.00321502006011915 -0.0015984241225619768 0 -0.0053110563135342044 -0.0033514437726007533 0 -0.0013056112948886588 -0.0023105599801835487 0 -0.00035957344998187568 -0.0024534304291000098 0 -0.0003425551377682227 -0.0024483757992632676 0 -0.00037049239082926998 -0.0024958845539998424 0 -0.0045250904018865386 -0.00202824270191672 0 -0.0033300640753634986 -0.0021912212250010353 0 -0.0036480044392401727 -0.0017597448919644968 0 -0.0003425551377682227 -0.0024483757992632676 0 -0.00037858383697051432 -0.0024159256398201497 0 -0.00037049239082926998 -0.0024958845539998424 0 -0.0045250904018865386 -0.00202824270191672 0 -0.0036480044392401727 -0.0017597448919644968 0 -0.003523280108471639 -0.0012174142288920739 0 -0.0053110563135342044 -0.0033514437726007533 0 -0.0074278772970287959 -0.0033285319150900337 0 -0.012331541194642266 -0.0047217481810768441 0 -0.012498004811851543 -0.0056623733987104042 0 -0.011267463254952322 -0.004689840922934705 0 -0.0036480044392401727 -0.0017597448919644968 0 -0.003523280108471639 -0.0012174142288920739 0 -0.00321502006011915 -0.0015984241225619768 0 -0.0033300640753634986 -0.0021912212250010353 0 -0.0036480044392401727 -0.0017597448919644968 0 -0.00321502006011915 -0.0015984241225619768 0 -0.0027569351157671158 -0.0018903084729208206 0 -0.00321502006011915 -0.0015984241225619768 0 -0.0027589878453712301 -0.0014045858175556227 0 -0.0034783898697820096 -0.0012680301716055757 0 -0.00321502006011915 -0.0015984241225619768 0 -0.0027589878453712301 -0.0014045858175556227 0 -0.0074278772970287959 -0.0033285319150900337 0 -0.0049266884970045836 -0.0027615206941242333 0 -0.0027589878453712301 -0.0014045858175556227 0 -0.002222603789665446 -0.0012254407020979949 0 -0.0022368324772882365 -0.001703652833904396 0 -0.002222603789665446 -0.0012254407020979949 0 -0.0022368324772882365 -0.001703652833904396 0 -0.00168649071462437 -0.001295542437217136 0 -0.0027569351157671158 -0.0018903084729208206 0 -0.0027589878453712301 -0.0014045858175556227 0 -0.0022368324772882365 -0.001703652833904396 0 -0.0027569351157671158 -0.0018903084729208206 0 -0.0022368324772882365 -0.001703652833904396 0 -0.0022250674915269015 -0.0022889641814379689 0 -0.0022368324772882365 -0.001703652833904396 0 -0.0022250674915269015 -0.0022889641814379689 0 -0.0016091672524738215 -0.0017927576554047854 0 -0.001556329688177457 -0.0023662537609454555 0 -0.0010654365135164378 -0.002327299399798549 0 -0.0022250674915269015 -0.0022889641814379689 0 -0.0010783868269412819 -0.0022827587034438832 0 -0.0016091672524738215 -0.0017927576554047854 0 -0.00087362036670462519 -0.0023026915648471534 0 -0.00065658564585909115 -0.0025067628191520427 0 -0.0010783868269412819 -0.0022827587034438832 0 -0.0010783868269412819 -0.0022827587034438832 0 -0.0016091672524738215 -0.0017927576554047854 0 -0.0010394566719381033 -0.0018521614579614333 0 -0.0016091672524738215 -0.0017927576554047854 0 -0.0010394566719381033 -0.0018521614579614333 0 -0.0011380083206554935 -0.0013830837867098503 0 -0.0016091672524738215 -0.0017927576554047854 0 -0.00168649071462437 -0.001295542437217136 0 -0.0011380083206554935 -0.0013830837867098503 0 -0.0022368324772882365 -0.001703652833904396 0 -0.0016091672524738215 -0.0017927576554047854 0 -0.00168649071462437 -0.001295542437217136 0 -0.00168649071462437 -0.001295542437217136 0 -0.0012449501170324815 -0.00093157164033194986 0 -0.0011380083206554935 -0.0013830837867098503 0 -0.0017685255059344089 -0.00075742255782829137 0 -0.0012449501170324815 -0.00093157164033194986 0 -0.0010092968608252889 -0.00043506794408065792 0 -0.00168649071462437 -0.001295542437217136 0 -0.0017685255059344089 -0.00075742255782829137 0 -0.0012449501170324815 -0.00093157164033194986 0 -0.002222603789665446 -0.0012254407020979949 0 -0.00168649071462437 -0.001295542437217136 0 -0.0017685255059344089 -0.00075742255782829137 0 -0.0027589878453712301 -0.0014045858175556227 0 -0.002222603789665446 -0.0012254407020979949 0 -0.0026122485728644778 -0.0006274059175545852 0 -0.002222603789665446 -0.0012254407020979949 0 -0.0017685255059344089 -0.00075742255782829137 0 -0.0026122485728644778 -0.0006274059175545852 0 -0.0017685255059344089 -0.00075742255782829137 0 -0.0026122485728644778 -0.0006274059175545852 0 -0.0018289043262461906 -4.0460171345817169e-05 0 -0.0051094595416623463 -0.0021868879256368079 0 -0.0097002406492364881 -0.0036846339734116587 0 -0.0077406971228825717 -0.0037115822888340328 0 -0.0062238974834807337 -0.0025084994471589114 0 -0.0081772963138045246 -0.0016002075632909243 0 -0.0047828680148070532 -0.0019007107633852848 0 -0.0051094595416623463 -0.0021868879256368079 0 -0.0019170925879361382 0.00016565111864265552 0 -0.001206578178141533 -0.00018065731301227417 0 -0.0013193412171841725 0.00027116884178542621 0 -0.0081702154765491714 -0.0065591617747540933 0 -0.0074731177789927241 -0.0060025398087314502 0 -0.0086981491331669519 -0.0052167332438262434 0 -0.0035564951044032094 -0.0014178613621125132 0 -0.00091061388846822575 -0.00034496981782897504 0 -0.0017685255059344089 -0.00075742255782829137 0 -0.0018289043262461906 -4.0460171345817169e-05 0 -0.0017191218854031357 -9.2351805180200858e-05 0 -0.0017685255059344089 -0.00075742255782829137 0 -0.0017191218854031357 -9.2351805180200858e-05 0 -0.0010092968608252889 -0.00043506794408065792 0 -0.0051094595416623463 -0.0021868879256368079 0 -0.0035564951044032094 -0.0014178613621125132 0 -0.0038522965765243125 -0.0018700206041008735 0 -0.0039123162017181603 -0.0018407574462026737 0 -0.0040107331270397787 -0.0020010710260774528 0 -0.0035564951044032094 -0.0014178613621125132 0 -0.0039773064322579195 -0.0018974706491316498 0 -0.0051094595416623463 -0.0021868879256368079 0 -0.0039773064322579195 -0.0018974706491316498 0 -0.0019170925879361382 0.00016565111864265552 0 -0.0017326926012763456 0.00044172271277442143 0 -0.0013193412171841725 0.00027116884178542621 0 -0.0017326926012763456 0.00044172271277442143 0 -0.0013878205493585514 0.00069130531978394219 0 -0.0013193412171841725 0.00027116884178542621 0 -0.010442809968018232 -0.0034064764550314429 0 -0.0077406971228825717 -0.0037115822888340328 0 -0.0096202100467386812 -0.0021304915255655641 0 -0.010442809968018232 -0.0034064764550314429 0 -0.0092485467520394982 -0.0049087553813992237 0 -0.0077406971228825717 -0.0037115822888340328 0 -0.012243565937025155 -0.0035319224196411784 0 -0.012331541194642266 -0.0047217481810768441 0 -0.011267463254952322 -0.004689840922934705 0 -0.011618857519486292 -0.003538523525734551 0 -0.0074278772970287959 -0.0033285319150900337 0 -0.0074278772970287959 -0.0033285319150900337 0 -0.0047828680148070532 -0.0019007107633852848 0 -0.0034783898697820096 -0.0012680301716055757 0 -0.0027589878453712301 -0.0014045858175556227 0 -0.0026122485728644778 -0.0006274059175545852 0 -0.0077406971228825717 -0.0037115822888340328 0 -0.0096202100467386812 -0.0021304915255655641 0 -0.0081772963138045246 -0.0016002075632909243 0 -0.0096202100467386812 -0.0021304915255655641 0 -0.0081772963138045246 -0.0016002075632909243 0 -0.010128797204576559 -0.00069778389736308965 0 -0.0097002406492364881 -0.0036846339734116587 0 -0.011464937212761293 -0.0023237519452401615 0 -0.010935067915463753 -0.0024448683585171615 0 -0.010613768520626328 -0.0053503425220655272 0 -0.012966558353928704 -0.003982417169869067 0 -0.010935067915463753 -0.0024448683585171615 0 -0.010613768520626328 -0.0053503425220655272 0 -0.0090090424179558419 -0.0037860142052167475 0 -0.010935067915463753 -0.0024448683585171615 0 -0.013089950453955574 -0.0023016422043730107 0 -0.012966558353928704 -0.003982417169869067 0 -0.0074731177789927241 -0.0060025398087314502 0 -0.0077177127301196226 -0.0044049434926840296 0 -0.0060947992024436085 -0.0040347511209168829 0 -0.0074731177789927241 -0.0060025398087314502 0 -0.0077177127301196226 -0.0044049434926840296 0 -0.0086981491331669519 -0.0052167332438262434 0 -0.0039773064322579195 -0.0018974706491316498 0 -0.0037348565635359947 -0.0016055493885567486 0 -0.0039773064322579195 -0.0018974706491316498 0 -0.001195828864969732 0.00063324615400123577 0 -0.010613768520626328 -0.0053503425220655272 0 -0.0086981491331669519 -0.0052167332438262434 0 -0.0090090424179558419 -0.0037860142052167475 0 -0.0081702154765491714 -0.0065591617747540933 0 -0.010613768520626328 -0.0053503425220655272 0 -0.0086981491331669519 -0.0052167332438262434 0 -0.0077177127301196226 -0.0044049434926840296 0 -0.0086981491331669519 -0.0052167332438262434 0 -0.0090090424179558419 -0.0037860142052167475 0 -0.0089647277714652637 -0.0019846564408326907 0 -0.010935067915463753 -0.0024448683585171615 0 -0.0090090424179558419 -0.0037860142052167475 0 -0.0089647277714652637 -0.0019846564408326907 0 -0.0090090424179558419 -0.0037860142052167475 0 -0.007322778672164805 -0.0029820369190802906 0 -0.0077177127301196226 -0.0044049434926840296 0 -0.0090090424179558419 -0.0037860142052167475 0 -0.007322778672164805 -0.0029820369190802906 0 -0.0077177127301196226 -0.0044049434926840296 0 -0.007322778672164805 -0.0029820369190802906 0 -0.0060947992024436085 -0.0040347511209168829 0 -0.0026342615845255583 -0.00012659122176161348 0 -0.0037348565635359947 -0.0016055493885567486 0 -0.0045604537102101215 -0.0020852381793425244 0 -0.007322778672164805 -0.0029820369190802906 0 -0.0060947992024436085 -0.0040347511209168829 0 -0.0011281584469463198 0.0012023042932257377 0 -0.00097789845527248924 0.00058447583842174218 0 -0.0013878205493585514 0.00069130531978394219 0 -0.0017266476929575405 0.00046289347884858381 0 -0.0011281584469463198 0.0012023042932257377 0 -0.0013878205493585514 0.00069130531978394219 0 -0.0011281584469463198 0.0012023042932257377 0 -0.00097789845527248924 0.00058447583842174218 0 -0.00052742711117411767 0.00080291012753362428 0 -0.00097789845527248924 0.00058447583842174218 0 -0.0013878205493585514 0.00069130531978394219 0 -0.0013193412171841725 0.00027116884178542621 0 -0.00052742711117411767 0.00080291012753362428 0 -0.00041985200190921635 0.0012954869157233034 0 1.0193024520475864e-05 0.00089986007261968007 0 -0.00097789845527248924 0.00058447583842174218 0 -0.00052742711117411767 0.00080291012753362428 0 -0.00064015562385654932 0.0002017710263861648 0 -0.0011281584469463198 0.0012023042932257377 0 -0.00052742711117411767 0.00080291012753362428 0 -0.00041985200190921635 0.0012954869157233034 0 -0.00077032008613723115 0.0017225340395266473 0 -0.0011281584469463198 0.0012023042932257377 0 -0.00041985200190921635 0.0012954869157233034 0 -0.00027819366007328264 0.001753713197839474 0 -0.00041985200190921635 0.0012954869157233034 0 8.151527294383944e-05 0.001210843392303375 0 -0.00041985200190921635 0.0012954869157233034 0 8.151527294383944e-05 0.001210843392303375 0 1.0193024520475864e-05 0.00089986007261968007 0 0.00027098572061076215 0.0015116152233847083 0 8.151527294383944e-05 0.001210843392303375 0 0.00069524908797040299 0.0010756691549470663 0 0.00027098572061076215 0.0015116152233847083 0 -0.00027819366007328264 0.001753713197839474 0 8.151527294383944e-05 0.001210843392303375 0 8.151527294383944e-05 0.001210843392303375 0 0.00036711484607557135 0.0007643752266189226 0 1.0193024520475864e-05 0.00089986007261968007 0 8.151527294383944e-05 0.001210843392303375 0 0.00036711484607557135 0.0007643752266189226 0 0.00069524908797040299 0.0010756691549470663 0 -0.00052742711117411767 0.00080291012753362428 0 1.0193024520475864e-05 0.00089986007261968007 0 0.00024391404963052522 0.00044657251870180927 0 0.00036711484607557135 0.0007643752266189226 0 1.0193024520475864e-05 0.00089986007261968007 0 0.00024391404963052522 0.00044657251870180927 0 0.00036711484607557135 0.0007643752266189226 0 0.00024391404963052522 0.00044657251870180927 0 0.00044504862659406447 0.00054930449467328695 0 0.00024391404963052522 0.00044657251870180927 0 0.00044504862659406447 0.00054930449467328695 0 0.00074017494529808917 0.00068076993811901348 0 0.00036711484607557135 0.0007643752266189226 0 0.00044504862659406447 0.00054930449467328695 0 0.00046350575797360962 0.00063029164746692843 0 0.00044504862659406447 0.00054930449467328695 0 0.00046350575797360962 0.00063029164746692843 0 0.00048276918871417669 0.00060845347488534547 0 0.00046350575797360962 0.00063029164746692843 0 0.00048276918871417669 0.00060845347488534547 0 0.00048331727237175978 0.00062065653821461516 0 0.00048276918871417669 0.00060845347488534547 0 0.00059063926518064047 0.0006726790129087957 0 0.00049240039638734584 0.00067119471052427371 0 0.00048276918871417669 0.00060845347488534547 0 0.00049240039638734584 0.00067119471052427371 0 0.00048331727237175978 0.00062065653821461516 0 0.00044504862659406447 0.00054930449467328695 0 0.00048276918871417669 0.00060845347488534547 0 0.00059063926518064047 0.0006726790129087957 0 0.00059063926518064047 0.0006726790129087957 0 0.0005684049284914672 0.00074674157514248961 0 0.00049240039638734584 0.00067119471052427371 0 0.00059063926518064047 0.0006726790129087957 0 0.0005684049284914672 0.00074674157514248961 0 0.00069407366565792409 0.00077457775864252178 0 0.0005684049284914672 0.00074674157514248961 0 0.00049240039638734584 0.00067119471052427371 0 0.00051257871156481821 0.00075918228639080437 0 0.00024391404963052522 0.00044657251870180927 0 0.00074017494529808917 0.00068076993811901348 0 0.0012211494130337417 0.00084121433168103026 0 0.00044504862659406447 0.00054930449467328695 0 0.00059063926518064047 0.0006726790129087957 0 0.00074017494529808917 0.00068076993811901348 0 0.00059063926518064047 0.0006726790129087957 0 0.00078831311533854895 0.00075858972740002449 0 0.00074017494529808917 0.00068076993811901348 0 0.00059063926518064047 0.0006726790129087957 0 0.00078831311533854895 0.00075858972740002449 0 0.00069407366565792409 0.00077457775864252178 0 0.00074017494529808917 0.00068076993811901348 0 0.0012211494130337417 0.00084121433168103026 0 0.0010876178701862802 0.00082801981896826065 0 0.00078831311533854895 0.00075858972740002449 0 0.00090059806194628714 0.00077779289083231148 0 0.00074017494529808917 0.00068076993811901348 0 0.00090059806194628714 0.00077779289083231148 0 0.00074017494529808917 0.00068076993811901348 0 0.0010876178701862802 0.00082801981896826065 0 -0.00034808033326611768 -0.00066228684257798763 0 -0.00091061388846822575 -0.00034496981782897504 0 -0.00021948001542564113 -0.00071098544672143016 0 -0.001206578178141533 -0.00018065731301227417 0 -0.00064015562385654932 0.0002017710263861648 0 -0.00021948001542564113 -0.00071098544672143016 0 -0.00056738168217500902 -0.00088782880832839804 0 -0.0010092968608252889 -0.00043506794408065792 0 0.00032672169190622451 0.00042743025082096899 0 0.00046263856287758853 -0.0001151516497380185 0 0.00024391404963052522 0.00044657251870180927 0 -0.00021948001542564113 -0.00071098544672143016 0 -0.00021722693779059599 -0.0011277315180926349 0 -0.00021948001542564113 -0.00071098544672143016 0 -0.00056738168217500902 -0.00088782880832839804 0 -0.00021722693779059599 -0.0011277315180926349 0 -0.00056738168217500902 -0.00088782880832839804 0 -0.00057467185099935726 -0.0011256784762213611 0 -0.00021722693779059599 -0.0011277315180926349 0 -0.00056738168217500902 -0.00088782880832839804 0 -0.00083780046556729292 -0.0010426722410835645 0 -0.0010092968608252889 -0.00043506794408065792 0 -0.00056738168217500902 -0.00088782880832839804 0 -0.00083780046556729292 -0.0010426722410835645 0 -0.00057467185099935726 -0.0011256784762213611 0 -0.00083780046556729292 -0.0010426722410835645 0 -0.0012449501170324815 -0.00093157164033194986 0 -0.0010092968608252889 -0.00043506794408065792 0 -0.001206578178141533 -0.00018065731301227417 0 -0.0013193412171841725 0.00027116884178542621 0 -0.00064015562385654932 0.0002017710263861648 0 -0.00097789845527248924 0.00058447583842174218 0 -0.0013193412171841725 0.00027116884178542621 0 -0.00064015562385654932 0.0002017710263861648 0 -0.00052742711117411767 0.00080291012753362428 0 0.00024391404963052522 0.00044657251870180927 0 -0.00064015562385654932 0.0002017710263861648 0 0.00024391404963052522 0.00044657251870180927 0 -0.00021948001542564113 -0.00071098544672143016 0 -0.00064015562385654932 0.0002017710263861648 0 0.0024498598739622467 0.00075013440091507768 0 0.0021691462635498831 0.00054432466998292504 0 0.0019893014040229997 0.00077879231923093752 0 0.0024498598739622467 0.00075013440091507768 0 0.0021691462635498831 0.00054432466998292504 0 0.002193264833630543 0.00035575254698374235 0 0.0019893014040229997 0.00077879231923093752 0 0.0017600966522230402 0.00041484943868589806 0 0.0020160989985946384 0.00051776380198406018 0 0.0021691462635498831 0.00054432466998292504 0 0.0019893014040229997 0.00077879231923093752 0 0.0020160989985946384 0.00051776380198406018 0 0.0019893014040229997 0.00077879231923093752 0 0.0023352073221206645 0.0012384512910293248 0 0.0017818645460911454 0.0011292308568307025 0 0.0024498598739622467 0.00075013440091507768 0 0.0019893014040229997 0.00077879231923093752 0 0.0023352073221206645 0.0012384512910293248 0 0.0023352073221206645 0.0012384512910293248 0 0.0023183017830243464 0.0016053690188862564 0 0.0019384464122046224 0.001512611091541769 0 0.0023352073221206645 0.0012384512910293248 0 0.0019384464122046224 0.001512611091541769 0 0.0017818645460911454 0.0011292308568307025 0 0.0019384464122046224 0.001512611091541769 0 0.0017818645460911454 0.0011292308568307025 0 0.0014098864898687659 0.0013034752496654341 0 0.0015812421522458263 0.0017471486596082259 0 0.0019384464122046224 0.001512611091541769 0 0.0014098864898687659 0.0013034752496654341 0 0.0017818645460911454 0.0011292308568307025 0 0.0014098864898687659 0.0013034752496654341 0 0.0015231156740848845 0.00081469026522210564 0 0.0014098864898687659 0.0013034752496654341 0 0.0015231156740848845 0.00081469026522210564 0 0.0010604047589835401 0.00081109074045027595 0 0.0019893014040229997 0.00077879231923093752 0 0.0017818645460911454 0.0011292308568307025 0 0.0015231156740848845 0.00081469026522210564 0 0.0019893014040229997 0.00077879231923093752 0 0.0015231156740848845 0.00081469026522210564 0 0.0017600966522230402 0.00041484943868589806 0 0.0010604047589835401 0.00081109074045027595 0 0.00069524908797040299 0.0010756691549470663 0 0.00069542666022705355 0.00034635276837020386 0 0.0015231156740848845 0.00081469026522210564 0 0.0010604047589835401 0.00081109074045027595 0 0.0012836318262682564 0.00038701422952506538 0 0.0014098864898687659 0.0013034752496654341 0 0.0010604047589835401 0.00081109074045027595 0 0.0009482579690005676 0.001396807074837363 0 0.0010604047589835401 0.00081109074045027595 0 0.0009482579690005676 0.001396807074837363 0 0.00069524908797040299 0.0010756691549470663 0 0.0010960684872308856 0.0017613048301112983 0 0.0014098864898687659 0.0013034752496654341 0 0.0009482579690005676 0.001396807074837363 0 0.00062504291675243289 0.0016159740835830054 0 0.0009482579690005676 0.001396807074837363 0 0.00069524908797040299 0.0010756691549470663 0 0.00062504291675243289 0.0016159740835830054 0 0.00027098572061076215 0.0015116152233847083 0 0.00069524908797040299 0.0010756691549470663 0 0.00070060986451052311 0.001070702617864959 0 0.00057206186164087596 0.00043422483888948905 0 0.00036711484607557135 0.0007643752266189226 0 0.00069524908797040299 0.0010756691549470663 0 0.00059411778180239476 0.00064597598732988269 0 0.00036711484607557135 0.0007643752266189226 0 0.00046350575797360962 0.00063029164746692843 0 0.00059411778180239476 0.00064597598732988269 0 0.00046350575797360962 0.00063029164746692843 0 0.00059411778180239476 0.00064597598732988269 0 0.00048331727237175978 0.00062065653821461516 0 0.00057206186164087596 0.00043422483888948905 0 0.0013590119560677484 0.00052963890255144821 0 0.00059411778180239476 0.00064597598732988269 0 0.00048331727237175978 0.00062065653821461516 0 0.00042268078033111113 0.00064366977657990057 0 0.00069542666022705355 0.00034635276837020386 0 0.00068352692718183278 -0.00037005995537256806 0 0.0011227967279291307 -0.00018635862734697224 0 0.00049240039638734584 0.00067119471052427371 0 0.00048331727237175978 0.00062065653821461516 0 0.00042268078033111113 0.00064366977657990057 0 0.00049240039638734584 0.00067119471052427371 0 0.00042268078033111113 0.00064366977657990057 0 0.00051257871156481821 0.00075918228639080437 0 0.0019286017525274167 0.00038081997148255164 0 0.0019321058340929173 0.0004574410425133057 0 0.0025139382101955661 0.00069674379511897499 0 0.0022663678170040955 0.0010906426196105377 0 0.0013590119560677484 0.00052963890255144821 0 0.0043100990490909071 0.00076700459891854448 0 0.0044410937812862424 0.00069107675234904482 0 0.0043137974214587918 0.00068211416282867767 0 0.0042069231902621424 0.00074104172124416856 0 0.0043100990490909071 0.00076700459891854448 0 0.0043137974214587918 0.00068211416282867767 0 0.0022663678170040955 0.0010906426196105377 0 0.002619146871997657 0.00046568102938193863 0 0.0013590119560677484 0.00052963890255144821 0 0.002619146871997657 0.00046568102938193863 0 0.00069542666022705355 0.00034635276837020386 0 0.0011227967279291307 -0.00018635862734697224 0 0.0012836318262682564 0.00038701422952506538 0 0.0010604047589835401 0.00081109074045027595 0 0.00069542666022705355 0.00034635276837020386 0 0.0012836318262682564 0.00038701422952506538 0 0.0011227967279291307 -0.00018635862734697224 0 0.0012836318262682564 0.00038701422952506538 0 0.0015805493505831123 5.2638093949948156e-05 0 0.0017600966522230402 0.00041484943868589806 0 0.0015805493505831123 5.2638093949948156e-05 0 0.002193264833630543 0.00035575254698374235 0 0.0015231156740848845 0.00081469026522210564 0 0.0012836318262682564 0.00038701422952506538 0 0.0017600966522230402 0.00041484943868589806 0 0.0012836318262682564 0.00038701422952506538 0 0.0017600966522230402 0.00041484943868589806 0 0.0015805493505831123 5.2638093949948156e-05 0 0.0044025626364524624 0.00078883476013340747 0 0.0044531211294319695 0.00075424163438371635 0 0.0044410937812862424 0.00069107675234904482 0 0.0043100990490909071 0.00076700459891854448 0 0.0044025626364524624 0.00078883476013340747 0 0.0044410937812862424 0.00069107675234904482 0 0.002619146871997657 0.00046568102938193863 0 0.0029844079927720799 0.0004233150412876718 0 0.0044531211294319695 0.00075424163438371635 0 0.004503059698837711 0.00069723586376157641 0 0.0044410937812862424 0.00069107675234904482 0 0.0044025626364524624 0.00078883476013340747 0 0.0044531211294319695 0.00075424163438371635 0 0.0044420687066094389 0.00079099508356529158 0 0.0044531211294319695 0.00075424163438371635 0 0.004503059698837711 0.00069723586376157641 0 0.0044486838664415359 0.00079200507685682541 0 0.0044531211294319695 0.00075424163438371635 0 0.0044486838664415359 0.00079200507685682541 0 0.0044420687066094389 0.00079099508356529158 0 0.0044025626364524624 0.00078883476013340747 0 0.0044420687066094389 0.00079099508356529158 0 0.0044383694636809853 0.000809523840994616 0 0.0044329025916694147 0.00081397547966942331 0 0.0044420687066094389 0.00079099508356529158 0 0.0044383694636809853 0.000809523840994616 0 0.0029844079927720799 0.0004233150412876718 0 0.0033333571311966715 0.00060444545485664714 0 0.0044486838664415359 0.00079200507685682541 0 0.0044329025916694147 0.00081397547966942331 0 0.0044420687066094389 0.00079099508356529158 0 0.0017600966522230402 0.00041484943868589806 0 0.0020160989985946384 0.00051776380198406018 0 0.002193264833630543 0.00035575254698374235 0 0.0021691462635498831 0.00054432466998292504 0 0.0020160989985946384 0.00051776380198406018 0 0.002193264833630543 0.00035575254698374235 0 0.0043948104665226485 0.00085395451239966911 0 0.0044329025916694147 0.00081397547966942331 0 0.0044383694636809853 0.000809523840994616 0 0.0047001218539169344 0.00036052309215275642 0 0.0047274062408077053 0.00028036862389347331 0 0.0045872524803304629 0.00052161326453768482 0 0.0047274062408077053 0.00028036862389347331 0 0.0045872524803304629 0.00052161326453768482 0 0.0045352935433971434 0.00048047383253892211 0 0.0046184556669200795 0.00054082277401031791 0 0.0047001218539169344 0.00036052309215275642 0 0.0045872524803304629 0.00052161326453768482 0 0.0046184556669200795 0.00054082277401031791 0 0.004503059698837711 0.00069723586376157641 0 0.0045872524803304629 0.00052161326453768482 0 0.004503059698837711 0.00069723586376157641 0 0.0045872524803304629 0.00052161326453768482 0 0.0044410937812862424 0.00069107675234904482 0 0.0044410937812862424 0.00069107675234904482 0 0.0045352935433971434 0.00048047383253892211 0 0.0043137974214587918 0.00068211416282867767 0 0.0045872524803304629 0.00052161326453768482 0 0.0044410937812862424 0.00069107675234904482 0 0.0045352935433971434 0.00048047383253892211 0 0.0045352935433971434 0.00048047383253892211 0 0.0042970175210987581 0.00060260416550489751 0 0.0043137974214587918 0.00068211416282867767 0 0.0042970175210987581 0.00060260416550489751 0 0.004018022731010107 0.00068167698111910207 0 0.0044621148478861299 0.0003453364751985943 0 0.0045352935433971434 0.00048047383253892211 0 0.0042970175210987581 0.00060260416550489751 0 0.0044621148478861299 0.0003453364751985943 0 0.0042970175210987581 0.00060260416550489751 0 0.0043137974214587918 0.00068211416282867767 0 0.0041828064254812282 0.00067003441280847026 0 0.0040944253067738776 0.0028158584164645574 0 0.003589872243521296 0.0021968439125289391 0 0.0028813512598729754 0.0021854417354319222 0 0.0013590119560677484 0.00052963890255144821 0 0.00018568289437404393 0.00083188656356266778 0 0.0022663678170040955 0.0010906426196105377 0 0.0017087861131478434 0.0016250941447228592 0 0.00016215689714584554 0.00077233273476330926 0 0.00016107566448743139 0.00073825451233921211 0 0.00054876528315698689 0.00091348119475978681 0 0.0022663678170040955 0.0010906426196105377 0 0.0040490699647516247 0.0013450488217900249 0 0.0042069231902621424 0.00074104172124416856 0 0.0043137974214587918 0.00068211416282867767 0 0.0041828064254812282 0.00067003441280847026 0 0.0040944253067738776 0.0028158584164645574 0 0.0040753147328389397 0.0018178826969396837 0 0.003589872243521296 0.0021968439125289391 0 0.0040753147328389397 0.0018178826969396837 0 0.003589872243521296 0.0021968439125289391 0 0.0033577091245916568 0.0019276406301391338 0 0.0040753147328389397 0.0018178826969396837 0 0.0033577091245916568 0.0019276406301391338 0 0.0033234624809404729 0.0014721783318512893 0 0.0040753147328389397 0.0018178826969396837 0 0.004018022731010107 0.00068167698111910207 0 0.0033234624809404729 0.0014721783318512893 0 0.0040490699647516247 0.0013450488217900249 0 0.0040463018688975342 0.0007109729402124998 0 0.0042970175210987581 0.00060260416550489751 0 0.0041828064254812282 0.00067003441280847026 0 0.004018022731010107 0.00068167698111910207 0 0.004018022731010107 0.00068167698111910207 0 0.0033234624809404729 0.0014721783318512893 0 0.0031236983086897589 0.00085838649071179936 0 0.004018022731010107 0.00068167698111910207 0 0.00350751190230563 0.00025938335627534692 0 0.0031236983086897589 0.00085838649071179936 0 0.004018022731010107 0.00068167698111910207 0 0.0041725295479243902 0.00023505772290231738 0 0.00350751190230563 0.00025938335627534692 0 0.00350751190230563 0.00025938335627534692 0 0.0040552269989376248 -0.00013804580244118481 0 0.0033132762852220495 -0.0002899823729154818 0 0.0040552269989376248 -0.00013804580244118481 0 0.0033132762852220495 -0.0002899823729154818 0 0.0043179006444924979 -0.00065209912350773741 0 0.0041725295479243902 0.00023505772290231738 0 0.00350751190230563 0.00025938335627534692 0 0.0040552269989376248 -0.00013804580244118481 0 0.0041725295479243902 0.00023505772290231738 0 0.0040552269989376248 -0.00013804580244118481 0 0.0046419022081669809 -0.00010393895243603588 0 0.0040552269989376248 -0.00013804580244118481 0 0.0046419022081669809 -0.00010393895243603588 0 0.0043179006444924979 -0.00065209912350773741 0 0.0041725295479243902 0.00023505772290231738 0 0.0046419022081669809 -0.00010393895243603588 0 0.0044621148478861299 0.0003453364751985943 0 0.004018022731010107 0.00068167698111910207 0 0.0041725295479243902 0.00023505772290231738 0 0.0044621148478861299 0.0003453364751985943 0 0.0047274062408077053 0.00028036862389347331 0 0.0045352935433971434 0.00048047383253892211 0 0.0048590822854472334 5.9447840275418888e-05 0 0.0046419022081669809 -0.00010393895243603588 0 0.0044621148478861299 0.0003453364751985943 0 0.0048590822854472334 5.9447840275418888e-05 0 0.0045352935433971434 0.00048047383253892211 0 0.0044621148478861299 0.0003453364751985943 0 0.0048590822854472334 5.9447840275418888e-05 0 0.0046419022081669809 -0.00010393895243603588 0 0.0051271952722186749 -0.00042082318863786994 0 0.0049695468610949723 -0.00048851757667785765 0 0.0046419022081669809 -0.00010393895243603588 0 0.0048590822854472334 5.9447840275418888e-05 0 0.0051271952722186749 -0.00042082318863786994 0 0.004832175692709711 9.2358093600980576e-05 0 0.0048590822854472334 5.9447840275418888e-05 0 0.0051594776627006496 -0.00029551260804453589 0 0.0048590822854472334 5.9447840275418888e-05 0 0.0051594776627006496 -0.00029551260804453589 0 0.0051271952722186749 -0.00042082318863786994 0 0.004832175692709711 9.2358093600980576e-05 0 0.0047274062408077053 0.00028036862389347331 0 0.0048590822854472334 5.9447840275418888e-05 0 0.0047001218539169344 0.00036052309215275642 0 0.004832175692709711 9.2358093600980576e-05 0 0.0047274062408077053 0.00028036862389347331 0 0.0014764403772989782 0.00038608808472333868 0 0.0011565858065175558 0.00036413890796836788 0 0.0012336947888771279 0.00084363872432833967 0 0.0014764403772989782 0.00038608808472333868 0 0.0011565858065175558 0.00036413890796836788 0 0.0014422571267650084 2.6594354182174329e-05 0 -0.00078710516093875816 -0.002205549652781321 0 -0.0010394566719381033 -0.0018521614579614333 0 -0.00065448791540137074 -0.001443087460827463 0 -0.0010783868269412819 -0.0022827587034438832 0 -0.00078710516093875816 -0.002205549652781321 0 -0.0010394566719381033 -0.0018521614579614333 0 -0.0010394566719381033 -0.0018521614579614333 0 -0.00065448791540137074 -0.001443087460827463 0 -0.0011380083206554935 -0.0013830837867098503 0 -0.00083780046556729292 -0.0010426722410835645 0 -0.0012449501170324815 -0.00093157164033194986 0 -0.0011380083206554935 -0.0013830837867098503 0 -0.00083780046556729292 -0.0010426722410835645 0 -0.00065448791540137074 -0.001443087460827463 0 -0.00057467185099935726 -0.0011256784762213611 0 -0.00083780046556729292 -0.0010426722410835645 0 -0.00065448791540137074 -0.001443087460827463 0 -0.0011380083206554935 -0.0013830837867098503 0 0.001433972545686062 0.001237071176660611 0 0.0012336947888771279 0.00084363872432833967 0 0.0012623843335225905 0.0010184711281904461 0 0.0014541900806612732 0.00077776994747862246 0 0.001281982126448024 0.00085840954871844197 0 0.00018858252274016218 -0.00090323660300631119 0 0.00046263856287758853 -0.0001151516497380185 0 -0.00078710516093875816 -0.002205549652781321 0 -0.00065448791540137074 -0.001443087460827463 0 -0.00021722693779059599 -0.0011277315180926349 0 0.0011565858065175558 0.00036413890796836788 0 0.0012211494130337417 0.00084121433168103026 0 0.0012336947888771279 0.00084363872432833967 0 -0.00065448791540137074 -0.001443087460827463 0 -0.00057467185099935726 -0.0011256784762213611 0 -0.00021722693779059599 -0.0011277315180926349 0 0.0011799799081319573 0.00090053274430513522 0 0.0012336947888771279 0.00084363872432833967 0 0.0012623843335225905 0.0010184711281904461 0 0.0011799799081319573 0.00090053274430513522 0 0.0012336947888771279 0.00084363872432833967 0 0.0010876178701862802 0.00082801981896826065 0 0.0012211494130337417 0.00084121433168103026 0 0.0012336947888771279 0.00084363872432833967 0 0.0010876178701862802 0.00082801981896826065 0 0.0017087861131478434 0.0016250941447228592 0 0.0014211182832106087 0.0013297612658801266 0 0.00080563552046015454 0.0010224341074654747 0 0.00048619351191625434 0.00097952128824765005 0 0.0014339194484464708 0.0013081013405475633 0 0.0010876178701862802 0.00082801981896826065 0 0.0011364001341207914 0.0009144312120370748 0 0.0009887521601067309 0.00086099127564547809 0 0.0011799799081319573 0.00090053274430513522 0 0.0010876178701862802 0.00082801981896826065 0 0.0011364001341207914 0.0009144312120370748 0 0.0011799799081319573 0.00090053274430513522 0 0.0011364001341207914 0.0009144312120370748 0 0.0012623843335225905 0.0010184711281904461 0 0.0011364001341207914 0.0009144312120370748 0 0.0009887521601067309 0.00086099127564547809 0 0.0011460961731915313 0.00098790988265879298 0 0.0009887521601067309 0.00086099127564547809 0 0.0010122790001792429 0.00094751604753833278 0 0.0011460961731915313 0.00098790988265879298 0 0.00090059806194628714 0.00077779289083231148 0 0.0010876178701862802 0.00082801981896826065 0 0.0009887521601067309 0.00086099127564547809 0 0.00078831311533854895 0.00075858972740002449 0 0.00090059806194628714 0.00077779289083231148 0 0.0009887521601067309 0.00086099127564547809 0 0.00078831311533854895 0.00075858972740002449 0 0.0009887521601067309 0.00086099127564547809 0 0.00086270289592822659 0.00085414043411519895 0 0.00078831311533854895 0.00075858972740002449 0 0.00069407366565792409 0.00077457775864252178 0 0.00086270289592822659 0.00085414043411519895 0 0.00069407366565792409 0.00077457775864252178 0 0.00079002575194076267 0.00089304357760007968 0 0.00086270289592822659 0.00085414043411519895 0 0.00079002575194076267 0.00089304357760007968 0 0.00086270289592822659 0.00085414043411519895 0 0.00091909108557781906 0.00092734673881359549 0 0.0009887521601067309 0.00086099127564547809 0 0.00086270289592822659 0.00085414043411519895 0 0.0010122790001792429 0.00094751604753833278 0 0.00086270289592822659 0.00085414043411519895 0 0.00091909108557781906 0.00092734673881359549 0 0.0010122790001792429 0.00094751604753833278 0 0.00090428656074720184 0.0010156591586288175 0 0.00080563552046015454 0.0010224341074654747 0 0.0014339194484464708 0.0013081013405475633 0 0.0010090388950780012 0.0010182021374131951 0 0.00090428656074720184 0.0010156591586288175 0 0.0014339194484464708 0.0013081013405475633 0 0.00091909108557781906 0.00092734673881359549 0 0.0010122790001792429 0.00094751604753833278 0 0.0010090388950780012 0.0010182021374131951 0 0.0010122790001792429 0.00094751604753833278 0 0.0010090388950780012 0.0010182021374131951 0 0.0011730670499072128 0.0010762629037313943 0 0.00079002575194076267 0.00089304357760007968 0 0.00091909108557781906 0.00092734673881359549 0 0.0010090388950780012 0.0010182021374131951 0 0.00079002575194076267 0.00089304357760007968 0 0.0010090388950780012 0.0010182021374131951 0 0.00090428656074720184 0.0010156591586288175 0 0.00079002575194076267 0.00089304357760007968 0 0.00090428656074720184 0.0010156591586288175 0 0.00068500501698355891 0.00090414938759631434 0 0.00090428656074720184 0.0010156591586288175 0 0.00068500501698355891 0.00090414938759631434 0 0.00080563552046015454 0.0010224341074654747 0 0.0010090388950780012 0.0010182021374131951 0 0.0011730670499072128 0.0010762629037313943 0 0.0014339194484464708 0.0013081013405475633 0 0.0011730670499072128 0.0010762629037313943 0 0.0013243298759201018 0.0011487643141774079 0 0.0011460961731915313 0.00098790988265879298 0 0.0013243298759201018 0.0011487643141774079 0 0.0012623843335225905 0.0010184711281904461 0 0.0011460961731915313 0.00098790988265879298 0 0.0011364001341207914 0.0009144312120370748 0 0.0012623843335225905 0.0010184711281904461 0 0.0011460961731915313 0.00098790988265879298 0 0.0010122790001792429 0.00094751604753833278 0 0.0011730670499072128 0.0010762629037313943 0 0.0011460961731915313 0.00098790988265879298 0 0.00016215689714584554 0.00077233273476330926 0 0.00048619351191625434 0.00097952128824765005 0 0.00054876528315698689 0.00091348119475978681 0 0.00042268078033111113 0.00064366977657990057 0 0.00051257871156481821 0.00075918228639080437 0 0.00054876528315698689 0.00091348119475978681 0 0.0005684049284914672 0.00074674157514248961 0 0.00051257871156481821 0.00075918228639080437 0 0.00056217062301390324 0.00081646785059911456 0 0.00056217062301390324 0.00081646785059911456 0 0.00064575429226050086 0.00082376921752980105 0 0.00054876528315698689 0.00091348119475978681 0 0.00051257871156481821 0.00075918228639080437 0 0.00056217062301390324 0.00081646785059911456 0 0.00054876528315698689 0.00091348119475978681 0 0.0005684049284914672 0.00074674157514248961 0 0.00056217062301390324 0.00081646785059911456 0 0.00064575429226050086 0.00082376921752980105 0 0.0005684049284914672 0.00074674157514248961 0 0.00069407366565792409 0.00077457775864252178 0 0.00064575429226050086 0.00082376921752980105 0 0.00069407366565792409 0.00077457775864252178 0 0.00079002575194076267 0.00089304357760007968 0 0.00064575429226050086 0.00082376921752980105 0 0.00064575429226050086 0.00082376921752980105 0 0.00068500501698355891 0.00090414938759631434 0 0.00054876528315698689 0.00091348119475978681 0 0.00079002575194076267 0.00089304357760007968 0 0.00064575429226050086 0.00082376921752980105 0 0.00068500501698355891 0.00090414938759631434 0 0.00068500501698355891 0.00090414938759631434 0 0.00080563552046015454 0.0010224341074654747 0 0.00054876528315698689 0.00091348119475978681 0 0.0027831897988633086 0.0018037870925682075 0 0.0028813512598729754 0.0021854417354319222 0 0.0030259453563769782 0.0018354464848690198 0 0.0027831897988633086 0.0018037870925682075 0 0.0028813512598729754 0.0021854417354319222 0 0.0023872845347466987 0.0016342527866249437 0 0.00080563552046015454 0.0010224341074654747 0 0.00048619351191625434 0.00097952128824765005 0 0.00054876528315698689 0.00091348119475978681 0 0.003589872243521296 0.0021968439125289391 0 0.0028813512598729754 0.0021854417354319222 0 0.0033577091245916568 0.0019276406301391338 0 0.0028813512598729754 0.0021854417354319222 0 0.0030259453563769782 0.0018354464848690198 0 0.0033577091245916568 0.0019276406301391338 0 0.0030259453563769782 0.0018354464848690198 0 0.0033577091245916568 0.0019276406301391338 0 0.0033234624809404729 0.0014721783318512893 0 0.0030259453563769782 0.0018354464848690198 0 0.0033234624809404729 0.0014721783318512893 0 0.0028265947663352166 0.0015671477708227455 0 0.0033234624809404729 0.0014721783318512893 0 0.0028265947663352166 0.0015671477708227455 0 0.0028632947720595527 0.0012079481179936423 0 0.0028265947663352166 0.0015671477708227455 0 0.0024739330115886851 0.0012664018450642205 0 0.0028632947720595527 0.0012079481179936423 0 0.0027831897988633086 0.0018037870925682075 0 0.0028265947663352166 0.0015671477708227455 0 0.0023872845347466987 0.0016342527866249437 0 0.0027831897988633086 0.0018037870925682075 0 0.0030259453563769782 0.0018354464848690198 0 0.0028265947663352166 0.0015671477708227455 0 0.0028265947663352166 0.0015671477708227455 0 0.0023872845347466987 0.0016342527866249437 0 0.0024739330115886851 0.0012664018450642205 0 0.0025802883453362431 0.00091432633436500218 0 0.0028632947720595527 0.0012079481179936423 0 0.0031236983086897589 0.00085838649071179936 0 0.0024739330115886851 0.0012664018450642205 0 0.0025802883453362431 0.00091432633436500218 0 0.0028632947720595527 0.0012079481179936423 0 0.0033234624809404729 0.0014721783318512893 0 0.0028632947720595527 0.0012079481179936423 0 0.0031236983086897589 0.00085838649071179936 0 0.0028813512598729754 0.0021854417354319222 0 0.0023872845347466987 0.0016342527866249437 0 0.0014339194484464708 0.0013081013405475633 0 0.001433972545686062 0.001237071176660611 0 0.0013243298759201018 0.0011487643141774079 0 0.0014339194484464708 0.0013081013405475633 0 0.001433972545686062 0.001237071176660611 0 0.0013243298759201018 0.0011487643141774079 0 0.0012623843335225905 0.0010184711281904461 0 0.0011730670499072128 0.0010762629037313943 0 0.0013243298759201018 0.0011487643141774079 0 0.0014339194484464708 0.0013081013405475633 0 0.0023872845347466987 0.0016342527866249437 0 0.0014339194484464708 0.0013081013405475633 0 0.0020800342317895985 0.0012912888903201939 0 0.0023872845347466987 0.0016342527866249437 0 0.0024739330115886851 0.0012664018450642205 0 0.0020800342317895985 0.0012912888903201939 0 0.0025802883453362431 0.00091432633436500218 0 0.0020205349522226263 0.0010109353234174243 0 0.0022714356170010709 0.00069441378561999588 0 0.0014339194484464708 0.0013081013405475633 0 0.0020800342317895985 0.0012912888903201939 0 0.0020205349522226263 0.0010109353234174243 0 0.0024739330115886851 0.0012664018450642205 0 0.0025802883453362431 0.00091432633436500218 0 0.0020205349522226263 0.0010109353234174243 0 0.0024739330115886851 0.0012664018450642205 0 0.0020800342317895985 0.0012912888903201939 0 0.0020205349522226263 0.0010109353234174243 0 0.001433972545686062 0.001237071176660611 0 0.0016922300222123783 0.0010705698543323375 0 0.0018959824349976085 0.00065674209320627417 0 0.0020205349522226263 0.0010109353234174243 0 0.0016922300222123783 0.0010705698543323375 0 0.0018959824349976085 0.00065674209320627417 0 0.0014339194484464708 0.0013081013405475633 0 0.0020205349522226263 0.0010109353234174243 0 0.0016922300222123783 0.0010705698543323375 0 0.001433972545686062 0.001237071176660611 0 0.0014339194484464708 0.0013081013405475633 0 0.0016922300222123783 0.0010705698543323375 0 0.001433972545686062 0.001237071176660611 0 0.0018959824349976085 0.00065674209320627417 0 0.001710477121792914 8.4979729352958509e-05 0 0.0020205349522226263 0.0010109353234174243 0 0.0018959824349976085 0.00065674209320627417 0 0.0022714356170010709 0.00069441378561999588 0 0.0022714356170010709 0.00069441378561999588 0 0.0022321658382581113 0.00044902250312270125 0 0.0026944015635024673 0.00047415413236336209 0 0.0018959824349976085 0.00065674209320627417 0 0.0022714356170010709 0.00069441378561999588 0 0.0022321658382581113 0.00044902250312270125 0 0.0022321658382581113 0.00044902250312270125 0 0.0026944015635024673 0.00047415413236336209 0 0.0023055596065156454 0.00014769177661955784 0 0.0022321658382581113 0.00044902250312270125 0 0.0020083494331585962 0.00027952581240745319 0 0.0023055596065156454 0.00014769177661955784 0 0.0020083494331585962 0.00027952581240745319 0 0.0019623157050477147 8.5024401940379964e-05 0 0.0023055596065156454 0.00014769177661955784 0 0.0018959824349976085 0.00065674209320627417 0 0.0020083494331585962 0.00027952581240745319 0 0.001710477121792914 8.4979729352958509e-05 0 0.0018959824349976085 0.00065674209320627417 0 0.0022321658382581113 0.00044902250312270125 0 0.0020083494331585962 0.00027952581240745319 0 0.00350751190230563 0.00025938335627534692 0 0.0031236983086897589 0.00085838649071179936 0 0.0026944015635024673 0.00047415413236336209 0 0.0025802883453362431 0.00091432633436500218 0 0.0022714356170010709 0.00069441378561999588 0 0.0026944015635024673 0.00047415413236336209 0 0.0025802883453362431 0.00091432633436500218 0 0.0031236983086897589 0.00085838649071179936 0 0.0026944015635024673 0.00047415413236336209 0 0.0026944015635024673 0.00047415413236336209 0 0.0029595052879345476 8.6546981665616533e-05 0 0.0023055596065156454 0.00014769177661955784 0 0.00350751190230563 0.00025938335627534692 0 0.0026944015635024673 0.00047415413236336209 0 0.0029595052879345476 8.6546981665616533e-05 0 0.00350751190230563 0.00025938335627534692 0 0.0029595052879345476 8.6546981665616533e-05 0 0.0033132762852220495 -0.0002899823729154818 0 0.0029595052879345476 8.6546981665616533e-05 0 0.0026303014853416573 -0.00020465072726289708 0 0.0033132762852220495 -0.0002899823729154818 0 0.0029595052879345476 8.6546981665616533e-05 0 0.0026303014853416573 -0.00020465072726289708 0 0.0023055596065156454 0.00014769177661955784 0 0.0026303014853416573 -0.00020465072726289708 0 0.0033132762852220495 -0.0002899823729154818 0 0.0027931558462997315 -0.00061563404603248598 0 0.0017002828033965288 -6.965007461432115e-05 0 0.0017595828861449502 -0.0010963279070629868 0 0.0020418930846790363 -0.00043348251785768621 0 0.001710477121792914 8.4979729352958509e-05 0 0.0017994279709188875 -0.0009099160656686336 0 0.0020682017148861542 -0.00011974569411844562 0 0.0020418930846790363 -0.00043348251785768621 0 0.001710477121792914 8.4979729352958509e-05 0 0.0020682017148861542 -0.00011974569411844562 0 0.0019623157050477147 8.5024401940379964e-05 0 0.001710477121792914 8.4979729352958509e-05 0 0.0020083494331585962 0.00027952581240745319 0 0.0019623157050477147 8.5024401940379964e-05 0 0.001710477121792914 8.4979729352958509e-05 0 0.0020682017148861542 -0.00011974569411844562 0 0.0019623157050477147 8.5024401940379964e-05 0 0.0023055596065156454 0.00014769177661955784 0 0.0026303014853416573 -0.00020465072726289708 0 0.0020682017148861542 -0.00011974569411844562 0 0.0023055596065156454 0.00014769177661955784 0 0.0026303014853416573 -0.00020465072726289708 0 0.0020682017148861542 -0.00011974569411844562 0 0.0023518285120490336 -0.00043383885312967083 0 0.0026303014853416573 -0.00020465072726289708 0 0.0023518285120490336 -0.00043383885312967083 0 0.0027931558462997315 -0.00061563404603248598 0 0.0020682017148861542 -0.00011974569411844562 0 0.0023518285120490336 -0.00043383885312967083 0 0.0020418930846790363 -0.00043348251785768621 0 0.0016848787808091212 -0.00045748035363672479 0 0.0017384549348128241 -0.00024561936069450842 0 0.0017485203597255963 -0.0012208750165697275 0 0.0013856415410766756 -0.00057325055389256666 0 0.0016848787808091212 -0.00045748035363672479 0 0.0014096793639926709 -0.00093681519213482229 0 0.0013856415410766756 -0.00057325055389256666 0 0.001340698942148672 -0.00027715446211817483 0 0.0015373574521398727 -0.00032236380335703589 0 0.001340698942148672 -0.00027715446211817483 0 0.0015373574521398727 -0.00032236380335703589 0 0.0015117517306762851 -0.00020382922429166154 0 0.0013856415410766756 -0.00057325055389256666 0 0.0016848787808091212 -0.00045748035363672479 0 0.0015373574521398727 -0.00032236380335703589 0 0.0015373574521398727 -0.00032236380335703589 0 0.0017384549348128241 -0.00024561936069450842 0 0.0015117517306762851 -0.00020382922429166154 0 0.0016848787808091212 -0.00045748035363672479 0 0.0015373574521398727 -0.00032236380335703589 0 0.0017384549348128241 -0.00024561936069450842 0 0.0011565858065175558 0.00036413890796836788 0 0.001340698942148672 -0.00027715446211817483 0 0.0014422571267650084 2.6594354182174329e-05 0 0.0014541900806612732 0.00077776994747862246 0 0.0017002828033965288 -6.965007461432115e-05 0 0.0017384549348128241 -0.00024561936069450842 0 0.0015117517306762851 -0.00020382922429166154 0 0.0014422571267650084 2.6594354182174329e-05 0 0.0014764403772989782 0.00038608808472333868 0 0.0017384549348128241 -0.00024561936069450842 0 0.0014422571267650084 2.6594354182174329e-05 0 0.001340698942148672 -0.00027715446211817483 0 0.0015117517306762851 -0.00020382922429166154 0 0.0014422571267650084 2.6594354182174329e-05 0 -0.00099913122691804609 -0.0022563331093965193 0 -0.0010783868269412819 -0.0022827587034438832 0 -0.00078710516093875816 -0.002205549652781321 0 -0.00099913122691804609 -0.0022563331093965193 0 -0.00078710516093875816 -0.002205549652781321 0 -0.001012031245897823 -0.0021942686462204358 0 0.0011565858065175558 0.00036413890796836788 0 0.001340698942148672 -0.00027715446211817483 0 0.00082761707703719 -0.00046624053954941305 0 0.00018858252274016218 -0.00090323660300631119 0 -7.8321826237711235e-05 -0.0013246377550377823 0 0.0013856415410766756 -0.00057325055389256666 0 0.001340698942148672 -0.00027715446211817483 0 0.00082761707703719 -0.00046624053954941305 0 0.0013856415410766756 -0.00057325055389256666 0 0.00082761707703719 -0.00046624053954941305 0 0.0014096793639926709 -0.00093681519213482229 0 0.00082761707703719 -0.00046624053954941305 0 0.00093983521346249191 -0.0011074476517299169 0 0.00048765912650525212 -0.0014105828276919127 0 0.0011266571112888276 -0.001610398479242006 0 0.0013937047279892858 -0.00099840255622164146 0 0.00082761707703719 -0.00046624053954941305 0 0.00093983521346249191 -0.0011074476517299169 0 0.0014096793639926709 -0.00093681519213482229 0 0.00093983521346249191 -0.0011074476517299169 0 0.001036743388588994 -0.0015979341140349909 0 0.0014096793639926709 -0.00093681519213482229 0 0.00093983521346249191 -0.0011074476517299169 0 0.001036743388588994 -0.0015979341140349909 0 0.00048765912650525212 -0.0014105828276919127 0 0.0011719491203520296 -0.0017063514203768334 0 0.0015413424636912759 -0.0019339463314788361 0 0.0013568560353483792 -0.0021427088019000552 0 0.001795300843705954 -0.0019675293828292219 0 0.0019439669175814322 -0.0014543569917085085 0 0.0021555888026805053 -0.0024970730674102816 0 0.001795300843705954 -0.0019675293828292219 0 0.0015413424636912759 -0.0019339463314788361 0 0.0016052320592594722 -0.0016653999848228369 0 0.0011719491203520296 -0.0017063514203768334 0 0.0015413424636912759 -0.0019339463314788361 0 0.0016052320592594722 -0.0016653999848228369 0 0.0011719491203520296 -0.0017063514203768334 0 0.0016052320592594722 -0.0016653999848228369 0 0.0015925630450817887 -0.001263680908573408 0 0.0016052320592594722 -0.0016653999848228369 0 0.0019439669175814322 -0.0014543569917085085 0 0.0015925630450817887 -0.001263680908573408 0 0.001795300843705954 -0.0019675293828292219 0 0.0016052320592594722 -0.0016653999848228369 0 0.0019439669175814322 -0.0014543569917085085 0 0.0017010581863017922 -0.00053425756066835257 0 0.0017893174660215854 -0.0015293820017890729 0 0.0016848787808091212 -0.00045748035363672479 0 0.0015925630450817887 -0.001263680908573408 0 0.0014096793639926709 -0.00093681519213482229 0 0.0011719491203520296 -0.0017063514203768334 0 0.0015925630450817887 -0.001263680908573408 0 0.0014096793639926709 -0.00093681519213482229 0 0.0016848787808091212 -0.00045748035363672479 0 0.0016641719426052908 -0.0016145173408373817 0 0.0017485203597255963 -0.0012208750165697275 0 0.0016848787808091212 -0.00045748035363672479 0 0.0019439669175814322 -0.0014543569917085085 0 0.0015925630450817887 -0.001263680908573408 0 0.0020418930846790363 -0.00043348251785768621 0 0.0023011566071570364 -0.00080590614480730222 0 0.0017994279709188875 -0.0009099160656686336 0 0.0023011566071570364 -0.00080590614480730222 0 0.0027931558462997315 -0.00061563404603248598 0 0.0026945642870794193 -0.0011399973172061262 0 0.0023518285120490336 -0.00043383885312967083 0 0.0023011566071570364 -0.00080590614480730222 0 0.0027931558462997315 -0.00061563404603248598 0 0.0023518285120490336 -0.00043383885312967083 0 0.0020418930846790363 -0.00043348251785768621 0 0.0023011566071570364 -0.00080590614480730222 0 0.0022232261964184735 -0.0011014545020480325 0 0.0026945642870794193 -0.0011399973172061262 0 0.0021127915928432174 -0.0015697421926864458 0 0.0023011566071570364 -0.00080590614480730222 0 0.0022232261964184735 -0.0011014545020480325 0 0.0026945642870794193 -0.0011399973172061262 0 0.0023011566071570364 -0.00080590614480730222 0 0.0022232261964184735 -0.0011014545020480325 0 0.0017994279709188875 -0.0009099160656686336 0 0.0022232261964184735 -0.0011014545020480325 0 0.0017994279709188875 -0.0009099160656686336 0 0.0021127915928432174 -0.0015697421926864458 0 0.0033132762852220495 -0.0002899823729154818 0 0.0027931558462997315 -0.00061563404603248598 0 0.0034595301768972114 -0.00096727959154481197 0 0.0027931558462997315 -0.00061563404603248598 0 0.0026945642870794193 -0.0011399973172061262 0 0.0034595301768972114 -0.00096727959154481197 0 0.0026945642870794193 -0.0011399973172061262 0 0.0034595301768972114 -0.00096727959154481197 0 0.0030836646528049111 -0.0014106751285704886 0 0.0030836646528049111 -0.0014106751285704886 0 0.0027109945841001641 -0.0018701618457399015 0 0.0035114990308927224 -0.0016423511062413252 0 0.0034595301768972114 -0.00096727959154481197 0 0.0030836646528049111 -0.0014106751285704886 0 0.0035114990308927224 -0.0016423511062413252 0 0.0026945642870794193 -0.0011399973172061262 0 0.0030836646528049111 -0.0014106751285704886 0 0.0027109945841001641 -0.0018701618457399015 0 0.0027109945841001641 -0.0018701618457399015 0 0.0035114990308927224 -0.0016423511062413252 0 0.0031579350022409472 -0.0023190331176813433 0 0.0017595828861449502 -0.0010963279070629868 0 0.0017360408102122067 -0.0022488573503202714 0 0.0017893174660215854 -0.0015293820017890729 0 0.0019412297464313786 -0.0028053728167170625 0 0.0016641719426052908 -0.0016145173408373817 0 0.0017485203597255963 -0.0012208750165697275 0 0.0017051463779533453 -0.0023422311421315788 0 0.0016641719426052908 -0.0016145173408373817 0 0.0017051463779533453 -0.0023422311421315788 0 0.0015870987131207943 -0.0029967372348792321 0 0.0017994279709188875 -0.0009099160656686336 0 0.0021127915928432174 -0.0015697421926864458 0 0.0017051463779533453 -0.0023422311421315788 0 0.0026945642870794193 -0.0011399973172061262 0 0.0027109945841001641 -0.0018701618457399015 0 0.0021127915928432174 -0.0015697421926864458 0 0.0027109945841001641 -0.0018701618457399015 0 0.0021127915928432174 -0.0015697421926864458 0 0.0022432449775825398 -0.0020892744713834261 0 0.0027109945841001641 -0.0018701618457399015 0 0.0022432449775825398 -0.0020892744713834261 0 0.0024430903713099162 -0.0025775442179561785 0 0.0021127915928432174 -0.0015697421926864458 0 0.0022432449775825398 -0.0020892744713834261 0 0.0017051463779533453 -0.0023422311421315788 0 0.0022432449775825398 -0.0020892744713834261 0 0.0017051463779533453 -0.0023422311421315788 0 0.0024430903713099162 -0.0025775442179561785 0 0.0017051463779533453 -0.0023422311421315788 0 0.0024430903713099162 -0.0025775442179561785 0 0.0020058140537592365 -0.0029124211209152298 0 0.0024430903713099162 -0.0025775442179561785 0 0.0020058140537592365 -0.0029124211209152298 0 0.0024891299762047191 -0.0033371107012275529 0 0.0020058140537592365 -0.0029124211209152298 0 0.0024891299762047191 -0.0033371107012275529 0 0.00189525014940264 -0.0034206224564205345 0 0.0020058140537592365 -0.0029124211209152298 0 0.0015870987131207943 -0.0029967372348792321 0 0.00189525014940264 -0.0034206224564205345 0 0.0017051463779533453 -0.0023422311421315788 0 0.0020058140537592365 -0.0029124211209152298 0 0.0015870987131207943 -0.0029967372348792321 0 0.0031579350022409472 -0.0023190331176813433 0 0.0031509575820891983 -0.0030507277333630066 0 0.0040132911064079844 -0.0025221101232984328 0 0.0035114990308927224 -0.0016423511062413252 0 0.0031579350022409472 -0.0023190331176813433 0 0.0040132911064079844 -0.0025221101232984328 0 0.0024430903713099162 -0.0025775442179561785 0 0.0031579350022409472 -0.0023190331176813433 0 0.0031509575820891983 -0.0030507277333630066 0 0.0027109945841001641 -0.0018701618457399015 0 0.0024430903713099162 -0.0025775442179561785 0 0.0031579350022409472 -0.0023190331176813433 0 0.0024430903713099162 -0.0025775442179561785 0 0.0031509575820891983 -0.0030507277333630066 0 0.0024891299762047191 -0.0033371107012275529 0 0.0031509575820891983 -0.0030507277333630066 0 0.0038090437744836671 -0.0032018600711091246 0 0.0036329803575488235 -0.003876701746998946 0 0.0031509575820891983 -0.0030507277333630066 0 0.0029036456329206359 -0.0038061820953728194 0 0.0036329803575488235 -0.003876701746998946 0 0.0031509575820891983 -0.0030507277333630066 0 0.0024891299762047191 -0.0033371107012275529 0 0.0029036456329206359 -0.0038061820953728194 0 0.0024891299762047191 -0.0033371107012275529 0 0.0029036456329206359 -0.0038061820953728194 0 0.0023668499921991231 -0.0042347324945343299 0 0.0029036456329206359 -0.0038061820953728194 0 0.0028825193189003632 -0.0045791589616061956 0 0.0023668499921991231 -0.0042347324945343299 0 0.0028825193189003632 -0.0045791589616061956 0 0.0036329803575488235 -0.003876701746998946 0 0.0035773931268319047 -0.00478569837910677 0 0.0029036456329206359 -0.0038061820953728194 0 0.0028825193189003632 -0.0045791589616061956 0 0.0036329803575488235 -0.003876701746998946 0 0.00189525014940264 -0.0034206224564205345 0 0.0023668499921991231 -0.0042347324945343299 0 0.0016190361301555835 -0.0055587214023644612 0 0.0019540624632177267 -0.0033736131354598557 0 0.0013260689067713409 -0.0055538070627735373 0 0.0021555888026805053 -0.0024970730674102816 0 0.0019852686397790914 -0.003334127387987751 0 0.0022335281613527305 -0.0035933174374095369 0 0.0015870987131207943 -0.0029967372348792321 0 0.00189525014940264 -0.0034206224564205345 0 0.0017143256795504325 -0.0045345995613533261 0 0.0019412297464313786 -0.0028053728167170625 0 0.0014327122229001981 -0.0038693809788211018 0 0.0024891299762047191 -0.0033371107012275529 0 0.00189525014940264 -0.0034206224564205345 0 0.0023668499921991231 -0.0042347324945343299 0 0.0021555888026805053 -0.0024970730674102816 0 0.0017506526169432486 -0.0031186715300773617 0 0.0019852686397790914 -0.003334127387987751 0 0.0021555888026805053 -0.0024970730674102816 0 0.0017083417250853981 -0.0026486691487643322 0 0.0017506526169432486 -0.0031186715300773617 0 0.0017083417250853981 -0.0026486691487643322 0 0.0017506526169432486 -0.0031186715300773617 0 0.0012840204136476971 -0.0027892558726975544 0 0.0017506526169432486 -0.0031186715300773617 0 0.0012840204136476971 -0.0027892558726975544 0 0.0011939903823907231 -0.0034512493001269432 0 0.0010217379630343435 -0.0027934679898277302 0 0.0012646919240987475 -0.0026286485532448821 0 0.0011827726255615922 -0.0030727683266358985 0 0.0013100263983963386 -0.0027101322488048631 0 0.0024655925411931228 -0.0034424537453286294 0 0.0010217379630343435 -0.0027934679898277302 0 0.0011827726255615922 -0.0030727683266358985 0 0.00071073883793632898 -0.0029420021890740151 0 0.0010217379630343435 -0.0027934679898277302 0 0.0012646919240987475 -0.0026286485532448821 0 0.00091233997662781233 -0.0023799452116501827 0 0.0011719491203520296 -0.0017063514203768334 0 0.0013568560353483792 -0.0021427088019000552 0 0.00091233997662781233 -0.0023799452116501827 0 0.0013100263983963386 -0.0027101322488048631 0 0.0013552317403260404 -0.0022137007424047439 0 0.001036743388588994 -0.0015979341140349909 0 0.00059950465749362242 -0.0018648745774013256 0 0.00070494357606654861 -0.0021996316628457935 0 0.0017083417250853981 -0.0026486691487643322 0 0.0012840204136476971 -0.0027892558726975544 0 0.0013568560353483792 -0.0021427088019000552 0 0.0012646919240987475 -0.0026286485532448821 0 0.0013568560353483792 -0.0021427088019000552 0 0.00091233997662781233 -0.0023799452116501827 0 0.0011266571112888276 -0.001610398479242006 0 0.00069494481288557121 -0.0023572008414811489 0 0.0015413424636912759 -0.0019339463314788361 0 0.0013568560353483792 -0.0021427088019000552 0 0.0017648617224921375 -0.0023132021345906692 0 0.001795300843705954 -0.0019675293828292219 0 0.0015413424636912759 -0.0019339463314788361 0 0.0017648617224921375 -0.0023132021345906692 0 0.001795300843705954 -0.0019675293828292219 0 0.0021555888026805053 -0.0024970730674102816 0 0.0017648617224921375 -0.0023132021345906692 0 0.0021555888026805053 -0.0024970730674102816 0 0.0017083417250853981 -0.0026486691487643322 0 0.0017648617224921375 -0.0023132021345906692 0 0.0017083417250853981 -0.0026486691487643322 0 0.0013568560353483792 -0.0021427088019000552 0 0.0017648617224921375 -0.0023132021345906692 0 0.0052798131625763174 -0.00056435158831745838 0 0.0051594776627006496 -0.00029551260804453589 0 0.0051271952722186749 -0.00042082318863786994 0 0.0073117070762477969 -0.00078411423988929889 0 0.0046739110468715104 -0.00037772486354778869 0 0.0051271952722186749 -0.00042082318863786994 0 0.0055723721885987875 -0.00081325768600035923 0 0.0049695468610949723 -0.00048851757667785765 0 0.0052798131625763174 -0.00056435158831745838 0 0.0051271952722186749 -0.00042082318863786994 0 0.0055723721885987875 -0.00081325768600035923 0 0.0081990964871555081 -0.00092490712817065268 0 0.0055723721885987875 -0.00081325768600035923 0 0.0064925123099290744 -0.002113405696569667 0 0.0073117070762477969 -0.00078411423988929889 0 0.0054240435162496489 -0.00075510248907107065 0 0.0055723721885987875 -0.00081325768600035923 0 0.0043179006444924979 -0.00065209912350773741 0 0.0043402388424858716 -0.0013688574004399889 0 0.0055723721885987875 -0.00081325768600035923 0 0.0050861280879445402 -0.0018533694319530902 0 0.0043402388424858716 -0.0013688574004399889 0 0.0055723721885987875 -0.00081325768600035923 0 0.0050861280879445402 -0.0018533694319530902 0 0.0064925123099290744 -0.002113405696569667 0 0.0055723721885987875 -0.00081325768600035923 0 0.0049695468610949723 -0.00048851757667785765 0 0.0043179006444924979 -0.00065209912350773741 0 0.0046419022081669809 -0.00010393895243603588 0 0.0049695468610949723 -0.00048851757667785765 0 0.0043179006444924979 -0.00065209912350773741 0 0.0033132762852220495 -0.0002899823729154818 0 0.0034595301768972114 -0.00096727959154481197 0 0.0043179006444924979 -0.00065209912350773741 0 0.0034595301768972114 -0.00096727959154481197 0 0.0043179006444924979 -0.00065209912350773741 0 0.0043402388424858716 -0.0013688574004399889 0 0.0050861280879445402 -0.0018533694319530902 0 0.0043402388424858716 -0.0013688574004399889 0 0.0040132911064079844 -0.0025221101232984328 0 0.0034595301768972114 -0.00096727959154481197 0 0.0035114990308927224 -0.0016423511062413252 0 0.0043402388424858716 -0.0013688574004399889 0 0.0035114990308927224 -0.0016423511062413252 0 0.0043402388424858716 -0.0013688574004399889 0 0.0040132911064079844 -0.0025221101232984328 0 0.0040132911064079844 -0.0025221101232984328 0 0.0044537466524083519 -0.0033872780034893963 0 0.0052759146569080926 -0.0027402062756616036 0 0.0031509575820891983 -0.0030507277333630066 0 0.0040132911064079844 -0.0025221101232984328 0 0.0038090437744836671 -0.0032018600711091246 0 0.0040132911064079844 -0.0025221101232984328 0 0.0038090437744836671 -0.0032018600711091246 0 0.0044537466524083519 -0.0033872780034893963 0 0.0038090437744836671 -0.0032018600711091246 0 0.0036329803575488235 -0.003876701746998946 0 0.0044537466524083519 -0.0033872780034893963 0 0.0036329803575488235 -0.003876701746998946 0 0.0046335920596969468 -0.0044310732366350612 0 0.0044537466524083519 -0.0033872780034893963 0 0.0036329803575488235 -0.003876701746998946 0 0.0046335920596969468 -0.0044310732366350612 0 0.0035773931268319047 -0.00478569837910677 0 0.0046335920596969468 -0.0044310732366350612 0 0.0044537466524083519 -0.0033872780034893963 0 0.005548788958103245 -0.0036758292450524569 0 0.0044537466524083519 -0.0033872780034893963 0 0.005548788958103245 -0.0036758292450524569 0 0.0052759146569080926 -0.0027402062756616036 0 0.0046335920596969468 -0.0044310732366350612 0 0.005548788958103245 -0.0036758292450524569 0 0.0058520292093721619 -0.0047388596959937112 0 0.005548788958103245 -0.0036758292450524569 0 0.0068330357922503169 -0.0039149914808180013 0 0.0058520292093721619 -0.0047388596959937112 0 0.005548788958103245 -0.0036758292450524569 0 0.0063509644780819661 -0.003082254993523209 0 0.0052759146569080926 -0.0027402062756616036 0 0.005548788958103245 -0.0036758292450524569 0 0.0063509644780819661 -0.003082254993523209 0 0.0068330357922503169 -0.0039149914808180013 0 0.0050861280879445402 -0.0018533694319530902 0 0.0052759146569080926 -0.0027402062756616036 0 0.0064925123099290744 -0.002113405696569667 0 0.0063509644780819661 -0.003082254993523209 0 0.0052759146569080926 -0.0027402062756616036 0 0.0064925123099290744 -0.002113405696569667 0 0.0050861280879445402 -0.0018533694319530902 0 0.0040132911064079844 -0.0025221101232984328 0 0.0052759146569080926 -0.0027402062756616036 0 0.0081990964871555081 -0.00092490712817065268 0 0.0064925123099290744 -0.002113405696569667 0 0.0078019248996331267 -0.0026854637284460768 0 0.0064925123099290744 -0.002113405696569667 0 0.0073520025005978954 -0.0031442908390657653 0 0.0078019248996331267 -0.0026854637284460768 0 0.0063509644780819661 -0.003082254993523209 0 0.0064925123099290744 -0.002113405696569667 0 0.0073520025005978954 -0.0031442908390657653 0 0.0073520025005978954 -0.0031442908390657653 0 0.0078019248996331267 -0.0026854637284460768 0 0.0086645105630460632 -0.0040798875959202783 0 0.0095865158098925804 -0.0019228594084047686 0 0.0086889498667522495 -0.0040388642554538843 0 0.0063509644780819661 -0.003082254993523209 0 0.0068330357922503169 -0.0039149914808180013 0 0.0073520025005978954 -0.0031442908390657653 0 0.0068330357922503169 -0.0039149914808180013 0 0.0073520025005978954 -0.0031442908390657653 0 0.0086645105630460632 -0.0040798875959202783 0 0.019054951153534824 -0.0034445134048355589 0 0.01164204066923348 -0.0019016266372235975 0 0.013819990313045111 -0.0049092477488497056 0 0.01164204066923348 -0.0019016266372235975 0 0.011185232249142647 -0.000724609135980574 0 0.0086645105630460632 -0.0040798875959202783 0 0.01164204066923348 -0.0019016266372235975 0 0.013819990313045111 -0.0049092477488497056 0 0.0086645105630460632 -0.0040798875959202783 0 0.0073117070762477969 -0.00078411423988929889 0 0.0095865158098925804 -0.0019228594084047686 0 0.011116242235401337 -0.0010547693592417127 0 0.01164204066923348 -0.0019016266372235975 0 0.011185232249142647 -0.000724609135980574 0 0.011116242235401337 -0.0010547693592417127 0 0.011346887868556086 -0.0016707757513751312 0 0.011185232249142647 -0.000724609135980574 0 0.016577774133405661 -0.0080576368439777193 0 0.013577560446904715 -0.0078983350607433923 0 0.011868466214336119 -0.0098017831641431605 0 0.021070115243970584 -0.0065748550755099326 0 0.019210094034468654 -0.0077506804636521343 0 0.025238472918438559 -0.0055249039508365166 0 0.025961783196800446 -0.0049956418893864016 0 0.027094704877052733 -0.00491073336327447 0 0.025202480741577694 -0.0051098438023155831 0 0.025238472918438559 -0.0055249039508365166 0 0.025961783196800446 -0.0049956418893864016 0 0.018589123973752154 -0.0060279620998052357 0 0.016577774133405661 -0.0080576368439777193 0 0.013577560446904715 -0.0078983350607433923 0 0.018142903735358623 -0.0061012212496408596 0 0.012167815435320323 -0.0074880044734658528 0 0.018589123973752154 -0.0060279620998052357 0 0.01007515786018765 -0.0073592586199095218 0 0.013819990313045111 -0.0049092477488497056 0 0.01007515786018765 -0.0073592586199095218 0 0.013819990313045111 -0.0049092477488497056 0 0.0086645105630460632 -0.0040798875959202783 0 0.01007515786018765 -0.0073592586199095218 0 0.0068323034991962916 -0.0054416319877526927 0 0.0058216086664562867 -0.0069925900209335109 0 0.01007515786018765 -0.0073592586199095218 0 0.0086645105630460632 -0.0040798875959202783 0 0.0068323034991962916 -0.0054416319877526927 0 0.0068330357922503169 -0.0039149914808180013 0 0.0086645105630460632 -0.0040798875959202783 0 0.0068323034991962916 -0.0054416319877526927 0 0.013577560446904715 -0.0078983350607433923 0 0.011868466214336119 -0.0098017831641431605 0 0.010330031656740037 -0.0090345814166346659 0 0.025961783196800446 -0.0049956418893864016 0 0.027094704877052733 -0.00491073336327447 0 0.027101494019625413 -0.0045540996380319422 0 0.012167815435320323 -0.0074880044734658528 0 0.0078031264331024598 -0.0082244086328297772 0 0.011868466214336119 -0.0098017831641431605 0 0.010330031656740037 -0.0090345814166346659 0 0.0088512378888395034 -0.010911258867971296 0 0.0068323034991962916 -0.0054416319877526927 0 0.0058216086664562867 -0.0069925900209335109 0 0.0051806208030157983 -0.0055884902302544741 0 0.0058216086664562867 -0.0069925900209335109 0 0.0051806208030157983 -0.0055884902302544741 0 0.0041477145027606225 -0.0061005209077288581 0 0.0068330357922503169 -0.0039149914808180013 0 0.0068323034991962916 -0.0054416319877526927 0 0.0058520292093721619 -0.0047388596959937112 0 0.0068323034991962916 -0.0054416319877526927 0 0.0058520292093721619 -0.0047388596959937112 0 0.0051806208030157983 -0.0055884902302544741 0 0.0046335920596969468 -0.0044310732366350612 0 0.0058520292093721619 -0.0047388596959937112 0 0.0051806208030157983 -0.0055884902302544741 0 0.0051806208030157983 -0.0055884902302544741 0 0.004252027946669729 -0.0052215994039112312 0 0.0041477145027606225 -0.0061005209077288581 0 0.0046335920596969468 -0.0044310732366350612 0 0.0051806208030157983 -0.0055884902302544741 0 0.004252027946669729 -0.0052215994039112312 0 0.004252027946669729 -0.0052215994039112312 0 0.0035773931268319047 -0.00478569837910677 0 0.0030970920151915881 -0.0054094195387819803 0 0.0046335920596969468 -0.0044310732366350612 0 0.004252027946669729 -0.0052215994039112312 0 0.0035773931268319047 -0.00478569837910677 0 0.004252027946669729 -0.0052215994039112312 0 0.0041477145027606225 -0.0061005209077288581 0 0.0030970920151915881 -0.0054094195387819803 0 0.010330031656740037 -0.0090345814166346659 0 0.007860134276846736 -0.0097207613370611165 0 0.0088512378888395034 -0.010911258867971296 0 0.0041477145027606225 -0.0061005209077288581 0 0.0036972116526745348 -0.0070367043991306456 0 0.0031534395694586669 -0.006237198450769219 0 0.0058216086664562867 -0.0069925900209335109 0 0.0041477145027606225 -0.0061005209077288581 0 0.0036972116526745348 -0.0070367043991306456 0 0.0078031264331024598 -0.0082244086328297772 0 0.00724763169335251 -0.0070732748642967766 0 0.024940258446561836 -0.001722748623100089 0 0.024727710536929546 -0.0032660062718960388 0 0.023160576038484502 -0.0024989137908460837 0 0.018492767996569782 -0.0055267767233039148 0 0.018155534426327224 -0.0035830570068327689 0 0.012851188736622518 -0.0038838655608851632 0 0.013510369838279284 -0.0046190392109481697 0 0.012282278030737455 -0.005137014255801842 0 0.00724763169335251 -0.0070732748642967766 0 0.018492767996569782 -0.0055267767233039148 0 0.024940258446561836 -0.001722748623100089 0 0.024727710536929546 -0.0032660062718960388 0 0.026504074871929708 -0.0035112575395271272 0 0.023960321613187577 -0.0043284951794701374 0 0.024727710536929546 -0.0032660062718960388 0 0.023160576038484502 -0.0024989137908460837 0 0.023960321613187577 -0.0043284951794701374 0 0.025310314924488451 -0.0044511939685254465 0 0.024727710536929546 -0.0032660062718960388 0 0.025310314924488451 -0.0044511939685254465 0 0.024727710536929546 -0.0032660062718960388 0 0.026504074871929708 -0.0035112575395271272 0 0.018492767996569782 -0.0055267767233039148 0 0.027616749795540838 -0.0044179978625103998 0 0.026562515365403098 -0.0047427553284592645 0 0.026838462774797792 -0.005247888685551593 0 0.026979486193660428 -0.0048140601933534923 0 0.027094704877052733 -0.00491073336327447 0 0.026562515365403098 -0.0047427553284592645 0 0.026979486193660428 -0.0048140601933534923 0 0.019210094034468654 -0.0077506804636521343 0 0.018492767996569782 -0.0055267767233039148 0 0.027094704877052733 -0.00491073336327447 0 0.027101494019625413 -0.0045540996380319422 0 0.026979486193660428 -0.0048140601933534923 0 0.027101494019625413 -0.0045540996380319422 0 0.026979486193660428 -0.0048140601933534923 0 0.027411242688212413 -0.005155840031701598 0 0.027633212985379109 -0.0060279754006285283 0 0.026838462774797792 -0.005247888685551593 0 0.027411242688212413 -0.005155840031701598 0 0.027633212985379109 -0.0060279754006285283 0 0.027411242688212413 -0.005155840031701598 0 0.02820308008386592 -0.0054837856336026848 0 0.026838462774797792 -0.005247888685551593 0 0.026979486193660428 -0.0048140601933534923 0 0.027411242688212413 -0.005155840031701598 0 0.027411242688212413 -0.005155840031701598 0 0.02820308008386592 -0.0054837856336026848 0 0.028063076748338547 -0.0050285099588383902 0 0.028743464771169919 -0.0051983681076266317 0 0.02820308008386592 -0.0054837856336026848 0 0.028063076748338547 -0.0050285099588383902 0 0.026914126215313625 -0.0047432429821596348 0 0.027054272513502776 -0.0045617411999177779 0 0.024847535192253026 -0.0047910674476514606 0 0.025961783196800446 -0.0049956418893864016 0 0.027101494019625413 -0.0045540996380319422 0 0.028935675936209194 -0.0045835876450639312 0 0.027101494019625413 -0.0045540996380319422 0 0.028063076748338547 -0.0050285099588383902 0 0.027101494019625413 -0.0045540996380319422 0 0.027411242688212413 -0.005155840031701598 0 0.028063076748338547 -0.0050285099588383902 0 0.0027453336017738573 -0.0030651266181990116 0 0.0022719709375283274 -0.0035412011424302515 0 0.0021707836262845185 -0.0027054204583932661 0 0.0027453336017738573 -0.0030651266181990116 0 0.0034937864437149025 -0.0030184930399809371 0 0.0028963760443719909 -0.0024649824593376917 0 0.0027453336017738573 -0.0030651266181990116 0 0.0034937864437149025 -0.0030184930399809371 0 0.0029585556963106279 -0.0035801917160104787 0 0.0043378603197184971 -0.0030161930838146288 0 0.0028672402185221618 -0.0036387559574775513 0 0.0041582896329424917 -0.0023994789027680145 0 0.0039260314322291856 -0.0035118845807212301 0 0.0044663582545538287 -0.0029514715880425181 0 0.0035033329892037372 -0.0029387117101258493 0 0.003310593934626284 -0.003863109804319846 0 0.0029585556963106279 -0.0035801917160104787 0 0.0043378603197184971 -0.0030161930838146288 0 0.0024655925411931228 -0.0034424537453286294 0 0.0027453336017738573 -0.0030651266181990116 0 0.0029585556963106279 -0.0035801917160104787 0 0.0022719709375283274 -0.0035412011424302515 0 0.003310593934626284 -0.003863109804319846 0 0.0029585556963106279 -0.0035801917160104787 0 0.0022719709375283274 -0.0035412011424302515 0 0.0011939903823907231 -0.0034512493001269432 0 0.0019852686397790914 -0.003334127387987751 0 0.0022719709375283274 -0.0035412011424302515 0 0.0017506526169432486 -0.0031186715300773617 0 0.0011939903823907231 -0.0034512493001269432 0 0.0019852686397790914 -0.003334127387987751 0 0.0024655925411931228 -0.0034424537453286294 0 0.0021821485557100228 -0.003597778237295905 0 0.0019852686397790914 -0.003334127387987751 0 0.0022335281613527305 -0.0035933174374095369 0 0.0022719709375283274 -0.0035412011424302515 0 0.00189525014940264 -0.0034206224564205345 0 0.0017143256795504325 -0.0045345995613533261 0 0.0018919570875692716 -0.0046932657436661723 0 0.0023668499921991231 -0.0042347324945343299 0 0.0023407168750059115 -0.0050291591344459935 0 0.0016190361301555835 -0.0055587214023644612 0 0.0023407168750059115 -0.0050291591344459935 0 0.0016190361301555835 -0.0055587214023644612 0 0.0024797377511706314 -0.0057306953133229657 0 0.0016190361301555835 -0.0055587214023644612 0 0.0024797377511706314 -0.0057306953133229657 0 0.0024221477030267145 -0.0064281355462699492 0 0.0028825193189003632 -0.0045791589616061956 0 0.0035773931268319047 -0.00478569837910677 0 0.0030970920151915881 -0.0054094195387819803 0 0.0028825193189003632 -0.0045791589616061956 0 0.0026987408589950021 -0.0051902838257161478 0 0.0030970920151915881 -0.0054094195387819803 0 0.0028825193189003632 -0.0045791589616061956 0 0.0023668499921991231 -0.0042347324945343299 0 0.0023407168750059115 -0.0050291591344459935 0 0.0028825193189003632 -0.0045791589616061956 0 0.0023407168750059115 -0.0050291591344459935 0 0.0026987408589950021 -0.0051902838257161478 0 0.0026987408589950021 -0.0051902838257161478 0 0.0024797377511706314 -0.0057306953133229657 0 0.0030970920151915881 -0.0054094195387819803 0 0.0024797377511706314 -0.0057306953133229657 0 0.0030970920151915881 -0.0054094195387819803 0 0.0031534395694586669 -0.006237198450769219 0 0.0023407168750059115 -0.0050291591344459935 0 0.0026987408589950021 -0.0051902838257161478 0 0.0024797377511706314 -0.0057306953133229657 0 0.0041477145027606225 -0.0061005209077288581 0 0.0030970920151915881 -0.0054094195387819803 0 0.0031534395694586669 -0.006237198450769219 0 0.0037206359686072525 -0.006855906220008581 0 0.0031534395694586669 -0.006237198450769219 0 0.0024221477030267145 -0.0064281355462699492 0 0.00724763169335251 -0.0070732748642967766 0 0.0064267645770560858 -0.0047825115411001748 0 0.0037206359686072525 -0.006855906220008581 0 0.0024221477030267145 -0.0064281355462699492 0 0.0016226022937840972 -0.0075034355330982141 0 0.00724763169335251 -0.0070732748642967766 0 0.0037874237200624179 -0.0056029899477497763 0 0.0024797377511706314 -0.0057306953133229657 0 0.0031534395694586669 -0.006237198450769219 0 0.0024221477030267145 -0.0064281355462699492 0 0.0016190361301555835 -0.0055587214023644612 0 0.0024221477030267145 -0.0064281355462699492 0 0.0016226022937840972 -0.0075034355330982141 0 0.0013260689067713409 -0.0055538070627735373 0 0.0064267645770560858 -0.0047825115411001748 0 0.0017143256795504325 -0.0045345995613533261 0 0.0018919570875692716 -0.0046932657436661723 0 0.0020839123650183721 -0.0058025474348836975 0 0.0022335281613527305 -0.0035933174374095369 0 0.0022719709375283274 -0.0035412011424302515 0 0.0021707836262845185 -0.0027054204583932661 0 0.0014327122229001981 -0.0038693809788211018 0 0.0064267645770560858 -0.0047825115411001748 0 0.010555491750723222 -0.004023083865098441 0 0.01062246608207903 -0.0034551175416864745 0 0.010811481204516785 -0.0037893413178140796 0 0.0064267645770560858 -0.0047825115411001748 0 0.014874151231310081 -0.0038974235779319312 0 0.011700607667010459 -0.0046119014523639881 0 0.012282278030737455 -0.005137014255801842 0 0.011180764272430584 -0.0052561986275218679 0 0.011066059836679666 -0.004409813163825986 0 0.011078698347135154 -0.0056562605773363799 0 0.011180764272430584 -0.0052561986275218679 0 0.011094979937443844 -0.0044174283122913431 0 0.011700607667010459 -0.0046119014523639881 0 0.011180764272430584 -0.0052561986275218679 0 0.0064267645770560858 -0.0047825115411001748 0 0.01022587078508398 -0.005170241277123116 0 0.012851188736622518 -0.0038838655608851632 0 0.011094979937443844 -0.0044174283122913431 0 0.011700607667010459 -0.0046119014523639881 0 0.012851188736622518 -0.0038838655608851632 0 0.011700607667010459 -0.0046119014523639881 0 0.012282278030737455 -0.005137014255801842 0 0.022467493369486041 -0.0045675414573467582 0 0.023960321613187577 -0.0043284951794701374 0 0.023160576038484502 -0.0024989137908460837 0 0.018155534426327224 -0.0035830570068327689 0 0.014874151231310081 -0.0038974235779319312 0 0.022467493369486041 -0.0045675414573467582 0 0.023160576038484502 -0.0024989137908460837 0 0.021362534254941595 -0.0032831326521746899 0 0.012282278030737455 -0.005137014255801842 0 0.011078698347135154 -0.0056562605773363799 0 0.011180764272430584 -0.0052561986275218679 0 0.01062246608207903 -0.0034551175416864745 0 0.010811481204516785 -0.0037893413178140796 0 0.011213126380812987 -0.0035426650837612284 0 0.011375843361818478 -0.0031302046931457965 0 0.01062246608207903 -0.0034551175416864745 0 0.011213126380812987 -0.0035426650837612284 0 0.016249160796930999 -0.0041502481142953592 0 0.014874151231310081 -0.0038974235779319312 0 0.0064267645770560858 -0.0047825115411001748 0 0.0070114022482724893 -0.0031288914860873561 0 0.0027453336017738573 -0.0030651266181990116 0 0.0021707836262845185 -0.0027054204583932661 0 0.0028963760443719909 -0.0024649824593376917 0 0.010555491750723222 -0.004023083865098441 0 0.010811481204516785 -0.0037893413178140796 0 0.011103462180632245 -0.0038855885079336493 0 0.010811481204516785 -0.0037893413178140796 0 0.011103462180632245 -0.0038855885079336493 0 0.011213126380812987 -0.0035426650837612284 0 0.0034937864437149025 -0.0030184930399809371 0 0.0028963760443719909 -0.0024649824593376917 0 0.0036914432526887198 -0.0022327040170272519 0 0.0070114022482724893 -0.0031288914860873561 0 0.0078539660991271947 -0.0024845771791218939 0 0.011103462180632245 -0.0038855885079336493 0 0.011631632741174985 -0.0037274769368557887 0 0.011213126380812987 -0.0035426650837612284 0 0.0043378603197184971 -0.0030161930838146288 0 0.0078539660991271947 -0.0024845771791218939 0 0.011631632741174985 -0.0037274769368557887 0 0.011213126380812987 -0.0035426650837612284 0 0.01174100026197512 -0.0032968073950364399 0 0.011375843361818478 -0.0031302046931457965 0 0.011213126380812987 -0.0035426650837612284 0 0.01174100026197512 -0.0032968073950364399 0 0.016249160796930999 -0.0041502481142953592 0 0.012223005708687696 -0.0031769612315118495 0 0.010012229877333986 -0.0028694010033732268 0 0.010097576462502676 -0.0025268806109567982 0 0.010384934717671547 -0.0027649587044529071 0 0.012223005708687696 -0.0031769612315118495 0 0.012118909424379872 -0.0024983986833610168 0 0.010097576462502676 -0.0025268806109567982 0 0.010379689415836174 -0.0026503216231833992 0 0.010384934717671547 -0.0027649587044529071 0 0.0078539660991271947 -0.0024845771791218939 0 0.012223005708687696 -0.0031769612315118495 0 0.015368875269189569 -0.0028456979693228697 0 0.015180388874599837 -0.0029835554923000412 0 0.015214712707413642 -0.002999262150360834 0 0.012896203898300337 -0.0018301532881869189 0 0.011473500114593716 -0.0017915275014883018 0 0.011794180763937234 -0.001272614777177983 0 0.011096266475273436 -0.0020872305869738482 0 0.011517224855823054 -0.0021210585916848546 0 0.012896203898300337 -0.0018301532881869189 0 0.010246046835272879 -0.0015293301366053396 0 0.0072662986579248873 -0.0013394690855588955 0 0.0075499309046389573 -0.0012586701762745765 0 0.0075907763537757999 -0.0015599708866509887 0 0.012118909424379872 -0.0024983986833610168 0 0.0089597120808553501 -0.0017941936281721334 0 0.010403872205985893 -0.0016802903899787206 0 0.01048127177318183 -0.0017137841583814907 0 0.01040824396031345 -0.0017965106293017165 0 0.012118909424379872 -0.0024983986833610168 0 0.011473500114593716 -0.0017915275014883018 0 0.011473500114593716 -0.0017915275014883018 0 0.0089597120808553501 -0.0017941936281721334 0 0.010173835178661481 -0.0012372069902165826 0 0.0098626584034240492 -0.001608156329645121 0 0.010561081553907099 -0.0014066966450720529 0 0.0089597120808553501 -0.0017941936281721334 0 0.0098346652555708156 -0.0014747681345887759 0 0.011096266475273436 -0.0020872305869738482 0 0.0113066154073611 -0.0021805111271256086 0 0.011517224855823054 -0.0021210585916848546 0 0.011473500114593716 -0.0017915275014883018 0 0.0098346652555708156 -0.0014747681345887759 0 0.0098346652555708156 -0.0014747681345887759 0 0.010246046835272879 -0.0015293301366053396 0 0.0076513730935047443 -0.00061515410626687467 0 0.0076658600278096027 -0.00057201740306977555 0 0.0075920733667632903 -0.00054139053308063876 0 0.0095614461551542171 -0.0017650556022803243 0 0.0098515716085111425 -0.0016823249398809563 0 0.009793339544130546 -0.0018669281517936769 0 0.0075499309046389573 -0.0012586701762745765 0 0.0076750716136033351 -0.0013133581025237876 0 0.0075907763537757999 -0.0015599708866509887 0 0.0098346652555708156 -0.0014747681345887759 0 0.0091196822113747723 -0.0011228109073119338 0 0.010246046835272879 -0.0015293301366053396 0 0.0091196822113747723 -0.0011228109073119338 0 0.0091196822113747723 -0.0011228109073119338 0 0.0084081751067038163 -0.00082342850685355573 0 0.0051232576734941832 -0.00085931069875917092 0 0.0052100584138598085 -0.0016905988893167884 0 0.0056258538481994327 -0.0010743316909549892 0 0.0070694558275177363 -0.0013004366531244502 0 0.0052922630076268186 -0.0023428800603448635 0 0.0072662986579248873 -0.0013394690855588955 0 0.0075907763537757999 -0.0015599708866509887 0 0.0072444404687673188 -0.0025467793153771145 0 0.0089597120808553501 -0.0017941936281721334 0 0.0052922630076268186 -0.0023428800603448635 0 0.0070694558275177363 -0.0013004366531244502 0 0.0050921515290144699 -0.00063702018139154325 0 0.0075920733667632903 -0.00054139053308063876 0 0.0076903532862799325 -0.00046933395290368256 0 0.0074896120909342615 -0.00038369676635818139 0 0.0076614581752615157 -0.00057307244293725577 0 0.0075920733667632903 -0.00054139053308063876 0 0.0076903532862799325 -0.00046933395290368256 0 0.0091196822113747723 -0.0011228109073119338 0 0.0070694558275177363 -0.0013004366531244502 0 0.0037767162690609999 -0.0012809409309734415 0 0.0050921515290144699 -0.00063702018139154325 0 0.0059700304942347402 -0.0037151575547998135 0 0.0063579992957576194 -0.0018155774649026659 0 0.0069620915921394765 -0.0025534274096755084 0 0.0052692097571075385 -0.0011351003838335973 0 0.004701744089985551 -0.0017746868298060125 0 0.0052467055972618623 -0.0026939112366501099 0 0.0063579992957576194 -0.0018155774649026659 0 0.0079771201866337283 -0.0013598177877172698 0 0.0069620915921394765 -0.0025534274096755084 0 0.0078539660991271947 -0.0024845771791218939 0 0.0089597120808553501 -0.0017941936281721334 0 0.0089597120808553501 -0.0017941936281721334 0 0.0058074694623062332 -0.002275791963369426 0 0.0043378603197184971 -0.0030161930838146288 0 0.0058074694623062332 -0.002275791963369426 0 0.0041582896329424917 -0.0023994789027680145 0 0.004701744089985551 -0.0017746868298060125 0 0.0046673341339709355 -0.002643087557865866 0 0.004701744089985551 -0.0017746868298060125 0 0.0046673341339709355 -0.002643087557865866 0 0.0052467055972618623 -0.0026939112366501099 0 0.0041582896329424917 -0.0023994789027680145 0 0.0046673341339709355 -0.002643087557865866 0 0.0044663582545538287 -0.0029514715880425181 0 0.0046673341339709355 -0.002643087557865866 0 0.0044663582545538287 -0.0029514715880425181 0 0.0049135746762719781 -0.0029401611381028934 0 0.0046673341339709355 -0.002643087557865866 0 0.0052467055972618623 -0.0026939112366501099 0 0.0049135746762719781 -0.0029401611381028934 0 0.0052467055972618623 -0.0026939112366501099 0 0.0049135746762719781 -0.0029401611381028934 0 0.0051625578259982957 -0.0029299775708007082 0 0.0018564756378228674 -0.0014659489267920993 0 0.0019210194188772464 -0.0013702756307230159 0 0.0027629347357819001 -0.00091724744620995955 0 0.0051232576734941832 -0.00085931069875917092 0 0.0052100584138598085 -0.0016905988893167884 0 0.004764916820546485 -0.0019559242362993329 0 0.002343397507813207 -0.00074051216475573903 0 0.0027629347357819001 -0.00091724744620995955 0 0.0027682810402582946 -0.00079183039855294953 0 0.002343397507813207 -0.00074051216475573903 0 0.0019210194188772464 -0.0013702756307230159 0 0.0027629347357819001 -0.00091724744620995955 0 0.0037767162690609999 -0.0012809409309734415 0 0.0035166442429737971 -0.0019705640256449403 0 0.0052100584138598085 -0.0016905988893167884 0 0.004764916820546485 -0.0019559242362993329 0 0.0048455505977520437 -0.0022260182241462291 0 0.0052922630076268186 -0.0023428800603448635 0 0.0034699357807700744 -0.0021845481841429727 0 0.0052922630076268186 -0.0023428800603448635 0 0.0052167724200876363 -0.0026190686580809105 0 0.0018564756378228674 -0.0014659489267920993 0 0.002179939688094725 -0.0023346970032400122 0 0.0018454958144205594 -0.0022458939647473928 0 0.005238638158563862 -0.002690236805670816 0 0.0052688137405864973 -0.0030943621530043095 0 0.0051625578259982957 -0.0029299775708007082 0 0.0007890871914810431 -0.00075844991618732719 0 0.00043342972760800248 -0.001628727313572869 0 0.00076045751219961722 -0.0017153195896793558 0 0.0018564756378228674 -0.0014659489267920993 0 0.0027629347357819001 -0.00091724744620995955 0 0.002179939688094725 -0.0023346970032400122 0 0.0013008860692651282 -0.00071918243131365272 0 0.00071206226631844176 -0.0018191714279673147 0 0.004764916820546485 -0.0019559242362993329 0 0.0047893722982054708 -0.002307520747380323 0 0.0048455505977520437 -0.0022260182241462291 0 0.0034699357807700744 -0.0021845481841429727 0 0.0035166442429737971 -0.0019705640256449403 0 0.0034699357807700744 -0.0021845481841429727 0 0.0013163896808731524 -0.0022884307601776944 0 0.0024655925411931228 -0.0034424537453286294 0 0.0023415015852113448 -0.0029477036508849504 0 0.0034699357807700744 -0.0021845481841429727 0 0.0016912219274823159 -0.0028055932607074486 0 0.0039260314322291856 -0.0035118845807212301 0 0.0046656933238202183 -0.0032605675799757382 0 0.0048208174186881655 -0.0037455791461034529 0 0.0023932433187196325 -0.0021024822492801331 0 0.0021102649767422163 -0.0026313580280032329 0 0.0023824231453120721 -0.0027029092654277339 0 0.0030810212845620742 -0.001919891535360067 0 0.0023847574673063906 -0.0032407616319998153 0 0.0022188478202206418 -0.0031968325876865866 0 0.0034699357807700744 -0.0021845481841429727 0 0.0023415015852113448 -0.0029477036508849504 0 0.0052688137405864973 -0.0030943621530043095 0 0.0046656933238202183 -0.0032605675799757382 0 0.0048208174186881655 -0.0037455791461034529 0 0.0044663582545538287 -0.0029514715880425181 0 0.0046656933238202183 -0.0032605675799757382 0 0.0049135746762719781 -0.0029401611381028934 0 0.0039260314322291856 -0.0035118845807212301 0 0.0044663582545538287 -0.0029514715880425181 0 0.0046656933238202183 -0.0032605675799757382 0 0.0052688137405864973 -0.0030943621530043095 0 0.0046656933238202183 -0.0032605675799757382 0 0.0049135746762719781 -0.0029401611381028934 0 0.0052688137405864973 -0.0030943621530043095 0 0.0049135746762719781 -0.0029401611381028934 0 0.0051625578259982957 -0.0029299775708007082 0 0.00088831990506373581 -0.0010213835268041071 0 3.8442409911309739e-05 -0.00093396943050140882 0 0.00031357755310077286 -0.0013494500347216282 0 0.00088831990506373581 -0.0010213835268041071 0 3.8442409911309739e-05 -0.00093396943050140882 0 0.00062298897522540043 6.6037478512833203e-05 0 3.8442409911309739e-05 -0.00093396943050140882 0 -0.00032223767819262956 -0.00027542850832793111 0 -0.00037885120944770477 -0.0016321477044513415 0 0.0013008860692651282 -0.00071918243131365272 0 -0.00016423003222264563 -0.0015403050434316654 0 3.8442409911309739e-05 -0.00093396943050140882 0 -0.00037885120944770477 -0.0016321477044513415 0 0.00031357755310077286 -0.0013494500347216282 0 -0.00032223767819262956 -0.00027542850832793111 0 0.00069225725573102863 0.00011824771138901506 0 -2.6073758448206565e-05 0.00042589388923638239 0 3.8442409911309739e-05 -0.00093396943050140882 0 -0.00032223767819262956 -0.00027542850832793111 0 0.00069225725573102863 0.00011824771138901506 0 0.0013008860692651282 -0.00071918243131365272 0 0.0013742231778881564 -0.00073619494309675522 0 0.0027638715245604122 -0.00091849753768528334 0 0.0027682810402582946 -0.00079183039855294953 0 0.0030997976786741725 -0.00010776318444122076 0 0.002343397507813207 -0.00074051216475573903 0 0.0027682810402582946 -0.00079183039855294953 0 0.0027992569873764458 -0.0004010638074199632 0 0.0013008860692651282 -0.00071918243131365272 0 0.0024932861314348282 0.00029525624876435843 0 0.0027682810402582946 -0.00079183039855294953 0 0.0027992569873764458 -0.0004010638074199632 0 0.0030997976786741725 -0.00010776318444122076 0 -0.00023299870437920608 -0.0011008413644087887 0 0.0016832892629567513 0.00045806654018052724 0 0.0016832892629567513 0.00045806654018052724 0 0.0032883214152311813 0.0014300622563848181 0 0.0031037609537758921 0.0010849831744699147 0 0.0030694444372914294 0.001374910943078947 0 0.0033327571414994042 0.0014868610631281066 0 0.0016832892629567513 0.00045806654018052724 0 0.0024932861314348282 0.00029525624876435843 0 0.0031037609537758921 0.0010849831744699147 0 0.0030694444372914294 0.001374910943078947 0 0.0028053858811776934 0.0012142710675262234 0 0.0030694444372914294 0.001374910943078947 0 0.0028053858811776934 0.0012142710675262234 0 0.002987373632901654 0.0016377181676412382 0 0.0044559422341576621 -0.00079405498886835036 0 0.0049135710311345405 -0.00098904914073773146 0 0.0057587363214994464 0.001047861689489624 0 0.002343397507813207 -0.00074051216475573903 0 0.0028409490443554565 2.1751959303670488e-06 0 0.0027992569873764458 -0.0004010638074199632 0 0.0050921515290144699 -0.00063702018139154325 0 0.0024932861314348282 0.00029525624876435843 0 0.0028409490443554565 2.1751959303670488e-06 0 0.0027992569873764458 -0.0004010638074199632 0 0.0030997976786741725 -0.00010776318444122076 0 0.0050921515290144699 -0.00063702018139154325 0 0.0070819991754947041 0.00037362796670012595 0 0.012121037005956665 -0.0020654185992464691 0 0.012377892689378256 -0.0018699548073932144 0 0.012528987324131128 -0.0019548270926085277 0 0.0024932861314348282 0.00029525624876435843 0 0.0070819991754947041 0.00037362796670012595 0 0.010246046835272879 -0.0015293301366053396 0 0.0070819991754947041 0.00037362796670012595 0 0.0076513730935047443 -0.00061515410626687467 0 0.0075920733667632903 -0.00054139053308063876 0 0.0072632636943370061 -0.00070617381105379231 0 0.0075920733667632903 -0.00054139053308063876 0 0.0074896120909342615 -0.00038369676635818139 0 0.0072632636943370061 -0.00070617381105379231 0 0.012377892689378256 -0.0018699548073932144 0 0.012528987324131128 -0.0019548270926085277 0 0.012543598494918842 -0.0019243463840783624 0 0.012232340919899812 -0.0017816588204217392 0 0.012121037005956665 -0.0020654185992464691 0 0.012377892689378256 -0.0018699548073932144 0 0.0020511472460113724 0.0018397804136929751 0 0.006732804389027491 7.6853202656817547e-05 0 0.0034052315246962507 0.0017897800058641511 0 0.0031998273806467725 0.0015741571404734708 0 0.0030014263613020948 0.0016710694850515149 0 0.0030694444372914294 0.001374910943078947 0 0.0031998273806467725 0.0015741571404734708 0 0.0033327571414994042 0.0014868610631281066 0 0.0030694444372914294 0.001374910943078947 0 0.002987373632901654 0.0016377181676412382 0 0.0030014263613020948 0.0016710694850515149 0 0.0030694444372914294 0.001374910943078947 0 0.0031998273806467725 0.0015741571404734708 0 0.0030014263613020948 0.0016710694850515149 0 0.0070819991754947041 0.00037362796670012595 0 0.006732804389027491 7.6853202656817547e-05 0 0.0035373674692360693 0.0018913916074945823 0 0.0034052315246962507 0.0017897800058641511 0 0.0033327571414994042 0.0014868610631281066 0 0.0034142931698610012 0.0017809846831730045 0 0.0032883214152311813 0.0014300622563848181 0 0.0033329675250953288 0.0017247290981469282 0 0.0029569071094563883 0.0011334470089004386 0 0.0034079051868440508 0.0012817156170793396 0 0.0029569071094563883 0.0011334470089004386 0 0.0034079051868440508 0.0012817156170793396 0 0.0035970332822284948 0.00085533850101842746 0 0.0034052315246962507 0.0017897800058641511 0 0.0031998273806467725 0.0015741571404734708 0 0.0033327571414994042 0.0014868610631281066 0 0.0036693257526735218 0.0016254946646704716 0 0.0034079051868440508 0.0012817156170793396 0 0.0040005325990147226 0.0014483484933299063 0 0.0032683953529584267 0.00064671076901376889 0 0.0036944196761711217 0.0012378952192068911 0 0.0034079051868440508 0.0012817156170793396 0 0.0035970332822284948 0.00085533850101842746 0 0.0040005325990147226 0.0014483484933299063 0 0.0032683953529584267 0.00064671076901376889 0 0.0021319057948886873 -0.00015776521652251468 0 0.0035970332822284948 0.00085533850101842746 0 0.0030208213321709573 0.00068449729901522746 0 0.0031620407872186467 0.00025597807305778597 0 0.0029569071094563883 0.0011334470089004386 0 0.0035970332822284948 0.00085533850101842746 0 0.0030208213321709573 0.00068449729901522746 0 0.0025743102023998684 0.00050732345448395737 0 0.0029569071094563883 0.0011334470089004386 0 0.0030208213321709573 0.00068449729901522746 0 0.0043439986441292247 0.0016683804912964277 0 0.0041946611200608898 0.00057600238986825914 0 0.003392462845431292 0.0010600116966421335 0 0.0043161397960140768 0.0016124215848738019 0 0.0043786940550587699 0.00059602477044002852 0 0.0027815463693020631 0.00033642136566534891 0 0.003392462845431292 0.0010600116966421335 0 0.0035211363612282802 -3.9579689220886731e-05 0 0.0041946611200608898 0.00057600238986825914 0 0.003392462845431292 0.0010600116966421335 0 0.0035211363612282802 -3.9579689220886731e-05 0 0.004192908434848432 -0.00032435178174108708 0 0.0041946611200608898 0.00057600238986825914 0 0.0035211363612282802 -3.9579689220886731e-05 0 0.0044147028094388367 -0.00040233166392440826 0 0.0043786940550587699 0.00059602477044002852 0 0.004192908434848432 -0.00032435178174108708 0 0.0035211363612282802 -3.9579689220886731e-05 0 0.0035247191723717982 -0.00099881211149100433 0 0.0027815463693020631 0.00033642136566534891 0 0.0035211363612282802 -3.9579689220886731e-05 0 0.0029991279805912257 -0.00066029042258921537 0 0.0035211363612282802 -3.9579689220886731e-05 0 0.0035247191723717982 -0.00099881211149100433 0 0.0029991279805912257 -0.00066029042258921537 0 0.0035247191723717982 -0.00099881211149100433 0 0.0023568739887424787 -0.00060010826702932803 0 0.0022826516884403045 -0.0014924576467167966 0 0.0034876860586927965 -0.0009780227584783236 0 0.002649799331332216 -0.00063987936407178974 0 0.004192908434848432 -0.00032435178174108708 0 0.0044729729109622461 -0.0014239053079101709 0 0.0035247191723717982 -0.00099881211149100433 0 0.0025743102023998684 0.00050732345448395737 0 0.0030208213321709573 0.00068449729901522746 0 0.0031620407872186467 0.00025597807305778597 0 0.0016832892629567513 0.00045806654018052724 0 0.0021319057948886873 -0.00015776521652251468 0 0.00088831990506373581 -0.0010213835268041071 0 0.00062298897522540043 6.6037478512833203e-05 0 0.001439316813652509 -0.00028019908991542186 0 0.0027815463693020631 0.00033642136566534891 0 0.0022753147858491332 -0.00033842619278283398 0 0.0029991279805912257 -0.00066029042258921537 0 0.0021319057948886873 -0.00015776521652251468 0 0.002649799331332216 -0.00063987936407178974 0 0.0014170375102273154 -0.00024485568709751602 0 0.0023568739887424787 -0.00060010826702932803 0 0.001592852321873586 -0.0011998397505403992 0 0.0023568739887424787 -0.00060010826702932803 0 0.001592852321873586 -0.0011998397505403992 0 0.0022826516884403045 -0.0014924576467167966 0 0.00088831990506373581 -0.0010213835268041071 0 0.0014170375102273154 -0.00024485568709751602 0 0.001592852321873586 -0.0011998397505403992 0 0.00078392752907040317 -0.0010756893886668785 0 0.0021319057948886873 -0.00015776521652251468 0 0.00088831990506373581 -0.0010213835268041071 0 0.001592852321873586 -0.0011998397505403992 0 0.00088146003287706287 -0.0016144282875138545 0 0.001592852321873586 -0.0011998397505403992 0 0.0015579999890513233 -0.0021861358912998274 0 0.00088146003287706287 -0.0016144282875138545 0 0.0015579999890513233 -0.0021861358912998274 0 0.00088146003287706287 -0.0016144282875138545 0 0.00085129129337006154 -0.0021671725030228896 0 0.001592852321873586 -0.0011998397505403992 0 0.0022826516884403045 -0.0014924576467167966 0 0.0015579999890513233 -0.0021861358912998274 0 0.0022826516884403045 -0.0014924576467167966 0 0.0015579999890513233 -0.0021861358912998274 0 0.0026234175464260774 -0.0023331430182848608 0 0.0015579999890513233 -0.0021861358912998274 0 0.0026234175464260774 -0.0023331430182848608 0 0.0017934252666141686 -0.0031530256500172881 0 0.0015579999890513233 -0.0021861358912998274 0 0.00089549762812408257 -0.0029826868526664574 0 0.00085129129337006154 -0.0021671725030228896 0 0.0035247191723717982 -0.00099881211149100433 0 0.0026234175464260774 -0.0023331430182848608 0 0.0037676157914537461 -0.0022940612945750042 0 0.0044729729109622461 -0.0014239053079101709 0 0.0035247191723717982 -0.00099881211149100433 0 0.0037676157914537461 -0.0022940612945750042 0 0.0035247191723717982 -0.00099881211149100433 0 0.0022826516884403045 -0.0014924576467167966 0 0.0026234175464260774 -0.0023331430182848608 0 0.0026234175464260774 -0.0023331430182848608 0 0.0037676157914537461 -0.0022940612945750042 0 0.0023191791007300673 -0.0035607485831212443 0 0.0027950893732284999 -0.0036040095130892586 0 0.0024112391030705698 -0.0035971855661175722 0 0.004394405722713021 -0.0032267378458497456 0 0.0037676157914537461 -0.0022940612945750042 0 0.0023191791007300673 -0.0035607485831212443 0 0.0026234175464260774 -0.0023331430182848608 0 0.0023191791007300673 -0.0035607485831212443 0 0.0017934252666141686 -0.0031530256500172881 0 0.0019090662883394873 -0.0034495967643209777 0 0.0018207794470236902 -0.0033348885587006069 0 0.0023191791007300673 -0.0035607485831212443 0 0.0014658781913322884 -0.003531334558986193 0 0.0018207794470236902 -0.0033348885587006069 0 0.0023191791007300673 -0.0035607485831212443 0 0.0014658781913322884 -0.003531334558986193 0 0.001374721666663255 -0.0040915184649708714 0 0.0023191791007300673 -0.0035607485831212443 0 0.0015579999890513233 -0.0021861358912998274 0 0.0017934252666141686 -0.0031530256500172881 0 0.00089549762812408257 -0.0029826868526664574 0 0.0019090662883394873 -0.0034495967643209777 0 0.0017934252666141686 -0.0031530256500172881 0 0.0015205964055416505 -0.0034527552052651513 0 0.0019090662883394873 -0.0034495967643209777 0 0.0023191791007300673 -0.0035607485831212443 0 0.0017934252666141686 -0.0031530256500172881 0 0.0017934252666141686 -0.0031530256500172881 0 0.0015205964055416505 -0.0034527552052651513 0 0.00089549762812408257 -0.0029826868526664574 0 -0.00027847628719371715 -0.0023558610005001354 0 -0.00023279601217361757 -0.0023613073645621274 0 -0.00020577519583730148 -0.0023123198591342435 0 -0.00023279601217361757 -0.0023613073645621274 0 -9.81868608325482e-05 -0.0022705933439961606 0 -0.00020577519583730148 -0.0023123198591342435 0 0.0005418772218415323 -0.0028344980637569806 0 0.00040501524232142822 -0.0025888771576425273 0 -9.81868608325482e-05 -0.0022705933439961606 0 -0.00010213606396190322 -0.002225482032399498 0 -0.00020577519583730148 -0.0023123198591342435 0 -0.00022467860659372774 -0.0022567434991352712 0 -0.00010213606396190322 -0.002225482032399498 0 -0.00020577519583730148 -0.0023123198591342435 0 -0.00045512854987153156 -0.0021981782859631788 0 -0.00044015065712373216 -0.0020292388181592769 0 -0.00031370974443530443 -0.0023510113998361911 0 -0.00027847628719371715 -0.0023558610005001354 0 -0.00020577519583730148 -0.0023123198591342435 0 -0.00031370974443530443 -0.0023510113998361911 0 -0.00022467860659372774 -0.0022567434991352712 0 -0.00020577519583730148 -0.0023123198591342435 0 -0.00059785630210426393 -0.0020304359434081256 0 -0.00074498334373069924 -0.0019267901523332476 0 -0.00066910265847711862 -0.0018695654693694204 0 -0.00059785630210426393 -0.0020304359434081256 0 -0.00059909535647009759 -0.0017626583459730014 0 -0.00066910265847711862 -0.0018695654693694204 0 -7.8321826237711235e-05 -0.0013246377550377823 0 -0.00021527846566287825 -0.0016202578861240836 0 -0.00085446668310372128 -0.0020929656576115854 0 -0.001012031245897823 -0.0021942686462204358 0 -0.00088821402499583127 -0.0018250519619576119 0 -0.00085446668310372128 -0.0020929656576115854 0 -0.00074498334373069924 -0.0019267901523332476 0 -0.00088821402499583127 -0.0018250519619576119 0 0.001036743388588994 -0.0015979341140349909 0 0.00048765912650525212 -0.0014105828276919127 0 0.00059950465749362242 -0.0018648745774013256 0 -0.00074498334373069924 -0.0019267901523332476 0 -0.00088821402499583127 -0.0018250519619576119 0 -0.00074846289346640772 -0.0017154495833655743 0 -0.00021527846566287825 -0.0016202578861240836 0 -0.00017329064707104403 -0.0018762046811806974 0 0.00048765912650525212 -0.0014105828276919127 0 0.00018775678029051148 -0.0022429234577848343 0 0.00059950465749362242 -0.0018648745774013256 0 -0.00088821402499583127 -0.0018250519619576119 0 -0.00074846289346640772 -0.0017154495833655743 0 -0.00074443133233612015 -0.00151155513411615 0 -0.00074498334373069924 -0.0019267901523332476 0 -0.00066910265847711862 -0.0018695654693694204 0 -0.00072545759116088553 -0.0017672417292184455 0 -0.00074060601751293911 -0.0019250117761763922 0 -0.00073784442024915631 -0.0016902569874036213 0 -0.00059909535647009759 -0.0017626583459730014 0 -0.00066910265847711862 -0.0018695654693694204 0 -0.00072545759116088553 -0.0017672417292184455 0 -0.00059909535647009759 -0.0017626583459730014 0 -0.00072545759116088553 -0.0017672417292184455 0 -0.00067092211201319485 -0.0016862008276077216 0 -0.00072545759116088553 -0.0017672417292184455 0 -0.00067092211201319485 -0.0016862008276077216 0 -0.0007143757517782416 -0.0016282595042175559 0 -0.00073784442024915631 -0.0016902569874036213 0 -0.00017329064707104403 -0.0018762046811806974 0 -0.00059909535647009759 -0.0017626583459730014 0 -0.00067092211201319485 -0.0016862008276077216 0 -0.00064652822233952456 -0.0016246636022924543 0 -0.00059909535647009759 -0.0017626583459730014 0 -0.00064652822233952456 -0.0016246636022924543 0 -0.00058431144057860096 -0.0015343637832830629 0 -0.00067092211201319485 -0.0016862008276077216 0 -0.0007143757517782416 -0.0016282595042175559 0 -0.00064652822233952456 -0.0016246636022924543 0 0.00018775678029051148 -0.0022429234577848343 0 0.00070494357606654861 -0.0021996316628457935 0 0.00041314119506464787 -0.0024519994723184416 0 0.00018775678029051148 -0.0022429234577848343 0 0.00059950465749362242 -0.0018648745774013256 0 0.00070494357606654861 -0.0021996316628457935 0 0.00069494481288557121 -0.0023572008414811489 0 0.0016912219274823159 -0.0028055932607074486 0 0.00070494357606654861 -0.0021996316628457935 0 0.00041314119506464787 -0.0024519994723184416 0 0.00040833062678039174 -0.0027739017958895384 0 0.00091233997662781233 -0.0023799452116501827 0 0.00067539703036189843 -0.0029333892457886986 0 0.00080229255298254964 -0.002797869445667448 0 0.0010217379630343435 -0.0027934679898277302 0 0.00091233997662781233 -0.0023799452116501827 0 0.00080229255298254964 -0.002797869445667448 0 0.00018775678029051148 -0.0022429234577848343 0 0.00041314119506464787 -0.0024519994723184416 0 0.00033444049397290937 -0.0025750826566530946 0 0.00041314119506464787 -0.0024519994723184416 0 0.00033444049397290937 -0.0025750826566530946 0 0.00040833062678039174 -0.0027739017958895384 0 0.00033444049397290937 -0.0025750826566530946 0 0.00040833062678039174 -0.0027739017958895384 0 0.00021473069600352662 -0.0027211541894908175 0 0.0016912219274823159 -0.0028055932607074486 0 0.0013163896808731524 -0.0022884307601776944 0 0.00067539703036189843 -0.0029333892457886986 0 0.00071818601469168363 -0.0029437792557359568 0 0.00080229255298254964 -0.002797869445667448 0 0.0016912219274823159 -0.0028055932607074486 0 0.0023415015852113448 -0.0029477036508849504 0 0.0010217379630343435 -0.0027934679898277302 0 0.00071073883793632898 -0.0029420021890740151 0 0.00080229255298254964 -0.002797869445667448 0 0.0023415015852113448 -0.0029477036508849504 0 0.0016665153050077323 -0.0032136228858500771 0 0.00051559790720617554 -0.0019788427121497101 0 0.00054044179612021404 -0.0019325877434161476 0 0.00052113517953411559 -0.0019277962477526214 0 0.00018775678029051148 -0.0022429234577848343 0 0.00033444049397290937 -0.0025750826566530946 0 0.00021473069600352662 -0.0027211541894908175 0 -0.00017329064707104403 -0.0018762046811806974 0 0.0013163896808731524 -0.0022884307601776944 0 -0.00064652822233952456 -0.0016246636022924543 0 -0.00066091562196595919 -0.0015142382482036872 0 -0.00058431144057860096 -0.0015343637832830629 0 -0.0007143757517782416 -0.0016282595042175559 0 -0.00064652822233952456 -0.0016246636022924543 0 -0.00066091562196595919 -0.0015142382482036872 0 -0.00017329064707104403 -0.0018762046811806974 0 0.00071206226631844176 -0.0018191714279673147 0 0.00071206226631844176 -0.0018191714279673147 0 0.0013163896808731524 -0.0022884307601776944 0 0.00071206226631844176 -0.0018191714279673147 0 -0.00016423003222264563 -0.0015403050434316654 0 -0.00016423003222264563 -0.0015403050434316654 0 1.7273806070778004e-06 -0.0016854623815329996 0 -0.000156549650833664 -0.0017364395555682526 0 0.00013611796997684036 -0.0019601088667488987 0 7.7821576585934406e-05 -0.0017629270000503595 0 -0.00037885120944770477 -0.0016321477044513415 0 7.7821576585934406e-05 -0.0017629270000503595 0 0.00031357755310077286 -0.0013494500347216282 0 7.7821576585934406e-05 -0.0017629270000503595 0 0.00031357755310077286 -0.0013494500347216282 0 0.00043681028128778499 -0.0017594893613536629 0 0.00031357755310077286 -0.0013494500347216282 0 0.00088146003287706287 -0.0016144282875138545 0 0.00043681028128778499 -0.0017594893613536629 0 0.00088831990506373581 -0.0010213835268041071 0 0.00031357755310077286 -0.0013494500347216282 0 0.00088146003287706287 -0.0016144282875138545 0 0.00088146003287706287 -0.0016144282875138545 0 0.00043681028128778499 -0.0017594893613536629 0 0.00085129129337006154 -0.0021671725030228896 0 0.00013611796997684036 -0.0019601088667488987 0 0.00043681028128778499 -0.0017594893613536629 0 0.00085129129337006154 -0.0021671725030228896 0 0.00013611796997684036 -0.0019601088667488987 0 7.7821576585934406e-05 -0.0017629270000503595 0 0.00043681028128778499 -0.0017594893613536629 0 0.00089549762812408257 -0.0029826868526664574 0 0.00013611796997684036 -0.0019601088667488987 0 0.00085129129337006154 -0.0021671725030228896 0 -9.81868608325482e-05 -0.0022705933439961606 0 -0.00010213606396190322 -0.002225482032399498 0 0.00013611796997684036 -0.0019601088667488987 0 0.00040501524232142822 -0.0025888771576425273 0 0.00013420103413715789 -0.0019687477818604721 0 -0.00044015065712373216 -0.0020292388181592769 0 -0.00016423003222264563 -0.0015403050434316654 0 -0.00022467860659372774 -0.0022567434991352712 0 -0.00010213606396190322 -0.002225482032399498 0 0.00013611796997684036 -0.0019601088667488987 0 -0.00022467860659372774 -0.0022567434991352712 0 -0.000156549650833664 -0.0017364395555682526 0 0.00013611796997684036 -0.0019601088667488987 0 
</DataArray>
</PointData>
<CellData Scalars="region_id,cross_section_updated," Vectors="" Tensors="stress,">
<DataArray type="Float64" Name="region_id" format="ascii">
5 5 5 5 5 6 5 5 5 5 6 5 5 5 5 5 5 5 5 6 5 5 5 5 5 5 5 6 5 5 5 5 6 5 5 5 5 6 5 5 6 5 5 5 6 5 5 6 5 6 5 5 5 5 5 5 6 5 5 6 6 5 5 5 5 5 5 5 5 5 5 5 6 5 6 5 5 5 5 5 5 5 5 5 5 5 5 5 5 5 5 5 5 5 5 5 5 5 5 5 5 5 5 5 5 5 5 5 5 5 5 5 5 5 5 5 5 5 5 5 5 5 5 5 5 5 6 6 5 5 5 5 5 5 5 6 6 5 5 5 5 5 5 5 5 5 5 5 5 6 5 5 6 5 6 5 5 5 5 5 5 5 5 5 5 5 5 5 5 5 5 5 5 5 5 5 5 5 5 5 5 5 5 5 6 5 5 5 5 6 5 5 5 5 5 5 6 5 5 5 6 5 5 6 5 5 5 5 5 5 5 5 6 5 5 6 5 6 5 6 5 5 5 6 5 5 5 5 5 5 5 5 5 6 5 5 6 5 5 6 5 5 5 5 5 5 5 5 5 5 6 5 5 5 5 5 5 5 5 5 5 5 5 5 5 5 6 5 5 6 6 5 5 5 6 6 5 5 5 5 5 5 5 5 5 5 6 5 5 5 6 5 5 5 5 5 5 5 5 5 5 5 5 5 5 5 6 5 5 5 6 5 5 5 5 5 5 5 5 5 5 5 5 5 5 5 6 5 5 5 5 6 5 5 5 5 5 5 5 5 5 5 5 5 5 5 5 5 5 5 5 5 5 5 5 5 5 5 5 5 6 6 5 5 5 5 5 5 5 5 5 5 5 5 6 5 6 6 5 6 5 6 5 5 5 5 5 5 5 5 6 5 5 5 5 5 5 5 5 6 6 6 5 5 5 5 5 6 5 5 5 6 5 6 5 5 5 5 5 5 5 5 5 5 6 5 5 5 5 5 5 5 5 6 5 5 6 5 6 5 5 5 6 5 5 5 5 5 5 5 5 5 6 5 5 5 5 5 5 6 5 5 5 5 5 5 5 5 5 6 5 5 5 5 5 5 5 5 5 5 6 5 5 5 5 5 5 5 5 5 5 6 5 5 5 5 5 5 5 5 5 5 5 5 5 5 5 5 5 5 5 5 5 5 5 5 5 6 5 6 6 5 6 6 6 5 5 5 5 5 6 5 5 5 6 5 6 5 5 5 5 5 5 5 6 6 5 5 5 6 5 5 5 6 5 5 5 5 6 5 5 5 6 5 5 5 6 5 6 5 5 5 5 6 6 5 5 5 5 6 5 5 6 5 6 5 6 5 5 5 5 5 5 6 6 5 5 5 5 5 5 5 5 5 5 5 5 6 5 5 5 5 5 5 5 5 6 5 5 5 5 5 5 5 5 5 5 5 5 5 5 5 5 5 5 5 5 5 6 5 5 6 6 5 5 5 5 6 5 5 6 5 5 5 5 5 6 5 5 5 5 5 5 5 5 5 5 5 5 5 5 5 5 5 5 6 5 5 5 5 5 5 5 6 5 5 5 5 5 5 5 6 5 6 6 6 5 5 5 5 5 5 5 5 6 5 6 5 5 5 5 5 5 5 5 6 5 5 5 5 5 6 5 5 5 5 5 6 6 5 6 5 5 5 5 5 6 5 5 5 6 5 5 6 5 6 5 5 5 5 6 5 5 6 5 6 5 5 5 5 5 5 5 6 5 5 5 5 5 5 5 6 5 5 5 5 6 5 5 5 5 5 5 5 5 5 5 5 5 5 6 6 5 5 6 5 5 5 5 5 5 5 5 5 5 6 5 5 5 6 5 5 5 5 5 5 5 5 5 5 5 5 5 5 5 5 5 5 5 5 6 5 5 5 5 5 5 5 5 5 5 5 5 5 5 5 5 5 5 5 5 5 5 5 5 5 5 5 5 5 5 5 5 5 6 5 5 5 5 5 5 5 5 5 5 5 5 5 5 5 5 5 5 5 5 5 6 5 5 6 5 6 5 5 5 5 6 5 5 5 6 5 5 5 5 5 5 5 5 5 5 5 5 5 5 5 5 5 5 5 5 5 5 5 5 5 5 5 5 5 5 5 5 5 5 5 5 5 5 5 5 5 5 5 5 5 5 5 5 5 5 5 5 5 5 5 5 5 5 6 5 5 5 5 5 5 5 5 6 5 5 5 5 5 5 5 5 5 6 5 5 5 5 5 5 5 5 6 5 5 6 5 5 5 5 5 6 5 5 6 5 5 6 5 6 5 5 5 5 5 5 5 5 5 6 5 5 6 5 6 5 5 5 5 5 5 5 5 6 5 5 5 5 6 5 5 5 5 5 5 5 6 5 5 5 5 5 5 5 6 5 5 6 5 6 5 6 5 6 5 6 6 5 5 5 6 5 5 5 6 6 6 5 5 5 5 5 5 6 6 5 5 5 5 5 5 5 5 5 5 5 6 5 5 5 5 5 5 5 6 5 5 6 5 6 5 5 5 6 5 5 5 6 5 5 5 5 5 5 5 6 5 5 5 5 5 5 5 5 5 5 5 5 5 5 5 5 5 5 5 5 5 6 5 5 5 5 5 5 5 6 5 5 5 5 6 6 6 5 5 5 5 6 5 5 5 5 5 5 5 5 5 5 5 5 5 5 5 5 5 5 5 5 5 5 5 6 5 5 6 5 5 5 5 5 5 5 5 5 5 5 5 5 5 5 5 5 5 5 5 5 6 6 5 5 5 5 5 5 5 6 5 5 5 6 5 5 5 5 5 5 5 5 5 5 5 6 5 5 5 5 5 5 5 5 5 6 5 5 5 5 5 5 5 5 6 5 5 5 5 5 5 5 5 5 5 5 5 5 5 5 5 5 5 5 5 5 5 6 5 5 5 5 6 5 5 5 5 5 5 5 5 6 5 5 5 5 5 5 5 5 5 5 5 5 6 5 5 5 6 5 5 5 5 5 5 5 5 5 5 6 5 5 5 5 5 5 5 5 6 5 5 5 5 5 5 5 5 5 5 5 5 5 5 5 6 5 6 5 6 5 5 6 5 5 5 5 5 5 5 5 5 5 5 5 5 5 5 5 5 5 5 5 5 5 5 6 5 5 5 6 5 5 5 5 5 6 5 5 5 6 5 5 5 5 6 5 5 5 5 5 5 5 6 6 6 5 6 5 5 6 5 5 5 5 5 5 5 5 6 5 5 5 5 6 5 5 5 5 5 5 6 5 5 5 5 6 5 5 5 5 5 6 5 5 5 5 5 6 5 5 5 5 6 6 5 5 5 6 5 6 5 6 5 5 5 5 5 6 5 6 5 5 5 5 5 6 5 6 5 5 5 5 5 5 5 5 5 5 5 5 5 5 5 5 6 5 6 5 5 5 5 5 5 5 5 5 5 5 5 5 5 5 5 5 5 5 6 6 5 5 6 5 5 5 5 6 5 5 6 5 5 5 6 5 5 5 6 5 6 5 5 5 6 5 5 5 5 5 5 5 5 6 5 5 5 5 5 6 6 5 5 6 5 5 5 6 5 5 5 5 6 5 5 5 5 5 5 5 5 6 5 5 5 5 5 5 5 6 5 5 5 5 5 5 5 5 5 5 5 5 5 5 5 5 5 5 5 5 5 5 5 5 5 5 5 6 5 5 5 5 5 5 5 5 5 5 5 5 5 5 5 5 5 5 5 5 5 5 6 5 5 5 5 5 5 5 5 5 5 5 5 5 5 5 5 5 5 5 5 5 5 5 5 5 5 5 5 5 5 5 5 5 5 5 5 5 5 5 5 6 5 5 5 5 5 5 5 5 5 5 5 5 6 6 5 5 5 5 5 5 5 6 5 5 5 5 5 5 5 5 5 5 5 6 5 5 6 5 5 5 5 5 5 5 5 6 5 5 5 5 5 5 5 5 5 5 5 5 6 5 5 5 5 5 5 5 5 6 5 5 5 5 5 6 5 5 5 5 5 6 6 5 5 5 5 6 5 6 5 6 5 5 5 6 5 6 6 5 5 5 5 5 5 5 5 5 5 6 5 5 6 6 5 5 6 6 6 5 5 5 5 5 5 5 6 5 5 5 5 5 5 6 5 5 5 5 5 5 5 5 5 5 6 6 5 5 5 5 5 5 5 5 5 5 6 6 5 5 5 5 5 5 5 5 5 6 5 5 5 5 5 6 5 5 5 6 5 5 5 5 5 5 5 6 5 5 5 5 5 5 5 6 5 5 5 6 5 5 5 5 5 5 5 5 5 6 5 5 5 5 5 5 6 5 5 5 5 6 5 5 5 5 6 6 5 5 5 5 6 5 5 5 6 5 6 5 5 5 6 5 5 5 5 6 5 5 5 5 6 6 5 6 5 5 5 5 5 5 5 5 5 5 5 5 5 5 5 5 5 5 5 5 5 5 5 5 6 6 5 5 5 5 5 5 5 5 5 5 5 5 5 5 5 5 5 5 5 6 5 5 6 5 5 6 5 6 5 5 6 5 5 5 5 5 6 6 5 5 5 5 5 6 6 5 6 6 5 5 5 6 6 5 5 5 5 5 5 5 5 5 6 5 6 5 5 5 6 5 5 5 5 5 6 5 5 5 6 6 5 5 6 5 6 5 5 6 5 5 5 6 5 6 5 5 5 5 6 5 5 5 5 6 5 5 5 5 6 6 5 5 6 5 5 5 5 5 5 6 5 5 6 5 5 5 6 5 5 5 6 6 5 5 5 5 5 5 6 5 5 5 5 6 5 5 5 5 5 5 6 5 6 6 5 5 6 5 5 5 5 5 5 5 5 5 6 5 5 6 5 5 5 6 5 6 5 5 5 5 5 5 5 6 6 5 5 5 6 5 5 5 5 5 5 5 5 5 6 5 5 5 5 5 5 5 5 6 5 5 5 5 5 5 5 5 5 5 5 5 5 5 6 5 5 5 6 5 5 5 5 6 5 5 6 5 5 5 5 5 5 5 5 5 5 5 5 5 5 5 5 6 5 5 5 5 5 5 5 5 5 5 5 5 5 5 5 5 5 5 6 5 5 5 6 5 5 5 5 5 5 6 6 6 5 5 5 5 5 5 5 5 5 5 5 5 5 6 5 5 5 5 5 6 5 5 5 5 5 6 5 5 5 5 5 6 5 5 5 5 5 6 5 5 5 5 5 5 6 5 6 5 5 5 5 6 5 6 5 5 5 5 5 5 6 5 6 5 5 5 6 5 6 5 5 6 5 5 5 5 5 5 5 5 5 5 6 6 5 6 5 5 6 5 6 5 5 5 6 5 6 5 5 6 5 6 6 5 5 5 6 5 6 5 5 5 5 6 6 5 5 5 6 5 5 5 5 5 6 5 6 5 5 5 5 5 5 6 5 5 5 5 6 5 5 5 5 5 5 5 5 5 5 5 5 5 5 6 5 5 5 5 5 5 5 5 5 6 5 5 5 5 5 6 5 5 5 5 5 6 5 5 6 5 5 5 5 5 5 6 5 5 5 5 6 5 5 5 5 5 5 6 5 6 5 5 6 5 5 6 5 5 5 5 6 5 5 5 5 5 5 5 5 5 5 5 6 5 5 5 5 5 5 5 6 5 5 5 6 6 5 5 5 6 5 5 6 6 5 5 5 5 6 6 5 5 6 5 6 5 5 5 5 6 5 6 5 5 5 5 5 5 5 5 5 5 6 5 5 5 5 5 5 6 5 5 5 6 5 5 5 5 5 6 5 5 5 5 6 5 5 5 5 6 5 5 5 6 5 5 5 5 5 5 5 5 6 5 5 6 5 5 6 5 6 5 5 5 5 5 5 5 5 5 5 5 5 5 6 5 5 6 5 6 5 5 5 5 5 5 5 5 5 5 5 5 5 6 5 5 5 5 5 5 5 5 5 5 5 5 5 5 5 6 5 5 5 6 6 5 5 6 5 5 6 5 5 5 5 5 5 5 5 5 6 5 5 5 5 5 5 5 5 5 5 5 5 5 5 5 6 5 5 6 5 5 5 5 6 5 6 6 6 5 5 5 6 5 5 5 5 6 5 5 6 5 6 5 6 6 5 5 5 5 5 5 5 5 5 5 5 5 5 5 5 5 5 5 5 5 5 5 6 5 5 5 5 6 5 5 5 5 5 5 5 5 5 5 5 5 6 5 5 5 5 5 5 5 5 5 5 6 5 5 5 5 5 5 5 5 5 5 5 5 5 6 5 5 6 5 5 5 5 5 5 5 6 6 5 5 6 5 5 5 5 6 5 5 6 5 5 5 5 5 5 5 5 5 5 5 5 5 5 6 5 5 5 5 5 5 5 5 6 5 5 5 5 5 5 5 5 5 5 5 5 5 5 5 5 6 5 5 6 6 5 5 5 6 5 5 5 6 5 5 6 5 5 6 6 5 5 5 5 6 5 5 5 6 5 5 5 5 6 5 5 5 5 6 5 6 5 6 5 5 5 5 5 5 6 5 5 5 6 5 5 5 6 5 5 6 5 6 5 5 5 6 5 6 6 5 5 5 5 6 5 5 5 6 5 5 5 5 5 5 5 5 5 5 5 5 5 5 5 5 5 5 6 5 5 5 5 5 5 5 6 5 6 6 6 5 5 5 5 6 6 6 5 5 5 5 5 5 5 5 5 5 5 5 5 5 6 5 5 5 6 5 5 6 5 5 5 5 5 5 6 5 5 5 5 5 5 5 5 6 6 5 5 5 5 5 6 6 5 6 6 5 5 6 5 6 5 5 5 5 5 5 5 5 5 5 6 6 5 5 5 5 5 5 5 5 5 6 6 5 5 5 6 5 5 5 5 5 5 5 5 5 5 5 5 5 5 5 5 5 5 5 5 5 5 5 5 5 5 5 6 5 5 5 6 5 6 5 5 5 5 5 6 5 6 5 5 5 5 5 6 5 6 6 6 5 5 5 5 5 5 5 5 5 5 5 5 5 5 6 5 5 5 5 6 5 5 5 5 5 5 5 5 5 5 5 6 5 5 5 5 5 5 5 5 5 5 5 5 5 5 5 5 5 5 5 5 5 5 5 5 5 5 5 5 5 5 5 5 5 5 5 6 5 5 5 5 5 5 5 5 5 5 5 5 5 5 5 5 6 5 5 5 6 5 5 5 5 5 5 6 5 5 5 5 5 5 5 5 6 5 5 5 5 5 5 5 5 5 5 5 5 5 6 5 5 5 5 5 5 5 5 5 5 6 5 5 5 6 5 5 6 5 5 5 5 5 5 5 5 5 5 5 6 5 5 5 5 5 6 5 5 5 5 5 6 6 5 6 6 5 5 5 5 5 5 5 5 5 5 5 5 6 5 5 5 5 5 6 5 5 5 5 5 5 5 6 6 5 5 6 5 5 6 5 6 5 6 5 5 5 5 5 5 6 6 5 5 6 5 5 5 6 5 5 5 5 5 5 5 5 5 6 5 5 5 6 5 5 6 5 5 5 6 5 5 5 5 5 5 5 5 6 5 5 5 5 5 5 5 5 5 5 5 5 5 5 5 5 5 5 5 5 6 5 5 5 5 6 5 5 5 5 5 5 5 5 5 5 5 5 5 5 5 6 5 5 5 5 5 5 5 5 5 5 5 5 5 5 6 5 5 5 5 5 6 5 6 6 5 5 5 6 5 5 5 5 5 5 5 5 5 5 5 5 5 5 6 5 5 5 5 5 5 5 5 5 5 5 5 5 5 5 5 5 5 6 5 5 5 5 5 5 6 5 5 5 5 5 5 6 5 5 5 5 5 5 5 5 5 5 5 5 5 5 5 5 5 5 5 5 5 5 5 5 5 5 5 5 5 5 5 5 5 5 5 5 5 5 5 5 5 5 5 5 5 5 5 5 5 6 5 5 5 5 5 5 5 5 5 5 5 5 5 5 5 5 5 5 6 5 5 6 5 5 6 5 5 6 5 5 5 5 5 5 5 5 5 5 5 5 5 5 5 5 5 5 5 5 5 5 5 5 5 5 5 5 5 5 5 5 5 5 5 5 6 5 5 5 5 5 5 5 5 5 5 5 5 5 5 6 5 5 5 5 5 5 5 5 5 5 5 5 5 5 5 5 5 5 5 5 5 5 5 5 5 6 5 5 5 5 5 5 6 5 5 5 5 5 5 5 5 6 5 6 5 5 5 5 5 5 5 5 6 5 6 5 5 5 5 6 6 5 5 5 5 6 5 5 5 5 6 5 6 5 5 5 5 6 5 6 5 5 5 5 6 5 5 5 5 5 6 5 6 6 5 5 6 5 5 5 5 6 5 5 6 5 6 5 5 5 5 5 5 5 5 5 5 5 5 5 5 5 5 5 5 5 5 5 6 5 5 5 5 5 5 5 5 5 5 5 5 5 5 5 6 5 5 6 5 5 5 5 5 5 5 5 5 5 5 5 5 6 5 5 5 5 5 5 5 5 5 5 5 5 5 5 5 5 5 6 5 5 5 5 5 5 5 5 5 5 5 5 5 6 5 5 6 5 5 5 5 5 5 5 5 6 5 5 5 5 5 6 5 5 6 5 6 5 5 5 5 5 5 5 5 5 6 5 5 6 5 5 5 6 6 5 5 5 5 6 5 5 5 6 5 5 5 5 5 5 5 5 5 5 5 5 5 5 5 5 5 5 6 5 5 5 5 5 5 5 6 5 5 5 5 5 5 5 5 5 5 6 5 5 5 5 5 5 5 5 5 5 5 5 6 5 5 5 5 5 6 5 5 5 6 5 5 5 5 5 5 5 5 5 6 5 5 5 5 6 5 5 6 5 5 5 5 5 5 5 5 5 6 5 6 5 5 5 5 5 5 5 5 5 5 6 5 6 5 5 5 5 5 5 5 6 5 5 5 5 6 5 5 5 5 5 5 5 5 5 5 5 6 5 5 5 5 5 5 5 6 5 5 6 6 5 5 6 5 5 6 5 5 5 5 5 5 5 5 5 5 5 5 5 5 6 5 5 5 5 5 6 6 6 5 5 5 5 5 5 6 5 5 5 6 5 5 6 5 5 5 5 5 5 5 5 5 5 5 5 5 5 5 5 5 5 5 5 5 5 5 5 5 5 5 5 5 5 5 5 5 5 6 5 5 5 5 5 5 5 5 5 5 5 5 5 5 5 5 5 5 5 5 5 5 5 5 5 5 5 5 5 5 5 5 6 5 5 5 5 5 5 5 5 5 5 6 5 5 5 6 5 5 6 5 5 5 5 5 5 5 5 5 5 5 5 5 5 6 5 5 5 5 5 5 5 5 6 5 5 5 5 5 6 5 5 5 5 5 5 5 5 6 5 5 5 5 5 5 5 6 5 5 5 5 5 5 5 5 5 5 5 5 5 6 5 5 5 5 5 5 5 5 5 5 5 5 5 5 5 5 5 5 5 5 5 5 5 5 5 5 5 5 5 5 5 5 5 5 5 5 5 5 5 5 5 5 5 5 5 5 5 5 5 5 5 5 5 5 5 5 5 6 5 5 5 5 5 5 5 6 5 5 5 5 5 6 6 5 5 5 5 5 5 5 5 5 5 5 5 5 5 5 5 5 5 6 6 5 6 5 5 5 6 5 5 5 5 5 6 6 5 5 5 6 5 6 5 5 6 5 6 5 5 5 6 5 5 6 6 5 6 5 5 6 5 5 5 5 6 5 6 5 5 5 5 5 6 5 5 5 5 5 5 5 5 5 5 5 6 5 6 5 6 5 5 5 5 5 5 5 5 5 5 5 5 5 5 5 5 5 5 5 5 5 5 6 6 5 5 5 6 5 5 6 5 5 6 5 5 5 5 5 5 5 5 5 5 5 5 5 5 6 5 5 5 5 5 5 5 5 5 5 5 5 5 5 5 5 5 5 5 5 5 5 5 5 5 5 5 5 5 5 5 5 5 5 5 5 5 5 5 5 5 5 6 5 5 6 5 5 5 5 5 5 6 5 6 5 5 5 6 5 6 5 5 5 5 5 5 5 5 6 6 5 5 5 5 5 5 6 5 6 5 5 6 5 6 5 5 5 5 6 6 5 5 5 5 5 5 6 5 5 5 5 5 5 5 5 6 5 5 5 5 5 5 5 5 5 5 5 5 5 6 5 5 5 6 5 5 5 5 6 6 5 5 5 5 6 5 6 5 5 6 5 5 6 5 6 5 5 5 5 6 5 5 5 6 5 5 5 5 5 5 5 6 5 5 5 5 5 5 5 5 6 5 5 6 6 5 5 5 5 6 5 5 5 5 5 5 5 5 5 5 5 5 6 5 5 5 5 5 5 5 5 5 5 5 5 5 5 5 5 5 5 5 5 5 5 5 5 5 5 5 5 5 5 5 5 5 5 5 6 5 5 5 6 5 6 5 5 5 5 5 5 5 5 5 5 5 5 5 5 5 5 5 6 5 5 5 5 5 5 6 5 5 5 5 5 6 5 5 5 5 6 5 5 5 5 5 5 5 6 5 5 5 5 6 5 6 5 5 5 6 5 5 6 5 5 5 6 6 6 5 5 5 5 5 5 6 5 5 5 5 5 5 5 5 6 5 5 5 5 5 6 5 5 6 5 6 5 5 5 5 5 5 6 5 5 5 5 5 5 5 6 5 5 6 5 5 6 5 5 5 5 5 5 5 5 5 5 5 5 5 5 5 5 5 5 5 5 5 5 5 5 5 5 5 5 5 5 5 5 5 6 5 5 5 5 6 5 5 5 5 5 5 6 5 5 5 5 6 5 5 5 5 5 5 6 5 5 5 6 5 5 5 5 5 5 5 5 5 5 5 5 5 6 5 5 5 5 5 5 5 5 5 5 5 5 5 5 6 5 5 5 6 5 5 5 5 5 6 6 5 5 5 5 5 5 5 5 6 5 5 6 5 5 6 5 5 5 5 6 5 5 5 6 6 5 5 5 5 5 5 6 5 6 5 5 5 5 5 5 5 5 5 5 5 5 5 6 5 5 5 5 5 5 5 5 6 5 6 5 5 5 5 6 5 6 5 5 5 5 5 5 5 6 5 6 5 5 6 5 5 5 5 6 5 5 5 5 5 5 5 5 5 5 5 5 5 5 5 5 5 5 5 5 5 5 5 5 5 5 5 5 5 5 5 5 5 5 5 5 5 5 5 5 5 5 5 5 5 5 6 5 5 5 5 5 5 5 5 5 5 5 5 5 5 5 5 6 5 5 6 5 5 6 6 5 5 5 6 5 5 5 5 5 5 5 5 5 5 5 5 5 5 6 6 5 6 6 5 6 6 5 5 5 5 5 5 5 6 5 5 5 6 5 5 5 6 6 5 5 6 5 6 6 5 5 6 6 5 5 6 5 5 5 5 5 5 5 5 6 5 5 6 5 6 5 6 5 5 5 5 5 5 5 5 5 5 5 5 6 5 5 5 5 5 5 5 5 5 5 5 6 5 5 5 5 5 5 5 6 6 5 5 6 5 5 5 5 5 6 5 5 5 5 5 5 5 5 5 5 5 5 5 5 5 5 5 5 5 6 5 5 5 5 5 5 5 5 5 5 6 5 5 5 5 5 5 5 5 5 5 5 5 5 6 5 5 5 5 6 6 5 5 5 5 5 5 5 5 5 5 5 5 5 6 5 5 5 6 5 5 5 5 5 5 5 5 5 5 5 5 5 5 5 5 5 5 5 5 5 5 5 5 5 5 5 5 5 5 5 5 5 5 6 5 5 6 5 5 5 5 5 5 5 5 5 5 5 5 5 5 5 5 5 5 5 5 5 5 6 5 5 5 5 5 5 5 5 5 5 5 5 5 5 5 5 5 6 5 5 5 5 5 5 5 5 5 6 5 5 5 5 5 5 5 5 5 5 6 5 5 5 6 5 6 5 5 5 5 6 5 5 5 5 5 5 5 5 6 5 5 5 5 5 5 6 5 5 5 5 5 5 5 6 5 5 5 5 6 5 5 5 5 5 5 6 5 5 5 6 5 5 6 5 5 6 5 5 5 5 5 5 5 5 5 5 5 5 6 5 5 5 5 5 6 5 5 5 5 5 5 5 5 5 5 5 5 5 5 5 5 5 5 5 5 5 5 5 5 5 5 6 5 5 5 5 6 5 5 5 5 5 5 5 5 5 5 5 5 5 5 5 5 5 5 5 5 5 5 5 5 5 5 5 5 5 5 5 5 5 5 5 5 5 5 5 5 5 5 5 5 5 5 5 5 5 5 5 5 5 5 5 5 5 5 5 5 5 5 5 5 5 5 5 5 5 5 5 5 6 5 5 5 5 5 5 5 5 5 5 5 5 5 5 5 5 5 5 5 5 5 5 5 5 5 5 5 5 5 5 5 5 5 5 5 5 5 5 5 5 5 5 5 5 5 5 5 5 5 5 5 5 5 5 5 5 5 5 5 5 6 5 6 5 5 5 6 5 5 6 5 5 5 5 5 5 5 5 5 5 5 5 6 5 5 5 5 5 5 5 5 5 5 5 5 5 5 6 5 5 5 5 5 5 5 5 5 5 5 5 5 5 5 5 5 5 5 5 5 5 5 5 5 5 6 5 5 5 5 5 5 5 5 5 5 5 5 5 5 5 5 5 5 5 5 5 5 5 5 5 5 5 5 5 5 5 5 5 5 5 5 5 5 5 5 5 5 6 5 5 5 6 5 5 5 5 5 6 5 5 5 6 5 5 5 5 5 5 5 5 5 5 5 5 5 5 5 5 6 5 5 5 5 5 5 5 5 5 5 5 5 5 5 5 5 5 6 5 5 5 5 5 5 5 6 5 6 5 5 5 5 5 5 5 5 5 5 5 5 5 5 5 5 5 5 5 5 5 5 5 5 5 5 6 6 5 5 5 5 5 5 5 6 5 5 5 5 5 5 5 5 5 5 5 5 6 5 5 5 5 5 5 5 5 5 5 5 6 5 6 5 5 5 5 6 6 5 5 5 5 5 5 5 5 6 5 5 5 6 5 6 5 5 5 5 5 5 5 5 5 5 5 5 6 5 5 5 6 5 5 6 6 5 5 6 5 5 5 5 5 5 5 5 5 5 5 5 6 5 5 5 5 6 5 5 6 6 5 5 5 5 5 5 5 5 5 5 5 5 6 5 5 6 5 5 5 5 6 5 5 6 5 5 6 6 5 6 5 5 5 5 5 5 5 6 5 5 5 5 5 5 5 5 5 5 5 5 6 5 6 5 5 5 5 5 5 5 5 5 5 6 5 5 5 5 5 5 6 5 5 5 5 5 5 5 5 5 6 6 5 5 5 5 5 5 5 6 5 5 5 6 5 6 5 5 5 5 5 5 5 5 5 5 5 5 6 5 5 6 5 5 5 5 5 6 5 5 5 5 5 6 5 5 5 5 6 5 5 6 5 5 5 6 5 6 5 5 5 6 5 5 5 5 5 5 5 5 5 6 5 5 6 6 5 5 5 5 6 5 5 5 5 5 5 5 5 6 5 5 5 5 5 6 5 5 5 5 6 5 5 5 5 5 5 5 5 5 5 6 5 5 5 5 5 5 5 5 5 5 5 5 5 5 5 5 5 6 5 5 5 5 5 5 5 6 5 5 5 5 5 5 5 5 5 5 5 5 5 5 5 5 6 5 5 5 5 6 5 6 5 5 5 5 5 5 5 5 5 5 5 5 6 5 5 5 6 5 5 6 5 5 5 5 5 5 6 5 5 6 5 5 5 6 5 5 5 5 5 5 5 5 5 6 5 5 5 5 5 5 5 5 6 5 5 5 5 5 5 5 6 5 5 5 5 5 5 5 5 5 5 5 5 5 5 5 5 5 5 5 5 5 5 5 5 6 5 5 5 5 5 5 5 5 5 5 5 5 5 5 5 5 5 6 5 5 5 5 6 5 5 5 5 5 6 5 5 5 5 6 5 5 6 5 5 6 6 5 5 5 5 6 5 5 5 6 5 6 5 6 5 6 5 5 6 6 5 6 5 6 5 5 5 5 6 5 5 5 5 5 5 5 5 5 5 5 5 5 5 5 5 5 5 5 5 5 6 5 5 5 5 6 5 5 6 5 5 5 5 5 5 5 5 5 5 5 6 5 5 5 6 5 5 5 5 5 6 5 5 5 5 5 6 5 5 5 5 6 5 5 6 5 5 5 5 5 5 5 6 5 5 6 5 6 5 5 6 5 5 5 5 5 5 5 5 5 5 5 5 6 5 6 5 5 5 6 5 6 5 6 5 5 6 5 5 5 5 5 6 5 5 5 5 5 5 5 5 5 5 5 5 5 6 5 5 5 5 5 5 5 5 5 5 5 6 5 5 5 5 5 5 5 5 5 6 5 5 5 5 5 5 5 5 5 5 5 5 5 5 5 5 5 5 5 5 5 5 5 5 5 5 5 5 5 5 5 5 6 5 5 5 5 5 5 5 5 5 5 5 6 5 5 5 5 6 5 5 6 5 5 5 5 5 5 5 5 6 5 5 6 5 5 5 6 5 5 5 5 5 5 5 5 5 5 5 5 5 6 5 5 6 5 6 5 5 5 5 5 6 5 5 5 5 6 5 5 6 5 5 5 5 5 5 5 5 5 5 5 5 6 5 5 6 5 5 5 5 5 5 5 5 5 5 6 6 5 5 5 5 5 6 5 5 5 5 5 5 5 5 5 5 5 5 5 5 5 5 5 5 6 5 5 6 5 5 5 5 6 5 5 6 6 5 5 5 5 5 5 5 6 5 5 5 5 5 5 5 5 5 5 5 5 5 5 5 5 5 5 5 5 5 5 5 5 5 5 5 5 5 5 5 5 5 6 5 5 5 5 5 5 5 5 6 6 5 5 5 6 5 5 5 5 5 5 5 5 5 5 5 6 5 5 5 5 5 5 5 5 5 6 5 5 5 5 5 6 5 5 5 5 5 5 5 5 5 5 5 5 5 5 5 5 5 5 5 5 5 5 5 5 5 5 5 5 5 5 5 5 5 5 6 5 5 6 5 5 5 5 5 5 5 5 5 5 5 5 5 5 5 5 5 5 5 5 6 5 5 5 5 5 5 5 5 5 5 5 5 6 5 5 5 5 5 5 5 5 5 5 6 6 5 5 5 5 5 5 5 5 5 6 5 5 5 5 5 5 5 6 6 5 5 5 5 5 6 5 6 5 5 5 5 6 5 5 6 5 5 6 5 5 5 5 5 5 5 5 5 5 5 5 6 5 5 5 5 5 5 5 5 5 5 6 5 6 5 5 5 5 6 5 5 5 5 6 5 5 5 6 5 5 5 5 6 5 5 5 6 5 5 5 6 5 5 5 6 5 5 6 5 5 6 5 5 5 5 5 5 5 5 5 6 5 5 5 5 5 5 5 6 5 5 5 5 5 5 5 5 5 6 5 5 5 5 5 6 5 5 5 5 5 6 5 6 5 5 5 6 5 5 5 6 5 5 5 5 6 5 5 5 5 5 5 6 5 5 6 5 5 6 5 5 5 5 5 5 5 5 6 5 5 5 5 5 6 5 5 5 5 5 5 5 5 5 6 5 5 5 5 5 5 5 5 5 5 5 5 6 5 5 5 5 5 5 5 5 5 5 5 6 5 5 5 5 5 5 5 5 5 5 6 5 5 5 5 5 6 5 5 5 5 5 5 5 5 5 5 6 5 5 5 5 5 5 5 5 5 5 5 5 6 5 5 5 6 5 5 5 5 5 5 5 5 5 5 5 5 5 6 5 5 5 5 6 5 6 5 5 5 5 5 5 6 5 6 5 5 6 5 5 5 5 6 6 5 5 6 5 5 5 5 5 6 5 5 5 5 5 6 5 6 5 5 5 6 5 6 5 5 5 5 6 5 6 6 5 5 5 5 5 5 6 5 5 5 5 5 5 5 5 5 6 5 5 5 5 5 5 5 6 5 5 6 5 5 5 5 5 5 5 6 5 5 5 5 5 5 5 6 5 5 5 5 5 5 5 5 5 6 5 5 5 6 5 5 5 5 5 5 6 6 5 6 5 6 5 6 5 5 5 5 5 5 5 6 5 5 5 6 5 5 5 5 5 5 5 5 5 5 5 5 5 5 5 5 5 6 6 6 5 5 6 5 6 5 5 6 5 5 5 5 5 6 5 5 5 5 5 5 5 5 5 5 5 5 5 5 5 6 5 5 5 6 5 5 5 5 5 5 5 5 5 5 5 5 5 5 5 5 5 5 5 5 5 5 5 5 5 6 5 5 5 5 5 5 5 5 5 5 5 5 5 5 6 5 5 5 5 5 5 5 5 5 5 5 5 5 6 5 5 5 5 5 6 5 5 5 5 5 5 5 5 5 6 6 5 5 5 5 5 6 5 5 5 5 5 5 5 5 5 5 5 5 5 5 5 5 5 5 5 5 5 5 5 5 5 5 5 5 6 6 5 5 5 5 5 5 5 5 5 5 5 5 5 5 5 5 5 5 5 5 5 5 5 5 5 5 5 5 5 5 5 5 5 5 5 5 5 5 5 5 5 5 5 5 5 5 5 5 5 5 5 5 5 6 5 5 5 5 5 5 6 5 5 5 5 5 5 5 5 5 5 5 5 5 5 5 5 5 5 6 5 6 5 5 5 6 5 5 5 5 5 5 6 5 5 5 6 5 5 5 5 6 5 5 6 6 5 5 5 5 5 6 5 5 5 5 5 6 6 5 6 5 5 5 5 5 5 5 5 5 6 5 5 6 5 5 6 6 5 5 5 5 5 5 5 5 5 5 5 5 5 5 6 5 5 5 6 5 5 5 5 6 5 5 5 6 5 5 6 5 5 6 5 6 5 5 5 6 5 5 5 5 6 5 5 5 5 6 5 6 5 5 5 5 5 6 5 5 5 5 5 5 6 5 5 5 6 5 5 5 5 5 5 5 5 5 5 5 5 5 5 5 5 5 6 5 5 5 5 5 5 5 5 5 6 5 5 5 5 5 5 5 5 5 5 5 5 5 5 5 5 6 5 5 5 5 5 5 6 5 5 5 5 5 5 6 5 5 5 5 5 6 5 5 5 5 5 5 5 5 5 5 5 5 6 5 5 5 5 5 5 6 5 5 5 5 5 5 5 5 5 5 5 5 5 5 6 5 5 5 5 5 5 5 5 5 5 5 5 5 5 5 5 5 5 6 5 5 6 5 5 5 5 5 5 5 6 5 5 5 5 5 5 5 5 5 5 5 5 6 5 6 5 5 5 5 5 5 5 5 5 5 5 5 5 6 5 5 6 5 5 5 5 5 5 5 5 5 5 5 5 6 5 5 6 6 5 5 5 5 5 5 5 5 5 5 5 5 5 5 6 5 5 5 5 5 6 5 6 5 5 5 5 5 5 6 5 5 5 6 5 5 5 5 5 5 5 6 5 5 5 5 5 6 5 5 5 5 5 5 5 5 5 5 5 5 5 5 5 5 5 5 5 6 5 5 5 5 5 6 5 5 5 5 6 5 6 5 5 5 5 5 5 5 5 5 5 5 6 5 5 5 5 6 5 5 5 6 5 5 5 5 5 5 5 5 5 5 5 5 6 5 5 5 5 6 5 5 5 5 5 5 5 5 5 5 5 5 6 5 5 5 5 5 5 5 5 5 5 5 5 5 5 5 5 6 5 5 5 5 6 5 5 5 5 5 5 5 5 5 5 5 5 5 5 5 5 5 5 5 6 5 5 5 6 5 5 5 5 6 5 5 5 5 5 6 6 5 5 5 5 5 5 5 5 5 5 5 5 5 5 5 5 5 5 5 5 5 5 5 5 5 5 5 5 5 5 5 5 5 5 5 5 5 5 5 5 5 5 5 6 5 5 6 5 5 5 5 5 5 5 5 5 5 5 5 6 5 5 5 5 5 5 5 5 5 5 5 5 5 5 5 5 6 5 5 5 5 6 5 5 6 5 5 5 5 6 5 5 6 5 5 5 5 5 5 5 5 6 5 5 5 5 5 5 5 5 5 5 6 5 5 5 5 5 5 5 5 5 6 5 5 5 5 5 5 5 5 5 5 5 5 6 5 5 5 5 5 5 5 5 6 6 5 5 5 6 5 5 5 5 6 6 5 5 5 5 5 5 5 5 5 5 5 5 5 5 5 5 5 6 5 5 5 5 5 5 5 5 5 5 5 5 5 5 5 5 5 5 5 5 5 5 5 5 5 5 5 6 5 5 5 5 5 5 5 5 5 5 5 5 5 6 5 5 5 5 5 5 5 5 5 5 5 5 5 5 5 5 5 5 5 5 5 5 5 5 5 5 5 5 5 5 5 5 5 5 5 5 5 5 5 5 5 5 5 5 5 5 5 5 5 5 5 5 5 6 6 6 5 5 5 5 5 5 6 6 5 5 5 5 5 5 5 6 6 5 5 5 6 5 6 5 5 6 5 6 5 5 6 6 5 5 6 5 6 5 6 5 5 5 5 6 5 5 5 5 5 5 5 5 5 5 5 5 5 5 5 5 5 6 5 5 5 5 5 5 5 5 5 5 5 5 6 5 5 5 6 5 5 6 5 6 5 5 5 5 5 5 5 5 5 5 5 5 5 5 5 5 6 5 5 5 5 5 5 5 5 5 5 5 6 6 5 5 6 5 5 5 5 5 5 5 5 6 5 6 5 5 5 5 5 6 5 5 5 6 5 5 5 5 5 5 5 5 6 5 5 6 6 5 6 5 5 5 5 6 5 5 5 5 6 5 5 6 5 5 5 5 5 5 5 5 5 5 5 6 5 6 5 5 5 5 5 5 6 5 5 5 5 5 5 5 5 5 5 5 5 5 5 5 5 5 5 5 5 5 5 5 5 5 5 5 5 5 5 5 5 5 5 5 5 5 5 6 5 5 5 5 5 6 5 5 5 5 6 5 5 5 5 5 5 5 5 5 5 5 5 5 5 5 6 5 5 5 5 5 5 5 5 5 6 5 5 5 5 5 5 5 5 5 5 5 6 5 6 5 5 6 5 5 5 5 5 5 5 5 5 6 5 5 5 6 5 6 5 5 5 5 5 6 5 5 5 6 5 5 5 5 5 5 5 5 5 5 5 5 6 5 5 5 5 5 6 5 5 6 5 5 5 5 5 5 5 5 5 5 5 5 6 5 5 5 6 5 6 6 5 6 6 5 6 5 5 6 6 5 6 5 5 6 5 6 5 5 5 5 5 5 6 5 5 6 5 6 6 5 6 6 5 5 6 6 5 6 6 5 5 6 5 5 6 5 5 5 5 5 5 5 5 5 5 6 5 5 5 6 5 5 5 5 5 5 6 5 5 5 5 5 6 5 6 6 5 5 5 5 5 6 5 5 5 5 5 5 6 5 5 6 5 5 5 5 5 5 5 5 6 6 5 6 5 5 6 5 5 5 5 5 5 5 6 5 5 5 5 6 5 5 6 5 5 6 5 5 5 5 5 5 5 5 5 5 5 5 5 5 5 5 6 5 6 5 6 5 5 5 6 5 5 6 6 6 5 5 5 6 5 5 5 5 5 6 5 5 5 5 5 5 5 5 5 5 5 5 5 5 5 5 6 5 5 5 5 5 6 5 5 5 6 5 5 5 5 6 5 6 5 5 5 5 5 5 5 5 6 5 5 6 5 5 5 6 6 5 6 5 6 5 5 5 6 5 5 6 5 5 5 5 6 5 5 5 5 6 6 5 5 5 6 5 5 6 5 5 5 6 5 6 5 5 5 5 5 5 6 5 5 6 5 5 5 6 5 6 6 5 5 5 6 5 6 5 6 5 5 6 5 6 5 6 5 5 5 6 6 5 6 5 5 5 5 5 5 6 5 5 5 5 6 5 5 5 5 5 5 5 5 5 5 5 5 5 5 5 5 5 6 6 5 5 6 6 5 5 6 5 6 5 5 5 5 5 5 5 5 5 5 5 6 5 5 5 5 5 5 5 5 5 5 6 5 6 5 6 5 5 5 5 5 5 5 6 5 5 5 5 5 6 5 5 5 5 5 5 6 5 5 5 5 5 5 5 6 5 5 5 5 5 5 5 5 5 5 5 5 5 5 5 5 5 6 5 5 6 5 5 5 5 5 5 5 6 5 5 5 5 5 5 5 5 5 5 5 5 5 5 5 5 6 5 5 6 5 5 6 5 5 5 5 6 5 5 5 6 5 5 6 5 5 5 6 5 5 5 5 5 6 5 6 6 6 5 5 5 5 5 5 5 5 6 5 5 5 5 5 5 5 5 5 5 5 6 5 5 5 6 5 5 5 5 5 5 5 5 5 5 5 5 6 6 5 6 6 5 5 5 5 5 6 6 5 5 5 6 5 5 6 5 6 5 5 5 5 6 6 5 6 6 5 5 5 6 5 5 5 5 5 5 6 5 5 5 5 6 5 6 5 5 5 5 5 5 5 5 5 6 5 6 6 6 5 6 5 5 5 5 6 5 5 5 6 6 6 6 6 5 5 5 5 5 5 5 6 5 5 5 5 5 5 5 5 5 5 5 5 5 6 5 5 5 5 5 5 5 5 5 5 5 5 5 5 5 5 5 5 5 5 5 6 5 5 5 5 5 5 5 5 5 5 6 5 6 6 6 5 5 6 5 5 5 5 5 5 5 5 5 5 5 5 6 6 5 5 5 5 5 5 6 5 5 5 6 5 5 6 6 5 5 5 5 5 5 5 5 5 6 6 5 5 5 5 5 5 5 5 5 5 5 5 5 6 5 5 5 5 5 6 5 5 5 6 6 5 5 6 5 5 5 6 5 5 5 5 5 5 5 6 5 5 5 5 6 5 5 5 5 6 5 5 5 6 5 5 5 5 5 5 5 6 6 5 5 5 5 6 5 5 5 5 5 5 5 6 5 5 5 5 6 5 5 5 6 5 5 5 6 5 5 6 5 5 5 5 6 5 5 5 5 5 5 5 5 5 5 6 5 5 5 6 5 5 5 5 5 5 5 5 5 5 5 5 6 5 5 5 5 5 5 6 5 6 5 6 5 5 5 6 5 5 6 5 5 5 5 6 5 5 5 5 5 5 5 5 5 6 5 6 5 5 5 5 5 6 5 5 5 6 5 5 5 5 5 6 5 6 5 6 5 5 6 5 5 5 5 5 6 5 5 6 5 5 5 5 5 6 5 5 5 5 5 5 5 5 6 5 5 5 5 5 5 5 5 5 5 5 6 5 6 5 6 5 6 5 5 5 5 6 5 6 5 5 5 5 5 5 5 5 5 5 5 5 6 5 5 6 5 5 6 5 5 5 5 5 5 5 5 6 5 6 5 5 5 5 5 6 5 6 5 5 6 5 6 5 5 5 6 5 5 5 5 5 5 5 5 5 6 5 5 5 5 5 5 5 5 5 5 5 6 5 5 5 5 5 5 6 5 6 5 5 6 5 5 5 5 5 5 6 5 5 6 5 6 5 6 6 5 5 5 6 5 6 5 5 5 6 6 6 6 5 5 5 6 5 6 5 6 5 6 6 5 5 5 6 5 5 5 6 5 5 5 6 5 6 5 5 5 6 6 6 5 5 6 5 5 5 5 5 5 5 5 5 5 5 5 6 5 5 5 5 5 6 5 5 5 5 5 5 5 5 5 5 5 5 5 5 5 5 5 5 5 5 5 5 5 5 5 5 5 5 5 5 5 5 5 5 5 5 5 5 5 5 5 5 5 5 5 5 5 5 5 5 5 5 5 5 5 5 5 5 5 5 5 6 5 5 5 5 5 5 5 5 5 5 5 5 5 6 5 5 5 5 5 6 5 5 5 5 5 5 5 5 5 5 5 5 5 5 5 5 5 5 6 5 5 5 5 5 5 5 5 6 5 6 6 5 5 5 6 6 5 5 5 5 5 5 5 5 6 6 5 5 5 6 5 6 6 5 5 6 5 5 5 5 5 5 6 5 5 5 5 5 5 6 5 6 5 6 5 5 5 5 6 5 5 6 5 5 5 5 5 5 6 5 5 5 5 6 6 5 5 5 6 5 5 5 5 6 5 5 5 6 5 6 5 5 5 6 5 5 5 5 6 6 5 5 5 5 5 5 5 5 5 5 5 5 5 6 5 5 5 5 5 5 5 5 5 5 6 6 5 5 5 5 6 5 5 5 5 5 6 5 5 5 5 5 5 5 6 5 5 5 6 5 5 5 5 5 6 5 5 5 6 5 5 5 5 5 5 5 5 6 5 6 5 5 5 5 5 6 5 5 5 5 5 5 5 5 6 6 5 5 6 6 5 5 5 6 6 5 5 6 5 6 6 5 6 5 5 5 6 6 5 6 5 6 5 5 5 5 5 5 5 5 5 5 5 5 5 5 6 5 5 5 5 5 5 6 6 5 6 5 5 5 6 5 5 6 5 6 5 5 5 5 5 5 5 5 5 6 5 5 5 5 5 5 5 5 5 5 5 5 5 5 5 6 5 5 5 6 5 5 5 5 5 5 5 5 6 5 5 5 5 6 5 5 5 5 5 5 5 5 5 5 6 5 5 5 6 6 5 5 5 6 5 5 5 5 5 5 5 5 5 5 5 5 5 6 5 5 5 5 5 5 5 5 5 5 6 5 5 5 5 5 6 5 5 5 5 5 5 5 5 5 5 5 5 6 5 5 5 6 5 5 6 5 5 5 5 5 5 6 6 5 5 6 5 5 5 6 5 5 5 5 5 5 5 5 5 5 6 5 6 5 5 5 5 5 5 5 5 6 5 5 5 5 5 5 5 5 5 5 5 5 5 5 6 5 5 5 6 5 6 6 5 5 5 5 5 5 5 6 5 5 5 6 5 5 5 5 5 5 5 5 5 5 5 5 5 6 6 5 5 6 5 5 5 6 5 5 6 5 5 5 5 5 6 5 5 5 5 5 5 5 5 5 5 5 6 5 6 5 5 5 5 5 5 5 5 5 5 5 6 5 6 5 6 5 6 6 5 5 5 5 6 5 5 5 5 5 5 5 5 5 5 5 6 5 5 5 5 5 5 6 6 5 5 5 6 5 5 5 5 5 5 5 5 5 5 5 5 5 5 5 5 6 5 5 5 5 5 5 5 5 5 5 5 5 5 5 5 5 5 6 5 5 5 5 5 5 5 5 5 5 5 6 5 6 5 5 5 5 5 5 5 5 5 5 5 5 6 5 5 5 6 5 6 5 5 5 6 5 5 6 5 5 5 5 6 5 5 5 5 5 5 5 5 5 5 6 5 5 5 5 5 5 5 5 5 5 6 5 5 6 5 5 5 6 5 5 5 6 5 6 6 5 5 6 5 5 5 5 5 6 5 5 6 5 5 5 6 5 5 5 5 5 5 5 5 6 5 5 5 5 5 5 5 5 5 5 5 5 5 5 5 5 5 5 5 5 5 5 5 5 5 5 5 5 5 5 6 5 5 5 6 5 5 5 6 5 5 5 5 6 5 5 5 5 5 6 5 5 5 5 5 6 5 5 5 5 5 5 5 5 5 5 5 5 5 6 5 6 5 5 6 5 5 6 5 6 6 5 5 5 5 5 6 6 5 5 5 6 5 5 5 5 5 6 6 5 5 5 5 5 5 5 6 5 5 5 5 5 5 5 5 5 5 5 5 5 5 5 5 5 5 5 5 5 5 5 5 5 5 5 5 5 5 5 5 5 5 5 6 5 5 6 5 5 5 5 5 5 5 5 5 5 5 5 5 5 5 5 5 5 5 5 5 5 5 5 5 5 5 5 5 5 5 6 5 5 5 6 5 5 5 5 5 6 5 5 6 6 5 5 5 5 5 5 5 5 6 5 5 5 5 5 5 6 5 5 5 5 5 5 5 5 5 5 5 5 5 5 5 5 6 6 5 6 5 5 5 5 5 6 5 5 5 5 5 5 5 5 5 5 5 5 5 5 5 5 5 5 5 5 5 5 5 5 5 5 5 5 5 6 6 5 5 5 5 5 5 6 5 5 5 5 5 5 5 5 5 5 5 5 5 5 5 5 5 5 5 5 5 5 5 5 5 5 5 5 5 5 5 5 5 5 5 5 5 5 5 5 5 5 5 5 5 5 5 5 5 5 5 5 5 5 5 5 5 5 5 5 5 5 5 5 5 5 5 5 5 5 5 5 5 5 5 5 5 5 5 5 5 5 5 5 5 6 5 5 5 5 5 5 5 5 5 5 5 5 5 5 5 5 5 6 5 5 5 5 5 5 6 5 5 5 6 5 5 5 5 5 5 5 5 5 5 6 5 5 5 5 5 5 5 5 5 5 5 5 5 5 5 5 5 5 5 6 6 5 5 5 5 5 5 5 5 5 5 5 5 5 5 5 5 5 5 5 5 5 5 5 5 5 5 6 5 5 6 5 5 5 5 5 5 6 5 5 5 6 5 5 5 6 5 5 5 5 5 5 6 5 5 5 6 5 5 5 5 5 5 5 5 5 5 5 5 5 5 5 5 5 5 5 5 5 5 5 5 5 5 5 5 5 6 5 5 5 5 5 6 5 5 5 6 5 5 5 6 5 5 5 5 5 5 5 6 5 5 5 5 5 5 5 5 5 5 5 5 5 5 6 5 6 5 6 5 5 5 5 6 5 5 6 5 5 5 5 5 5 5 6 5 5 5 5 5 5 6 5 5 6 5 5 5 5 6 5 5 5 5 5 5 5 5 5 5 5 5 5 5 6 5 6 5 5 6 5 5 6 5 6 5 5 5 6 5 5 5 6 5 5 5 5 6 6 5 5 5 5 6 5 6 5 5 6 5 6 5 6 5 6 5 6 5 6 5 6 6 5 6 5 6 6 5 5 5 6 6 6 5 6 5 6 6 5 5 6 6 5 5 5 6 6 6 5 5 5 5 5 5 5 5 5 5 6 5 6 6 5 5 5 5 6 5 6 6 6 6 5 5 5 6 5 5 5 5 5 5 5 5 6 5 5 5 6 5 5 6 5 6 6 5 6 5 5 5 5 6 5 6 5 6 6 5 5 5 5 6 5 5 5 5 6 5 6 5 5 5 5 6 5 6 5 5 5 5 6 5 5 5 6 5 5 5 5 6 5 5 6 5 5 6 5 5 5 6 5 5 5 5 5 5 5 5 5 5 5 6 5 5 5 5 5 5 5 5 5 5 5 6 5 5 6 5 5 5 5 6 5 5 5 5 6 5 5 5 6 5 5 5 6 5 5 5 5 5 6 5 5 5 5 5 5 6 5 6 5 6 5 5 6 5 5 6 6 6 6 5 5 5 5 5 5 5 5 5 5 6 6 5 5 
</DataArray>
<DataArray type="Float64" Name="stress" NumberOfComponents="9" format="ascii">
2768.2622064732423 -31.456790084483853 0 -31.456790084483853 1.1615036919578705 0 0 0 0 4497.6137515955488 -1470.9381684159264 0 -1470.9381684159264 178.62687417242225 0 0 0 0 4227.9257529070019 -818.34266185311719 0 -818.34266185311719 -159.95212017101284 0 0 0 0 6943.1819117355626 -1846.0854140558399 0 -1846.0854140558399 -320.44157177676379 0 0 0 0 7364.7033954538128 -1098.0020592606818 0 -1098.0020592606818 1006.8818850601916 0 0 0 0 12.594069511087412 1.5721463678309249 0 1.5721463678309249 -2.2349359706046283 0 0 0 0 6959.4078785846941 -381.12678521624196 0 -381.12678521624196 -0.95973841939326143 0 0 0 0 6036.5321926581018 63.853015514023298 0 63.853015514023298 -125.12263052773278 0 0 0 0 3461.7684968094836 -314.57724960225642 0 -314.57724960225642 -105.84076734476207 0 0 0 0 4250.3544773770554 -878.4088162121767 0 -878.4088162121767 256.48483312661887 0 0 0 0 14.356306642747256 5.8594895869915433 0 5.8594895869915433 -3.6349143769884957 0 0 0 0 2387.7134836805926 -492.70446582712952 0 -492.70446582712952 87.339765964463851 0 0 0 0 4053.2497102582129 -65.300984756501805 0 -65.300984756501805 -18.706444527674904 0 0 0 0 2532.2559991877642 -347.73079300474308 0 -347.73079300474308 -454.90123833722345 0 0 0 0 3177.4537912874075 -405.8948506592086 0 -405.8948506592086 -449.74799918318672 0 0 0 0 2181.2483223867021 -379.62055976688725 0 -379.62055976688725 -200.4969807636511 0 0 0 0 2679.1193183404321 -507.52913350095025 0 -507.52913350095025 -339.99856898463634 0 0 0 0 1613.2375065381275 269.01594086622879 0 269.01594086622879 -264.58157905294871 0 0 0 0 2991.555804706295 49.629375742971547 0 49.629375742971547 -490.4345924908248 0 0 0 0 7.9800980377465578 2.7427608717538021 0 2.7427608717538021 -1.2400143520509761 0 0 0 0 4526.9401231481461 -1444.2047910644269 0 -1444.2047910644269 176.68848463327603 0 0 0 0 444.63190808705986 104.08366585187092 0 104.08366585187092 -31.336086736723665 0 0 0 0 104.5255989843281 -183.25322705269963 0 -183.25322705269963 295.97869552234226 0 0 0 0 2102.1286379921075 199.60399810969147 0 199.60399810969147 144.40825416601132 0 0 0 0 621.93644783666241 -15.700942824851751 0 -15.700942824851751 117.30952035982372 0 0 0 0 -259.38258951180615 695.2949277394514 0 695.2949277394514 -92.160196100932822 0 0 0 0 2264.8173888135425 970.75486044537786 0 970.75486044537786 -62.555767032709866 0 0 0 0 6.9733648795981651 5.6070666179454633 0 5.6070666179454633 3.5749550800344081 0 0 0 0 629.43507953422522 -33.32055596924382 0 -33.32055596924382 1.2478954340531914 0 0 0 0 123.20334907140932 -94.157217448876992 0 -94.157217448876992 -4.1613605359216876 0 0 0 0 274.1178222039016 -68.409781098735792 0 -68.409781098735792 -376.50366953283282 0 0 0 0 22.511293148243567 157.27200313257336 0 157.27200313257336 -300.14030338256765 0 0 0 0 17.779221312463505 5.0276320054620385 0 5.0276320054620385 4.6757200935031777 0 0 0 0 4165.6688945698625 -107.39216326035699 0 -107.39216326035699 -761.02625048617119 0 0 0 0 4454.4138580241779 -622.62910529024941 0 -622.62910529024941 -979.20086688756487 0 0 0 0 1484.5606422770943 -541.58964758320417 0 -541.58964758320417 99.466168301392827 0 0 0 0 825.71309574344195 -383.81686474079959 0 -383.81686474079959 207.95667078924953 0 0 0 0 19.22848032720691 1.0239879093205531 0 1.0239879093205531 0.62556160851326548 0 0 0 0 -169.54631535890803 1378.5193591510222 0 1378.5193591510222 1017.9140554264815 0 0 0 0 2405.1439385407139 1078.9816190919435 0 1078.9816190919435 721.77619858305627 0 0 0 0 48.005500485903951 -3.7408577990826117 0 -3.7408577990826117 -0.76512553276533823 0 0 0 0 60.451970496935246 -10.835414951709964 0 -10.835414951709964 -124.83031210776497 0 0 0 0 72.880531144008273 -9.2516148866124244 0 -9.2516148866124244 -15.807921982201995 0 0 0 0 -641.24736295948969 324.90356532206721 0 324.90356532206721 1.2941387920295329 0 0 0 0 15.802456244606446 -5.2402411303247334 0 -5.2402411303247334 -1.2027156842140061 0 0 0 0 44.413800893831649 -2.4616342744650375 0 -2.4616342744650375 0.003316172443549367 0 0 0 0 46.741723364248173 -0.92652367957745008 0 -0.92652367957745008 -4.2253431131101191 0 0 0 0 47.939743825731284 -5.8480896177462682 0 -5.8480896177462682 -1.7053935992012581 0 0 0 0 50.610868403644417 -5.0378133531070715 0 -5.0378133531070715 -0.0058368124033141844 0 0 0 0 9.0100286123210509 -6.2096194547914934 0 -6.2096194547914934 -9.1678723326352607 0 0 0 0 22.142935483745532 25.843569753267957 0 25.843569753267957 -22.510134123854414 0 0 0 0 -19.374993561941665 -63.687138575809641 0 -63.687138575809641 -37.669223156185168 0 0 0 0 40.778483355919889 -137.80369425223114 0 -137.80369425223114 6.309624990163627 0 0 0 0 144.30811702235223 -67.726648866817399 0 -67.726648866817399 -210.9286672060681 0 0 0 0 34.55290988755587 -10.207264118588744 0 -10.207264118588744 -0.47936848571140445 0 0 0 0 36.25689802179113 -8.0718264641435411 0 -8.0718264641435411 0.014720392470430079 0 0 0 0 12.414080413213242 -2.8330470233193523 0 -2.8330470233193523 0.56648172591023249 0 0 0 0 50.728033845287428 -15.984775900973997 0 -15.984775900973997 -2.8173866431226333 0 0 0 0 60.726481128192972 7.4901489374019548 0 7.4901489374019548 -69.074415817480087 0 0 0 0 38.104366576810378 -11.434657260159 0 -11.434657260159 1.2298405307285343 0 0 0 0 32.132614041414968 -9.8946696116679789 0 -9.8946696116679789 2.7715734639799501 0 0 0 0 87.531415383185958 -40.697084130279222 0 -40.697084130279222 -103.77809128345734 0 0 0 0 29.569735275923449 -8.8270539367505307 0 -8.8270539367505307 -33.210310621946974 0 0 0 0 132.10677507371292 -9.7980558271930249 0 -9.7980558271930249 -34.446753981830881 0 0 0 0 40.533335332904244 1.2382159301398019 0 1.2382159301398019 -25.649650267743027 0 0 0 0 116.38751300569857 6.6214341136866324 0 6.6214341136866324 55.098672761859291 0 0 0 0 40.861356928791793 20.457496829521006 0 20.457496829521006 69.660452926225389 0 0 0 0 104.36084127152571 20.429401202528993 0 20.429401202528993 73.26159951580712 0 0 0 0 122.61728376562678 45.709713938689134 0 45.709713938689134 162.39935979385552 0 0 0 0 182.84312712885003 -57.33359169438981 0 -57.33359169438981 112.55745632868843 0 0 0 0 97.632790046536229 -51.224322158894665 0 -51.224322158894665 -8.9995350620324075 0 0 0 0 -40.775763195124455 36.993344806458595 0 36.993344806458595 61.188691176336192 0 0 0 0 -2.0013546092015275 -1.7447399553799698 0 -1.7447399553799698 -3.770778288812092 0 0 0 0 -272.81383157272649 -116.58130227900173 0 -116.58130227900173 158.84709429835806 0 0 0 0 -0.15096885368951973 -0.095906258523456245 0 -0.095906258523456245 -0.91027438247245418 0 0 0 0 -362.08179916111112 208.17792054456768 0 208.17792054456768 49.413348283702376 0 0 0 0 29.031619185188902 -98.414071638409837 0 -98.414071638409837 105.86612392214477 0 0 0 0 15.284513302030973 -54.443449471079546 0 -54.443449471079546 19.858436173478587 0 0 0 0 -22.708936074317535 -125.97686850762118 0 -125.97686850762118 91.211719829336289 0 0 0 0 -133.29422940843506 -151.40599399543532 0 -151.40599399543532 107.75545197723585 0 0 0 0 -33.05007106874109 -68.664587139287278 0 -68.664587139287278 139.43073370108277 0 0 0 0 -217.12275301817681 -56.561591442721806 0 -56.561591442721806 -26.424356816913814 0 0 0 0 -219.90986959327165 -79.841514456697752 0 -79.841514456697752 63.613752115908255 0 0 0 0 182.54634448100114 -83.312604322528614 0 -83.312604322528614 180.48932040000471 0 0 0 0 157.45330578862922 -104.56055189350724 0 -104.56055189350724 347.05190600398078 0 0 0 0 186.7764491813723 23.83996388587331 0 23.83996388587331 305.81387535934203 0 0 0 0 406.94329984291107 -125.36084942796461 0 -125.36084942796461 249.38165116797188 0 0 0 0 49.638998129434185 -44.480485759955116 0 -44.480485759955116 244.28661452583415 0 0 0 0 19.138911295056459 -21.558299788997076 0 -21.558299788997076 138.35538290890699 0 0 0 0 48.030166160635417 -67.779236580877722 0 -67.779236580877722 148.52697401410614 0 0 0 0 36.000871603173437 -105.2870902694832 0 -105.2870902694832 146.0448427197754 0 0 0 0 30.883033401769353 -139.29813070082866 0 -139.29813070082866 97.884252405406642 0 0 0 0 43.03816515491053 -103.78393895479041 0 -103.78393895479041 127.98493718016152 0 0 0 0 44.142548924533912 -79.850709464758907 0 -79.850709464758907 205.15594048948333 0 0 0 0 141.14998729083163 -154.46663787225771 0 -154.46663787225771 146.1863740613386 0 0 0 0 282.08142426397535 -152.81370594228679 0 -152.81370594228679 88.265192927325302 0 0 0 0 211.66452888943604 -95.404454571583869 0 -95.404454571583869 132.62598161542292 0 0 0 0 304.76663351232128 -196.66490550436407 0 -196.66490550436407 150.01597682816441 0 0 0 0 458.16749987989897 -177.16255162464893 0 -177.16255162464893 191.29018766951663 0 0 0 0 239.50614996907825 -142.58405143263627 0 -142.58405143263627 197.63446510708422 0 0 0 0 299.08038277392188 -57.582355178595719 0 -57.582355178595719 -7.5155639310528386 0 0 0 0 157.48246515603387 -116.73409237356259 0 -116.73409237356259 80.279945529529641 0 0 0 0 173.75190485347412 -98.073533066562959 0 -98.073533066562959 -15.04467739211168 0 0 0 0 241.63239048031392 -156.91472292287995 0 -156.91472292287995 30.387604772848363 0 0 0 0 96.002609049872262 -151.51645576768306 0 -151.51645576768306 44.970205438323774 0 0 0 0 165.83151407823607 -132.20231014036452 0 -132.20231014036452 33.739464655139273 0 0 0 0 55.1599547079677 -102.9749777233032 0 -102.9749777233032 -4.4864310721300171 0 0 0 0 118.83861811559473 -108.07722756125327 0 -108.07722756125327 -66.241191966377755 0 0 0 0 19.828706409120059 -152.98095297989028 0 -152.98095297989028 -8.7054645545749736 0 0 0 0 221.161006591974 -68.76517915616148 0 -68.76517915616148 -65.567897187562721 0 0 0 0 160.30209435205325 -151.47032856572537 0 -151.47032856572537 -27.050544798483088 0 0 0 0 -234.86458899860736 -87.799962722128214 0 -87.799962722128214 21.129865359988798 0 0 0 0 -189.41994094085658 -101.48560577142598 0 -101.48560577142598 -4.3277587520692578 0 0 0 0 -190.53831249594441 -81.471435281404297 0 -81.471435281404297 -48.795009531846063 0 0 0 0 -119.2268159991072 -149.5352399620856 0 -149.5352399620856 25.42955793699457 0 0 0 0 -55.629370648646727 -146.4482248028296 0 -146.4482248028296 53.407943046728576 0 0 0 0 -7.4264064504532143 -92.193851422252806 0 -92.193851422252806 42.198163243265753 0 0 0 0 33.531355617589725 -155.1416071060529 0 -155.1416071060529 -6.3197219598350785 0 0 0 0 -84.377576610451797 -106.10682634703255 0 -106.10682634703255 3.1080980013812223 0 0 0 0 -100.42196077154949 -128.42217782272132 0 -128.42217782272132 -31.597591915841804 0 0 0 0 -63.499718927458161 -158.59221868965346 0 -158.59221868965346 -13.779675845575298 0 0 0 0 -72.895851586858043 -108.3712648355388 0 -108.3712648355388 -73.398682548353236 0 0 0 0 19.759975122226024 -150.09190569028718 0 -150.09190569028718 -59.338729680028791 0 0 0 0 -54.239600395405432 -123.01126423924984 0 -123.01126423924984 -7.5006184238382048 0 0 0 0 -148.42936426014057 -156.58548575444274 0 -156.58548575444274 -27.637416870051709 0 0 0 0 -144.83412598722498 -172.47631129433648 0 -172.47631129433648 -58.920406567590362 0 0 0 0 27.264556045990872 -14.101686595849998 0 -14.101686595849998 -0.51432410618979318 0 0 0 0 -0.6479368999447388 6.1247500347610355 0 6.1247500347610355 2.6935849888389138 0 0 0 0 -123.73152202775236 -162.7506313483409 0 -162.7506313483409 -28.176751586486489 0 0 0 0 -154.82734637442627 -121.2114260514154 0 -121.2114260514154 -83.629634266774246 0 0 0 0 448.80682810544386 63.769556087220934 0 63.769556087220934 -140.1004870768121 0 0 0 0 175.83838627644582 -1.0103478261374335 0 -1.0103478261374335 -43.575446104137313 0 0 0 0 666.37257620479795 244.78622373949906 0 244.78622373949906 115.36614505375974 0 0 0 0 353.73855412923149 -75.588083404295048 0 -75.588083404295048 -68.813983768648086 0 0 0 0 473.94798272938351 -92.742817202823574 0 -92.742817202823574 31.924440528060813 0 0 0 0 5.661719637826863 -2.192663758810852 0 -2.192663758810852 3.7561568380022985 0 0 0 0 1.9218764587552073 1.5486576492417043 0 1.5486576492417043 2.6313552107258436 0 0 0 0 493.53279593310435 114.59223250240478 0 114.59223250240478 115.88241259508209 0 0 0 0 344.22592467504728 -123.39652789076891 0 -123.39652789076891 113.59075618610825 0 0 0 0 547.08495141327148 87.355014264554541 0 87.355014264554541 63.026282169052593 0 0 0 0 527.49913432823087 -204.44217143268946 0 -204.44217143268946 114.96653286842994 0 0 0 0 932.63507838612713 -1096.7709530305801 0 -1096.7709530305801 311.16847700672224 0 0 0 0 380.92604498780565 -11.931259281658924 0 -11.931259281658924 95.527299944422225 0 0 0 0 416.33414054900641 -61.37990026809652 0 -61.37990026809652 110.36577655394672 0 0 0 0 89.367512174299918 17.904863308697486 0 17.904863308697486 103.88587775330805 0 0 0 0 289.18607106831041 -298.64298552127582 0 -298.64298552127582 201.35545176010964 0 0 0 0 -3.1774200022337027 -267.54921152287193 0 -267.54921152287193 240.02389396118303 0 0 0 0 -221.17903412027226 -273.97784125117653 0 -273.97784125117653 38.049849639355543 0 0 0 0 655.52156984938483 -56.94841431524344 0 -56.94841431524344 -5.8676821117392137 0 0 0 0 -1.6443824375785425 0.54402070076778841 0 0.54402070076778841 -3.6933773639167526 0 0 0 0 691.49115448747762 -41.208409156347784 0 -41.208409156347784 -172.93509045420285 0 0 0 0 379.92696165373491 -96.947996262826763 0 -96.947996262826763 -258.99741498139076 0 0 0 0 -2.0048914205543156 -1.8422814101043627 0 -1.8422814101043627 -2.0066079420504694 0 0 0 0 -740.83139231050154 375.00355557265152 0 375.00355557265152 51.743668855679971 0 0 0 0 -0.58924071757670049 -1.355059009409274 0 -1.355059009409274 -0.56369350432382603 0 0 0 0 -183.66871032997733 774.18258802193827 0 774.18258802193827 -228.78098882211953 0 0 0 0 730.09493190802095 -182.63370115787384 0 -182.63370115787384 -45.179478019566886 0 0 0 0 805.05603841390985 -813.94888611370243 0 -813.94888611370243 720.49024975251439 0 0 0 0 1082.3333767573349 -1694.1201621941359 0 -1694.1201621941359 1097.9000868004625 0 0 0 0 678.26903485687217 -159.28733250223831 0 -159.28733250223831 18.07875955977488 0 0 0 0 442.94058585196035 -1597.3689867802173 0 -1597.3689867802173 3181.3358817010139 0 0 0 0 2022.0566054594528 -3173.8667679328796 0 -3173.8667679328796 2043.0857936808884 0 0 0 0 1969.7384659189556 -1398.9809293004796 0 -1398.9809293004796 545.69362780549613 0 0 0 0 4495.1094289836983 -2474.044295872729 0 -2474.044295872729 -32.223246734811461 0 0 0 0 3063.7884230511117 -1503.1915211892654 0 -1503.1915211892654 -259.42221974853425 0 0 0 0 1699.3692009641672 -1228.2678158028998 0 -1228.2678158028998 190.86182575072442 0 0 0 0 1832.1319803183796 -1130.5179035728231 0 -1130.5179035728231 153.808435636897 0 0 0 0 1992.3917066075373 -1787.8189973916112 0 -1787.8189973916112 631.8919268285465 0 0 0 0 1616.9767466368503 -1126.9614454034518 0 -1126.9614454034518 178.64477630694108 0 0 0 0 1528.0667037669627 -1209.3753590635702 0 -1209.3753590635702 232.03168155769799 0 0 0 0 4496.1374502909784 -592.69329919634652 0 -592.69329919634652 -961.65792498718895 0 0 0 0 1872.3609267905122 -663.62675409635756 0 -663.62675409635756 -25.636456016924512 0 0 0 0 2649.9501220633101 -1027.1426215011936 0 -1027.1426215011936 -23.33023818454177 0 0 0 0 2175.2745111808472 -782.04580022555592 0 -782.04580022555592 -67.477756539628786 0 0 0 0 2647.5841065980799 -1264.3482861565717 0 -1264.3482861565717 -363.92308702619226 0 0 0 0 3757.2582582297619 -1183.0104809201907 0 -1183.0104809201907 -495.28082673767358 0 0 0 0 3777.7470135643525 -12.266671722466072 0 -12.266671722466072 -636.18051301415244 0 0 0 0 3219.3005798254308 -728.32006535375945 0 -728.32006535375945 -393.52303400263236 0 0 0 0 2657.104839270818 -595.41517351234461 0 -595.41517351234461 -275.00227187844848 0 0 0 0 2671.0603938917047 -703.72227763262742 0 -703.72227763262742 -348.50498909455951 0 0 0 0 2432.5226666433737 -643.16537727249727 0 -643.16537727249727 -225.75535605116056 0 0 0 0 2746.7223090859479 -360.18077017221458 0 -360.18077017221458 -331.46718229544751 0 0 0 0 2217.7164431502606 -381.37464188146561 0 -381.37464188146561 -200.59689641460136 0 0 0 0 1463.8901995018241 -99.283513414126617 0 -99.283513414126617 152.49332499567856 0 0 0 0 1.324416567576435 -0.67007434810071231 0 -0.67007434810071231 1.7286526675993332 0 0 0 0 1867.0014504631399 -617.29921168387818 0 -617.29921168387818 -89.760179758033928 0 0 0 0 593.50268470932497 -143.1039009976617 0 -143.1039009976617 84.546716842147816 0 0 0 0 -32.865103872783948 -273.18966331629667 0 -273.18966331629667 115.82676748769467 0 0 0 0 993.23478838586743 4.3075958925338611 0 4.3075958925338611 -62.213709868525143 0 0 0 0 0.48413997807814724 -1.0614374656694281 0 -1.0614374656694281 1.2787424492496839 0 0 0 0 -303.11704555648612 -81.153289124364449 0 -81.153289124364449 -20.308758455275893 0 0 0 0 821.49882365073427 -199.27346924677181 0 -199.27346924677181 -31.858059538816406 0 0 0 0 638.62376105118892 -59.505372706600667 0 -59.505372706600667 104.30782611479371 0 0 0 0 605.18169260356808 66.392801837223459 0 66.392801837223459 17.282741731794658 0 0 0 0 1291.7810672507003 -597.91218192734027 0 -597.91218192734027 337.18938725057296 0 0 0 0 513.11655822406465 -158.4559606368519 0 -158.4559606368519 90.689782741322659 0 0 0 0 0.39636526706955522 -2.7036831370272978 0 -2.7036831370272978 1.5798001249056326 0 0 0 0 1877.0928450449674 -417.49711740051606 0 -417.49711740051606 -127.13067804044886 0 0 0 0 2100.5648303707858 -512.16926604536013 0 -512.16926604536013 -209.85916139454207 0 0 0 0 -28.468107889064413 -41.237118174753221 0 -41.237118174753221 -9.7711973355163195 0 0 0 0 6.7082959681799821 -7.893144525770424 0 -7.893144525770424 7.6719172015409551 0 0 0 0 182.16585882457366 98.852863223390557 0 98.852863223390557 14.568183636025424 0 0 0 0 158.51454165209725 10.803415046775854 0 10.803415046775854 -44.3302830431644 0 0 0 0 4.280417615447476 -4.2665121654080451 0 -4.2665121654080451 3.0124784789454333 0 0 0 0 98.052046666722163 93.152823645540821 0 93.152823645540821 100.45285953150528 0 0 0 0 280.71477238179068 141.66613035912459 0 141.66613035912459 6.804465395493537 0 0 0 0 -24.589197519511799 -16.491879474589215 0 -16.491879474589215 2.6957233606875945 0 0 0 0 -45.293196897160669 -40.856935850383849 0 -40.856935850383849 -6.3951151034048834 0 0 0 0 -13.870683244458633 -27.612008730089631 0 -27.612008730089631 0.01046067028184298 0 0 0 0 -27.413016307735234 -12.100419327304753 0 -12.100419327304753 -3.1149408130528471 0 0 0 0 -46.383038955020311 -25.92967191938342 0 -25.92967191938342 -0.015677172247951215 0 0 0 0 268.31175756989705 6.2752781098841623 0 6.2752781098841623 -46.140931653041434 0 0 0 0 8.2497566292366855 2.3721360580144051 0 2.3721360580144051 -2.2794285778663301 0 0 0 0 44.411661791353254 77.076278451266376 0 77.076278451266376 143.76507246452724 0 0 0 0 100.30795853209565 15.919265600112467 0 15.919265600112467 1.1629040328873412 0 0 0 0 10.842515978325451 -7.0171177679688412 0 -7.0171177679688412 -7.3796231402404331 0 0 0 0 412.88635097959195 229.58238810254545 0 229.58238810254545 -34.911481816620551 0 0 0 0 0.53311392206477848 -0.16179849236669952 0 -0.16179849236669952 -0.76309692930760198 0 0 0 0 68.503856018622173 21.600433666585054 0 21.600433666585054 1.1629040328854643 0 0 0 0 1.7579153583109814 -1.1852675467501399 0 -1.1852675467501399 0.52510564511290747 0 0 0 0 212.1226712007774 -209.66738688316786 0 -209.66738688316786 2.1693344377315587 0 0 0 0 64.345376256242162 -0.920169968325943 0 -0.920169968325943 0.021498154001888425 0 0 0 0 4652.4778350269189 1072.2468765837218 0 1072.2468765837218 202.98316914785164 0 0 0 0 6.8349536379643041 -1.5590872057541389 0 -1.5590872057541389 -2.4884256172452259 0 0 0 0 4443.3591096752207 859.60614482278061 0 859.60614482278061 2.2973539369864957 0 0 0 0 3770.1291967951474 1166.5732493833059 0 1166.5732493833059 433.36524180204242 0 0 0 0 4138.2971920856362 411.74127656280649 0 411.74127656280649 122.50617656606983 0 0 0 0 3321.7212344138607 885.34128287304134 0 885.34128287304134 117.25208249955176 0 0 0 0 3349.8704043130419 832.55737618974092 0 832.55737618974092 173.73959496654925 0 0 0 0 3076.3432954477248 241.57819617583465 0 241.57819617583465 -111.92920626558316 0 0 0 0 2916.1677854796653 509.43989912555003 0 509.43989912555003 56.168040583798302 0 0 0 0 2987.6976494517003 522.80417884236522 0 522.80417884236522 -281.23781473702456 0 0 0 0 3245.0216757756425 608.0368744616851 0 608.0368744616851 -169.16457835156598 0 0 0 0 10.865730873088921 -12.211474307775802 0 -12.211474307775802 -11.315997617800456 0 0 0 0 45.18086994033365 -40.286180952168024 0 -40.286180952168024 45.487177132948773 0 0 0 0 94.983651765214745 19.179421252599155 0 19.179421252599155 -19.335034615159657 0 0 0 0 10.734378676973549 -0.75764015991197198 0 -0.75764015991197198 -6.2167367461368173 0 0 0 0 61.139462052087765 1.4325779797402447 0 1.4325779797402447 22.442632801687751 0 0 0 0 3209.5889148514107 227.1090287922683 0 227.1090287922683 -332.99245016158034 0 0 0 0 4.9894041441632311 -8.8484231106227469 0 -8.8484231106227469 -13.573173376833822 0 0 0 0 2804.6947088519155 412.05554348329952 0 412.05554348329952 -328.23385085159225 0 0 0 0 2800.6506622759916 378.24043957908634 0 378.24043957908634 184.25082444341979 0 0 0 0 2164.7955045330455 392.79165739397899 0 392.79165739397899 -42.986169973798496 0 0 0 0 2385.7719962257543 257.6027555316391 0 257.6027555316391 -38.072531839198291 0 0 0 0 1259.0863039540709 -21.346525360881969 0 -21.346525360881969 23.060426697844377 0 0 0 0 1691.8539512432471 366.23691876195699 0 366.23691876195699 -137.63899476308052 0 0 0 0 2407.9500209716571 192.61014926307894 0 192.61014926307894 -298.63506084609162 0 0 0 0 2100.468262919283 148.03958209523103 0 148.03958209523103 -261.75713710957723 0 0 0 0 141.10015700169606 -370.68254234019719 0 -370.68254234019719 -48.25856314259056 0 0 0 0 1229.7594777422782 120.16458883685709 0 120.16458883685709 -428.25541152863048 0 0 0 0 9.7691694912911657 10.87576213674609 0 10.87576213674609 11.737314322742435 0 0 0 0 1189.7750697794399 -493.7253952494284 0 -493.7253952494284 420.91498504316723 0 0 0 0 570.89462860513595 362.35279046342748 0 362.35279046342748 148.79029373661047 0 0 0 0 984.14025235900772 -985.96633909659965 0 -985.96633909659965 781.00653430996636 0 0 0 0 1680.0595389823429 -183.3542391362721 0 -183.3542391362721 529.47234820502808 0 0 0 0 699.92095249058912 -301.99148511547958 0 -301.99148511547958 363.09943283768871 0 0 0 0 1832.9783186572313 74.184442194005896 0 74.184442194005896 -179.16818023693577 0 0 0 0 1832.6134419828595 121.75859505044536 0 121.75859505044536 -38.724094250234884 0 0 0 0 2853.0871949383873 339.49963438385339 0 339.49963438385339 -107.61651656312324 0 0 0 0 2615.0656298789108 47.129897352230273 0 47.129897352230273 -286.01039827077966 0 0 0 0 1985.3643290131731 -865.37254262219369 0 -865.37254262219369 -88.670395530858514 0 0 0 0 3588.1274632683489 589.77000702618761 0 589.77000702618761 111.10073499467853 0 0 0 0 3594.6056991989785 -650.58866755418899 0 -650.58866755418899 -89.037325437326217 0 0 0 0 4577.9951550544065 714.75524145282395 0 714.75524145282395 151.99874621400198 0 0 0 0 1860.2315578774724 -526.36355302736899 0 -526.36355302736899 1.7929445612676158 0 0 0 0 4599.2446495095155 -219.99995241836766 0 -219.99995241836766 -84.120022888921994 0 0 0 0 10.122522833030843 5.5052267905333849 0 5.5052267905333849 5.4118722763291904 0 0 0 0 1177.7887987748254 -573.90182652252543 0 -573.90182652252543 411.44842812256434 0 0 0 0 26.021928419460892 -6.7599179926421371 0 -6.7599179926421371 0.0085563891630729399 0 0 0 0 2.9311014556222688 0.17695411022009466 0 0.17695411022009466 -1.1172855894498395 0 0 0 0 8.4862829120393428 0.36258944306118224 0 0.36258944306118224 -1.7400350623576788 0 0 0 0 27.458592957278597 -9.0166918602288568 0 -9.0166918602288568 1.6277238286557196 0 0 0 0 1548.9165668627611 -806.28689985566643 0 -806.28689985566643 -131.71052808116383 0 0 0 0 1718.101861318828 -289.49747902397712 0 -289.49747902397712 50.77677883589422 0 0 0 0 1.4679052526222449 -0.40150856640381249 0 -0.40150856640381249 0.91388461348484196 0 0 0 0 25.46574444827246 -8.7025047210934687 0 -8.7025047210934687 2.1489009579888916 0 0 0 0 28.162266541308782 -9.2916314530936628 0 -9.2916314530936628 0.39616767242597106 0 0 0 0 27.839178326859837 -8.5185625163931729 0 -8.5185625163931729 1.6887825828687204 0 0 0 0 27.82865434917403 -8.4344318081934961 0 -8.4344318081934961 1.1222179586060808 0 0 0 0 29.71190341268084 -8.4250900331616805 0 -8.4250900331616805 -0.0045159471239930313 0 0 0 0 29.609112806472695 -10.748659475264471 0 -10.748659475264471 0.22823518114036823 0 0 0 0 29.355086385505274 -8.484487146163449 0 -8.484487146163449 0.94232734166906873 0 0 0 0 12.891747454094002 -53.916467369856719 0 -53.916467369856719 -14.535862003243778 0 0 0 0 6.4486602857068647 -54.983376763889282 0 -54.983376763889282 -14.686699833492639 0 0 0 0 -28.682837527914671 -40.643325895852513 0 -40.643325895852513 -9.4959509451764461 0 0 0 0 2.7255500511091668 -48.481523037462466 0 -48.481523037462466 -23.87440877043116 0 0 0 0 2.5289610043391235 -2.9006411351940073 0 -2.9006411351940073 3.0504527230119773 0 0 0 0 760.71755940005096 -556.89821964494593 0 -556.89821964494593 469.29478299000641 0 0 0 0 1183.5935298373242 -572.23446640950624 0 -572.23446640950624 275.58503130132044 0 0 0 0 1.3791826435772236 -65.195600693744041 0 -65.195600693744041 10.52398900355206 0 0 0 0 0.4440601345498294 -0.40246530424613525 0 -0.40246530424613525 0.52876222490230207 0 0 0 0 -303.87859940821363 11.570534710500965 0 11.570534710500965 92.122420095616917 0 0 0 0 697.70186762270168 -447.9925597372868 0 -447.9925597372868 295.2429049157895 0 0 0 0 1017.1029332986509 -474.45762014860287 0 -474.45762014860287 221.60774605010062 0 0 0 0 1014.0961021361234 -732.89969500267341 0 -732.89969500267341 279.10067917521849 0 0 0 0 152.03079051076929 -106.29722780480665 0 -106.29722780480665 -19.725661274356753 0 0 0 0 -51.862181437230902 -322.86655682524702 0 -322.86655682524702 195.93139655266828 0 0 0 0 274.11594427190721 -155.40905706045129 0 -155.40905706045129 182.42493180952363 0 0 0 0 94.809567468764726 -29.220943159809849 0 -29.220943159809849 97.558822717579687 0 0 0 0 1018.0174228971882 -423.50369945270404 0 -423.50369945270404 282.47268854710569 0 0 0 0 283.21616325672221 -325.66566748218389 0 -325.66566748218389 659.63957573071616 0 0 0 0 214.889022893738 -26.926550701700364 0 -26.926550701700364 501.32692254017547 0 0 0 0 439.00066719588358 -227.30977205197939 0 -227.30977205197939 138.8926079112253 0 0 0 0 497.78963074133208 -365.4519045336657 0 -365.4519045336657 -427.13693114186469 0 0 0 0 598.19037180303712 -730.2285311486894 0 -730.2285311486894 367.26691886913284 0 0 0 0 604.42326849413803 -614.90218225224066 0 -614.90218225224066 18.033205303620434 0 0 0 0 3.3090529238063766 4.344117142308221 0 4.344117142308221 6.5105004904737047 0 0 0 0 614.44592044581077 -784.7690628288675 0 -784.7690628288675 -242.99118956304767 0 0 0 0 -1080.4240063396574 -447.10500319317163 0 -447.10500319317163 1440.9739616807169 0 0 0 0 89.610099968500435 73.503016122611712 0 73.503016122611712 -812.684934731863 0 0 0 0 1.450690842135316 -1.9308915615412161 0 -1.9308915615412161 -1.1347398436919316 0 0 0 0 -585.49388228033786 762.57504416579559 0 762.57504416579559 -227.82393056137937 0 0 0 0 -257.04551991153858 237.38003830330763 0 237.38003830330763 386.9878780133804 0 0 0 0 1183.6558341271157 12.355938504187748 0 12.355938504187748 -15.171866397214217 0 0 0 0 664.69035733200144 174.2322130624018 0 174.2322130624018 56.220788938352371 0 0 0 0 830.58302154747071 167.11018740200575 0 167.11018740200575 38.718644542093102 0 0 0 0 886.20995629783647 -126.67990462517575 0 -126.67990462517575 72.244596803574495 0 0 0 0 458.19996818804066 -173.72259676882095 0 -173.72259676882095 213.9953115520027 0 0 0 0 481.49190954421647 -58.719735594117992 0 -58.719735594117992 32.514887001636907 0 0 0 0 535.50155613085371 -113.65039216393166 0 -113.65039216393166 79.442393020193549 0 0 0 0 448.88127599934523 63.489504778691071 0 63.489504778691071 -28.035598638278543 0 0 0 0 345.17491188901477 -96.907605815415991 0 -96.907605815415991 23.958979986300449 0 0 0 0 272.57588273359579 -112.66965654502837 0 -112.66965654502837 -29.266594406423565 0 0 0 0 304.0383656630911 53.135529208617342 0 53.135529208617342 -13.366458003982871 0 0 0 0 199.73233599407831 -2.4329847855462958 0 -2.4329847855462958 -38.354043285351395 0 0 0 0 366.70958512280777 72.366701866562494 0 72.366701866562494 21.954070713931969 0 0 0 0 4.4220335307914809 -3.9119833350295039 0 -3.9119833350295039 -13.883792071599739 0 0 0 0 -837.43393730434764 -592.86091486929536 0 -592.86091486929536 -147.69699517761615 0 0 0 0 773.00279959839827 -131.67355711925339 0 -131.67355711925339 -189.67243017007786 0 0 0 0 -144.83228864734701 254.70025794401954 0 254.70025794401954 80.388925267402101 0 0 0 0 -295.60021595217404 -470.67292322650883 0 -470.67292322650883 -73.430380995368409 0 0 0 0 1.0206485113357644 1.5201382752226209 0 1.5201382752226209 -36.064926764254395 0 0 0 0 423.83602277956379 329.02475197724834 0 329.02475197724834 62.812862854235391 0 0 0 0 977.11960128342616 -74.099350956780654 0 -74.099350956780654 -52.175279952034089 0 0 0 0 829.10311040707165 180.83762557728849 0 180.83762557728849 391.6257648279734 0 0 0 0 2006.5661056742974 259.00737173568496 0 259.00737173568496 -196.1614166091872 0 0 0 0 1906.0391306531092 150.05310688581949 0 150.05310688581949 35.56784904238134 0 0 0 0 1196.2111861695194 429.99189213682803 0 429.99189213682803 409.90200242554124 0 0 0 0 1101.2979645177402 135.30125862006616 0 135.30125862006616 100.10793134293499 0 0 0 0 206.95245818881085 252.21685307499092 0 252.21685307499092 192.38546070813078 0 0 0 0 654.88955031282967 444.1385132260209 0 444.1385132260209 57.292766168413209 0 0 0 0 -2.8260672604374122 -66.917897141009377 0 -66.917897141009377 -18.517573990803385 0 0 0 0 83.309004350681789 431.18876701735985 0 431.18876701735985 -121.52763081842812 0 0 0 0 170.63596950788633 235.74018368047132 0 235.74018368047132 305.16462915586635 0 0 0 0 -47.37323871141416 240.47675334949054 0 240.47675334949054 384.59617035859026 0 0 0 0 436.16363616689341 325.20478959681486 0 325.20478959681486 224.08833649460144 0 0 0 0 473.24237527087826 240.58701405525738 0 240.58701405525738 296.71006729809505 0 0 0 0 -270.81460692905239 231.94846060419889 0 231.94846060419889 477.34760504484848 0 0 0 0 -29.777938474202529 259.160733718144 0 259.160733718144 373.10327094740842 0 0 0 0 1156.0810207182949 199.14045819789499 0 199.14045819789499 106.10149741872965 0 0 0 0 363.63016156220692 85.463763542269817 0 85.463763542269817 122.14728812920839 0 0 0 0 1169.8009675464364 331.67385152300449 0 331.67385152300449 154.6280286904539 0 0 0 0 1287.9628058082017 197.87875203779345 0 197.87875203779345 147.30276462095262 0 0 0 0 2093.2391746103676 545.67312973781884 0 545.67312973781884 27.401461385247103 0 0 0 0 1176.0362640292151 313.52893682071408 0 313.52893682071408 129.9178094639351 0 0 0 0 2182.3183146861556 356.62358489223146 0 356.62358489223146 103.2303777396279 0 0 0 0 2960.5004585768329 506.62796020925862 0 506.62796020925862 -193.69396433815086 0 0 0 0 2972.9205759376591 339.12959186688647 0 339.12959186688647 -360.43630537203853 0 0 0 0 3586.7445992205176 593.38910442514486 0 593.38910442514486 -298.02541159874261 0 0 0 0 1818.7239604862334 -931.02116752664892 0 -931.02116752664892 430.83702075788096 0 0 0 0 15.333959550859618 -12.655395297654394 0 -12.655395297654394 -19.914081382806494 0 0 0 0 9.9379215398769816 -6.092443374486237 0 -6.092443374486237 -6.3367145765243382 0 0 0 0 3712.8020191128307 -209.08660252964251 0 -209.08660252964251 265.30674869658014 0 0 0 0 4336.8221853638097 1546.2022721539711 0 1546.2022721539711 493.69403604663557 0 0 0 0 2841.9464913570555 958.93646775786056 0 958.93646775786056 644.72590472792626 0 0 0 0 2629.5298042330833 -112.48066162503187 0 -112.48066162503187 926.90971912375016 0 0 0 0 1934.5835061097168 364.6836383338707 0 364.6836383338707 764.63599487101601 0 0 0 0 2089.1947422186349 84.659259204398779 0 84.659259204398779 123.66718344919673 0 0 0 0 3014.493154257565 324.27367085429091 0 324.27367085429091 50.068192571837926 0 0 0 0 2353.1202904453276 571.88768314467075 0 571.88768314467075 -173.24479565372349 0 0 0 0 3033.3895012103239 710.75951716458894 0 710.75951716458894 -210.12418558172885 0 0 0 0 2406.6321708830365 444.0256536798388 0 444.0256536798388 -83.678575209811243 0 0 0 0 2904.0143556972689 698.4898593197363 0 698.4898593197363 -7.7863710865940448 0 0 0 0 32.570801837806357 -18.9999703291071 0 -18.9999703291071 -16.544164545394779 0 0 0 0 16.652005457924844 -13.709894250462185 0 -13.709894250462185 -7.6289365724102343 0 0 0 0 82.838684533140622 -38.131522646856979 0 -38.131522646856979 -24.396750955465905 0 0 0 0 28.073630895308384 -19.933199919213479 0 -19.933199919213479 -5.7389841906495729 0 0 0 0 11.970036831614522 -9.9653676153324966 0 -9.9653676153324966 -12.831403599433271 0 0 0 0 24.453030209275312 -41.495367164743129 0 -41.495367164743129 4.5323968542497823 0 0 0 0 27.852684243404411 -25.734016571487928 0 -25.734016571487928 -8.4966994985563637 0 0 0 0 140.82668303136597 31.591711942788606 0 31.591711942788606 -11.050571255557998 0 0 0 0 1.7623905318250763 -9.0856572197035916 0 -9.0856572197035916 0.69073837962627493 0 0 0 0 -58.117647330116597 -28.820743612865954 0 -28.820743612865954 8.7783151416424516 0 0 0 0 155.19484917982481 32.318565508452593 0 32.318565508452593 -15.049526446402524 0 0 0 0 139.46678454289213 31.523340099624875 0 31.523340099624875 -11.038068592042691 0 0 0 0 116.15692212674185 57.295060126934004 0 57.295060126934004 -0.3603055851310728 0 0 0 0 72.05403128193575 -40.36616879146959 0 -40.36616879146959 30.046259884099527 0 0 0 0 39.085318066856416 -6.8032875156847581 0 -6.8032875156847581 2.459428935172582 0 0 0 0 64.147046078516723 2.745691736525373 0 2.745691736525373 -23.417247937162756 0 0 0 0 30.332657832754194 -8.2020082497060685 0 -8.2020082497060685 27.736084052637125 0 0 0 0 10.587139010097928 -13.140300406215658 0 -13.140300406215658 -8.4331851546039296 0 0 0 0 73.05581210127275 60.476758446960275 0 60.476758446960275 19.724759806000293 0 0 0 0 147.19428318397831 39.928514187530993 0 39.928514187530993 -1.0951778775124694 0 0 0 0 105.48682150550303 36.211438360262036 0 36.211438360262036 24.167026117938462 0 0 0 0 114.71409039039281 10.602647076874746 0 10.602647076874746 19.090193638759956 0 0 0 0 55.916757924424019 -37.183684033732789 0 -37.183684033732789 19.355951348357848 0 0 0 0 53.785578193535912 -17.821308030756427 0 -17.821308030756427 -0.34982732155913254 0 0 0 0 34.092589583829977 -11.886639272057437 0 -11.886639272057437 35.022651803590634 0 0 0 0 29.613255972129991 14.309063182667387 0 14.309063182667387 -11.311706971686363 0 0 0 0 16.395029135434527 -5.5700288596900691 0 -5.5700288596900691 8.2704387429729316 0 0 0 0 8.1728258558111975 8.1982793678124679 0 8.1982793678124679 -1.2883093238820038 0 0 0 0 14.251684697322041 -27.161485003461934 0 -27.161485003461934 14.078058630120715 0 0 0 0 112.76405605241598 9.1802213514702089 0 9.1802213514702089 27.603405422472861 0 0 0 0 2618.8588348568883 112.86090848601998 0 112.86090848601998 -514.7996237982552 0 0 0 0 2513.2189615948701 -19.146602561148939 0 -19.146602561148939 -187.18698232468523 0 0 0 0 1666.2269613419303 716.39042888879044 0 716.39042888879044 2305.8796620733519 0 0 0 0 156.52713403450616 0.26157454561553095 0 0.26157454561553095 -11.081342713203412 0 0 0 0 8.7385452034291831 -25.927239035784112 0 -25.927239035784112 21.329553880510538 0 0 0 0 32.083682008087635 10.425723929791275 0 10.425723929791275 32.235476007184843 0 0 0 0 97.569582094351063 -40.504616864276159 0 -40.504616864276159 17.845677900313603 0 0 0 0 98.53249905379198 18.315289048266095 0 18.315289048266095 10.836033954848062 0 0 0 0 21.338628239861976 -28.10256685984433 0 -28.10256685984433 -4.2812953427173213 0 0 0 0 15.637004597490886 -47.629061785213253 0 -47.629061785213253 18.135493488245629 0 0 0 0 7.9701794328652866 -20.725934106571373 0 -20.725934106571373 9.3228281339339745 0 0 0 0 2902.9559233257642 -237.00441907073127 0 -237.00441907073127 -619.91989275549349 0 0 0 0 133.2720315818151 -15.481906614617401 0 -15.481906614617401 -24.046596827809935 0 0 0 0 5054.5085060996716 1753.7951544200585 0 1753.7951544200585 -309.09924634994968 0 0 0 0 5205.1199899883359 -445.2741051848152 0 -445.2741051848152 -924.5642799184352 0 0 0 0 3440.3931498895181 382.17982302513155 0 382.17982302513155 -456.75131252969732 0 0 0 0 2166.142067185021 868.75005059563409 0 868.75005059563409 -519.83793228281138 0 0 0 0 746.75530938683369 428.08856793266386 0 428.08856793266386 77.726634485967224 0 0 0 0 2146.8789272445765 1065.1344019103544 0 1065.1344019103544 196.21613065532802 0 0 0 0 -224.11775910881988 230.60719274562416 0 230.60719274562416 518.48243541637021 0 0 0 0 1873.1276267950307 1981.3366541684718 0 1981.3366541684718 1261.5674758771675 0 0 0 0 33.413227106655086 7.09267355574422 0 7.09267355574422 2.5811881984953535 0 0 0 0 540.99184743187834 508.17368189055287 0 508.17368189055287 -364.75462954432442 0 0 0 0 664.54356512443337 -360.32394512494011 0 -360.32394512494011 94.903127545245297 0 0 0 0 3126.2115765989729 -1446.7562069800242 0 -1446.7562069800242 -21.847127696928965 0 0 0 0 4537.2354918624624 583.80633678853155 0 583.80633678853155 -788.00403922411351 0 0 0 0 3157.2488205288246 199.67335544217076 0 199.67335544217076 -740.66530284429086 0 0 0 0 3189.1311475985131 -6.8828082263571559 0 -6.8828082263571559 -565.39668052481102 0 0 0 0 184.28851657625637 -501.92719395819495 0 -501.92719395819495 6.8277345746546416 0 0 0 0 206.65765143241151 -123.78959857783138 0 -123.78959857783138 -306.49206173937864 0 0 0 0 104.17851765914969 -20.995776463124631 0 -20.995776463124631 -17.27940119187037 0 0 0 0 136.88100715210021 -114.65891945951716 0 -114.65891945951716 -283.80664363812139 0 0 0 0 -23.587746893739677 -194.7997766124563 0 -194.7997766124563 -258.37979461549321 0 0 0 0 85.994479109870213 14.318871645173033 0 14.318871645173033 -12.942149335179764 0 0 0 0 -44.118255999404937 152.26245792084592 0 152.26245792084592 -142.52055272131838 0 0 0 0 27.662586140990499 1.3351817086815743 0 1.3351817086815743 -10.326895044380663 0 0 0 0 -190.73903117833834 -288.38462336121938 0 -288.38462336121938 -58.367824157267023 0 0 0 0 401.01414876147464 -193.668521170639 0 -193.668521170639 -661.88202138643828 0 0 0 0 808.3612044116926 9.9053165450712868 0 9.9053165450712868 -306.98503975005224 0 0 0 0 25.525021472387436 11.736550291143459 0 11.736550291143459 -66.940153978466199 0 0 0 0 184.23183924423938 10.47507859087375 0 10.47507859087375 -101.52996889354154 0 0 0 0 120.25499850604683 57.124233847304595 0 57.124233847304595 -134.59765220056033 0 0 0 0 125.89236678666202 -51.736947023839775 0 -51.736947023839775 -115.84947999289028 0 0 0 0 201.69752007865463 -8.7359521626788137 0 -8.7359521626788137 -105.1356306028074 0 0 0 0 284.78548108353425 61.736718862508667 0 61.736718862508667 -48.757012750962303 0 0 0 0 124.76250285671267 30.363669988331822 0 30.363669988331822 -35.901702582973712 0 0 0 0 259.51902957260609 -8.4273228621468661 0 -8.4273228621468661 -73.941137764529913 0 0 0 0 143.59321967579308 -50.485353249907007 0 -50.485353249907007 -79.851611016102197 0 0 0 0 111.99618521660159 -67.254918523928495 0 -67.254918523928495 -97.580817793303595 0 0 0 0 98.161449953951433 -22.124569552178361 0 -22.124569552178361 -6.9989827437828183 0 0 0 0 139.29838641937749 -11.869215959649125 0 -11.869215959649125 -181.80237571679527 0 0 0 0 259.17303799832007 52.046277652008939 0 52.046277652008939 -529.60218034013587 0 0 0 0 52.427078343360336 -90.988785655637912 0 -90.988785655637912 -226.01706764863593 0 0 0 0 66.016423037406639 158.84011025265318 0 158.84011025265318 229.56271319051939 0 0 0 0 314.79922389195417 73.515428175406669 0 73.515428175406669 -196.34428174163509 0 0 0 0 173.85184500167088 -261.15911177805174 0 -261.15911177805174 -89.429248793643637 0 0 0 0 84.335695496101522 -14.570017686150308 0 -14.570017686150308 -1.2565894191341727 0 0 0 0 159.41678313570446 20.947543008505818 0 20.947543008505818 -714.470601561085 0 0 0 0 -541.10746969838374 -623.78970157256867 0 -623.78970157256867 -835.31644594870704 0 0 0 0 -104.3444020123934 106.29008639041695 0 106.29008639041695 -65.049810013537353 0 0 0 0 97.120035765668945 255.21908010548987 0 255.21908010548987 -318.6512920109999 0 0 0 0 301.74469703398063 360.38768144265669 0 360.38768144265669 -79.319318211176665 0 0 0 0 59.187635133574076 105.37529162920782 0 105.37529162920782 -67.578071972099679 0 0 0 0 188.19915207941085 218.65820573061819 0 218.65820573061819 406.19081153172101 0 0 0 0 469.8344263752665 409.88204364623817 0 409.88204364623817 49.915352156355766 0 0 0 0 478.47312286435044 -47.739825493735225 0 -47.739825493735225 259.60980968642662 0 0 0 0 2.1166606247388131 -3.0812320351218432 0 -3.0812320351218432 4.9657719364702189 0 0 0 0 799.92594507923422 269.40399429785668 0 269.40399429785668 97.743462512241877 0 0 0 0 395.69958142871565 -100.76310045175723 0 -100.76310045175723 -174.52493698228682 0 0 0 0 -104.99801559707703 35.993890261446268 0 35.993890261446268 357.22365780193832 0 0 0 0 -225.74581160031084 -103.92577639327965 0 -103.92577639327965 373.93343064483241 0 0 0 0 988.925732294716 -73.300997649063902 0 -73.300997649063902 189.76701793322013 0 0 0 0 67.081752075733675 227.12867365981981 0 227.12867365981981 252.3479339430346 0 0 0 0 916.27372956223553 -150.49457864529177 0 -150.49457864529177 -71.898915247306945 0 0 0 0 -72.448690812369023 -80.501491929610324 0 -80.501491929610324 259.81177231692345 0 0 0 0 -592.62794212491281 -161.57153631432357 0 -161.57153631432357 -59.440368828594728 0 0 0 0 -118.83074973723342 -155.22445517001438 0 -155.22445517001438 -168.48149405056756 0 0 0 0 60.987620502091943 -12.404014839839789 0 -12.404014839839789 0.28918811835721669 0 0 0 0 -121.41885354651458 281.97532881601455 0 281.97532881601455 269.45670958466781 0 0 0 0 128.60266675121602 -153.94156232330488 0 -153.94156232330488 -1268.6385031772188 0 0 0 0 3000.4655593647185 990.80365472342328 0 990.80365472342328 360.11170039068566 0 0 0 0 877.6712665959858 180.17733128938335 0 180.17733128938335 65.399247263732832 0 0 0 0 3365.1588040305942 -493.71676632688832 0 -493.71676632688832 -314.25077842838255 0 0 0 0 2876.3784224081755 -172.48286490991995 0 -172.48286490991995 -413.27245563480756 0 0 0 0 2193.4712255903141 -557.52719491217522 0 -557.52719491217522 1167.1224480965393 0 0 0 0 2380.5488947398408 559.08856293816916 0 559.08856293816916 653.7880904345584 0 0 0 0 3012.5232178712613 -868.19273640515803 0 -868.19273640515803 -904.82587802194575 0 0 0 0 1074.5273466902727 -1324.0088929407329 0 -1324.0088929407329 -984.68866943539251 0 0 0 0 23.923552868557351 -6.5154332512317659 0 -6.5154332512317659 1.272796796349823 0 0 0 0 809.93555515304615 -480.02813937547023 0 -480.02813937547023 -204.65781787255037 0 0 0 0 2523.7231775679393 -116.41255177220592 0 -116.41255177220592 -160.37095408865207 0 0 0 0 984.87703548917489 -29.000443326213372 0 -29.000443326213372 452.10384331374007 0 0 0 0 2502.9071526810003 -223.39781578849033 0 -223.39781578849033 -416.28776951994223 0 0 0 0 3717.4125361843617 512.44655651676885 0 512.44655651676885 24.384330222792414 0 0 0 0 2429.5105116175255 -399.44780787550644 0 -399.44780787550644 1569.3339833012965 0 0 0 0 2857.8566301545216 -162.02759794078156 0 -162.02759794078156 -782.18609522288898 0 0 0 0 3566.2854229117729 154.90836197776798 0 154.90836197776798 -667.26468615534213 0 0 0 0 2040.6171259051189 -70.78444698299063 0 -70.78444698299063 -405.78701062337041 0 0 0 0 327.90889873652486 -261.83682490779756 0 -261.83682490779756 145.96838086924072 0 0 0 0 1375.7246871430398 301.96957367491814 0 301.96957367491814 -312.61582779150376 0 0 0 0 2673.8769729523192 -466.43865038754939 0 -466.43865038754939 -505.25414981650465 0 0 0 0 1421.4201756623806 -407.53745626032651 0 -407.53745626032651 -349.43674395752259 0 0 0 0 1409.0543613053414 -422.05503541988458 0 -422.05503541988458 -87.806927836007162 0 0 0 0 176.94979745490127 44.798655953848538 0 44.798655953848538 139.79859903136094 0 0 0 0 -378.34106313766097 -82.25077857818269 0 -82.25077857818269 347.45823438167554 0 0 0 0 -228.93540079705417 606.18983090109032 0 606.18983090109032 -121.35186243833186 0 0 0 0 3486.5210293250784 -1061.7246675981187 0 -1061.7246675981187 -237.5781990595442 0 0 0 0 450.37451313142083 -656.2208823850624 0 -656.2208823850624 1129.984109136085 0 0 0 0 1659.0070950180525 -1285.7084929531875 0 -1285.7084929531875 674.05205719819241 0 0 0 0 56.388337320327992 -4.448651900830555 0 -4.448651900830555 -1.8415661557428393 0 0 0 0 280.55916815021192 4.2821459645456343 0 4.2821459645456343 -4.6458982245239895 0 0 0 0 39.360616088844836 15.982655866307937 0 15.982655866307937 3.6096641636149798 0 0 0 0 41.768547076229879 7.1684882322447265 0 7.1684882322447265 0.60963685867500317 0 0 0 0 39.750100237317383 -4.9330617280202205 0 -4.9330617280202205 0.36292178709845757 0 0 0 0 10.552280047948649 2.6460050429382136 0 2.6460050429382136 -2.4083541906085273 0 0 0 0 259.82401044756989 41.044662025684374 0 41.044662025684374 8.4127613696273329 0 0 0 0 28.158354027232946 4.5377040759674685 0 4.5377040759674685 -1.8990094963318036 0 0 0 0 35.962235880910242 3.7687837726557518 0 3.7687837726557518 -1.2469820130733567 0 0 0 0 29.775953620497603 0.56843784256761865 0 0.56843784256761865 -3.1161438678554987 0 0 0 0 30.105851429220365 1.176557232263292 0 1.176557232263292 -4.984956171058462 0 0 0 0 28.865828446654575 6.6713708656898518 0 6.6713708656898518 -4.8785085572545732 0 0 0 0 7.7696111002758741 -1.8293754341304975 0 -1.8293754341304975 5.1401542930661712 0 0 0 0 44.103319379733875 3.0924513660345383 0 3.0924513660345383 17.98913501257357 0 0 0 0 48.043629510371829 8.3283411231432183 0 8.3283411231432183 21.136329232585013 0 0 0 0 57.125440866366262 13.882258379186624 0 13.882258379186624 21.840058157922613 0 0 0 0 56.329737940770428 2.3728537559838969 0 2.3728537559838969 10.476761082616576 0 0 0 0 925.33847915146907 259.13003798646059 0 259.13003798646059 102.77706801635213 0 0 0 0 8.9176741738717382 -3.5062083067043659 0 -3.5062083067043659 15.930074085755141 0 0 0 0 1264.3000032005366 -362.38081040827728 0 -362.38081040827728 549.16438767311411 0 0 0 0 1698.3338144233057 251.9479243544838 0 251.9479243544838 59.751543312158901 0 0 0 0 2078.4352974571375 -234.18977187598284 0 -234.18977187598284 327.12393830535621 0 0 0 0 9.2330734991097074 -6.797114132734535 0 -6.797114132734535 -2.4443020330991985 0 0 0 0 2590.7354670281929 -471.12294471391579 0 -471.12294471391579 -45.450446077157267 0 0 0 0 48.432561037411062 11.355530551541335 0 11.355530551541335 6.2845615897337161 0 0 0 0 46.758175476643373 2.7428576009795052 0 2.7428576009795052 12.039555546738484 0 0 0 0 49.601510064589093 8.6225134686683305 0 8.6225134686683305 12.243052453515702 0 0 0 0 128.26421398840466 25.22802856053022 0 25.22802856053022 -0.34721606088714907 0 0 0 0 54.141626780561637 9.8386123207601486 0 9.8386123207601486 11.610954417061293 0 0 0 0 110.94116491127352 -46.452591584798483 0 -46.452591584798483 -42.118607589218072 0 0 0 0 148.81569293889333 -3.2539080435639107 0 -3.2539080435639107 -71.503825711629219 0 0 0 0 184.64287682407303 -24.420480454004746 0 -24.420480454004746 -101.52050814629342 0 0 0 0 101.90212067590193 -23.074915089620724 0 -23.074915089620724 -6.7052859758521901 0 0 0 0 40.052963397221312 -14.490872677162486 0 -14.490872677162486 -33.203834632533329 0 0 0 0 54.536771575454623 14.712619561889369 0 14.712619561889369 -33.463090353636289 0 0 0 0 128.83699546687421 3.0078846320757293 0 3.0078846320757293 -98.902309162851452 0 0 0 0 74.245514734880999 3.7383549403930374 0 3.7383549403930374 -81.5125315079149 0 0 0 0 11.585551487575685 -7.3519224697288621 0 -7.3519224697288621 -45.34770157648596 0 0 0 0 -1.3028637099960179 -45.831831815094148 0 -45.831831815094148 32.406523539468822 0 0 0 0 125.74430726172432 74.98782534392808 0 74.98782534392808 -71.181058350146486 0 0 0 0 136.94216339148988 -79.970612245991333 0 -79.970612245991333 0.27662512850065468 0 0 0 0 1.0450716933730178 0.713917805872331 0 0.713917805872331 -6.5373609371528749 0 0 0 0 312.18150382628664 10.544358204689615 0 10.544358204689615 -53.2755965999512 0 0 0 0 163.04281003167853 -28.58425372878234 0 -28.58425372878234 -26.406876684192071 0 0 0 0 351.65484211815055 27.98726958804491 0 27.98726958804491 52.220049119090163 0 0 0 0 330.55034489083482 467.57222703968108 0 467.57222703968108 727.13900616479464 0 0 0 0 7.2189148473778744 -6.0956141156747492 0 -6.0956141156747492 -9.4424386573352148 0 0 0 0 269.45410785587592 96.555966692121132 0 96.555966692121132 -4.0560257129582737 0 0 0 0 1882.37666867589 2075.1811770402082 0 2075.1811770402082 1157.5801854713434 0 0 0 0 55.014214483904652 -29.227605722082444 0 -29.227605722082444 578.09811841200542 0 0 0 0 11.05595132532504 8.9046285621864456 0 8.9046285621864456 15.877393083389792 0 0 0 0 4496.2737993035898 -420.73030923685081 0 -420.73030923685081 77.86942144066532 0 0 0 0 154.62279717522324 8.0473274525231773 0 8.0473274525231773 -29.512169006789236 0 0 0 0 158.84187806538284 39.759256099260085 0 39.759256099260085 -14.40713356975175 0 0 0 0 15.063384894064242 -2.5337052030299105 0 -2.5337052030299105 -11.007425931599467 0 0 0 0 200.97458947718769 55.800115450673431 0 55.800115450673431 11.628562612749192 0 0 0 0 97.731091761317543 -13.014595529118083 0 -13.014595529118083 -4.5928598864869414 0 0 0 0 116.67778611253016 7.5764138396098133 0 7.5764138396098133 -6.8087060979205489 0 0 0 0 -96.748292308242526 -9.9216147719625951 0 -9.9216147719625951 32.591990955518895 0 0 0 0 126.77174373916205 4.5709881809157196 0 4.5709881809157196 -23.726844340267235 0 0 0 0 95.319818827847484 18.718768680711037 0 18.718768680711037 22.269972177312411 0 0 0 0 46.523064784811226 6.473161057343134 0 6.473161057343134 3.7127608560204486 0 0 0 0 21.975253847538013 1.3030697653079528 0 1.3030697653079528 14.589008234768363 0 0 0 0 34.900897917686962 -3.0971219543928328 0 -3.0971219543928328 2.6456788817104098 0 0 0 0 4628.6060862217346 1502.3868988810837 0 1502.3868988810837 -390.98979920060231 0 0 0 0 2229.0357843569363 -308.96059683679937 0 -308.96059683679937 78.759414330701006 0 0 0 0 -187.379343180859 -36.734290877262538 0 -36.734290877262538 1665.3505545548587 0 0 0 0 10.468790716931693 -4.6697167985859664 0 -4.6697167985859664 15.727815700781363 0 0 0 0 4583.7161954264229 409.99410750094222 0 409.99410750094222 63.114300754219137 0 0 0 0 4498.538638005648 868.11336364445765 0 868.11336364445765 156.73419746551843 0 0 0 0 -1.658824603925666 -2.989930683880587 0 -2.989930683880587 7.8212663645552496 0 0 0 0 291.08594734864892 -125.6191005537994 0 -125.6191005537994 -840.14703739643073 0 0 0 0 32.824741081562536 -13.748407533484112 0 -13.748407533484112 9.5961029796777417 0 0 0 0 -101.70846575248288 325.19659661229161 0 325.19659661229161 731.16179343028489 0 0 0 0 14.849554036259832 -10.63639403542382 0 -10.63639403542382 -13.245878291601711 0 0 0 0 -621.50672126427526 -285.25882891358083 0 -285.25882891358083 -92.168809535288347 0 0 0 0 135.97448285204882 -224.63150210404115 0 -224.63150210404115 70.996353977353465 0 0 0 0 480.73149856194505 -272.15065433682776 0 -272.15065433682776 63.52374930059068 0 0 0 0 542.60094826060231 0.41600653608929861 0 0.41600653608929861 -12.833391766807381 0 0 0 0 217.48788373233401 17.770376283894393 0 17.770376283894393 16.530240563078223 0 0 0 0 216.7691163556301 -10.891454416869465 0 -10.891454416869465 -54.857129870949848 0 0 0 0 26.808144922982379 1.771283891706247 0 1.771283891706247 -13.808562173621956 0 0 0 0 108.4501283975722 -21.782472349637246 0 -21.782472349637246 -7.9544759082294005 0 0 0 0 140.60321684311202 -32.830510529045341 0 -32.830510529045341 -47.482839053072894 0 0 0 0 199.00686179718468 -14.048841554293176 0 -14.048841554293176 -51.348880941245056 0 0 0 0 -9.6021916465469985 -93.655467100716777 0 -93.655467100716777 5.9214770623782442 0 0 0 0 112.88942967774346 4.2786742143025549 0 4.2786742143025549 -39.898169365967533 0 0 0 0 199.25267805340991 -71.216608299149158 0 -71.216608299149158 -4.6595415031132461 0 0 0 0 182.69203674140135 60.80427296972335 0 60.80427296972335 75.145991938982547 0 0 0 0 183.66035060465219 -54.668656756118438 0 -54.668656756118438 -156.87759654788042 0 0 0 0 133.56029513024259 77.368970643225282 0 77.368970643225282 -81.826271023345782 0 0 0 0 364.98378289221728 118.60692464055654 0 118.60692464055654 -85.105027927371793 0 0 0 0 68.131076339606807 7.8790444659557863 0 7.8790444659557863 10.758174888764643 0 0 0 0 49.724780249649484 -29.231075654531196 0 -29.231075654531196 8.6653926048857102 0 0 0 0 62.874828103405889 10.172413293818863 0 10.172413293818863 14.621975634785144 0 0 0 0 39.943634341415702 -29.924255264127709 0 -29.924255264127709 15.005589654254852 0 0 0 0 -3.9445248492411338 -168.09438453614212 0 -168.09438453614212 -128.93455736344163 0 0 0 0 -57.465034556225874 -200.39281385408844 0 -200.39281385408844 -105.51867587140259 0 0 0 0 60.582743998675141 -45.346374495426062 0 -45.346374495426062 -8.6054088930377475 0 0 0 0 28.053312466770876 -44.72607444519781 0 -44.72607444519781 -8.5299898822939895 0 0 0 0 69.102650081331376 -55.870693126646984 0 -55.870693126646984 -36.879178393612165 0 0 0 0 69.528939647305378 -58.375285892798274 0 -58.375285892798274 -28.413281935128907 0 0 0 0 151.7710863489192 -57.272805196328591 0 -57.272805196328591 -77.899647517297126 0 0 0 0 108.36891783587635 -63.637202275700474 0 -63.637202275700474 -67.276757936801005 0 0 0 0 16.982945259334038 9.1553207216805674 0 9.1553207216805674 -19.445117932340782 0 0 0 0 235.10765430446918 -31.177078478387102 0 -31.177078478387102 -63.404513271708765 0 0 0 0 142.39785537589341 -39.632443592548952 0 -39.632443592548952 -56.5435892183541 0 0 0 0 172.749297387345 -14.25831657247727 0 -14.25831657247727 -60.24352867973721 0 0 0 0 100.61378738190979 -35.252532289794544 0 -35.252532289794544 -25.966075265239851 0 0 0 0 106.05461855913745 -38.687755065604506 0 -38.687755065604506 -47.768219323117592 0 0 0 0 103.00973808555864 15.95728394872458 0 15.95728394872458 1.4699077757604755 0 0 0 0 147.55829745839583 5.3018727054113697 0 5.3018727054113697 -27.143511831509386 0 0 0 0 91.613173333811574 -38.820400725928266 0 -38.820400725928266 -22.706606154344627 0 0 0 0 175.77176009802497 -105.80697306164575 0 -105.80697306164575 -71.261131655998042 0 0 0 0 124.51217630220344 -119.57535391465308 0 -119.57535391465308 -104.30249157267554 0 0 0 0 150.39109847359941 -82.421621238712419 0 -82.421621238712419 -91.887471195356511 0 0 0 0 78.371033402450848 -149.19632934143351 0 -149.19632934143351 -68.905827875500435 0 0 0 0 25.837512689155119 -103.63564107253558 0 -103.63564107253558 -89.33857262346055 0 0 0 0 -58.071182900879307 -139.8582415445629 0 -139.8582415445629 -70.116920942985416 0 0 0 0 68.030088759900536 -111.91424711793684 0 -111.91424711793684 -87.242919750792908 0 0 0 0 67.659367470128927 -98.757957848494698 0 -98.757957848494698 -92.211539721126883 0 0 0 0 184.04727535543498 -69.566323529896863 0 -69.566323529896863 -110.92233503085845 0 0 0 0 115.96723665704485 -75.138927349732057 0 -75.138927349732057 -107.51260387043544 0 0 0 0 73.001786150794942 -111.67708794615561 0 -111.67708794615561 -88.325501082340452 0 0 0 0 125.13819440221414 -98.170966650512582 0 -98.170966650512582 -92.79756515841882 0 0 0 0 95.067563378950581 -76.186542897758954 0 -76.186542897758954 -75.166680039155381 0 0 0 0 89.202235308123591 -26.500506692921817 0 -26.500506692921817 -2.2233939125396143 0 0 0 0 -61.146596218750346 221.12191663032172 0 221.12191663032172 -340.47068649088078 0 0 0 0 67.622974830155727 -94.493324067678031 0 -94.493324067678031 -84.430462965365678 0 0 0 0 21.397235119403348 0.77852593801149794 0 0.77852593801149794 -16.511515267857007 0 0 0 0 57.553462940740076 -44.639538197840324 0 -44.639538197840324 26.213619080568911 0 0 0 0 29.414469800336519 -119.9111363267657 0 -119.9111363267657 54.636713324264292 0 0 0 0 -403.53395616053604 -58.13667763200101 0 -58.13667763200101 -80.072731610203846 0 0 0 0 22.640743722236948 -79.382070070572809 0 -79.382070070572809 20.17628561377569 0 0 0 0 1924.6135687252972 -307.81497844878322 0 -307.81497844878322 -611.86711425220528 0 0 0 0 -0.028743538473293029 -10.38658184626582 0 -10.38658184626582 9.2128585768946714 0 0 0 0 937.20027400275285 -233.68673655651583 0 -233.68673655651583 -71.074706583081934 0 0 0 0 -555.13584426432499 -595.56419468556851 0 -595.56419468556851 421.29585000366569 0 0 0 0 9.24910191530617 0.87804945561758529 0 0.87804945561758529 0.53972715942407845 0 0 0 0 383.45422934396629 301.82674342395239 0 301.82674342395239 -36.880859960307134 0 0 0 0 -964.72695244190004 -565.32903421781839 0 -565.32903421781839 308.00618139519793 0 0 0 0 -983.71942798095574 582.7069470351355 0 582.7069470351355 -88.844783798529534 0 0 0 0 -336.58703664183849 -659.28580340545068 0 -659.28580340545068 320.56540380867591 0 0 0 0 865.3507952504151 -894.68126171765107 0 -894.68126171765107 -874.51495946082105 0 0 0 0 99.422795825744885 -14.009004409444849 0 -14.009004409444849 -3.9682974713919172 0 0 0 0 2956.2322841381538 -60.653015227617288 0 -60.653015227617288 -1009.9627543675861 0 0 0 0 -317.0918615066912 264.28796530030377 0 264.28796530030377 -257.49936601036461 0 0 0 0 422.85011688361192 324.96736800822919 0 324.96736800822919 -511.44220872675578 0 0 0 0 -355.57466807003857 1069.1180541830863 0 1069.1180541830863 -408.62277698583057 0 0 0 0 -145.74193325909437 -133.76311277664354 0 -133.76311277664354 -205.34049851016005 0 0 0 0 -9.6168126338452566 -24.650898394203978 0 -24.650898394203978 -218.44187794107415 0 0 0 0 12.149595337221399 -29.792859002693149 0 -29.792859002693149 -79.258419309086094 0 0 0 0 36.580691705603385 67.970283774680865 0 67.970283774680865 -137.94349123852953 0 0 0 0 -66.873949681365048 15.456868536608908 0 15.456868536608908 -72.308606019396393 0 0 0 0 -66.873949681350496 15.456868536508409 0 15.456868536508409 -72.308606019374565 0 0 0 0 -66.87394968161243 15.456868536591628 0 15.456868536591628 -72.30860601929453 0 0 0 0 -66.873949681350496 15.456868536520687 0 15.456868536520687 -72.308606019330909 0 0 0 0 -66.873949681583326 15.456868536551838 0 15.456868536551838 -72.308606019378203 0 0 0 0 134.80656062564231 -64.530018676550753 0 -64.530018676550753 -79.43461446924448 0 0 0 0 103.57394468667917 -70.93590330823281 0 -70.93590330823281 -67.197625408236604 0 0 0 0 103.00940839157556 -58.456269413625705 0 -58.456269413625705 -55.687141826965671 0 0 0 0 90.217806988861412 -88.118340741501015 0 -88.118340741501015 -78.399556187327107 0 0 0 0 93.146596788894385 -67.547417946152564 0 -67.547417946152564 -51.603301549293974 0 0 0 0 103.50733187793492 -4.6408898569260408 0 -4.6408898569260408 -10.119685141262927 0 0 0 0 -565.46844759292435 9.0263973383098346 0 9.0263973383098346 -74.915269521161463 0 0 0 0 242.47999825066654 483.47511945005317 0 483.47511945005317 -826.87469498711562 0 0 0 0 310.99590188695583 -121.80465803149673 0 -121.80465803149673 -676.84677251144285 0 0 0 0 78.779117929458153 -80.18993075947219 0 -80.18993075947219 -62.727915015384497 0 0 0 0 43.944248701445758 -80.039051978234056 0 -80.039051978234056 -24.740730441671985 0 0 0 0 24.089971960755065 -97.747776771486315 0 -97.747776771486315 -37.450875564627495 0 0 0 0 49.330432365997694 -97.759610208064259 0 -97.759610208064259 -55.014193483642885 0 0 0 0 31.303735106881646 10.475504198504481 0 10.475504198504481 -6.79944818979817 0 0 0 0 -74.865414033003617 280.91534890864932 0 280.91534890864932 596.7555421526049 0 0 0 0 13.778189630291308 57.026007902903075 0 57.026007902903075 -63.878681127263462 0 0 0 0 358.03782447070989 16.813760585924683 0 16.813760585924683 -145.41358248678807 0 0 0 0 441.70151690428611 125.18041635919872 0 125.18041635919872 -495.16368197699558 0 0 0 0 -125.45398512491374 707.36283307619669 0 707.36283307619669 86.632665889530472 0 0 0 0 -16.723571688779657 96.620191138831174 0 96.620191138831174 -98.843412982736481 0 0 0 0 -100.74411388358567 2.7506639743860433 0 2.7506639743860433 -13.569216212438221 0 0 0 0 16.863065709455611 31.886427068682735 0 31.886427068682735 -6.9284455396185436 0 0 0 0 -8.6079063368524658 43.811209096751554 0 43.811209096751554 -2.2460434925656045 0 0 0 0 5.3631187060924006 1.2788367496762874 0 1.2788367496762874 0.49340415618941336 0 0 0 0 6.4884926306198061 22.731678619978609 0 22.731678619978609 -36.306749123472514 0 0 0 0 11.137676455798271 -2.5616560359839724 0 -2.5616560359839724 -6.1546360653084866 0 0 0 0 -9.4867147458753607 52.296471790318833 0 52.296471790318833 -42.764986788872193 0 0 0 0 106.60352568517555 -39.256361789904076 0 -39.256361789904076 -124.97534842353207 0 0 0 0 3.2194114124140469 74.897041453647034 0 74.897041453647034 -96.380021792898333 0 0 0 0 61.176856522019079 39.871127553361475 0 39.871127553361475 -66.528451920743464 0 0 0 0 13.003793805706664 24.185147576803502 0 24.185147576803502 -29.635179974067796 0 0 0 0 -22.095740612247027 50.20535358099005 0 50.20535358099005 -41.866272297322098 0 0 0 0 -39.0106726444792 38.497586459707236 0 38.497586459707236 -42.411695834216516 0 0 0 0 17.449211408871633 51.614227120256146 0 51.614227120256146 -18.415119024733031 0 0 0 0 -0.74683657508235513 9.7469361183010363 0 9.7469361183010363 -15.545703632361821 0 0 0 0 22.279389401999424 6.954735046240188 0 6.954735046240188 -4.867662461616419 0 0 0 0 -2.8278521586646113 10.21585209705114 0 10.21585209705114 -6.4957046744219724 0 0 0 0 15.014717511612957 -2.0062967621700594 0 -2.0062967621700594 -17.321386048693057 0 0 0 0 -8.8299128911312437 15.734597116543227 0 15.734597116543227 -8.283149854376461 0 0 0 0 -0.16227579441328999 -16.133412926732944 0 -16.133412926732944 24.327825238332025 0 0 0 0 507.08930094017705 680.62160196764853 0 680.62160196764853 -331.11249218459216 0 0 0 0 1377.1727610334492 180.83056232756098 0 180.83056232756098 -241.09462514165716 0 0 0 0 -28.033838246352389 35.447655158170164 0 35.447655158170164 -53.958528860717252 0 0 0 0 -35.036950137844542 26.01520539658668 0 26.01520539658668 -54.980334856969421 0 0 0 0 -59.486912336134992 51.856176485992364 0 51.856176485992364 -18.32937980875522 0 0 0 0 2.4342865497804382 3.0995371349385437 0 3.0995371349385437 1.5199636640993077 0 0 0 0 -15.912674322466046 6.6073083965543447 0 6.6073083965543447 -9.8434243439969578 0 0 0 0 413.21812343691272 176.79691698390252 0 176.79691698390252 66.62305979813209 0 0 0 0 1167.8099846227342 139.46031781189049 0 139.46031781189049 -337.95426386364852 0 0 0 0 189.57749661606795 229.10175772828052 0 229.10175772828052 111.2784121655759 0 0 0 0 148.83528370410204 191.87467748265954 0 191.87467748265954 77.36678532380256 0 0 0 0 1.9778176293367977 7.2497347896384099 0 7.2497347896384099 6.4754308708329731 0 0 0 0 181.2834841567128 160.48881571607581 0 160.48881571607581 68.177547335120835 0 0 0 0 -8.5918675229040673 29.625536214611884 0 29.625536214611884 8.096424299004866 0 0 0 0 78.546769480861258 51.161285399453845 0 51.161285399453845 -21.423294840249582 0 0 0 0 168.56825951770588 26.288918976715649 0 26.288918976715649 71.586269070786329 0 0 0 0 89.634655839906372 164.79510187634952 0 164.79510187634952 214.2958958073159 0 0 0 0 2.5492128322861163 3.0627970495912962 0 3.0627970495912962 -7.2961721254674217 0 0 0 0 -4.6372117722270616 9.3548584868302527 0 9.3548584868302527 2.5639700261701321 0 0 0 0 10.986042930787903 22.581716074927332 0 22.581716074927332 7.6890196093836494 0 0 0 0 -3.4960082585245829 10.430644738056429 0 10.430644738056429 -5.1159107082992215 0 0 0 0 9.4361234523603343 20.117794132476774 0 20.117794132476774 -4.9685724100578099 0 0 0 0 9.8821063168725232 17.039988702873416 0 17.039988702873416 3.5849663473569819 0 0 0 0 5.888207382766268 18.452605593088265 0 18.452605593088265 3.5741755923518213 0 0 0 0 65.703226388339544 58.190417998659363 0 58.190417998659363 31.370651662367891 0 0 0 0 148.00062701598654 65.45825668483144 0 65.45825668483144 30.056729884566835 0 0 0 0 -2.473759157434563 0.79832824632489974 0 0.79832824632489974 -0.048609284999258762 0 0 0 0 152.46582076523191 53.475220159369201 0 53.475220159369201 50.751704109693605 0 0 0 0 3012.1229451677355 2656.5259618175805 0 2656.5259618175805 947.88937903049396 0 0 0 0 4906.9165575344232 -1547.0768719070738 0 -1547.0768719070738 3594.1616160910853 0 0 0 0 18.800782901993301 17.328400960011081 0 17.328400960011081 -1.9854573313655033 0 0 0 0 2896.385915721723 2606.8112080510191 0 2606.8112080510191 973.40004131257729 0 0 0 0 1226.6730012744956 -1423.884607402355 0 -1423.884607402355 -1357.8084715050891 0 0 0 0 20.724736623937389 -2.2293412482717372 0 -2.2293412482717372 -2.3685866219980469 0 0 0 0 58.56538378514233 -988.5513296665506 0 -988.5513296665506 -562.13057782969599 0 0 0 0 13.683483242435784 -6.0653931836642272 0 -6.0653931836642272 -2.8922511325023352 0 0 0 0 657.3489655644953 54.910661123062688 0 54.910661123062688 1429.8723877193991 0 0 0 0 1382.1278876385331 -133.45889368918267 0 -133.45889368918267 -84.090725133454725 0 0 0 0 1709.7771159389558 980.28980540235466 0 980.28980540235466 173.11179610400845 0 0 0 0 201.60499293703469 145.02955194443257 0 145.02955194443257 61.146992903622049 0 0 0 0 17.258253882604293 0.44371408792504496 0 0.44371408792504496 -25.967428284379416 0 0 0 0 11.810595883578571 3.0438449857106207 0 3.0438449857106207 -93.886266606887148 0 0 0 0 315.6181630472347 128.18201465867446 0 128.18201465867446 60.00926109379067 0 0 0 0 2.141467363837819 0.39864322533303209 0 0.39864322533303209 -4.2466397893973831 0 0 0 0 295.0124749662773 283.21713214863718 0 283.21713214863718 -27.884966959549274 0 0 0 0 7.4190161682924156 -3.5529289008615876 0 -3.5529289008615876 -16.844446311391568 0 0 0 0 1171.9707229485648 1080.2550428430009 0 1080.2550428430009 229.35116656891768 0 0 0 0 31.516407180024544 54.63923039267911 0 54.63923039267911 95.275074339544005 0 0 0 0 304.90000064135529 -45.523286119960858 0 -45.523286119960858 7.2566519430783956 0 0 0 0 150.106251881145 141.75340822215389 0 141.75340822215389 -34.672580405853296 0 0 0 0 2.6736633736873046 100.33495774902212 0 100.33495774902212 -57.809162657230672 0 0 0 0 17.323633022344438 0.78933753836895448 0 0.78933753836895448 -48.002707737708988 0 0 0 0 9.987529040168738 49.957533202446029 0 49.957533202446029 -143.85794823172819 0 0 0 0 4.1683570679295769 3.0434624854300552 0 3.0434624854300552 0.61494539415828697 0 0 0 0 25.85108101721562 19.146797525291049 0 19.146797525291049 -84.768998744395503 0 0 0 0 100.27122316329041 26.115190922153943 0 26.115190922153943 -140.0395278232304 0 0 0 0 4493.4566315221091 1511.5569902356674 0 1511.5569902356674 -286.85384766594592 0 0 0 0 2203.4634820977153 613.24784364920049 0 613.24784364920049 -389.4999685959454 0 0 0 0 2160.5332265105972 850.02359322368966 0 850.02359322368966 128.63967512571176 0 0 0 0 1061.2713521312617 634.2641743301524 0 634.2641743301524 481.53339493126356 0 0 0 0 4491.8873158710776 -175.10953890028327 0 -175.10953890028327 -507.45741660054881 0 0 0 0 18.447975147532048 -1.5293604934283778 0 -1.5293604934283778 -0.6960690690382052 0 0 0 0 1114.5278255207231 -1291.1579369432075 0 -1291.1579369432075 -261.53095390284528 0 0 0 0 936.10498726009973 160.69232674176584 0 160.69232674176584 -855.4107284484154 0 0 0 0 487.82309431411704 887.35658131651655 0 887.35658131651655 507.216076622049 0 0 0 0 2009.3505034687696 759.08664165822256 0 759.08664165822256 -705.3701546605397 0 0 0 0 36.607297054842292 -6.1000154663929678 0 -6.1000154663929678 -3.0463868403405594 0 0 0 0 241.59947426797589 590.17963131919555 0 590.17963131919555 -496.41370845296296 0 0 0 0 2046.3546106270478 674.12999688968625 0 674.12999688968625 -772.46003108665047 0 0 0 0 4493.2308361799805 2659.5071189140731 0 2659.5071189140731 597.02028652644674 0 0 0 0 4500.0682398281861 839.99682353790502 0 839.99682353790502 -1025.7851340362956 0 0 0 0 2474.4701184441074 965.8019973998845 0 965.8019973998845 -679.93879972986008 0 0 0 0 1964.2794157823992 212.97423638143138 0 212.97423638143138 -546.30297824622789 0 0 0 0 2066.0022837712604 575.9005017616455 0 575.9005017616455 -340.89254114465075 0 0 0 0 2581.549156948 -334.11266931235514 0 -334.11266931235514 -92.252584678179915 0 0 0 0 2596.7418251812342 -77.701156215781964 0 -77.701156215781964 -719.5141943716219 0 0 0 0 3013.6143297853305 42.765579413136855 0 42.765579413136855 -688.1875012820617 0 0 0 0 1597.9616100208223 -169.49774798056637 0 -169.49774798056637 -676.1808279710433 0 0 0 0 151.14683074795175 38.682866978714628 0 38.682866978714628 49.608545403087192 0 0 0 0 149.9834908565681 105.72021292287809 0 105.72021292287809 38.302052865955829 0 0 0 0 40.399369587868279 -18.004947803065846 0 -18.004947803065846 -25.319176598968031 0 0 0 0 5.1688856594095398 -0.43463588595412261 0 -0.43463588595412261 2.5617015440624584 0 0 0 0 105.39318569976604 80.168780384950878 0 80.168780384950878 42.39951126203232 0 0 0 0 182.3530709445331 20.847507096134564 0 20.847507096134564 49.465889113503181 0 0 0 0 -1.3617518903107779 -0.73471315062283793 0 -0.73471315062283793 0.38627776732370478 0 0 0 0 2690.7658391780278 -843.59211819740722 0 -843.59211819740722 -1231.5201529280225 0 0 0 0 2691.4811502639204 -264.21867002563158 0 -264.21867002563158 -1256.136229562585 0 0 0 0 5230.9149347541679 256.84456325660221 0 256.84456325660221 -1242.5497130353242 0 0 0 0 1592.697014672769 -1110.2029304326902 0 -1110.2029304326902 -979.23788518300307 0 0 0 0 1295.3858159346491 -85.980574450331517 0 -85.980574450331517 -191.82553774214011 0 0 0 0 1553.5932452555571 -399.83366671677948 0 -399.83366671677948 -610.62278230487993 0 0 0 0 1185.1280495228057 -552.80132254577006 0 -552.80132254577006 -406.31752949296424 0 0 0 0 1593.0618637200459 -193.22382820936943 0 -193.22382820936943 -187.95018150429746 0 0 0 0 1774.996023949614 59.928912024243459 0 59.928912024243459 -148.29199847586693 0 0 0 0 1614.5449588792326 -349.13617750369343 0 -349.13617750369343 162.42701422119103 0 0 0 0 5.1940930456255501 8.7512414833330752 0 8.7512414833330752 -4.9065572472514356 0 0 0 0 33.764659143787867 -0.67519084173989086 0 -0.67519084173989086 -11.697633157215932 0 0 0 0 10.339487169723725 -2.3152176596249774 0 -2.3152176596249774 3.3856698267309184 0 0 0 0 53.704047888375499 -11.792516282348032 0 -11.792516282348032 13.734528902479269 0 0 0 0 3.8813560217203005 4.4097277495316547 0 4.4097277495316547 -2.5261359642943213 0 0 0 0 47.402953868445366 -3.5284575270827503 0 -3.5284575270827503 3.0121623663731043 0 0 0 0 1723.2276450230638 -540.79140958061566 0 -540.79140958061566 -60.848936262936149 0 0 0 0 1635.7889043530959 -408.79528794121967 0 -408.79528794121967 155.33309018791209 0 0 0 0 10.304145830275957 33.542699975573214 0 33.542699975573214 32.498025833394081 0 0 0 0 59.681473979595467 -7.1439945721435265 0 -7.1439945721435265 17.150652135642986 0 0 0 0 2974.1092366751764 -277.8755815161436 0 -277.8755815161436 -638.2322716238433 0 0 0 0 2330.3170006346991 -907.8664774878705 0 -907.8664774878705 35.500578876237341 0 0 0 0 1410.0500425184073 -551.70310123426975 0 -551.70310123426975 -61.078291494975808 0 0 0 0 4499.3131187143372 -1146.8126603039561 0 -1146.8126603039561 -767.29700507198368 0 0 0 0 2782.3963654935942 -1267.9454740784518 0 -1267.9454740784518 -602.53327628534817 0 0 0 0 4493.2211472287381 -2150.2473697714877 0 -2150.2473697714877 -275.54258664072483 0 0 0 0 395.73968385225453 -1860.4784908618071 0 -1860.4784908618071 2479.1124204957127 0 0 0 0 2875.5562393237778 -2824.0014637686741 0 -2824.0014637686741 1090.8644088607289 0 0 0 0 694.83359363516502 -230.17851997741627 0 -230.17851997741627 -90.314262555075402 0 0 0 0 589.58168488380034 -258.53657641982136 0 -258.53657641982136 331.53741286901447 0 0 0 0 1235.0913261399983 -1145.3958914036364 0 -1145.3958914036364 1059.9713980239167 0 0 0 0 843.38640767634206 -1250.8210785513295 0 -1250.8210785513295 555.08322408345578 0 0 0 0 1430.7398434349016 -1122.0621728570111 0 -1122.0621728570111 153.80421938492111 0 0 0 0 2603.7429528864704 -1474.7072667807658 0 -1474.7072667807658 86.420676433443873 0 0 0 0 -5.6790871174598578 -10.184709937846662 0 -10.184709937846662 -285.66689147192801 0 0 0 0 1.6541648513180078 2.0465700076177598 0 2.0465700076177598 -0.60777626934050011 0 0 0 0 487.53835817656363 -639.23333938519306 0 -639.23333938519306 443.14889771708334 0 0 0 0 -22.415428730506392 133.75646060849581 0 133.75646060849581 -139.7249541071493 0 0 0 0 -17.808405030707945 87.23371554412077 0 87.23371554412077 -11.49254352964897 0 0 0 0 58.319915698295517 75.829903063016161 0 75.829903063016161 -167.74310386250983 0 0 0 0 73.996822512010112 -72.183828865984879 0 -72.183828865984879 -250.86337192756915 0 0 0 0 57.479204910297995 11.52946206650671 0 11.52946206650671 -137.0288117941688 0 0 0 0 63.654013244944508 35.675165357509741 0 35.675165357509741 -237.46162103180654 0 0 0 0 47.850532851232856 5.6938755149569715 0 5.6938755149569715 -271.71291370475285 0 0 0 0 5.6987273963459302 63.028288169788311 0 63.028288169788311 -330.4811854603347 0 0 0 0 39.73082930027158 -82.097827877634927 0 -82.097827877634927 -355.42378048042792 0 0 0 0 20.858168224213841 -149.55508532524456 0 -149.55508532524456 -290.67576620255022 0 0 0 0 21.645932659362188 -129.7939895179336 0 -129.7939895179336 -320.74638909189798 0 0 0 0 44.101025952695636 -122.14094563040567 0 -122.14094563040567 -260.29850323698395 0 0 0 0 49.384681155213912 -138.50872179808533 0 -138.50872179808533 -250.90685598345317 0 0 0 0 64.379883921596956 -63.589814748839693 0 -63.589814748839693 -257.85073390331809 0 0 0 0 64.294393056508852 -66.399358985431491 0 -66.399358985431491 -349.63828424039184 0 0 0 0 59.190461459555081 -120.58401998731119 0 -120.58401998731119 -223.95385876105729 0 0 0 0 61.700694200058933 -131.93300926321672 0 -131.93300926321672 -174.60282942275921 0 0 0 0 76.144774089421844 -62.306341299329915 0 -62.306341299329915 -221.91228973079433 0 0 0 0 944.85770650734412 -871.47555424077223 0 -871.47555424077223 -257.79810707770457 0 0 0 0 16.01931209412578 55.466879203485462 0 55.466879203485462 -491.12684415744934 0 0 0 0 -72.21565369568998 -74.48436744569517 0 -74.48436744569517 -449.00295791330052 0 0 0 0 -476.19662143671303 -316.630991785883 0 -316.630991785883 -421.67953518645572 0 0 0 0 -3031.3503966330318 -1383.8786149224306 0 -1383.8786149224306 -732.62068391776302 0 0 0 0 -195.47695550008211 103.12619035702778 0 103.12619035702778 -538.85780378681602 0 0 0 0 -28.721736056992086 -135.11291996767682 0 -135.11291996767682 -454.42855997758403 0 0 0 0 -43.638372564266319 -176.26020860124993 0 -176.26020860124993 -278.73201344670042 0 0 0 0 5.037078826862853 -178.66850304680793 0 -178.66850304680793 -415.6699608092124 0 0 0 0 8.6840104126458755 -27.053660164141547 0 -27.053660164141547 -452.40358972781451 0 0 0 0 -50.4495962238434 -167.84094293629414 0 -167.84094293629414 -228.73972746982531 0 0 0 0 381.99776505060436 268.52378750494427 0 268.52378750494427 -740.73899438538774 0 0 0 0 427.40990923604113 338.49238087590629 0 338.49238087590629 -640.20636428562455 0 0 0 0 -147.35152137174737 411.39228797715714 0 411.39228797715714 -25.059868320036912 0 0 0 0 12.591291381851299 -4.3562403204448685 0 -4.3562403204448685 -12.016109011189052 0 0 0 0 -57.520073953757674 -115.8083317127074 0 -115.8083317127074 -33.783370449723407 0 0 0 0 -51.694909110196022 -144.2850924052575 0 -144.2850924052575 -140.95051985139753 0 0 0 0 9.0858721557451645 -155.66789954896524 0 -155.66789954896524 -195.10024809204333 0 0 0 0 -2.2145731026248541 -129.12962434721931 0 -129.12962434721931 -197.93279524861919 0 0 0 0 68.187759576743701 -130.39510250631417 0 -130.39510250631417 -180.55624409465099 0 0 0 0 50.654626255563926 -167.71633814128768 0 -167.71633814128768 -137.52788208563334 0 0 0 0 56.313184640690451 -157.96400941658362 0 -157.96400941658362 -171.14542228075925 0 0 0 0 3.7228472896531457 -173.02692083717989 0 -173.02692083717989 -152.89770642717667 0 0 0 0 34.65922815853628 -143.40657786310894 0 -143.40657786310894 -205.30004541781091 0 0 0 0 29.61891962136724 -167.92762319781173 0 -167.92762319781173 -173.38425921841485 0 0 0 0 -14.155358890740899 -176.68165218635886 0 -176.68165218635886 -227.74843543584097 0 0 0 0 46.090098483822658 -140.35709310116613 0 -140.35709310116613 -103.06697371503515 0 0 0 0 19.847159579090658 -139.35647676251165 0 -139.35647676251165 -102.57004516976667 0 0 0 0 60.774785367466393 -156.5834195969212 0 -156.5834195969212 -125.56322046479781 0 0 0 0 95.667007550626295 -121.29119797500323 0 -121.29119797500323 -66.274905445452077 0 0 0 0 54.48368779411976 -114.69558757253185 0 -114.69558757253185 -48.779753553145383 0 0 0 0 90.699589576579456 -149.0348227764888 0 -149.0348227764888 -126.52094983521965 0 0 0 0 140.13197123756981 -85.460689306667064 0 -85.460689306667064 -77.453677028358243 0 0 0 0 42.645428656885088 -6.7179187563145604 0 -6.7179187563145604 -3.7830054566450144 0 0 0 0 83.854698926392302 13.651558088336742 0 13.651558088336742 23.963137880888183 0 0 0 0 -12.89323958361274 -54.212023846231887 0 -54.212023846231887 27.034156026410074 0 0 0 0 62.129383655358708 -13.080209791891711 0 -13.080209791891711 -1.429019628179379 0 0 0 0 20.132812975127308 4.5222300166171152 0 4.5222300166171152 88.723532984971484 0 0 0 0 1217.6661610730007 -42.953273055446346 0 -42.953273055446346 25.943875033960296 0 0 0 0 68.805060094710399 -16.603145299897434 0 -16.603145299897434 9.8826578055622587 0 0 0 0 1934.0883984241154 542.09597415813175 0 542.09597415813175 47.377839754089337 0 0 0 0 5.6913157033543627 7.3422287797974946 0 7.3422287797974946 6.3290885655180711 0 0 0 0 3136.8561411873379 644.78262409161925 0 644.78262409161925 -382.03148834390163 0 0 0 0 3233.7144243507719 720.96885840401887 0 720.96885840401887 -370.13222411055949 0 0 0 0 1129.6845203398989 1413.1812970301025 0 1413.1812970301025 947.05098518550972 0 0 0 0 4494.6463052577037 1742.5103212206534 0 1742.5103212206534 40.900033520669581 0 0 0 0 20.66488226778327 -9.2072278154275011 0 -9.2072278154275011 9.4648534687296468 0 0 0 0 17.475659620482475 -869.64523730657947 0 -869.64523730657947 2282.0500461891525 0 0 0 0 3436.3601230381391 2475.7277234801941 0 2475.7277234801941 1390.9662615253644 0 0 0 0 172.79955732078815 -71.57522431186635 0 -71.57522431186635 -674.26454715787986 0 0 0 0 45.226845876143145 -30.679996884761898 0 -30.679996884761898 14.253136613873778 0 0 0 0 -164.07162486218749 224.42449683485364 0 224.42449683485364 83.06862091127914 0 0 0 0 -237.99402639306209 338.62575784628007 0 338.62575784628007 610.37650797409401 0 0 0 0 236.83507642845507 -83.395124768037022 0 -83.395124768037022 -175.83838466195527 0 0 0 0 146.43703455323703 -27.868923124501407 0 -27.868923124501407 -101.15866096687284 0 0 0 0 169.54922712582629 -233.59088296528103 0 -233.59088296528103 -60.720819492538112 0 0 0 0 502.06998999290226 183.6445401726545 0 183.6445401726545 -169.27443503146856 0 0 0 0 164.77557853636972 135.39954348350898 0 135.39954348350898 -144.05693360589476 0 0 0 0 251.88391149084782 151.32906761800712 0 151.32906761800712 -186.81689408156012 0 0 0 0 150.2241588030214 63.356227754901845 0 63.356227754901845 -252.89488220920452 0 0 0 0 132.64862816206005 36.949995204824404 0 36.949995204824404 -202.37653757115947 0 0 0 0 121.41332843973942 -81.902028794691546 0 -81.902028794691546 -374.40802015265677 0 0 0 0 6.8004371402494144 67.084730410127918 0 67.084730410127918 -273.5742039094132 0 0 0 0 99.220447846331808 -145.7629397377828 0 -145.7629397377828 -178.91833656622339 0 0 0 0 -84.665539277191783 -243.84749688124302 0 -243.84749688124302 -183.8456842595856 0 0 0 0 109.07371627043176 -177.62078932035411 0 -177.62078932035411 -401.61997374524174 0 0 0 0 102.24311597933411 -101.58476827579238 0 -101.58476827579238 -95.092307321375301 0 0 0 0 96.619661947326676 -129.04228360885816 0 -129.04228360885816 -215.59007528449638 0 0 0 0 81.599662939304835 -163.07913187639974 0 -163.07913187639974 -141.96939193374965 0 0 0 0 76.694863357915892 -171.71567349617146 0 -171.71567349617146 -128.63809846745812 0 0 0 0 65.490660640440183 -172.88748741015684 0 -172.88748741015684 -119.11947969990092 0 0 0 0 81.714095189647196 -184.83857355647717 0 -184.83857355647717 -105.81403481976986 0 0 0 0 63.778577196528204 -149.29510061411264 0 -149.29510061411264 -80.903942236056992 0 0 0 0 59.915654300304595 -160.5584665129486 0 -160.5584665129486 -110.12108012805356 0 0 0 0 69.203938886377728 -137.61080343542091 0 -137.61080343542091 -136.93227352039503 0 0 0 0 63.762219620621181 -141.2184823746328 0 -141.2184823746328 -135.26072884068168 0 0 0 0 88.156088838586584 -146.20510253273096 0 -146.20510253273096 -134.5332043081213 0 0 0 0 82.070634097777656 -209.5635641874369 0 -209.5635641874369 -203.56812962817997 0 0 0 0 40.877894316450693 -226.65371523256812 0 -226.65371523256812 -56.962515913791776 0 0 0 0 52.914092200895539 -163.82297298117635 0 -163.82297298117635 -51.423836825362329 0 0 0 0 41.554893578824704 -165.64509827377861 0 -165.64509827377861 -9.9807469904471873 0 0 0 0 47.686971372408152 -199.48028845191317 0 -199.48028845191317 130.02357287181803 0 0 0 0 57.893215226766188 -52.106656510068774 0 -52.106656510068774 113.57340002733531 0 0 0 0 45.194276675836591 -84.366050783475714 0 -84.366050783475714 36.302099702666283 0 0 0 0 51.68384013522882 -73.800241332622363 0 -73.800241332622363 -11.928711980513071 0 0 0 0 61.963118308281992 68.768588616846046 0 68.768588616846046 19.533365935360194 0 0 0 0 40.942069783795887 -10.43184610031123 0 -10.43184610031123 90.528231896409807 0 0 0 0 72.539607392202015 -66.949635940257508 0 -66.949635940257508 -140.25958497297961 0 0 0 0 68.780441310547758 -75.00029325500725 0 -75.00029325500725 -154.72422625200988 0 0 0 0 64.561773540677677 -77.753800594730194 0 -77.753800594730194 -126.80130430864165 0 0 0 0 47.121930555716972 -78.896302605302196 0 -78.896302605302196 -17.487314966966437 0 0 0 0 56.096307968749898 -76.896211794416672 0 -76.896211794416672 -92.258450077578502 0 0 0 0 57.491950968164019 4.1653634400462352 0 4.1653634400462352 -108.51947545740185 0 0 0 0 58.927147991635138 15.623899390282844 0 15.623899390282844 -17.791248731710539 0 0 0 0 41.678253948726706 -12.977714630604034 0 -12.977714630604034 -49.85223708025319 0 0 0 0 67.31854259276588 -10.633200348512361 0 -10.633200348512361 -88.40514533346493 0 0 0 0 67.294569657678949 -12.234867071055163 0 -12.234867071055163 -194.40582778277246 0 0 0 0 54.426240308945125 57.770619572456155 0 57.770619572456155 -63.885070706509396 0 0 0 0 60.191619379707845 62.408117915948424 0 62.408117915948424 -74.646528024892291 0 0 0 0 66.022277983662207 51.69096428700098 0 51.69096428700098 -66.042802571024652 0 0 0 0 60.510805399251694 56.593043631719766 0 56.593043631719766 -49.220235618362608 0 0 0 0 69.663864414906129 72.779707766252955 0 72.779707766252955 -57.49081358698254 0 0 0 0 51.225533460179577 77.258600695493101 0 77.258600695493101 -64.473211094078849 0 0 0 0 67.273119246397982 68.277688764600256 0 68.277688764600256 -17.208486820967039 0 0 0 0 66.055781603514333 49.881966346343461 0 49.881966346343461 -11.910170904896688 0 0 0 0 74.686065420508385 71.878750334831352 0 71.878750334831352 -50.432176245306891 0 0 0 0 70.591912233689072 70.066399639517044 0 70.066399639517044 -49.874036283137684 0 0 0 0 74.365474729958805 69.078705514965463 0 69.078705514965463 -18.550082568693711 0 0 0 0 394.59980753970376 -123.97723242547727 0 -123.97723242547727 -144.86792419513094 0 0 0 0 -2.4449356173418977 0.71346504356462503 0 0.71346504356462503 -0.60738799917926256 0 0 0 0 -58.405210570737836 -169.61431513697528 0 -169.61431513697528 -79.632136932957962 0 0 0 0 57.195008163747843 96.337094921048362 0 96.337094921048362 201.13582351819218 0 0 0 0 105.15813000239723 -92.378049819327657 0 -92.378049819327657 132.18222757627694 0 0 0 0 837.26306576743809 81.416406803874892 0 81.416406803874892 -52.093711082450525 0 0 0 0 557.57816721441213 -308.89745184601389 0 -308.89745184601389 89.57119297319241 0 0 0 0 151.94377641833853 46.168690386819037 0 46.168690386819037 542.37862471450148 0 0 0 0 143.5959902482864 -433.17612970706836 0 -433.17612970706836 320.36290627026688 0 0 0 0 188.5765108360647 213.53473021778211 0 213.53473021778211 -81.722576037212434 0 0 0 0 7.0923857924401261 -0.80992920862874662 0 -0.80992920862874662 -0.11011249461643041 0 0 0 0 279.70205918338524 31.535933049418702 0 31.535933049418702 48.510149744576665 0 0 0 0 269.64964201654175 -228.15006933345774 0 -228.15006933345774 76.895574565896993 0 0 0 0 143.68289940003888 -247.98032473137161 0 -247.98032473137161 74.03336081128549 0 0 0 0 -50.602349605227573 -141.89406295813691 0 -141.89406295813691 162.68347706001578 0 0 0 0 91.97069451934658 97.904033856005526 0 97.904033856005526 27.199628269095228 0 0 0 0 75.030980446103399 64.276565390681284 0 64.276565390681284 2.4877011625949308 0 0 0 0 14.930687195417704 -18.172362122473714 0 -18.172362122473714 -26.392929391755388 0 0 0 0 74.306017204244768 26.236341074819624 0 26.236341074819624 -50.723671088684114 0 0 0 0 44.640543084300589 22.805748487569872 0 22.805748487569872 7.0894655524043628 0 0 0 0 1.3341514768511615 -3.745874260125504 0 -3.745874260125504 5.4539065929739703 0 0 0 0 53.671562836956582 -96.997189521499877 0 -96.997189521499877 19.019732586214104 0 0 0 0 47.564655429698178 17.251802379312153 0 17.251802379312153 -27.786064921368961 0 0 0 0 55.859763810942241 67.07748758096767 0 67.07748758096767 -42.134467599965546 0 0 0 0 66.187472998899466 77.807151209562676 0 77.807151209562676 -43.65751483399572 0 0 0 0 95.422906491570757 45.166441474411158 0 45.166441474411158 -34.194788053413845 0 0 0 0 53.059440369790536 64.281123256493402 0 64.281123256493402 -43.3170810251994 0 0 0 0 74.932136136383633 31.099465472432144 0 31.099465472432144 -95.824045679852702 0 0 0 0 123.00738427035685 69.643801775048701 0 69.643801775048701 -71.067593495101391 0 0 0 0 4.2671921944338465 7.769809569130615 0 7.769809569130615 -1.1820028656312882 0 0 0 0 28.22112052772718 1.0085088442815504 0 1.0085088442815504 -41.187492044879946 0 0 0 0 44.008005175477592 20.16467272351656 0 20.16467272351656 24.742947506169912 0 0 0 0 12.694047715416573 7.9848874420039806 0 7.9848874420039806 -5.1843007899922418 0 0 0 0 -14.167826961729588 82.975459846491674 0 82.975459846491674 4.9122765534280006 0 0 0 0 136.19720976409735 64.027541930602411 0 64.027541930602411 -52.749991487214402 0 0 0 0 43.607442745170374 -48.865811271635522 0 -48.865811271635522 17.217369301941744 0 0 0 0 151.57952320958429 -27.072440991163603 0 -27.072440991163603 -8.9562852830447355 0 0 0 0 -2.1837489159370307 -31.368358897770122 0 -31.368358897770122 13.140322203686083 0 0 0 0 -0.19256343079395322 0.16141111898303961 0 0.16141111898303961 1.1464399831055054 0 0 0 0 151.1150504852485 -62.177983187780455 0 -62.177983187780455 8.7774152916213559 0 0 0 0 69.699528332817863 66.808077218016024 0 66.808077218016024 67.787218554418359 0 0 0 0 36.957070282554582 -8.6914265414078358 0 -8.6914265414078358 -27.897934160057112 0 0 0 0 112.44195511153521 156.25996335172294 0 156.25996335172294 147.45642293591209 0 0 0 0 73.315287252589769 61.761411359267186 0 61.761411359267186 26.370231592680284 0 0 0 0 14.389284009289696 29.362720732897074 0 29.362720732897074 20.957808361398058 0 0 0 0 47.707353140423947 11.986972171021762 0 11.986972171021762 10.650477933950242 0 0 0 0 -4.0024291289280427 13.018500538027297 0 13.018500538027297 1.9136983029663099 0 0 0 0 7.175983339183972 39.508277695656417 0 39.508277695656417 31.951297994655761 0 0 0 0 71.217488754788064 18.205099666116439 0 18.205099666116439 23.598297667997031 0 0 0 0 314.66760485929262 66.980179172066755 0 66.980179172066755 -163.08465431998047 0 0 0 0 153.65678394956922 97.759120308397542 0 97.759120308397542 8.9130740732425693 0 0 0 0 68.333904322953458 26.324814976434709 0 26.324814976434709 32.955636854912882 0 0 0 0 92.297838027239777 -12.964567591066952 0 -12.964567591066952 -19.206476441512677 0 0 0 0 164.20099300886432 78.312551153383765 0 78.312551153383765 62.125399239198487 0 0 0 0 102.83922000192251 -51.902089709011307 0 -51.902089709011307 96.276372753984106 0 0 0 0 -68.980351421108935 3.1202530953332825 0 3.1202530953332825 27.312821921030263 0 0 0 0 9.3601748588481115 0.091384878682262638 0 0.091384878682262638 8.9825097741463082 0 0 0 0 48.522857013522298 10.680284048592512 0 10.680284048592512 4.3640863154178078 0 0 0 0 -68.53862317075982 -11.470129504759825 0 -11.470129504759825 52.513140725153789 0 0 0 0 1.8823882764315769 11.792508233791224 0 11.792508233791224 11.563985685712844 0 0 0 0 -130.89808251419163 -64.257042502898912 0 -64.257042502898912 74.900944027049263 0 0 0 0 1.6725782167381027 3.3466607476132566 0 3.3466607476132566 1.7562871760090637 0 0 0 0 18.750089100663899 27.757286553667655 0 27.757286553667655 22.829868317966429 0 0 0 0 9.8014340111913043 106.05440698690063 0 106.05440698690063 70.840954672323278 0 0 0 0 108.09952448373951 -32.272765503288156 0 -32.272765503288156 -7.0826480207197164 0 0 0 0 311.09635275643086 -27.989739032783746 0 -27.989739032783746 91.620783450625481 0 0 0 0 209.40939391125903 124.06203211978504 0 124.06203211978504 161.98983231957118 0 0 0 0 267.74946067138808 -11.423583440158836 0 -11.423583440158836 201.44382741101697 0 0 0 0 470.54869380704986 183.77475383574455 0 183.77475383574455 87.259989147684792 0 0 0 0 441.89617228339921 200.76820099632937 0 200.76820099632937 102.85218336759135 0 0 0 0 8.267682722227903 -7.4523224389072595 0 -7.4523224389072595 7.2290001367077501 0 0 0 0 311.46556798940583 -523.92967437469588 0 -523.92967437469588 135.03180373212899 0 0 0 0 318.24788692011498 72.448405293560427 0 72.448405293560427 146.69422267540722 0 0 0 0 251.65413451856875 327.03078674642734 0 327.03078674642734 234.32972313377741 0 0 0 0 192.8138700076961 457.86185353826284 0 457.86185353826284 280.55696461091122 0 0 0 0 -1.3275009396779183 0.60422758928868348 0 0.60422758928868348 3.8250366318034192 0 0 0 0 92.995275864079304 322.09473442373337 0 322.09473442373337 296.29624419294578 0 0 0 0 393.87380329763255 398.26825645858844 0 398.26825645858844 199.72107589217285 0 0 0 0 415.98942659261297 -318.74054929398011 0 -318.74054929398011 438.22490209483112 0 0 0 0 870.82856138049101 208.80102647314288 0 208.80102647314288 286.73354665251532 0 0 0 0 850.16965148999589 -60.900655750020348 0 -60.900655750020348 -64.454309888164389 0 0 0 0 171.2436918359017 -12.375099272050136 0 -12.375099272050136 -37.919005228269555 0 0 0 0 293.90065034347208 -231.14095077182901 0 -231.14095077182901 219.30859843820849 0 0 0 0 0.28912433855691688 -1.2663384066072467 0 -1.2663384066072467 3.0353663579791927 0 0 0 0 468.2124791436072 -13.919389119299467 0 -13.919389119299467 -28.228388026947414 0 0 0 0 296.49712695415656 -3.6517626994932471 0 -3.6517626994932471 -22.043943246285835 0 0 0 0 124.81815789408938 43.962397391529294 0 43.962397391529294 -10.962107557679246 0 0 0 0 177.20608985029321 -120.7670780148091 0 -120.7670780148091 71.224646653583477 0 0 0 0 42.682010671947864 -3.4274001664048086 0 -3.4274001664048086 12.701315914792758 0 0 0 0 65.679641495400574 -14.118200301138984 0 -14.118200301138984 -9.0614543991146093 0 0 0 0 43.361022546436516 19.666981641837836 0 19.666981641837836 11.235854579929764 0 0 0 0 27.063035676230371 14.945279482564601 0 14.945279482564601 -1.8848425703267466 0 0 0 0 44.956668526952853 15.476301487355158 0 15.476301487355158 1.1325650254007087 0 0 0 0 44.077083768261218 7.4931546731454546 0 7.4931546731454546 -7.5336034289503004 0 0 0 0 28.227823230776494 5.3908461384595849 0 5.3908461384595849 1.5526933751824605 0 0 0 0 26.118784556267201 -1.7670853709910261 0 -1.7670853709910261 -0.34168315919896486 0 0 0 0 17.252859026395235 -0.91648506489710257 0 -0.91648506489710257 0.30451962173583702 0 0 0 0 32.282984861638397 5.0075932186441605 0 5.0075932186441605 -3.2950991205652826 0 0 0 0 29.617166936363816 0.78104109794182364 0 0.78104109794182364 -2.6398543483047821 0 0 0 0 23.753136564133456 5.5697086820650838 0 5.5697086820650838 0.19680013925972162 0 0 0 0 16.985699357136809 3.6855403884883771 0 3.6855403884883771 0.38269870933307604 0 0 0 0 27.239874529652297 5.7878908446436981 0 5.7878908446436981 -0.52534363582890364 0 0 0 0 20.155041540393029 6.7241033411760043 0 6.7241033411760043 -1.1304840627270085 0 0 0 0 13.371172478888262 1.0282595824606489 0 1.0282595824606489 -0.13453606449851918 0 0 0 0 67.728264712284727 2.4403329002907412 0 2.4403329002907412 12.777977190871752 0 0 0 0 625.63045659796626 -258.08543557911798 0 -258.08543557911798 -81.138410689699867 0 0 0 0 -131.57373875071789 -0.98454739557416815 0 -0.98454739557416815 226.049581721305 0 0 0 0 5.6348286970821562 -5.8264068065585803 0 -5.8264068065585803 -3.4934097434121814 0 0 0 0 156.30541028443258 215.82871311226336 0 215.82871311226336 -70.421944904315751 0 0 0 0 8.0544945761794224 -115.99685491077798 0 -115.99685491077798 -140.21245893754531 0 0 0 0 14.672680244846561 -0.22645296733935538 0 -0.22645296733935538 -7.4384085245601455 0 0 0 0 28.542738864567411 -1.1708034734876236 0 -1.1708034734876236 -6.8816399445107317 0 0 0 0 16.716620737001847 -1.8772555995338625 0 -1.8772555995338625 -2.0356272088198297 0 0 0 0 19.263392516847432 -3.6405913443775741 0 -3.6405913443775741 -0.31328496557781893 0 0 0 0 1280.7235025217815 1140.8382294717803 0 1140.8382294717803 1067.209964902931 0 0 0 0 1657.3584834697831 463.76028548686099 0 463.76028548686099 -119.40029091864255 0 0 0 0 1699.8873678065083 239.02961551872841 0 239.02961551872841 -285.58968675163123 0 0 0 0 1401.4858090326561 -308.03691572183544 0 -308.03691572183544 38.884934982369487 0 0 0 0 1323.6805489479448 93.163412049032104 0 93.163412049032104 75.39001802236487 0 0 0 0 45.979037482000422 -11.723932222076769 0 -11.723932222076769 4.761173807411069 0 0 0 0 10.757553678386074 6.3550331567753915 0 6.3550331567753915 -2.0473374046549893 0 0 0 0 7.7810284242706764 1.5527529661338662 0 1.5527529661338662 3.7178956554814713 0 0 0 0 2525.6477919144818 -710.13735469509129 0 -710.13735469509129 77.09210329702978 0 0 0 0 3105.3207614891435 -247.23713118347439 0 -247.23713118347439 -512.25480363029681 0 0 0 0 2692.1846255401615 138.81186540571753 0 138.81186540571753 -322.52425433690132 0 0 0 0 2785.0704044289159 -210.24642388261918 0 -210.24642388261918 -511.05514586735808 0 0 0 0 3960.0541667279904 622.34085636141344 0 622.34085636141344 -838.7742136126617 0 0 0 0 3729.0853956215815 -1064.1294110853039 0 -1064.1294110853039 299.05174562129559 0 0 0 0 2740.2327319946489 -191.55045478316651 0 -191.55045478316651 -467.67851312474158 0 0 0 0 2606.9177433103378 -597.09972689595088 0 -597.09972689595088 241.2773810566091 0 0 0 0 1240.8816012057432 484.70458913535208 0 484.70458913535208 -145.25622585920979 0 0 0 0 2342.7091041417752 65.960759825450907 0 65.960759825450907 -41.962732423759917 0 0 0 0 2934.8702872576832 89.151365429370344 0 89.151365429370344 -223.7110491573834 0 0 0 0 5.5639273889144647 -3.7642607762609543 0 -3.7642607762609543 4.0209298781564558 0 0 0 0 2385.4545755663203 -315.043334723116 0 -315.043334723116 -22.359855547888671 0 0 0 0 2658.0359805570624 327.58524020622639 0 327.58524020622639 137.07875510182933 0 0 0 0 2814.7455483053491 99.678853508050793 0 99.678853508050793 369.88656651083681 0 0 0 0 3217.424087454041 178.38929756360531 0 178.38929756360531 -8.2246758512380893 0 0 0 0 3721.0515710656255 -663.20600040757654 0 -663.20600040757654 16.958415300868637 0 0 0 0 3142.8998719937954 73.316481571400345 0 73.316481571400345 347.07244409628879 0 0 0 0 2793.5487011929654 -203.4191576752562 0 -203.4191576752562 142.25012608083443 0 0 0 0 6.5665773160177281 3.3040714601481085 0 3.3040714601481085 -1.8264628084585626 0 0 0 0 41.238560422301816 -52.899463998151191 0 -52.899463998151191 156.79098850558898 0 0 0 0 61.292137939803069 1.1568351199665585 0 1.1568351199665585 5.7074702878838934 0 0 0 0 10.329815155770383 2.6027450580445048 0 2.6027450580445048 4.5336169082228883 0 0 0 0 20.869548330985708 1.2982205272716669 0 1.2982205272716669 12.75420008014882 0 0 0 0 8.1683654309573051 3.6258666971839943 0 3.6258666971839943 -10.670692005071547 0 0 0 0 -182.74514022150834 146.09698135460303 0 146.09698135460303 24.118201288146054 0 0 0 0 3184.2330104714856 -128.48962735782749 0 -128.48962735782749 -73.551282349475059 0 0 0 0 24.079251391069192 61.879311827014575 0 61.879311827014575 23.462470825744049 0 0 0 0 7.1817559293443907 7.5184130206249478 0 7.5184130206249478 6.1166857982152472 0 0 0 0 36.191299385645834 9.7157440809527884 0 9.7157440809527884 -58.201320511391941 0 0 0 0 207.74595635381411 16.584826643361382 0 16.584826643361382 -93.979817378462982 0 0 0 0 116.32166174224403 55.912054575898992 0 55.912054575898992 -103.60424199654108 0 0 0 0 17.413006675554257 15.678322474149468 0 15.678322474149468 -6.5956101141748054 0 0 0 0 60.664980158173421 6.6537363560801452 0 6.6537363560801452 -23.028539824805421 0 0 0 0 40.857067658325832 54.518268609916902 0 54.518268609916902 -60.984978383826956 0 0 0 0 -24.906047130207298 296.0441236458999 0 296.0441236458999 203.37553074104738 0 0 0 0 863.19496044591506 299.51168736154597 0 299.51168736154597 64.501653864494983 0 0 0 0 198.17063791510736 -2.4904663608937483 0 -2.4904663608937483 -128.98908161737859 0 0 0 0 651.56208410389081 -94.011812097363133 0 -94.011812097363133 -163.8185730976212 0 0 0 0 124.1347895695053 268.72879290060314 0 268.72879290060314 -25.221310908036799 0 0 0 0 0.72183215898643027 1.6260972173607939 0 1.6260972173607939 -2.1074203276913663 0 0 0 0 2109.3436164882405 915.03877409374991 0 915.03877409374991 344.69655290657215 0 0 0 0 -393.32294559467118 6.3086018968464312 0 6.3086018968464312 70.064537253245788 0 0 0 0 2938.2126816394739 153.50683938634478 0 153.50683938634478 -74.250120784491799 0 0 0 0 2428.22138245323 426.74975770542517 0 426.74975770542517 -192.89573667435701 0 0 0 0 2830.4385942505833 263.28150342010395 0 263.28150342010395 532.7831502457268 0 0 0 0 2501.6968879966589 -190.66693265055804 0 -190.66693265055804 423.27414829009092 0 0 0 0 2237.5095990919217 -141.90966291198177 0 -141.90966291198177 -53.017845882140421 0 0 0 0 2231.423735298813 -153.06112164108808 0 -153.06112164108808 437.56928451389558 0 0 0 0 2640.0686852625222 -166.88716757590811 0 -166.88716757590811 -113.05350879430398 0 0 0 0 2121.687587369197 36.240216447377612 0 36.240216447377612 224.6257222882783 0 0 0 0 2221.9281942608686 35.795144541016136 0 35.795144541016136 -295.29159240473149 0 0 0 0 2477.6739663671724 -134.25735680686614 0 -134.25735680686614 291.3665859477324 0 0 0 0 2545.2715756913676 -31.559486835362435 0 -31.559486835362435 -290.62437383215939 0 0 0 0 1919.6976997238162 -283.81037675703021 0 -283.81037675703021 -55.678607362648449 0 0 0 0 1393.3596388993683 104.24651466017575 0 104.24651466017575 112.64496860755804 0 0 0 0 1675.4071112613237 274.97312510867022 0 274.97312510867022 -83.314503742513168 0 0 0 0 1339.9931350284751 261.32586803674957 0 261.32586803674957 -20.653786553100389 0 0 0 0 1302.0092323960271 130.83735930435012 0 130.83735930435012 -98.521852240083561 0 0 0 0 1285.7827037826555 307.70367969022078 0 307.70367969022078 -89.284156519093926 0 0 0 0 1044.1095824584049 -86.203519138788366 0 -86.203519138788366 42.939593761947322 0 0 0 0 1065.9764024441029 307.75416951168449 0 307.75416951168449 165.66263548287884 0 0 0 0 18.484038397616416 -0.33850736708208462 0 -0.33850736708208462 -0.53268816205958225 0 0 0 0 87.705718596145744 6.239948295942213 0 6.239948295942213 -320.15389791907506 0 0 0 0 184.51819311994768 48.259540838610718 0 48.259540838610718 -154.85734862389066 0 0 0 0 -66.860753494533128 67.581200392526284 0 67.581200392526284 -96.187810675339279 0 0 0 0 247.81391424761387 -290.2477256204831 0 -290.2477256204831 190.81623509195668 0 0 0 0 414.46221410209364 62.41145450040429 0 62.41145450040429 35.683598416529776 0 0 0 0 80.825675813990529 -59.441783754864105 0 -59.441783754864105 -8.8059982387401305 0 0 0 0 21.789803634614145 91.645858138214521 0 91.645858138214521 -47.923244580022811 0 0 0 0 3.27185352575097 0.92624088140823346 0 0.92624088140823346 2.3732080093082111 0 0 0 0 -47.30149641414755 -5.525183319815568 0 -5.525183319815568 97.03406181086811 0 0 0 0 876.46050877534435 679.59236005509206 0 679.59236005509206 -30.93850189030065 0 0 0 0 -128.05320806008967 -207.04545638785507 0 -207.04545638785507 459.81291720956983 0 0 0 0 1041.2730431200907 -660.22036401530659 0 -660.22036401530659 418.34409709474176 0 0 0 0 7.2348448052215986 -1.3622917980481564 0 -1.3622917980481564 -0.19255847215745323 0 0 0 0 10.107152380553245 -4.8030293522482452 0 -4.8030293522482452 -0.49574482635287004 0 0 0 0 26.277060941051644 -0.92923780558680757 0 -0.92923780558680757 -1.20304128817429 0 0 0 0 -51.676921744343417 -163.88112268074576 0 -163.88112268074576 -216.81274718711398 0 0 0 0 101.06349864904769 -63.054631055570241 0 -63.054631055570241 -223.46562923104742 0 0 0 0 245.7713710253156 -146.30109878473203 0 -146.30109878473203 -219.30427004036147 0 0 0 0 -335.07763066886218 -437.5487461724374 0 -437.5487461724374 -88.914205971996637 0 0 0 0 2.6012178209053189 -2.5758288432244711 0 -2.5758288432244711 0.57754485522422772 0 0 0 0 153.59180034311612 36.303595551659491 0 36.303595551659491 -120.89588643934781 0 0 0 0 267.95776506215043 -21.359252425774059 0 -21.359252425774059 -118.56092325007015 0 0 0 0 7.4181704422844632 15.9043926057156 0 15.9043926057156 -194.77873717994441 0 0 0 0 157.20058887171035 3.2880041832821689 0 3.2880041832821689 -194.40560375046448 0 0 0 0 97.666178553459758 132.52244451181434 0 132.52244451181434 -137.50193872511011 0 0 0 0 164.42327207106484 147.67492996382288 0 147.67492996382288 -138.6089395964151 0 0 0 0 149.40136721058207 96.845449110786078 0 96.845449110786078 -114.50140511341374 0 0 0 0 127.31329975864355 35.595628624080291 0 35.595628624080291 -145.23258458972555 0 0 0 0 169.48128095384891 114.72050336741599 0 114.72050336741599 -1.767731162535938 0 0 0 0 114.27779923943308 -64.201851980756032 0 -64.201851980756032 -7.6038549992144819 0 0 0 0 89.467273735648632 -25.189328052454698 0 -25.189328052454698 -64.665230983578965 0 0 0 0 158.28469472519646 36.054469421539721 0 36.054469421539721 113.37980167600573 0 0 0 0 578.669892348953 191.09971759768234 0 191.09971759768234 -28.381918679166631 0 0 0 0 1284.2919448195316 -226.17784504774318 0 -226.17784504774318 -136.85921450159583 0 0 0 0 798.04974411916191 -526.9131012253207 0 -526.9131012253207 -85.719119840685153 0 0 0 0 1342.0187213689715 -399.85662786188487 0 -399.85662786188487 -139.68825217599834 0 0 0 0 1141.9450267061438 226.37580330940011 0 226.37580330940011 -72.400346833237279 0 0 0 0 1323.5109141531284 -347.43857582789155 0 -347.43857582789155 335.55141327934086 0 0 0 0 1183.0793846116792 -496.99608216540776 0 -496.99608216540776 209.48961179639764 0 0 0 0 1948.7860706235078 -253.47562428784059 0 -253.47562428784059 206.07908385828469 0 0 0 0 1860.4700870543456 -57.528043991432526 0 -57.528043991432526 134.12540374123421 0 0 0 0 -267.40979484312265 122.15839419343888 0 122.15839419343888 103.16990348604946 0 0 0 0 -222.61471976753091 145.66639153376309 0 145.66639153376309 348.46450440686453 0 0 0 0 16.930294803233238 -8.1273479217784406 0 -8.1273479217784406 3.9664883213688031 0 0 0 0 148.28079855421493 -75.207679467488163 0 -75.207679467488163 191.35802604721198 0 0 0 0 -10.44063108672708 99.60717805777233 0 99.60717805777233 601.02522463048444 0 0 0 0 6.3384661806660745 -2.3899577300402335 0 -2.3899577300402335 1.5838387671538217 0 0 0 0 708.31526346985629 -50.477510601250287 0 -50.477510601250287 1201.4758330554366 0 0 0 0 1172.5360301651672 443.75679448127698 0 443.75679448127698 828.50758634781346 0 0 0 0 1166.3940849757787 96.105586087358503 0 96.105586087358503 122.6112598033435 0 0 0 0 1162.8008546250639 154.42862474408793 0 154.42862474408793 280.70055418574395 0 0 0 0 863.51130563529296 -275.73990181883079 0 -275.73990181883079 573.08022187417293 0 0 0 0 1192.8305358539656 -334.86006786479487 0 -334.86006786479487 43.335562890463791 0 0 0 0 1198.5617752357211 -151.17144359122139 0 -151.17144359122139 527.68293527308629 0 0 0 0 1294.2140981755074 -280.17783559894963 0 -280.17783559894963 68.364473155482969 0 0 0 0 1290.0515274502668 -488.10491111389729 0 -488.10491111389729 250.88156679035561 0 0 0 0 1448.1510378365183 -586.48464294504095 0 -586.48464294504095 255.09289433128879 0 0 0 0 999.81777361020067 -755.33620568913489 0 -755.33620568913489 317.7288316784776 0 0 0 0 2035.4203321626846 -882.42557575670821 0 -882.42557575670821 283.55079328096917 0 0 0 0 997.77565020884185 -721.60620438103467 0 -721.60620438103467 481.12243153716327 0 0 0 0 138.68338834292081 -464.23528348358991 0 -464.23528348358991 670.50084375216909 0 0 0 0 506.82330193500093 -522.16167899441223 0 -522.16167899441223 597.22387015169397 0 0 0 0 793.40153646328508 -119.08495483842546 0 -119.08495483842546 403.99637387859332 0 0 0 0 -49.007597703355714 -107.61965999406917 0 -107.61965999406917 435.65595703237454 0 0 0 0 942.9180230599668 -348.22846251851092 0 -348.22846251851092 659.64715115203182 0 0 0 0 -2.4075431491437485 -135.15040792283042 0 -135.15040792283042 245.93553260227861 0 0 0 0 86.095149706423399 -110.95641777731726 0 -110.95641777731726 -10.444271245852065 0 0 0 0 418.88377029287585 -122.68988147012612 0 -122.68988147012612 -612.89166369380791 0 0 0 0 29.846330285234359 3.613912470098005 0 3.613912470098005 -0.093276605157417522 0 0 0 0 27.658519253273255 -0.23614580441406829 0 -0.23614580441406829 1.2281891963371712 0 0 0 0 356.11679665095653 -552.80125975698036 0 -552.80125975698036 -152.03654127501193 0 0 0 0 486.67164248705376 -202.95401914528986 0 -202.95401914528986 -469.62059942180252 0 0 0 0 106.27928846584837 -47.183344851068398 0 -47.183344851068398 47.880395182729671 0 0 0 0 90.992315650895762 -61.80922957785647 0 -61.80922957785647 34.041247273425654 0 0 0 0 128.74289393314393 -61.881444251885696 0 -61.881444251885696 -14.003514138792184 0 0 0 0 138.77794540724426 -40.174166410105357 0 -40.174166410105357 18.072560913119503 0 0 0 0 -341.58615747032673 -119.50882712619818 0 -119.50882712619818 622.0029322104831 0 0 0 0 3.3296004312663925 -0.46715554899316203 0 -0.46715554899316203 5.9543328324905191 0 0 0 0 327.94370890561913 -1029.110952283517 0 -1029.110952283517 1301.2456970336075 0 0 0 0 189.6795867565088 -160.80151433758698 0 -160.80151433758698 14.638950931225395 0 0 0 0 988.02366285461176 -1535.766798672013 0 -1535.766798672013 1672.2566670675424 0 0 0 0 11.937411124561891 -0.93470371671787333 0 -0.93470371671787333 0.72744438485401186 0 0 0 0 1084.5539448780255 312.38681302511213 0 312.38681302511213 -365.84139610834603 0 0 0 0 892.99734580474069 182.49922071881252 0 182.49922071881252 1480.7129698219362 0 0 0 0 929.57968169478625 188.07748882176278 0 188.07748882176278 195.09967112376557 0 0 0 0 920.02063030982174 535.33602821951433 0 535.33602821951433 74.427556989433015 0 0 0 0 353.70828968492424 389.95048201752098 0 389.95048201752098 251.71095727515262 0 0 0 0 166.80370587707512 401.72384768922211 0 401.72384768922211 292.2102391041733 0 0 0 0 357.01889036158536 259.99785574343383 0 259.99785574343383 -60.220655229846827 0 0 0 0 329.43107616922498 554.31658140066543 0 554.31658140066543 304.82214112016914 0 0 0 0 907.25842200108445 245.53722505771668 0 245.53722505771668 50.337934379598664 0 0 0 0 181.81984942091367 10.216530294992481 0 10.216530294992481 23.824127455461422 0 0 0 0 260.47947914535689 15.659417494011905 0 15.659417494011905 -143.55770556981349 0 0 0 0 -1.1244541184134178 1.8610784309888402 0 1.8610784309888402 2.8230646640408352 0 0 0 0 340.91986081367941 100.29987901685058 0 100.29987901685058 -125.57612618950202 0 0 0 0 184.22859222411353 50.074172452578296 0 50.074172452578296 -143.59157910767624 0 0 0 0 133.1925384163842 227.08345472790245 0 227.08345472790245 51.893871800664556 0 0 0 0 143.46223292387003 231.1396420693851 0 231.1396420693851 -300.28737097134695 0 0 0 0 156.62360120636185 -65.17663592889032 0 -65.17663592889032 -504.52097678005794 0 0 0 0 205.92036214048312 -59.389415026819719 0 -59.389415026819719 -217.4567416288055 0 0 0 0 64.180895382640301 -147.2380637012518 0 -147.2380637012518 -26.768072401343801 0 0 0 0 68.798930593528894 -120.07463546787713 0 -120.07463546787713 -240.16633755658847 0 0 0 0 127.64698940121889 -248.77014745447923 0 -248.77014745447923 60.36555811333983 0 0 0 0 49.239175149876786 -39.190245735916903 0 -39.190245735916903 28.996784676498272 0 0 0 0 -68.984570377364435 -422.36973787839133 0 -422.36973787839133 -44.088607774081538 0 0 0 0 149.77370645008341 -692.66045770746564 0 -692.66045770746564 -219.8824752079268 0 0 0 0 -150.80458184335748 217.22186621882483 0 217.22186621882483 327.05587093514112 0 0 0 0 220.29338221100443 -1251.9682822252537 0 -1251.9682822252537 2069.4067439788428 0 0 0 0 1656.6448491135125 -444.66561291592683 0 -444.66561291592683 100.17368192324983 0 0 0 0 3681.7464963757666 -1056.2089259471354 0 -1056.2089259471354 156.71561391981152 0 0 0 0 2721.1158574916662 -1284.3859619949797 0 -1284.3859619949797 1041.3201143268686 0 0 0 0 2705.4228407612718 -1302.0221441208107 0 -1302.0221441208107 1021.9493390078837 0 0 0 0 20.030408897706224 -15.792239483336513 0 -15.792239483336513 12.987187274994191 0 0 0 0 2619.593626439917 -213.53260368267593 0 -213.53260368267593 -442.49304951270597 0 0 0 0 3032.3731677077667 -1075.0153093312076 0 -1075.0153093312076 70.567092693641598 0 0 0 0 1956.2297943966259 720.80522109744811 0 720.80522109744811 456.8236029808354 0 0 0 0 1151.2855786531291 467.94597866089282 0 467.94597866089282 -167.77170215429339 0 0 0 0 1594.3660746381647 -571.04538714212413 0 -571.04538714212413 -341.8603887525997 0 0 0 0 901.41011790403718 -731.9241701453451 0 -731.9241701453451 15.863247322234381 0 0 0 0 933.15537913334265 -681.17125116138629 0 -681.17125116138629 -168.09864494398857 0 0 0 0 -127.41738339817402 -344.69672633636395 0 -344.69672633636395 587.65119928840204 0 0 0 0 237.02571986644762 -990.84670665983583 0 -990.84670665983583 952.64850487667275 0 0 0 0 910.78537789855181 -1115.6146956634611 0 -1115.6146956634611 46.538811837965795 0 0 0 0 217.64109684686628 -497.25339647906094 0 -497.25339647906094 429.5739855666252 0 0 0 0 166.30423485099891 -695.97568933681328 0 -695.97568933681328 135.26754260616661 0 0 0 0 610.97151311319794 -224.9586991400115 0 -224.9586991400115 -1.3559097825527715 0 0 0 0 658.38328791007393 259.42691944860439 0 259.42691944860439 59.115109892174587 0 0 0 0 159.7336154362456 -948.29156350402809 0 -948.29156350402809 52.332149343937459 0 0 0 0 218.37870215889416 -498.05242081646884 0 -498.05242081646884 -120.09684734893199 0 0 0 0 62.049804195139586 -134.19919822322845 0 -134.19919822322845 -3.3313269060790844 0 0 0 0 297.43359983191658 -143.00312660037798 0 -143.00312660037798 -199.34948708112825 0 0 0 0 58.898651443318158 -109.22522662411347 0 -109.22522662411347 -105.85427697994601 0 0 0 0 42.181605898107591 -36.005214649539539 0 -36.005214649539539 -154.45583223616995 0 0 0 0 118.80244933542781 -53.39935829705064 0 -53.39935829705064 -69.10979891214447 0 0 0 0 205.90739674542874 64.844305319950081 0 64.844305319950081 -20.27299436082285 0 0 0 0 -0.16161969921637009 4.219573525820568 0 4.219573525820568 -12.322131568544485 0 0 0 0 366.37822624393812 73.718191739558279 0 73.718191739558279 -58.097158643443436 0 0 0 0 -121.85461849041712 -319.60152108807983 0 -319.60152108807983 -605.52736431717631 0 0 0 0 340.39686056737355 -335.28963043331169 0 -335.28963043331169 -618.85555850382116 0 0 0 0 -917.1450380977758 -966.81692322062975 0 -966.81692322062975 -523.26744885455537 0 0 0 0 -1.420525271191007 1.2262213366930048 0 1.2262213366930048 -2.8636081320027422 0 0 0 0 91.531976413212647 -513.54386005688548 0 -513.54386005688548 -27.644567299745859 0 0 0 0 504.18411631835806 -975.2232763893112 0 -975.2232763893112 -612.34419011386581 0 0 0 0 743.69334979186169 18.52007441723967 0 18.52007441723967 -595.41996130964458 0 0 0 0 548.77490099057468 -28.179846729969654 0 -28.179846729969654 -444.26874531431775 0 0 0 0 500.77176791337121 203.71274326531869 0 203.71274326531869 -454.22494316155473 0 0 0 0 388.31731790985759 -187.85483500517239 0 -187.85483500517239 -168.93458553759717 0 0 0 0 480.976450498551 -74.248497164027526 0 -74.248497164027526 -927.20946909111467 0 0 0 0 252.3144832520502 -239.48731093968831 0 -239.48731093968831 -693.36339577247236 0 0 0 0 20.769255596520534 -7.3771129116023957 0 -7.3771129116023957 2.8004628379200711 0 0 0 0 480.54645007279942 -1408.8864718825671 0 -1408.8864718825671 220.20659192053881 0 0 0 0 381.11321454825884 210.41466960968836 0 210.41466960968836 -376.38985388601731 0 0 0 0 4487.2693670614808 -1303.0929649012132 0 -1303.0929649012132 -1065.8302750511334 0 0 0 0 2153.1720792636934 -533.70699576335323 0 -533.70699576335323 -1224.1480502143975 0 0 0 0 4503.6824034355468 89.427138541426658 0 89.427138541426658 -1424.0946069203292 0 0 0 0 1990.4649105211138 161.0396485710427 0 161.0396485710427 -1360.9789287646502 0 0 0 0 1105.9628028286897 -474.06688308110836 0 -474.06688308110836 -722.29446183080518 0 0 0 0 2072.8357563565169 161.1555174830784 0 161.1555174830784 -335.15221391870773 0 0 0 0 792.05251929369479 359.34061896676917 0 359.34061896676917 204.58178136828522 0 0 0 0 2112.693862969787 411.82994617650894 0 411.82994617650894 -868.36315755330884 0 0 0 0 2809.8045099336377 902.23316015922228 0 902.23316015922228 -571.31948950168476 0 0 0 0 -62.316570861803484 314.68420384303863 0 314.68420384303863 -808.79693018072237 0 0 0 0 -0.88593858604073006 -3.8101559437935997 0 -3.8101559437935997 -7.9658018527699461 0 0 0 0 885.06761715918174 -134.40149304143051 0 -134.40149304143051 68.444874270252171 0 0 0 0 639.04021702958016 -164.65588598120286 0 -164.65588598120286 65.804920654146116 0 0 0 0 43.075832355207979 3.5164815026946954 0 3.5164815026946954 -159.09690717333069 0 0 0 0 -3.0781206363302509 -7.5820843212099565 0 -7.5820843212099565 -27.097527069609662 0 0 0 0 -11.185753819238016 6.2917848672186665 0 6.2917848672186665 -158.66349924940312 0 0 0 0 307.38169269857553 -229.85362759112911 0 -229.85362759112911 -236.65446432895283 0 0 0 0 213.87161454034685 -64.108274544128506 0 -64.108274544128506 180.96958725571665 0 0 0 0 333.71161237144588 -225.12599400270744 0 -225.12599400270744 -128.46296232376949 0 0 0 0 425.02079878517543 -170.72195372218107 0 -170.72195372218107 -291.5705754375158 0 0 0 0 463.82858278777167 -388.96236297458267 0 -388.96236297458267 -84.683414827974957 0 0 0 0 177.54501259107201 14.777721998314064 0 14.777721998314064 -170.45572264672796 0 0 0 0 242.55939627589032 -195.37955177100503 0 -195.37955177100503 -170.68708439215243 0 0 0 0 287.47247802429047 -117.41882915445967 0 -117.41882915445967 -43.874409387431399 0 0 0 0 272.7110984826104 269.28144597312462 0 269.28144597312462 -206.21496862233604 0 0 0 0 -2.3778010998558265 0.052800413206737673 0 0.052800413206737673 1.7116212331395277 0 0 0 0 292.13780602543738 -437.83354641522419 0 -437.83354641522419 264.31959266868307 0 0 0 0 142.99302481577615 477.4312691891414 0 477.4312691891414 31.205258294027772 0 0 0 0 238.5349618563705 -157.39050402191697 0 -157.39050402191697 66.633717092353436 0 0 0 0 203.23813530810003 -85.612035513946466 0 -85.612035513946466 -70.582808487944021 0 0 0 0 145.84545404636447 -86.526949240771501 0 -86.526949240771501 131.88287277870222 0 0 0 0 138.05333529541986 21.489646986502976 0 21.489646986502976 -70.096390990609507 0 0 0 0 109.77131760484554 -30.342870449354905 0 -30.342870449354905 45.080913826695905 0 0 0 0 -121.58599240356853 247.84279748854959 0 247.84279748854959 372.68359115253497 0 0 0 0 5.1780414051047892 -12.892100032126658 0 -12.892100032126658 -15.98111061136024 0 0 0 0 4489.8563423347141 2289.0570384284028 0 2289.0570384284028 -273.22488577981426 0 0 0 0 608.16761994029366 708.63764532078358 0 708.63764532078358 522.41265822702758 0 0 0 0 1434.8287789163151 2061.1380187962322 0 2061.1380187962322 959.11440149152793 0 0 0 0 307.80155490384391 124.28841732512356 0 124.28841732512356 254.51247274046887 0 0 0 0 906.8382047110772 1125.5123612179127 0 1125.5123612179127 910.10736754113191 0 0 0 0 577.8806749617288 142.59699814713031 0 142.59699814713031 51.735531769168119 0 0 0 0 128.77047154850879 265.14246492971847 0 265.14246492971847 -860.61023709509686 0 0 0 0 116.28100716096378 -323.56672224157955 0 -323.56672224157955 -386.17702522078935 0 0 0 0 -177.88815023800998 -572.13753380253638 0 -572.13753380253638 -439.32704974966327 0 0 0 0 -683.27746933192429 -369.26246376843051 0 -369.26246376843051 -161.96641000604359 0 0 0 0 -426.84721358128809 440.49251615536502 0 440.49251615536502 730.84121271890626 0 0 0 0 -772.63526449080837 102.48520189844714 0 102.48520189844714 416.31477522178193 0 0 0 0 57.228712180236471 202.06764428113047 0 202.06764428113047 270.33224034539853 0 0 0 0 138.99719968759746 1333.3068702225646 0 1333.3068702225646 744.30040570817255 0 0 0 0 4493.1997476274719 -1847.027394091338 0 -1847.027394091338 499.5359512856881 0 0 0 0 18.515788015440975 8.812471080495941 0 8.812471080495941 2.7214935316894655 0 0 0 0 2288.9367064643775 -528.47208259184549 0 -528.47208259184549 -186.03335895837472 0 0 0 0 7.8951357751065743 13.930343974327483 0 13.930343974327483 11.669741570729066 0 0 0 0 18.630597261891126 35.905030475563649 0 35.905030475563649 -1.0560956416553609 0 0 0 0 16.986122721151499 13.888257755244485 0 13.888257755244485 0.27038134646867457 0 0 0 0 1046.3569979280219 425.84000695465119 0 425.84000695465119 272.60457080909828 0 0 0 0 52.659661230556594 17.83372134574347 0 17.83372134574347 -12.30509106108002 0 0 0 0 17.867734048228598 20.8692885283502 0 20.8692885283502 18.696451394230383 0 0 0 0 1402.7322983083614 -165.79290046885569 0 -165.79290046885569 58.818751727940821 0 0 0 0 4500.7646305318449 61.437968889019331 0 61.437968889019331 -908.43100304726204 0 0 0 0 3159.2362793250795 -629.59088274960982 0 -629.59088274960982 -262.21989358349919 0 0 0 0 2427.1320943045648 -174.6102269312797 0 -174.6102269312797 -67.413213878492115 0 0 0 0 351.19621342653409 -53.915615611605062 0 -53.915615611605062 -122.15258940093281 0 0 0 0 291.44804609371204 -88.258230970530349 0 -88.258230970530349 -149.16840634061009 0 0 0 0 351.38970496470756 -57.194693904436463 0 -57.194693904436463 -136.40048249029678 0 0 0 0 331.08470879974629 -92.4374060154787 0 -92.4374060154787 -167.99882717538435 0 0 0 0 311.28628512623618 -70.62593429435492 0 -70.62593429435492 -148.08003808842386 0 0 0 0 286.54440852739936 -67.323752092303948 0 -67.323752092303948 -81.190530926142856 0 0 0 0 276.53808721982932 -88.599183983067633 0 -88.599183983067633 -124.71100582898544 0 0 0 0 295.77906742016057 -84.610138741214541 0 -84.610138741214541 -125.83774262416136 0 0 0 0 251.87773254577769 -56.322690274753768 0 -56.322690274753768 -144.05746385039129 0 0 0 0 225.75055385952146 -49.234814114989604 0 -49.234814114989604 -106.81565128643342 0 0 0 0 202.86334618587352 -45.005750026798296 0 -45.005750026798296 -106.78123084822619 0 0 0 0 221.18655671677516 -81.581575539751384 0 -81.581575539751384 -73.308938767564541 0 0 0 0 323.7029963040186 -166.92142644650448 0 -166.92142644650448 -93.690951488145402 0 0 0 0 298.49763121234128 -99.840909742275699 0 -99.840909742275699 -127.31987243998719 0 0 0 0 320.32673269265069 -103.75196273827942 0 -103.75196273827942 -141.02884772489733 0 0 0 0 309.48285882566051 -120.34023122022927 0 -120.34023122022927 -162.55475292515098 0 0 0 0 -52.372459582498777 -62.650501409628305 0 -62.650501409628305 -76.583611828677931 0 0 0 0 295.33850288113808 -88.91957719613174 0 -88.91957719613174 -130.5739461513831 0 0 0 0 313.04059716200572 -98.491772540250622 0 -98.491772540250622 -160.14873122374149 0 0 0 0 3.5864196486333952 4.2713469717248866 0 4.2713469717248866 4.5823587885284587 0 0 0 0 192.32150962613377 -174.95804865165542 0 -174.95804865165542 -176.07097739107667 0 0 0 0 -8.3318042371392949 29.366288121757407 0 29.366288121757407 13.255469609951888 0 0 0 0 122.90451283514085 75.763293585971269 0 75.763293585971269 -254.59842524323994 0 0 0 0 67.130754406712995 -9.448470152733222 0 -9.448470152733222 -5.8786447941451483 0 0 0 0 -33.195952289814159 3.9687544545124638 0 3.9687544545124638 244.05253193342196 0 0 0 0 -81.638850059862307 869.71894841026824 0 869.71894841026824 117.16657680277876 0 0 0 0 23.306748877745122 -557.23985286419702 0 -557.23985286419702 1459.5156782836493 0 0 0 0 360.32719546973021 2.6670601866098878 0 2.6670601866098878 -59.751353782204887 0 0 0 0 169.29417711583665 -268.18733236626076 0 -268.18733236626076 23.965663399187633 0 0 0 0 76.136587881641987 -20.881488112403442 0 -20.881488112403442 -15.191171109521605 0 0 0 0 62.960629910128773 20.115571999197073 0 20.115571999197073 -116.29053575669832 0 0 0 0 48.926335136558919 -14.422592823783589 0 -14.422592823783589 5.0246804221244474 0 0 0 0 34.330710507565527 -43.161144657092976 0 -43.161144657092976 -43.801691802100535 0 0 0 0 55.990089078824099 -25.176109648877045 0 -25.176109648877045 -0.50334480801761305 0 0 0 0 220.33199696327301 -24.22887194492273 0 -24.22887194492273 -166.59876570266988 0 0 0 0 179.13292470230226 23.261435393576903 0 23.261435393576903 -119.81204293802875 0 0 0 0 -112.54463670180121 56.371595546777826 0 56.371595546777826 -159.99567354220267 0 0 0 0 -69.488840650039492 -101.08256942739172 0 -101.08256942739172 57.092328947677743 0 0 0 0 76.171725412098937 -62.516306325014732 0 -62.516306325014732 -80.361012074779651 0 0 0 0 60.35677247649437 -89.236454695703287 0 -89.236454695703287 -75.769220419751946 0 0 0 0 195.20492219636799 3.9338878903618024 0 3.9338878903618024 -139.90255793467986 0 0 0 0 223.88480042351875 -16.83708782726444 0 -16.83708782726444 -144.12502750323029 0 0 0 0 221.43562200968881 -28.840760046343348 0 -28.840760046343348 -99.015786668082455 0 0 0 0 41.290385308639088 -113.06782800582846 0 -113.06782800582846 -36.26845980068174 0 0 0 0 -31.812964247335913 -162.09246034781427 0 -162.09246034781427 -57.905512164768879 0 0 0 0 67.523045045672916 -43.657372008281527 0 -43.657372008281527 11.225416614142887 0 0 0 0 26.027412090139208 -38.197753180147565 0 -38.197753180147565 2.9218445955816863 0 0 0 0 68.935931057100248 -36.902822642723095 0 -36.902822642723095 -3.7711285506951331 0 0 0 0 35.444007459031923 -25.671220630131785 0 -25.671220630131785 -1.0242451275575686 0 0 0 0 29.402861230766575 -37.711984841866922 0 -37.711984841866922 16.473440258308983 0 0 0 0 8.6200343985397723 -5.930945004122421 0 -5.930945004122421 -0.8833279067470885 0 0 0 0 63.024081410352665 29.847084335722229 0 29.847084335722229 -286.02702614173154 0 0 0 0 -13.573269127315143 -73.170300709583216 0 -73.170300709583216 6.9562656064007342 0 0 0 0 4.9239039716201205 -5.5220936922977089 0 -5.5220936922977089 3.7796012476479737 0 0 0 0 -25.706217335806286 -151.25636620780429 0 -151.25636620780429 -191.79674418828563 0 0 0 0 -19.853935537688812 -98.586947607072474 0 -98.586947607072474 -54.207119202056901 0 0 0 0 110.45361208833492 21.650843281075481 0 21.650843281075481 -60.372254895934589 0 0 0 0 62.160308210775838 -74.378591619291683 0 -74.378591619291683 -251.05606316409168 0 0 0 0 8.4702432220801711 -45.900247677216896 0 -45.900247677216896 -18.28763510675067 0 0 0 0 8.1151579041325022 -52.977762385304032 0 -52.977762385304032 -44.81440273947193 0 0 0 0 -89.778059032199963 -76.905553860494138 0 -76.905553860494138 158.27096313109575 0 0 0 0 -12.238783835608047 -42.070029140772817 0 -42.070029140772817 16.803650902049128 0 0 0 0 28.493703457682614 -13.450953547866327 0 -13.450953547866327 6.2914002470806301 0 0 0 0 102.59505381539202 -60.12383774232876 0 -60.12383774232876 -239.0015942530008 0 0 0 0 184.83575281709636 5.4547059134207529 0 5.4547059134207529 -54.572086084098828 0 0 0 0 -149.45992700522038 -327.81942362379368 0 -327.81942362379368 -53.427330899165327 0 0 0 0 100.92764507852371 -270.00066408367911 0 -270.00066408367911 -407.35687262623378 0 0 0 0 62.923787801305849 -48.843041992138353 0 -48.843041992138353 39.2471088386744 0 0 0 0 1.4221246825563867 -191.40586631489532 0 -191.40586631489532 -134.84733911457442 0 0 0 0 80.573829400405884 -25.28892829013148 0 -25.28892829013148 -151.17033309491671 0 0 0 0 69.930789911006286 -29.938605185844608 0 -29.938605185844608 -80.327206471665704 0 0 0 0 96.560444009938692 -45.768837955371055 0 -45.768837955371055 -141.59241526651749 0 0 0 0 115.27321208112335 -18.388634343049489 0 -18.388634343049489 -84.534456531357137 0 0 0 0 114.98619184659037 -58.558768750221134 0 -58.558768750221134 -132.71459706710084 0 0 0 0 -3.083304322121343 3.1400360373141645 0 3.1400360373141645 -26.036152108907203 0 0 0 0 177.49674971770219 39.175824077872676 0 39.175824077872676 -59.400195553804224 0 0 0 0 176.73292388194204 -29.5136708782602 0 -29.5136708782602 -112.02130606788705 0 0 0 0 -11.720623078635981 -28.573739516553815 0 -28.573739516553815 -155.46526724304238 0 0 0 0 95.35057959423284 -73.020248926586646 0 -73.020248926586646 -87.95513363511418 0 0 0 0 -3.1735828082325881 -31.438265964217365 0 -31.438265964217365 -61.375487707580263 0 0 0 0 84.050418766331859 -96.296547286070563 0 -96.296547286070563 -128.50787341089745 0 0 0 0 96.654803684446961 -88.908651724752417 0 -88.908651724752417 -132.03079502657783 0 0 0 0 108.80228184762746 -47.550493081187597 0 -47.550493081187597 -67.168837322315085 0 0 0 0 1.959229033415113 -136.80122708933379 0 -136.80122708933379 -155.98657335130349 0 0 0 0 109.61884506942636 -73.986646236392517 0 -73.986646236392517 -123.3983641241939 0 0 0 0 7.6265816716913761 -4.8183278724989016 0 -4.8183278724989016 -13.676255609023332 0 0 0 0 100.09975654956361 -44.678861980803049 0 -44.678861980803049 -46.089094596611176 0 0 0 0 81.929092311211207 -105.52431505092045 0 -105.52431505092045 -136.83504396311764 0 0 0 0 78.005744902053266 -92.910752343013883 0 -92.910752343013883 -103.6281790071298 0 0 0 0 41.879497942689341 -149.10667819206628 0 -149.10667819206628 -159.13413415179093 0 0 0 0 49.760512472515984 -193.72142220696696 0 -193.72142220696696 -200.69945803938026 0 0 0 0 69.364982270677288 -59.530840565425407 0 -59.530840565425407 31.667569096405458 0 0 0 0 115.09474513596797 -119.93967305112164 0 -119.93967305112164 -264.37243412954194 0 0 0 0 80.472507857222809 -116.00762034854415 0 -116.00762034854415 -167.94713061280981 0 0 0 0 89.466289331841836 -125.45116752275862 0 -125.45116752275862 -192.98674992165616 0 0 0 0 93.625087987752067 -89.820693748257327 0 -89.820693748257327 -124.55236564483494 0 0 0 0 37.065116626817542 12.258802560876976 0 12.258802560876976 4.1013805376113446 0 0 0 0 68.004333667897811 29.49057191931271 0 29.49057191931271 14.670792782265719 0 0 0 0 26.086683150904719 29.540422128375212 0 29.540422128375212 -320.81923698223363 0 0 0 0 -8.0424605441021413 102.31786777243497 0 102.31786777243497 -188.05031870908715 0 0 0 0 73.817138021353458 39.670149854558076 0 39.670149854558076 1.2548201744521066 0 0 0 0 56.923013634451053 18.262149144393263 0 18.262149144393263 6.6053438371622271 0 0 0 0 116.52151195451006 119.02532040912865 0 119.02532040912865 -384.21469482371231 0 0 0 0 63.891614183641181 15.743282597604104 0 15.743282597604104 4.6114692984116576 0 0 0 0 145.2703347388524 93.235621372597961 0 93.235621372597961 -176.74458186092943 0 0 0 0 33.443791054941073 4.9999491163649381 0 4.9999491163649381 -2.6847301435176973 0 0 0 0 71.97067005613917 250.09833428258344 0 250.09833428258344 111.57521123955303 0 0 0 0 -24.720239502790719 157.38316699557527 0 157.38316699557527 284.78464475760029 0 0 0 0 82.213239114742464 -5.4822008675873803 0 -5.4822008675873803 89.887375636568322 0 0 0 0 114.22866494066147 64.769845413178473 0 64.769845413178473 -21.968214018615981 0 0 0 0 9.0609647756864433 145.32981727684 0 145.32981727684 -34.874924675124475 0 0 0 0 62.579994264220176 23.883041752309531 0 23.883041752309531 11.488890711786365 0 0 0 0 37.861494155735272 48.321490544100016 0 48.321490544100016 56.644725731184735 0 0 0 0 44.464688954633651 13.545347798382544 0 13.545347798382544 1.4161622480261764 0 0 0 0 58.477437993144122 364.84307608887684 0 364.84307608887684 -169.7564443313745 0 0 0 0 28.241531823312471 3.627341321000273 0 3.627341321000273 51.847787306531245 0 0 0 0 114.30644155338814 101.28551060499012 0 101.28551060499012 542.30772219372011 0 0 0 0 227.0000890699157 82.564767927407956 0 82.564767927407956 296.66338529263885 0 0 0 0 73.113715984214195 126.51514494995229 0 126.51514494995229 304.54578580456291 0 0 0 0 11.287159558460729 -10.334532654433268 0 -10.334532654433268 -10.2856054388178 0 0 0 0 102.5645551887792 321.82797949327141 0 321.82797949327141 1014.3901597761633 0 0 0 0 23.428662248069941 -0.66137720213798445 0 -0.66137720213798445 -1.6942634167659776 0 0 0 0 320.19176927335502 -313.30456785378101 0 -313.30456785378101 -811.44134309196033 0 0 0 0 -33.563438875418797 95.889402557108497 0 95.889402557108497 197.67008253253061 0 0 0 0 165.43741301982664 76.193187052323992 0 76.193187052323992 47.530707844575772 0 0 0 0 -1.2409279238709132 82.92461486330194 0 82.92461486330194 64.516900825661651 0 0 0 0 96.092842698402819 -20.304526857750716 0 -20.304526857750716 65.856257193551755 0 0 0 0 189.57453830861778 131.32910894467568 0 131.32910894467568 -616.6858893404351 0 0 0 0 -33.365639627292694 300.81979484606927 0 300.81979484606927 -240.16810313560563 0 0 0 0 76.018993377209881 91.366356893072293 0 91.366356893072293 -50.055768637543224 0 0 0 0 498.4307444300357 514.91166337539562 0 514.91166337539562 456.9338904617689 0 0 0 0 160.93863871907524 97.50023300526027 0 97.50023300526027 -50.431852155243632 0 0 0 0 2.6850793055928079 242.29592599417356 0 242.29592599417356 456.14966868124247 0 0 0 0 32.434029226795246 -467.71605817289856 0 -467.71605817289856 731.78289452987701 0 0 0 0 270.3721737361484 99.864600091386819 0 99.864600091386819 -371.4840490097431 0 0 0 0 -145.40575152693782 -115.16615075621121 0 -115.16615075621121 381.19709842119119 0 0 0 0 790.86949373724929 -501.41745202659877 0 -501.41745202659877 91.3945492426692 0 0 0 0 1252.6320552725083 214.16865479531498 0 214.16865479531498 -376.20805267571359 0 0 0 0 4.8847185981941266 -1.1540217083345938 0 -1.1540217083345938 -0.031114424618062575 0 0 0 0 -344.31007198758016 -177.0153193148526 0 -177.0153193148526 692.34549240660272 0 0 0 0 9.481825893794479 2.1405333306486014 0 2.1405333306486014 0.96819915056982353 0 0 0 0 460.69709543059435 162.81294965329198 0 162.81294965329198 329.34229585702815 0 0 0 0 -54.861565872064602 -72.769308932729359 0 -72.769308932729359 270.54358331729236 0 0 0 0 -50.391817976895254 -17.521240821253741 0 -17.521240821253741 597.9562102037678 0 0 0 0 -53.263057910509815 -31.081886063569982 0 -31.081886063569982 180.29322526745818 0 0 0 0 -17.633095500001218 11.00220683952648 0 11.00220683952648 228.90792310295137 0 0 0 0 -99.529643642796145 38.864516296533111 0 38.864516296533111 238.81336619869398 0 0 0 0 -29.016856027650647 97.057654489427478 0 97.057654489427478 41.940327974685715 0 0 0 0 22.847186623599555 96.370008534875069 0 96.370008534875069 -191.60269184906429 0 0 0 0 -44.270213106705341 97.192044032974991 0 97.192044032974991 42.865287998164604 0 0 0 0 41.345045110779211 282.44885236782568 0 282.44885236782568 -201.36932847261778 0 0 0 0 -392.2351015200984 -131.57599336782096 0 -131.57599336782096 -9.7202993509149564 0 0 0 0 65.070435395587992 227.92517882856964 0 227.92517882856964 141.92266890205974 0 0 0 0 -89.193574016513594 -5.5242919682050342 0 -5.5242919682050342 64.163869730087754 0 0 0 0 151.49714625132037 57.240474609039666 0 57.240474609039666 160.88761745711236 0 0 0 0 -32.176420935880742 108.23117528204784 0 108.23117528204784 158.79204593189206 0 0 0 0 -9.2041217963633244 -2.8844379847250821 0 -2.8844379847250821 150.09698389070945 0 0 0 0 170.08577087016602 138.15876421943972 0 138.15876421943972 164.42336853614324 0 0 0 0 316.65928238112974 189.95604855076226 0 189.95604855076226 75.842392767716774 0 0 0 0 -1.3376769916794728 -42.387710833601886 0 -42.387710833601886 25.404396633017768 0 0 0 0 3.1807214792912646 -10.056335588862066 0 -10.056335588862066 0.82256655828688086 0 0 0 0 12.922778656785532 -2.7868618787011314 0 -2.7868618787011314 2.9364625629266357 0 0 0 0 86.579830444788968 41.440059654549259 0 41.440059654549259 -48.258123739648909 0 0 0 0 -75.865737661464664 48.354857224522675 0 48.354857224522675 11.852103859457202 0 0 0 0 80.406265732564407 17.844035197347736 0 17.844035197347736 -5.1179030579854068 0 0 0 0 -182.08658416774415 39.370278086355938 0 39.370278086355938 50.968576975357792 0 0 0 0 -15.753061320298002 117.69431656324559 0 117.69431656324559 82.743298757645789 0 0 0 0 144.4857558504591 -59.54545156727454 0 -59.54545156727454 -60.838328929949057 0 0 0 0 -61.744787936630019 -76.266819142287886 0 -76.266819142287886 -132.57347509144165 0 0 0 0 32.86128942865831 16.097170371095665 0 16.097170371095665 7.30439237258825 0 0 0 0 118.70265790435951 -46.730696273288231 0 -46.730696273288231 38.741364607605647 0 0 0 0 424.66118646659015 486.24569094861181 0 486.24569094861181 -146.36574955423029 0 0 0 0 42.306619023622176 24.257435288197165 0 24.257435288197165 -0.74347437314903431 0 0 0 0 -622.21570905721455 -1012.9227625796339 0 -1012.9227625796339 757.66865222982415 0 0 0 0 34.174708988695784 131.96788760874915 0 131.96788760874915 -51.487729525726536 0 0 0 0 82.611354049477939 27.035376243970287 0 27.035376243970287 -0.52807454461799352 0 0 0 0 50.930407853184164 33.102571254504319 0 33.102571254504319 9.8386912360932897 0 0 0 0 340.46693020167004 347.29330909700911 0 347.29330909700911 -117.38330673728069 0 0 0 0 -113.94485075770353 134.77522178044819 0 134.77522178044819 171.17185182919911 0 0 0 0 151.46802800006844 130.52018070278427 0 130.52018070278427 -308.20248155965783 0 0 0 0 77.135901940202857 47.077517323376881 0 47.077517323376881 10.644070362689909 0 0 0 0 -9.6632443479902577 -156.84439114696033 0 -156.84439114696033 236.94868342862537 0 0 0 0 10.653202106631397 6.0546292640261878 0 6.0546292640261878 3.4957624630970745 0 0 0 0 138.12854934951881 68.925592542780265 0 68.925592542780265 -109.41183942352291 0 0 0 0 1199.2488362008808 552.72136603335548 0 552.72136603335548 -677.39380703125107 0 0 0 0 -146.33856218325911 150.81183968042413 0 150.81183968042413 -27.478703552664228 0 0 0 0 29.177793221008738 1.4054935792706686 0 1.4054935792706686 -1.3120576620691438 0 0 0 0 29.794370007394946 5.2219048308631955 0 5.2219048308631955 46.359778876570999 0 0 0 0 118.87843547326793 154.76814244096931 0 154.76814244096931 -135.66128128099717 0 0 0 0 -33.225710549026189 179.59334576725269 0 179.59334576725269 83.793898405670916 0 0 0 0 55.399335390919077 120.2755677463374 0 120.2755677463374 -103.58049538350406 0 0 0 0 1170.5333196153815 318.10622614609383 0 318.10622614609383 -600.96208415574802 0 0 0 0 16.62767747088526 125.12550652812604 0 125.12550652812604 58.119934411210124 0 0 0 0 56.342248435774763 19.160714849653232 0 19.160714849653232 141.48477756707189 0 0 0 0 -124.45243383000479 -289.20527824818055 0 -289.20527824818055 -72.291288722080935 0 0 0 0 2.7503705451117924 -0.4001769016479173 0 -0.4001769016479173 -0.57280442921148289 0 0 0 0 1.0112725023577696 141.89863509120642 0 141.89863509120642 353.18771415127776 0 0 0 0 44.455708385095932 -13.100087742141113 0 -13.100087742141113 27.287761204061098 0 0 0 0 114.76396277258755 12.97410628351281 0 12.97410628351281 33.760872557884795 0 0 0 0 4.7726354375869278 121.87271870976565 0 121.87271870976565 57.2351648369131 0 0 0 0 117.39398342464119 5.1548737531747975 0 5.1548737531747975 -36.147460548302206 0 0 0 0 79.877143112988705 35.025708776027429 0 35.025708776027429 3.7142807122422177 0 0 0 0 6.9206139938127631 13.329680697677883 0 13.329680697677883 -0.17771567441807878 0 0 0 0 -250.31916188089008 314.84619824788388 0 314.84619824788388 721.41827666107292 0 0 0 0 529.1652239029163 -269.75775758171585 0 -269.75775758171585 -735.96634660834752 0 0 0 0 87.009510401029416 1.3387465573065889 0 1.3387465573065889 -6.600303058314509 0 0 0 0 -510.26086852868593 -61.920486922093914 0 -61.920486922093914 490.36989996842112 0 0 0 0 320.39079536991085 -16.897461965063485 0 -16.897461965063485 -343.54720068105576 0 0 0 0 -405.96684068393148 -499.02463265043525 0 -499.02463265043525 326.76254369072012 0 0 0 0 12.856796181917597 3.2539023405168237 0 3.2539023405168237 -0.60436095135209245 0 0 0 0 287.18766359601818 -173.85991450753409 0 -173.85991450753409 -29.412272653455148 0 0 0 0 481.70221726343743 -439.58039126672065 0 -439.58039126672065 -298.08813012787141 0 0 0 0 98.265490631675675 141.6963073460729 0 141.6963073460729 120.61581146480512 0 0 0 0 241.14565859106483 -64.649475798634199 0 -64.649475798634199 79.30689466585136 0 0 0 0 3.3552278380024276 -0.66845245031718115 0 -0.66845245031718115 -0.48328770182780367 0 0 0 0 157.68578714922137 12.597974327210977 0 12.597974327210977 301.34989648409828 0 0 0 0 255.56599368174207 -214.02288948569696 0 -214.02288948569696 436.10808238101163 0 0 0 0 71.123021912317654 -111.57639763941415 0 -111.57639763941415 80.601122230727924 0 0 0 0 -153.00458959960997 63.373139447349786 0 63.373139447349786 423.32795592540424 0 0 0 0 -178.4940519843019 -26.95825356115256 0 -26.95825356115256 121.22758188190528 0 0 0 0 -381.85961109693108 -205.26577651677508 0 -205.26577651677508 291.72535826257626 0 0 0 0 -361.87814421338453 -0.056961144826345844 0 -0.056961144826345844 895.68564774251172 0 0 0 0 53.065682347627444 298.75526248647111 0 298.75526248647111 247.23278590243535 0 0 0 0 7.5125542463487598 -1.479784502733807 0 -1.479784502733807 -0.1572552686586306 0 0 0 0 -28.1830384831419 14.763170794020425 0 14.763170794020425 -5.7145024875321724 0 0 0 0 -5.7620466835332991 190.86025692515386 0 190.86025692515386 75.766257182551271 0 0 0 0 -19.238192244547463 -6.5379941586884343 0 -6.5379941586884343 -47.543790424374492 0 0 0 0 -36.4823920105664 -19.497070335044555 0 -19.497070335044555 120.86787279571649 0 0 0 0 36.543801803822362 74.115984116273211 0 74.115984116273211 157.84718377266199 0 0 0 0 37.05409265926238 84.860637685865839 0 84.860637685865839 215.84420813277029 0 0 0 0 23.125318032714858 86.175411190729392 0 86.175411190729392 244.32479236336621 0 0 0 0 0.36427232591287151 1.8521954738257804 0 1.8521954738257804 0.0514977508784078 0 0 0 0 48.155642630772491 107.95748867204929 0 107.95748867204929 258.52655599386219 0 0 0 0 31.761769595045735 107.89115386575122 0 107.89115386575122 230.82054410986893 0 0 0 0 65.07551367211363 83.248543066654292 0 83.248543066654292 188.60229938462544 0 0 0 0 25.553028401228403 76.784244873259468 0 76.784244873259468 191.41975546424351 0 0 0 0 -0.90168582018486632 78.677766539734876 0 78.677766539734876 208.14873680650612 0 0 0 0 28.090009842654581 99.983813962677687 0 99.983813962677687 214.57831196922234 0 0 0 0 12.463243299003807 107.5432016238201 0 107.5432016238201 225.4988484505684 0 0 0 0 7.8296864030571669 99.867716992431724 0 99.867716992431724 220.09434616791805 0 0 0 0 -0.64619248993039946 99.541525493661538 0 99.541525493661538 231.39678558431842 0 0 0 0 22.821814439684204 122.14600266036496 0 122.14600266036496 236.60728183272113 0 0 0 0 180.27939193351358 17.718149731617814 0 17.718149731617814 299.55177036940086 0 0 0 0 242.3711164894429 55.794444863131957 0 55.794444863131957 199.59470519117713 0 0 0 0 73.021850197327353 76.945706484790662 0 76.945706484790662 237.90260066347946 0 0 0 0 191.40941943246844 93.121948601797612 0 93.121948601797612 144.41852409227795 0 0 0 0 154.69586417061987 55.165966742104729 0 55.165966742104729 173.20093919697047 0 0 0 0 72.539098134066535 101.75386519088033 0 101.75386519088033 231.23598213039452 0 0 0 0 48.086703541381212 45.614408106193423 0 45.614408106193423 173.94742932932786 0 0 0 0 160.04936444956857 70.321910162910058 0 70.321910162910058 215.17366059976302 0 0 0 0 414.35129113705057 -10.729420973329525 0 -10.729420973329525 91.922441185323805 0 0 0 0 403.31362325811665 -61.274405632251273 0 -61.274405632251273 -14.493154681484157 0 0 0 0 518.65527468404684 -144.62547288070368 0 -144.62547288070368 82.733092997517815 0 0 0 0 716.05514932719962 57.706107946841712 0 57.706107946841712 30.440958109933035 0 0 0 0 316.79314544428354 196.46128351655079 0 196.46128351655079 339.30679471954409 0 0 0 0 771.41390439531369 520.08909350002159 0 520.08909350002159 508.76038791072278 0 0 0 0 131.12644884658386 105.80293207028376 0 105.80293207028376 329.08122876848665 0 0 0 0 1347.9476306680299 -136.45200176787148 0 -136.45200176787148 71.930633530926912 0 0 0 0 -434.66060916417246 154.77893570399965 0 154.77893570399965 652.65917413444458 0 0 0 0 2.9269235988210962 5.717708062322826 0 5.717708062322826 12.423256044069475 0 0 0 0 -348.85532241381225 528.5176212005108 0 528.5176212005108 903.70285734844583 0 0 0 0 -17.551839361357906 880.43571380112553 0 880.43571380112553 527.39975788187985 0 0 0 0 -258.77402694304453 237.28652967458015 0 237.28652967458015 645.42501005079248 0 0 0 0 969.37443351992033 -422.87728845433821 0 -422.87728845433821 -755.35179094566342 0 0 0 0 63.99010753931725 -23.914812787777009 0 -23.914812787777009 441.58771419506411 0 0 0 0 -90.270566759838403 267.62590690624074 0 267.62590690624074 316.36469929323357 0 0 0 0 -126.82541821892664 159.77948645196739 0 159.77948645196739 305.64461403671658 0 0 0 0 43.748965335813409 144.77439192741804 0 144.77439192741804 274.47445110377339 0 0 0 0 31.977944058466164 288.47393875363832 0 288.47393875363832 193.66603319213027 0 0 0 0 78.695795362844365 85.421362171460714 0 85.421362171460714 340.88082822348224 0 0 0 0 -76.914299949707129 703.03067742397889 0 703.03067742397889 90.877095278772686 0 0 0 0 -415.8111156980849 330.61704769950393 0 330.61704769950393 387.68358708117603 0 0 0 0 -209.02585653152346 404.24791172003552 0 404.24791172003552 413.65274449171739 0 0 0 0 -219.39510351515855 333.16393017342307 0 333.16393017342307 288.910607422873 0 0 0 0 -269.3521240069349 257.35158677519439 0 257.35158677519439 419.47833079258157 0 0 0 0 -355.67209117785842 9.8909770081817214 0 9.8909770081817214 107.51342018942159 0 0 0 0 -131.60008825120531 116.39043868938597 0 116.39043868938597 136.29758110789317 0 0 0 0 -161.56579310660527 263.12060186964811 0 263.12060186964811 68.79675797991257 0 0 0 0 -289.4219867474194 187.22452601802024 0 187.22452601802024 284.22037513996474 0 0 0 0 -73.894589582025219 189.72809608566786 0 189.72809608566786 224.04331984551345 0 0 0 0 -306.70242713552216 183.56222335888128 0 183.56222335888128 39.343557452244113 0 0 0 0 -338.55506423345469 395.45826316727153 0 395.45826316727153 -197.22299675369868 0 0 0 0 12.858085792916858 19.206668180595447 0 19.206668180595447 28.092382156210707 0 0 0 0 455.24234700776003 -61.064776762851238 0 -61.064776762851238 -9.1335043992035025 0 0 0 0 419.12485074151959 -101.58605685726707 0 -101.58605685726707 -14.096918905426776 0 0 0 0 -45.565197416555748 267.37834293753713 0 267.37834293753713 -195.11050059858826 0 0 0 0 -133.68185549454938 157.51353976858991 0 157.51353976858991 -136.90411107865521 0 0 0 0 -48.778088760460378 220.01013612823863 0 220.01013612823863 -107.38164870596847 0 0 0 0 -93.478765024671702 136.947714021607 0 136.947714021607 142.8428865669988 0 0 0 0 -49.381250133264984 289.60242968420062 0 289.60242968420062 41.514670578478899 0 0 0 0 38.019197360124963 243.07763835428136 0 243.07763835428136 -102.60724677032977 0 0 0 0 35.6276708626865 303.50139362986192 0 303.50139362986192 180.95329722875522 0 0 0 0 42.185836291635496 293.17250002020683 0 293.17250002020683 170.70307302602669 0 0 0 0 129.76972356005535 282.06548776837258 0 282.06548776837258 -219.99166409147165 0 0 0 0 262.94890280524851 244.69299793181648 0 244.69299793181648 -195.18110866034897 0 0 0 0 390.9935077787668 363.49570989169251 0 363.49570989169251 -443.77807713856794 0 0 0 0 506.03457895707834 655.6369823418338 0 655.6369823418338 130.30972736085403 0 0 0 0 77.508733867362025 254.07824513519108 0 254.07824513519108 125.46214393775199 0 0 0 0 170.00382622235338 412.44356633372558 0 412.44356633372558 130.7676661218004 0 0 0 0 -24.044615324557526 34.384193243714435 0 34.384193243714435 605.25412882664943 0 0 0 0 118.00575286505773 436.25427522373138 0 436.25427522373138 524.41815057600979 0 0 0 0 -1.5061371614538075 171.90438196633795 0 171.90438196633795 1144.56549113857 0 0 0 0 143.11778939739452 364.80177348652438 0 364.80177348652438 668.57646914574048 0 0 0 0 189.66752388439636 381.65342115626709 0 381.65342115626709 673.84701226178504 0 0 0 0 240.56662188148221 689.32411826632222 0 689.32411826632222 2103.2570862800694 0 0 0 0 215.49236012230449 -433.79204147238727 0 -433.79204147238727 556.02302300617339 0 0 0 0 179.10290954424272 -453.2347462448908 0 -453.2347462448908 1790.1659630234926 0 0 0 0 45.478455547861813 75.883095799758848 0 75.883095799758848 415.80329616543349 0 0 0 0 27.940551738232898 -24.887550553254187 0 -24.887550553254187 488.29943516152798 0 0 0 0 -38.557433084582954 53.444970618707885 0 53.444970618707885 441.60171332416576 0 0 0 0 -16.303026392699394 116.71770145227856 0 116.71770145227856 319.37794621673856 0 0 0 0 -10.791263560422522 27.707306156361938 0 27.707306156361938 374.83610908234914 0 0 0 0 -49.80260457840086 150.82316073382026 0 150.82316073382026 319.56737574764156 0 0 0 0 -74.393091453533756 92.021052203147036 0 92.021052203147036 312.22968629659044 0 0 0 0 -21.360585044760228 163.51349308228009 0 163.51349308228009 150.83756729457446 0 0 0 0 -6.0676441501709633 86.907387528465279 0 86.907387528465279 365.39365229132181 0 0 0 0 -42.04128409362238 98.753554463196224 0 98.753554463196224 418.43855163187345 0 0 0 0 -96.319408207920787 -213.98917820129421 0 -213.98917820129421 9.4761706932589114 0 0 0 0 -90.946200743885129 -234.54454709082802 0 -234.54454709082802 -344.04318748037895 0 0 0 0 -68.565797287592432 -96.513667378968762 0 -96.513667378968762 -168.51795759727912 0 0 0 0 -70.220271826208773 204.60879127431105 0 204.60879127431105 -761.73489618175654 0 0 0 0 172.7161968876826 -72.913362768182651 0 -72.913362768182651 -548.64758008918125 0 0 0 0 -221.8726901174814 -117.64570758846537 0 -117.64570758846537 -222.70093160115943 0 0 0 0 0.50216263267550687 1.0488044155175942 0 1.0488044155175942 -5.9693879703105122 0 0 0 0 216.91092956637294 -312.97684005416636 0 -312.97684005416636 -351.83264451375476 0 0 0 0 559.47457375218801 222.43804737180926 0 222.43804737180926 -797.99070832743996 0 0 0 0 1201.2879911162308 -107.42123332641813 0 -107.42123332641813 -1295.4528564796715 0 0 0 0 156.02406503826205 -339.71082953657128 0 -339.71082953657128 -1008.1022618985044 0 0 0 0 -26.852657821931643 -253.74904638704538 0 -253.74904638704538 -1304.418124796216 0 0 0 0 -585.61394742058292 -340.61666894548614 0 -340.61666894548614 -896.42407566313796 0 0 0 0 386.68506493938912 419.26624913962405 0 419.26624913962405 418.10886300321181 0 0 0 0 162.37252359074773 -448.7403950272078 0 -448.7403950272078 -890.91849649387632 0 0 0 0 -705.72353836552065 -1133.8223110615627 0 -1133.8223110615627 -2616.6675021091869 0 0 0 0 -558.7637896501401 -595.84314342408925 0 -595.84314342408925 -913.34308175218848 0 0 0 0 497.0704238484177 -1559.7185415654683 0 -1559.7185415654683 -2382.5249046538411 0 0 0 0 30.921363278117497 42.487149366046651 0 42.487149366046651 -2345.369645657905 0 0 0 0 4.4246387004031362 2.2349155863637549 0 2.2349155863637549 1.0612916145190208 0 0 0 0 1.5090149125094001 1.8913992810874589 0 1.8913992810874589 0.45978166823009836 0 0 0 0 -172.50467798318641 -174.4458270182061 0 -174.4458270182061 -298.38221580940444 0 0 0 0 -53.338114838348702 -274.90282416273214 0 -274.90282416273214 -893.0946350649906 0 0 0 0 -221.5189285918168 -428.96786193335475 0 -428.96786193335475 -452.68114263052234 0 0 0 0 -116.99911676501324 -174.21737646394723 0 -174.21737646394723 -140.02415198541394 0 0 0 0 214.99279608326469 -351.83485451928686 0 -351.83485451928686 -219.86951516261666 0 0 0 0 218.23262278634502 81.882030576147372 0 81.882030576147372 132.0939390659484 0 0 0 0 37.413354976437404 -594.50281015270548 0 -594.50281015270548 -914.50102541492379 0 0 0 0 22.600655196911504 7.316908210411011 0 7.316908210411011 -13.505627405952271 0 0 0 0 -409.36107404698851 -557.93892644046264 0 -557.93892644046264 -767.80240467089072 0 0 0 0 38.184338323204429 -805.00578525319179 0 -805.00578525319179 -1526.6407656420281 0 0 0 0 157.38521235655389 -82.111097542366338 0 -82.111097542366338 -668.78290470452248 0 0 0 0 251.69719239223195 61.589326030368284 0 61.589326030368284 -866.46648099756703 0 0 0 0 253.31363211270946 -111.99843714401459 0 -111.99843714401459 -622.1799837187873 0 0 0 0 543.1361574485345 -401.32733521202681 0 -401.32733521202681 -417.66178428999552 0 0 0 0 636.07305159200041 402.49028295767062 0 402.49028295767062 -320.17569819080705 0 0 0 0 535.5605772460558 192.06435949492507 0 192.06435949492507 37.888729907425159 0 0 0 0 1550.6825704377625 929.06276582052578 0 929.06276582052578 461.62399474191545 0 0 0 0 1232.9003231796169 -528.38378908590016 0 -528.38378908590016 493.78134010323618 0 0 0 0 1432.186895726918 1420.3151716556413 0 1420.3151716556413 732.30992243554351 0 0 0 0 0.28950126611211147 5.7756240076749705 0 5.7756240076749705 15.468839256002745 0 0 0 0 625.80979009800649 -327.23560395978484 0 -327.23560395978484 -62.451302622426283 0 0 0 0 1514.1555946959415 1267.9185575153356 0 1267.9185575153356 907.52058824284813 0 0 0 0 9.9286547913603158 4.8352302442753059 0 4.8352302442753059 1.3519489681926473 0 0 0 0 415.67292957879545 1059.9363349477128 0 1059.9363349477128 1530.9704981956968 0 0 0 0 909.34654247219441 440.18815536131092 0 440.18815536131092 -212.53393531191318 0 0 0 0 354.07923101886263 314.3301652924485 0 314.3301652924485 1453.0442029168141 0 0 0 0 15.921495287791913 -233.31224379107954 0 -233.31224379107954 582.789520963717 0 0 0 0 -167.73305113465904 -204.56996593868465 0 -204.56996593868465 -105.79887227785923 0 0 0 0 -209.67594530037604 20.435446790561855 0 20.435446790561855 394.75259575914566 0 0 0 0 -223.37705557817389 -216.38203507537008 0 -216.38203507537008 491.89147169121611 0 0 0 0 571.51543475603103 463.95640544207208 0 463.95640544207208 -581.68108633439397 0 0 0 0 24.557779330331272 6.4550534424561539 0 6.4550534424561539 0.83398107982566372 0 0 0 0 -208.41382829793656 32.218934358136949 0 32.218934358136949 431.55607526737549 0 0 0 0 47.908018858339346 -134.88158666393304 0 -134.88158666393304 40.649291185139944 0 0 0 0 -31.590214880983694 41.731661563922486 0 41.731661563922486 297.19062834814559 0 0 0 0 -182.26531158829675 -177.42689254384584 0 -177.42689254384584 138.71221529509108 0 0 0 0 767.9759641406763 738.32364611554226 0 738.32364611554226 1036.4754147534197 0 0 0 0 -15.970580623241403 465.02772115952132 0 465.02772115952132 410.3035774989404 0 0 0 0 178.48099776453455 119.8680864709786 0 119.8680864709786 710.63877629209787 0 0 0 0 873.955462439033 963.30990487918314 0 963.30990487918314 652.84416032960644 0 0 0 0 -254.14998207477765 242.7935501849704 0 242.7935501849704 564.44187279264702 0 0 0 0 317.74341982926126 -279.22844127850362 0 -279.22844127850362 19.140033350395697 0 0 0 0 -3.1891631957623758 75.15580777113064 0 75.15580777113064 89.638417830164144 0 0 0 0 -13.414293072462897 -73.612259010414618 0 -73.612259010414618 392.10392508491759 0 0 0 0 12.264566546727053 1.5513749985179626 0 1.5513749985179626 -0.054808106650090505 0 0 0 0 538.02423073861428 922.99069103750276 0 922.99069103750276 1034.3320561796972 0 0 0 0 -211.1297045492247 293.76219886987928 0 293.76219886987928 506.26705226003838 0 0 0 0 547.40743031694001 -169.7916132112955 0 -169.7916132112955 -140.05000953491526 0 0 0 0 1887.2548339116765 1077.4052708800466 0 1077.4052708800466 511.00754361277632 0 0 0 0 -1.4331546336700285 -91.135260532998544 0 -91.135260532998544 30.617434284245064 0 0 0 0 314.23715630652077 -18.27959280909181 0 -18.27959280909181 78.068334494690589 0 0 0 0 -17.969383023650153 -147.13101439102451 0 -147.13101439102451 377.52114279405578 0 0 0 0 -231.01887986893416 -179.00567354925394 0 -179.00567354925394 374.5370323510362 0 0 0 0 30.760804895865022 1.2291737323006431 0 1.2291737323006431 0.28498616740848937 0 0 0 0 -96.736871429777239 -104.93245466787744 0 -104.93245466787744 365.7516746381059 0 0 0 0 255.79077957118716 -12.036292213353818 0 -12.036292213353818 -338.04486074120405 0 0 0 0 143.28527354910693 32.544439599891263 0 32.544439599891263 320.95216444069365 0 0 0 0 1376.512216538551 202.76850973996721 0 202.76850973996721 145.11500000721935 0 0 0 0 478.51645968147932 943.71612867700537 0 943.71612867700537 891.00919320862249 0 0 0 0 12.58769922511064 1.3294089597343213 0 1.3294089597343213 1.0561551370603874 0 0 0 0 450.15144459783187 -364.63159317913528 0 -364.63159317913528 560.04819142161364 0 0 0 0 -195.8416819122649 49.699171921504785 0 49.699171921504785 43.252806469082998 0 0 0 0 783.27129736281859 169.32175051317563 0 169.32175051317563 12.22530031680617 0 0 0 0 151.33282893442083 -311.64701759205991 0 -311.64701759205991 140.48767601344116 0 0 0 0 64.441121248906711 247.63955547010028 0 247.63955547010028 530.94457169625025 0 0 0 0 9.3499320271627653 1.1401252881253221 0 1.1401252881253221 -0.59540299684044218 0 0 0 0 97.719152593312842 18.3345113924853 0 18.3345113924853 -3.8869169891073803 0 0 0 0 -31.434720872312027 67.233439730532154 0 67.233439730532154 555.75159816820815 0 0 0 0 361.10157616565994 107.76097037531918 0 107.76097037531918 -265.87981379956227 0 0 0 0 251.65988839808415 -178.3291479737461 0 -178.3291479737461 -191.33836884080802 0 0 0 0 125.45634846689427 -83.007774652837725 0 -83.007774652837725 328.86006636823731 0 0 0 0 81.557979276159372 16.153184020406677 0 16.153184020406677 -0.22054133441013413 0 0 0 0 92.206670886025677 -30.841018243694634 0 -30.841018243694634 310.64387263426579 0 0 0 0 31.674682056801885 0.62820769219510098 0 0.62820769219510098 4.1572487782228755 0 0 0 0 -475.14837823478956 -16.837654016710303 0 -16.837654016710303 106.08023071773346 0 0 0 0 19.091159629704563 14.17412870391771 0 14.17412870391771 27.301961597122911 0 0 0 0 -15.970046318820096 -22.044224403818362 0 -22.044224403818362 151.85582967102039 0 0 0 0 88.924170162837981 -42.165053969342125 0 -42.165053969342125 33.86875816567408 0 0 0 0 -197.15245463296014 -52.728026124728785 0 -52.728026124728785 -33.581383848730184 0 0 0 0 6.3187428874826423 -2.9840903546632376 0 -2.9840903546632376 6.2824241617004297 0 0 0 0 81.857325761007814 -36.564199702142218 0 -36.564199702142218 -3.443991944131767 0 0 0 0 43.094872919670337 -0.58784459569806558 0 -0.58784459569806558 6.491401629264419 0 0 0 0 38.932477439046977 0.9368129466559556 0 0.9368129466559556 -0.97770293023616039 0 0 0 0 10.342174373050511 -19.765764328737305 0 -19.765764328737305 35.107175766689494 0 0 0 0 74.162431616983667 -30.870421944800455 0 -30.870421944800455 -113.23492512507187 0 0 0 0 -24.586994583019987 -58.197441624038674 0 -58.197441624038674 333.59064439474582 0 0 0 0 93.771951661459752 -222.06025505270668 0 -222.06025505270668 273.87955893390364 0 0 0 0 15.113690991463955 0.43728822255775412 0 0.43728822255775412 72.003858057866182 0 0 0 0 -33.955213098002787 12.331663011034536 0 12.331663011034536 151.21742704861526 0 0 0 0 16.276376204536064 -105.7064181746191 0 -105.7064181746191 174.8588733977532 0 0 0 0 12.513008185487706 -55.306228413235658 0 -55.306228413235658 90.639451274425426 0 0 0 0 42.583484054513974 -65.764794355540971 0 -65.764794355540971 22.728215828075918 0 0 0 0 53.061902471425128 -42.231370113573576 0 -42.231370113573576 57.130752537920671 0 0 0 0 31.163684883376959 -60.551434028731393 0 -60.551434028731393 39.920318376418074 0 0 0 0 53.033035461761756 -31.72898865363004 0 -31.72898865363004 30.647635454670308 0 0 0 0 131.02487581298919 54.661895491223049 0 54.661895491223049 -102.00299534062287 0 0 0 0 66.078903113132128 -22.120627969254301 0 -22.120627969254301 21.540778557267448 0 0 0 0 105.52888790483038 6.1123793680469731 0 6.1123793680469731 2.8744289019815028 0 0 0 0 39.983758084301371 -17.05462062607603 0 -17.05462062607603 84.022029608782589 0 0 0 0 -101.80100230989046 193.2399554523563 0 193.2399554523563 -177.75146136372496 0 0 0 0 9.5955913007369418 -0.61854347343837901 0 -0.61854347343837901 16.599139357306413 0 0 0 0 47.084750288544967 -4.9529726503665756 0 -4.9529726503665756 7.8059864228522731 0 0 0 0 13.121095198960994 1.3849714817202994 0 1.3849714817202994 -1.7416847283032482 0 0 0 0 301.31652021888294 -306.91803576545863 0 -306.91803576545863 -480.08724673751203 0 0 0 0 136.91909783160008 249.18462105628214 0 249.18462105628214 -421.26892442491226 0 0 0 0 36.23533460998442 -47.63609341047777 0 -47.63609341047777 -23.537733774579465 0 0 0 0 52.549003512773197 -11.402763278558268 0 -11.402763278558268 -2.7369781205488835 0 0 0 0 442.16136182502669 -482.53399206590143 0 -482.53399206590143 -306.43397385328717 0 0 0 0 132.70852826346527 626.35027327441458 0 626.35027327441458 403.75549288744241 0 0 0 0 140.7061364176916 -457.4454727647535 0 -457.4454727647535 -115.97547338733239 0 0 0 0 10.503546374519971 6.938542205899374 0 6.938542205899374 1.3616497634977529 0 0 0 0 63.082329593467875 -175.23956163098592 0 -175.23956163098592 63.530936254296648 0 0 0 0 -56.798909531564277 -391.70545328373191 0 -391.70545328373191 -50.219662493913347 0 0 0 0 41.135657510283636 -424.06636504109701 0 -424.06636504109701 -120.33903538742379 0 0 0 0 298.36640131979948 -372.09244071236571 0 -372.09244071236571 -124.87279860049966 0 0 0 0 44.665837486172677 -325.6760610076617 0 -325.6760610076617 -82.172803028172893 0 0 0 0 -343.76064551954914 -135.53063968189417 0 -135.53063968189417 -71.022479793386083 0 0 0 0 108.63092510196877 54.231807498892138 0 54.231807498892138 -8.2500290812482646 0 0 0 0 -247.18115742041846 -87.586432871004945 0 -87.586432871004945 -138.15541874741439 0 0 0 0 340.95404816789596 5.2328682009117529 0 5.2328682009117529 -3.4605746085144347 0 0 0 0 -442.68473619021825 179.25953203826248 0 179.25953203826248 491.71766679594657 0 0 0 0 -412.77275203820318 155.93703283627929 0 155.93703283627929 0.87104820577951614 0 0 0 0 -467.48834284683107 195.41482468613867 0 195.41482468613867 677.25593587621779 0 0 0 0 123.47144739643954 254.80247554035248 0 254.80247554035248 93.703642328515343 0 0 0 0 503.74290198367089 -139.15215685495605 0 -139.15215685495605 -143.94480418216699 0 0 0 0 224.27918072168177 -135.57484888175986 0 -135.57484888175986 -86.120090260752477 0 0 0 0 350.36385691574833 285.50068576474223 0 285.50068576474223 67.136869528521856 0 0 0 0 593.08776782924542 -35.553677871130276 0 -35.553677871130276 532.49472200755554 0 0 0 0 8.0809569294711423 21.683799497188978 0 21.683799497188978 -4.192993209978483 0 0 0 0 5.3955251528906629 2.0384335478049138 0 2.0384335478049138 2.5451666784973455 0 0 0 0 260.87811243598117 -238.74234480672567 0 -238.74234480672567 196.77814226019291 0 0 0 0 663.66481590809417 5.5542692539256677 0 5.5542692539256677 -86.017108674266638 0 0 0 0 667.52197869570227 -378.99940295620036 0 -378.99940295620036 -24.718571130399141 0 0 0 0 233.60914000985213 -81.702192940416353 0 -81.702192940416353 -40.403608611402888 0 0 0 0 71.041904641620931 -62.075053334039694 0 -62.075053334039694 51.797340839462777 0 0 0 0 154.57444951671641 -31.825194206144261 0 -31.825194206144261 -26.7346925689817 0 0 0 0 177.45770087835263 -100.68551157949764 0 -100.68551157949764 21.349434243158612 0 0 0 0 212.46822492530919 -43.089248837040032 0 -43.089248837040032 -49.075846081284908 0 0 0 0 -0.38439871484297328 -113.63078715006213 0 -113.63078715006213 41.340929464829969 0 0 0 0 85.099015703250188 -80.302451746605584 0 -80.302451746605584 37.761197538704437 0 0 0 0 64.958484994428261 -65.965261742220264 0 -65.965261742220264 29.925510406609142 0 0 0 0 34.866338936108136 -9.5182043178116658 0 -9.5182043178116658 6.4023374155596855 0 0 0 0 4.717752512289735 -69.324004732221852 0 -69.324004732221852 66.601987342860866 0 0 0 0 70.147777296508139 -100.17840994966502 0 -100.17840994966502 -13.583049466249804 0 0 0 0 -1.194125062940202 -93.921959596188913 0 -93.921959596188913 85.663728321309009 0 0 0 0 275.63913336742553 -206.3230794679198 0 -206.3230794679198 38.13852299467294 0 0 0 0 162.76520189057192 -100.50327637730754 0 -100.50327637730754 -56.473709141544305 0 0 0 0 56.281906661606627 -121.17274123093739 0 -121.17274123093739 73.155345544605552 0 0 0 0 97.66876065559336 -151.89745665517307 0 -151.89745665517307 79.361976568238191 0 0 0 0 94.787150974934775 -68.934723253987812 0 -68.934723253987812 -5.5782037812964518 0 0 0 0 115.81443850777578 -66.383408937652575 0 -66.383408937652575 -44.7150884090197 0 0 0 0 72.960265832814315 -62.399459611168808 0 -62.399459611168808 28.89392883726206 0 0 0 0 51.98350852454314 -158.79220477215904 0 -158.79220477215904 -41.20470577692322 0 0 0 0 59.907256202204735 -125.54662665401838 0 -125.54662665401838 -5.2272082389524144 0 0 0 0 143.77370766203967 -54.742564820950975 0 -54.742564820950975 -25.531570720135278 0 0 0 0 108.88815432597767 -50.042842812323485 0 -50.042842812323485 -7.1052308079034932 0 0 0 0 105.11767483713629 -52.759095952026954 0 -52.759095952026954 17.576930021600646 0 0 0 0 70.426664372634292 -61.116368007713206 0 -61.116368007713206 27.437085421986733 0 0 0 0 -50.057876918610418 -182.90204345641632 0 -182.90204345641632 -50.407465192172822 0 0 0 0 -25.467745990288677 -90.017692381796223 0 -90.017692381796223 14.323521034367786 0 0 0 0 13.480532095141825 -163.57960212775606 0 -163.57960212775606 -52.019422260300416 0 0 0 0 65.035940047772144 -59.875420458555467 0 -59.875420458555467 27.010541515977106 0 0 0 0 108.88492342126847 -14.606802117030043 0 -14.606802117030043 35.202656820021119 0 0 0 0 9.1746976327858647 -127.06330376893231 0 -127.06330376893231 32.548109506557012 0 0 0 0 301.58727464402909 -9.1967049653258073 0 -9.1967049653258073 -4.8391062701718965 0 0 0 0 239.24245550305932 -80.725770917529189 0 -80.725770917529189 -18.691305882331562 0 0 0 0 554.18951427151478 -39.481150520388724 0 -39.481150520388724 -150.39197303665787 0 0 0 0 355.59884631400928 -90.550522475388789 0 -90.550522475388789 -146.93694393852275 0 0 0 0 318.18822960782927 -49.292774562174145 0 -49.292774562174145 -47.625263627753156 0 0 0 0 0.83821432348206315 1.8893076931285009 0 1.8893076931285009 0.76564747686038714 0 0 0 0 213.03349528854596 0.24654137690413336 0 0.24654137690413336 77.545278850692739 0 0 0 0 143.32599605310224 -50.09707250935071 0 -50.09707250935071 21.313597401429433 0 0 0 0 199.96163336916652 -63.357950584742866 0 -63.357950584742866 -47.962631388776572 0 0 0 0 718.62355673057573 -84.045364013478888 0 -84.045364013478888 -224.45080108139757 0 0 0 0 309.99397069947736 205.25442496066876 0 205.25442496066876 83.330797989965319 0 0 0 0 -133.63080726886983 58.309033841111784 0 58.309033841111784 333.22107323470556 0 0 0 0 130.3611915178135 -345.87031125596769 0 -345.87031125596769 -99.186358569278184 0 0 0 0 4.8198676212978455 -4.9141359521242265 0 -4.9141359521242265 4.1277988098830409 0 0 0 0 28.552523146521708 15.415302555908113 0 15.415302555908113 -34.87198913002635 0 0 0 0 -4.6780294038471766 -110.69610156762673 0 -110.69610156762673 -111.40555411690241 0 0 0 0 253.64785973021208 -43.076456162939849 0 -43.076456162939849 -110.88921262902761 0 0 0 0 1.5897889784282029 -2.4579927449308201 0 -2.4579927449308201 2.8469196216157919 0 0 0 0 123.36832729095477 -52.837668634590258 0 -52.837668634590258 -30.429870815515926 0 0 0 0 98.064644451955246 -31.474471078405458 0 -31.474471078405458 -35.079319178258515 0 0 0 0 79.200328844126489 -42.015845258474883 0 -42.015845258474883 41.130222225834927 0 0 0 0 44.331859284153325 -19.023011559266251 0 -19.023011559266251 25.968534791960963 0 0 0 0 39.594158503884046 -61.991636347540592 0 -61.991636347540592 47.32353178640102 0 0 0 0 -6.0506189731604536 7.1438096728792004 0 7.1438096728792004 -7.3506939729746819 0 0 0 0 53.687824701657519 -168.45710838366074 0 -168.45710838366074 42.717023828411072 0 0 0 0 56.706780098626041 -62.413070107473459 0 -62.413070107473459 43.288315698166002 0 0 0 0 257.01211848376261 -285.42331183112179 0 -285.42331183112179 107.30159598584424 0 0 0 0 2.6992237066506561 -2.4473949948445579 0 -2.4473949948445579 2.0416560846308696 0 0 0 0 -85.509249193528376 -182.09738313751112 0 -182.09738313751112 136.69170666487707 0 0 0 0 140.22287101730763 -11.529841766215441 0 -11.529841766215441 -64.415106240338332 0 0 0 0 157.74063206908613 -55.009809842394418 0 -55.009809842394418 -27.900598805856134 0 0 0 0 194.75675662674985 -156.35035892276753 0 -156.35035892276753 38.610644385019441 0 0 0 0 145.7565184962823 -33.501944135704917 0 -33.501944135704917 -49.316615129665252 0 0 0 0 278.03152127888461 -55.024330715298902 0 -55.024330715298902 -102.15098506683375 0 0 0 0 -0.43127560037821411 0.26067736055490798 0 0.26067736055490798 0.056763784330231992 0 0 0 0 136.82348005854146 -108.23809297155856 0 -108.23809297155856 3.0332907705191019 0 0 0 0 126.99048231454071 -60.126106127195101 0 -60.126106127195101 26.213634599308989 0 0 0 0 87.12837138229952 -48.981992831888419 0 -48.981992831888419 30.88119344269785 0 0 0 0 119.02296076678613 -47.074082037575181 0 -47.074082037575181 6.0695801222789214 0 0 0 0 20.732709414389589 -7.1941067211132435 0 -7.1941067211132435 1.7140140445976559 0 0 0 0 74.380867326704902 -62.296606108988499 0 -62.296606108988499 42.314589280106674 0 0 0 0 99.021574431513727 -59.281532837386692 0 -59.281532837386692 39.111845590757412 0 0 0 0 70.251515650172223 -41.456448083590224 0 -41.456448083590224 42.222270038659644 0 0 0 0 85.367588307934057 -29.481553127382199 0 -29.481553127382199 47.317082128473828 0 0 0 0 65.75581445509799 -58.941253169673075 0 -58.941253169673075 24.437828063800744 0 0 0 0 55.522932743249669 -58.129906470963974 0 -58.129906470963974 23.267370140389396 0 0 0 0 -68.005806058321468 -118.07536594242168 0 -118.07536594242168 49.772998672120593 0 0 0 0 -46.372053225437412 -73.7176349240533 0 -73.7176349240533 18.780447284148977 0 0 0 0 87.416668872378068 -37.249697433166034 0 -37.249697433166034 42.819955414700331 0 0 0 0 -5.7736365903911064 -38.63848710804541 0 -38.63848710804541 45.34791692867293 0 0 0 0 3.2162411084829046 -26.335018784871409 0 -26.335018784871409 7.7977802538196084 0 0 0 0 -18.156518420881184 -41.547288947760876 0 -41.547288947760876 87.25146686167227 0 0 0 0 -26.52949642790918 -89.095687988542238 0 -89.095687988542238 16.476840531153357 0 0 0 0 -50.263905349806009 12.041870086800884 0 12.041870086800884 36.354913128547196 0 0 0 0 -3.9296755724363663 -3.5452900458664658 0 -3.5452900458664658 6.788855646443908 0 0 0 0 4.0893738342565484 -107.01765986135842 0 -107.01765986135842 72.409404812174898 0 0 0 0 25.404319809077037 -21.802205789938945 0 -21.802205789938945 5.8370625639076543 0 0 0 0 -15.917001464418718 2.0743061529947227 0 2.0743061529947227 9.9062758678339975 0 0 0 0 164.40039561013691 -56.739350025735348 0 -56.739350025735348 -8.3497732500517259 0 0 0 0 -53.362267993506975 -8.0020996301152536 0 -8.0020996301152536 9.5967304936784217 0 0 0 0 30.63775987576355 -25.179017421830238 0 -25.179017421830238 11.159713473159101 0 0 0 0 81.952152600744739 -27.960579142868937 0 -27.960579142868937 21.015752959024212 0 0 0 0 32.075838020915398 -28.879809399822875 0 -28.879809399822875 3.8462620401760432 0 0 0 0 118.52527250822686 -28.19305560342606 0 -28.19305560342606 -5.9301871028192181 0 0 0 0 118.13399420450151 -31.092127522507781 0 -31.092127522507781 13.423793031336118 0 0 0 0 23.621499949494307 -2.6398524438262285 0 -2.6398524438262285 -2.0032791435275703 0 0 0 0 100.04984321465963 -6.23853660671125 0 -6.23853660671125 -6.6723884619709679 0 0 0 0 109.13728289766004 -10.470518810750946 0 -10.470518810750946 4.2471163821755908 0 0 0 0 58.893395153339952 -7.4703487223378033 0 -7.4703487223378033 -3.2328513475831642 0 0 0 0 51.242242180218454 -10.004059081831201 0 -10.004059081831201 4.1857231318172126 0 0 0 0 19.148689356042524 -42.546119755850981 0 -42.546119755850981 14.564838085465986 0 0 0 0 14.045013109379056 -0.071830147742232953 0 -0.071830147742232953 -5.6281095554462786 0 0 0 0 77.330065272049978 -6.3285561825468903 0 -6.3285561825468903 2.1992767587371418 0 0 0 0 57.467991127339786 -5.5936693481930391 0 -5.5936693481930391 0.38374449089533835 0 0 0 0 96.231545733186067 -5.7778146312473382 0 -5.7778146312473382 -22.92419777062878 0 0 0 0 63.35256689725793 17.346153573867355 0 17.346153573867355 -13.165130562427748 0 0 0 0 99.110739272407955 -19.946488990992975 0 -19.946488990992975 -6.98976757929006 0 0 0 0 299.7865482330526 -86.772692148788337 0 -86.772692148788337 65.753133637718747 0 0 0 0 299.41721587028951 -82.411176607510129 0 -82.411176607510129 15.246651789228054 0 0 0 0 442.61222796293441 -108.56703533281461 0 -108.56703533281461 64.107170143709709 0 0 0 0 451.2434084520537 -105.63252186338582 0 -105.63252186338582 -8.5851154410775052 0 0 0 0 177.95646211632265 -120.2385684450478 0 -120.2385684450478 45.510867663690078 0 0 0 0 79.782439478993183 -150.51757749388662 0 -150.51757749388662 -9.239215913681619 0 0 0 0 121.5285855022812 -48.288108218236175 0 -48.288108218236175 -12.41673280292116 0 0 0 0 -26.959344692761078 -112.7599071347413 0 -112.7599071347413 68.71083242955774 0 0 0 0 4.7886005717446096 -115.16597685674969 0 -115.16597685674969 -32.921994234628073 0 0 0 0 -112.73346820156439 -160.29641555953549 0 -160.29641555953549 10.303090116557541 0 0 0 0 25.926240102911834 -56.371626746361926 0 -56.371626746361926 49.148812659667783 0 0 0 0 -13.741506385165849 -112.67308001789434 0 -112.67308001789434 64.888324485136764 0 0 0 0 110.42983401710808 -71.698744764198636 0 -71.698744764198636 105.76196322685746 0 0 0 0 106.86563335887331 -118.94439346402396 0 -118.94439346402396 88.871521107971603 0 0 0 0 110.21849904762348 -75.382770023210924 0 -75.382770023210924 154.19564375468053 0 0 0 0 85.202580280551047 -100.49466016040373 0 -100.49466016040373 201.54717745505468 0 0 0 0 5.5249266719911247 -43.181501049937424 0 -43.181501049937424 67.161618625241317 0 0 0 0 8.0223827606532723 -23.675263007072544 0 -23.675263007072544 129.17863970261635 0 0 0 0 -18.097380047500337 -48.932904699803771 0 -48.932904699803771 101.79986817017652 0 0 0 0 -8.1371320838079555 -21.29589928010742 0 -21.29589928010742 11.374486598465658 0 0 0 0 -12.190747611974075 -22.474667987186621 0 -22.474667987186621 49.545610622204549 0 0 0 0 -2.197504410030092 -5.9283259118598508 0 -5.9283259118598508 5.1535892590942067 0 0 0 0 -0.42718716495033959 -1.2525910869905168 0 -1.2525910869905168 0.34472959367199563 0 0 0 0 51.378764151188079 -10.622742526816751 0 -10.622742526816751 -36.443050120337659 0 0 0 0 121.27049667516258 -121.70776390346356 0 -121.70776390346356 116.51314366919109 0 0 0 0 461.16401238158869 -57.284327419910596 0 -57.284327419910596 17.439267255996356 0 0 0 0 280.36731760650582 -65.081515530275055 0 -65.081515530275055 118.4126148448795 0 0 0 0 262.44260425285029 -16.7792083884774 0 -16.7792083884774 80.954923354677703 0 0 0 0 265.13193219603272 -91.60238587284357 0 -91.60238587284357 97.491323223233394 0 0 0 0 264.693304711476 -108.02811900998539 0 -108.02811900998539 215.37589415995626 0 0 0 0 454.98070066353466 -174.71195138358996 0 -174.71195138358996 416.88358912641615 0 0 0 0 402.90283251923393 49.297287463576367 0 49.297287463576367 186.24242740778379 0 0 0 0 469.58405273675453 -43.542963575232761 0 -43.542963575232761 36.324115868561876 0 0 0 0 564.66348275097698 -27.531263783662723 0 -27.531263783662723 33.067023717102984 0 0 0 0 532.26548106063274 -50.790138612651617 0 -50.790138612651617 71.150027459152625 0 0 0 0 590.09580958649167 -77.012957809770228 0 -77.012957809770228 -2.0902664195468788 0 0 0 0 399.63229945540661 -300.20720397423145 0 -300.20720397423145 120.52345058216724 0 0 0 0 148.58688171318499 22.226098095621211 0 22.226098095621211 36.568295150277436 0 0 0 0 10.467565582963289 -22.050196788961557 0 -22.050196788961557 76.51402285545737 0 0 0 0 184.4106605090783 222.81921705987588 0 222.81921705987588 208.8339212233509 0 0 0 0 655.42044445216015 -349.08256100892822 0 -349.08256100892822 124.54187168990802 0 0 0 0 973.13982120505534 88.434893465503592 0 88.434893465503592 104.92543071645878 0 0 0 0 5.5913007848592429 0.4030888368613148 0 0.4030888368613148 -0.572456510056079 0 0 0 0 42.22838173765922 21.299844121917772 0 21.299844121917772 2.5293105775151616 0 0 0 0 60.126483206424382 46.068089261048002 0 46.068089261048002 -68.103485436111953 0 0 0 0 6.0636269247033923 0.52175855220951917 0 0.52175855220951917 -0.0061296457573272178 0 0 0 0 39.514185186206305 74.631290373842717 0 74.631290373842717 -87.612800676052757 0 0 0 0 71.111330912972335 24.853616657393104 0 24.853616657393104 -90.564366708215445 0 0 0 0 12.287113107475307 2.7443025360474564 0 2.7443025360474564 0.54980540405626765 0 0 0 0 114.91183132548758 -27.116812101806033 0 -27.116812101806033 15.329011497040597 0 0 0 0 23.238347366566927 14.300517557303536 0 14.300517557303536 0.37891369020973098 0 0 0 0 17.978747304237913 2.1062861843281553 0 2.1062861843281553 -61.943869932979396 0 0 0 0 28.57903670828091 18.453058964865249 0 18.453058964865249 -37.477101353935268 0 0 0 0 3.2793428735253087 1.5145925599093175 0 1.5145925599093175 3.7074201975612766 0 0 0 0 12.470897099383365 -43.224993306320954 0 -43.224993306320954 -73.96589422547504 0 0 0 0 4.9789495609875303 6.9970111404004456 0 6.9970111404004456 2.5901188819452727 0 0 0 0 6.28966802379 9.069981218433611 0 9.069981218433611 3.4405773837352172 0 0 0 0 6.1323746445123106 8.4068522168045092 0 8.4068522168045092 1.4942115329699845 0 0 0 0 5.2230151804978959 7.7439900709700851 0 7.7439900709700851 4.5564853491423492 0 0 0 0 5.9349508844948673 12.031022140969299 0 12.031022140969299 -2.2582271527036273 0 0 0 0 7.0136531148365364 18.986184566408951 0 18.986184566408951 -2.27845298770991 0 0 0 0 91.913273120357189 10.437449767800899 0 10.437449767800899 -6.0568752967305954 0 0 0 0 57.155443193471001 44.218460828283128 0 44.218460828283128 6.4314743938894026 0 0 0 0 -34.94951210419822 29.127557788918239 0 29.127557788918239 24.972457918844157 0 0 0 0 86.693766565978876 23.696462710024207 0 23.696462710024207 18.498966431542613 0 0 0 0 25.388730179314734 10.102715533007995 0 10.102715533007995 -6.0469528805542723 0 0 0 0 8.5306331386983629 -0.64422754053833842 0 -0.64422754053833842 -3.7638406306807504 0 0 0 0 34.525348867928869 11.158192816019778 0 11.158192816019778 -4.076090167569502 0 0 0 0 45.982674891012721 8.7733033095300925 0 8.7733033095300925 -4.0058312788132753 0 0 0 0 26.693048987851917 27.982714244846363 0 27.982714244846363 -2.808679575618406 0 0 0 0 33.014180495365508 21.844073010811414 0 21.844073010811414 2.4520529510709324 0 0 0 0 -27.147764877125155 128.3586663082001 0 128.3586663082001 19.537856507185069 0 0 0 0 107.60822662631836 27.08194183256137 0 27.08194183256137 1.1466132333416681 0 0 0 0 114.31907999434407 20.315078481515684 0 20.315078481515684 3.9574175030011247 0 0 0 0 14.192393876318633 1.8026082389571627 0 1.8026082389571627 4.0486905738389787 0 0 0 0 53.385575874836547 39.574909902238687 0 39.574909902238687 -2.9871989785542254 0 0 0 0 848.85924163217715 65.901510191280522 0 65.901510191280522 -17.911569858713847 0 0 0 0 271.13828791065316 -7.7875171488999513 0 -7.7875171488999513 -4.0921577408685152 0 0 0 0 300.10657782074122 154.46960102225694 0 154.46960102225694 64.330870561471215 0 0 0 0 23.890356527728727 11.002957583165312 0 11.002957583165312 17.464991911106154 0 0 0 0 491.54130729277313 -29.362350846726031 0 -29.362350846726031 -80.60596954441553 0 0 0 0 291.59016386467556 10.607380404678224 0 10.607380404678224 25.570853469756003 0 0 0 0 249.35884261831234 -65.169503068811082 0 -65.169503068811082 -72.512464516779801 0 0 0 0 138.68539398364373 104.54119202781294 0 104.54119202781294 -37.39040007517724 0 0 0 0 238.38143214886077 -159.80683332939407 0 -159.80683332939407 92.512112168744352 0 0 0 0 63.666101660769982 25.523999196987788 0 25.523999196987788 -15.984220482371992 0 0 0 0 66.274896594768506 156.46086664024506 0 156.46086664024506 -27.516628618093591 0 0 0 0 54.479880647741254 33.875528054459906 0 33.875528054459906 -7.2777006030744005 0 0 0 0 69.621357667529082 36.818741974078193 0 36.818741974078193 -3.4400087758504014 0 0 0 0 143.41816345680127 7.3762788344683941 0 7.3762788344683941 6.2737708642125654 0 0 0 0 91.087641474125121 5.3459685593859376 0 5.3459685593859376 10.698898762438148 0 0 0 0 7.8106848885339772 0.55166763819926246 0 0.55166763819926246 5.2564321829748906 0 0 0 0 132.30454294302763 20.98030379760803 0 20.98030379760803 -6.5715451767000559 0 0 0 0 93.475799024978187 19.396227632255886 0 19.396227632255886 14.2094794521945 0 0 0 0 77.215315907407785 7.5690758212517721 0 7.5690758212517721 1.4296913262678572 0 0 0 0 93.407386100734584 13.055873855270875 0 13.055873855270875 -10.247626667731083 0 0 0 0 97.443359568031156 11.942804696197982 0 11.942804696197982 -5.4913989062761175 0 0 0 0 83.094868051897464 -1.1168948673683552 0 -1.1168948673683552 -1.249823064093448 0 0 0 0 63.283549471605511 6.1115368064772611 0 6.1115368064772611 -0.19799954017798882 0 0 0 0 106.87744999461574 3.3487863949872008 0 3.3487863949872008 2.2728695877478913 0 0 0 0 65.584743832718232 -38.68720987756933 0 -38.68720987756933 -103.14547127703099 0 0 0 0 16.541742502587141 17.802897191248391 0 17.802897191248391 4.9578433106217332 0 0 0 0 43.553620525973344 15.897686359145816 0 15.897686359145816 0.45732828413866899 0 0 0 0 180.51645513842959 73.991607489755552 0 73.991607489755552 35.599206204055918 0 0 0 0 1.9934783608332509 -24.227417086849528 0 -24.227417086849528 31.064103170241651 0 0 0 0 47.139173442682818 3.9225370042695138 0 3.9225370042695138 -3.8387324824987825 0 0 0 0 76.395699298271211 24.326037211434141 0 24.326037211434141 5.2738044028701552 0 0 0 0 22.407147195916309 5.1109039965732137 0 5.1109039965732137 -2.0528602542718559 0 0 0 0 87.913988463988062 -79.060988132163402 0 -79.060988132163402 -72.305996744269578 0 0 0 0 6.38573696696767 -78.451504642852342 0 -78.451504642852342 99.176245245373138 0 0 0 0 27.380267412981539 6.5141103564337124 0 6.5141103564337124 2.0260743297500907 0 0 0 0 79.325522985855059 13.670737022812546 0 13.670737022812546 -32.426969630694657 0 0 0 0 255.17254099687852 -313.80304840363897 0 -313.80304840363897 394.71939157367478 0 0 0 0 1024.9210657416115 219.64925594955548 0 219.64925594955548 -240.49356408299263 0 0 0 0 108.5174175115294 62.99605462902295 0 62.99605462902295 -9.622173412808646 0 0 0 0 -18.00297808364121 322.21655249233845 0 322.21655249233845 -162.07800019157185 0 0 0 0 93.949393354039302 13.064905485428884 0 13.064905485428884 -5.1064309612836336 0 0 0 0 384.3390975402217 -89.416128319968266 0 -89.416128319968266 -275.52004142944224 0 0 0 0 62.859329046030325 30.086181097017629 0 30.086181097017629 -24.522790187211285 0 0 0 0 33.045276065204234 40.221320347345454 0 40.221320347345454 -9.8072290744948987 0 0 0 0 -389.28927103066235 -15.417022473165162 0 -15.417022473165162 127.09082781985853 0 0 0 0 33.230587775123894 26.679563787248313 0 26.679563787248313 -3.7272482233811672 0 0 0 0 42.176695473193831 46.261982008225914 0 46.261982008225914 -15.624070143744575 0 0 0 0 20.563238990464015 21.927020939865542 0 21.927020939865542 -47.635746479234513 0 0 0 0 24.070649785666319 55.047535580016529 0 55.047535580016529 -10.343538731365697 0 0 0 0 11.292090781797015 59.961409520020425 0 59.961409520020425 -11.877295075717484 0 0 0 0 15.035422808694761 0.079230638682005861 0 0.079230638682005861 -7.774091702404121 0 0 0 0 114.39743733129581 27.236380686336815 0 27.236380686336815 -3.9444425729564045 0 0 0 0 143.27601172836148 -1.9043245758684861 0 -1.9043245758684861 12.686932130901369 0 0 0 0 131.58254820223374 36.665980927443343 0 36.665980927443343 -31.72924678828349 0 0 0 0 8.3992510533935274 49.129728273856017 0 49.129728273856017 -3.6878022398368557 0 0 0 0 14.731647035863656 4.1696414125206758 0 4.1696414125206758 -1.7708584617650232 0 0 0 0 34.690784634298964 29.174877624823733 0 29.174877624823733 7.4767416044643422 0 0 0 0 11.411035823271959 36.574765467635643 0 36.574765467635643 1.5687905888926252 0 0 0 0 16.703804747652612 42.671037637281188 0 42.671037637281188 -8.0084410154195211 0 0 0 0 38.678980553502541 27.247674990522484 0 27.247674990522484 -7.9338024566226188 0 0 0 0 415.41990322156198 -174.40057515546505 0 -174.40057515546505 -181.43468890059921 0 0 0 0 389.31746305053093 -160.31862377914194 0 -160.31862377914194 -22.420756175570205 0 0 0 0 602.09886994809494 366.43013399041956 0 366.43013399041956 5.7117077474451889 0 0 0 0 -254.5369923330727 312.07570841157167 0 312.07570841157167 172.68847629441007 0 0 0 0 267.31894866353832 -42.398582300087583 0 -42.398582300087583 -233.96012642197502 0 0 0 0 70.748913477960741 -61.761904754554052 0 -61.761904754554052 82.58310697086381 0 0 0 0 4.8890850606615572 -8.519965738207171 0 -8.519965738207171 -2.970536110839328 0 0 0 0 121.01680267247139 -138.36918946805417 0 -138.36918946805417 67.875211814496652 0 0 0 0 131.73927472831565 -18.561638447054065 0 -18.561638447054065 -86.657731153683017 0 0 0 0 38.045042317854282 -21.74576472806082 0 -21.74576472806082 -13.149881885661642 0 0 0 0 -89.320341850361729 34.768691096207363 0 34.768691096207363 -5.4970184605190298 0 0 0 0 -49.416041906792088 9.0569034758445923 0 9.0569034758445923 41.196572078291865 0 0 0 0 95.780953186040279 19.007009954789282 0 19.007009954789282 -39.05147536208824 0 0 0 0 26.516219479450587 -2.7436923773282444 0 -2.7436923773282444 -7.1904258615426215 0 0 0 0 109.86258015272324 81.337920422914976 0 81.337920422914976 32.814494601198021 0 0 0 0 328.00342745517264 206.78781305096527 0 206.78781305096527 108.10447058366822 0 0 0 0 109.5713522388105 97.272224578329769 0 97.272224578329769 61.409882438627392 0 0 0 0 17.128474772767234 8.4223554717399907 0 8.4223554717399907 2.6812051979032709 0 0 0 0 5.2015081886573 0.41144399687789601 0 0.41144399687789601 0.34612132246014493 0 0 0 0 16.845611503857072 -51.166356687158441 0 -51.166356687158441 -7.7278315072253463 0 0 0 0 56.448133774159942 -294.68040024364382 0 -294.68040024364382 80.115082781726187 0 0 0 0 577.10139260078722 -107.40794510834803 0 -107.40794510834803 -101.28545936365299 0 0 0 0 451.93856768294063 60.22038155440805 0 60.22038155440805 -58.837315018839945 0 0 0 0 140.16236233778181 9.2429340640828741 0 9.2429340640828741 -60.249178484342053 0 0 0 0 82.275201605050825 -94.339820538476488 0 -94.339820538476488 -81.454500360027851 0 0 0 0 23.785862179417961 0.67876519570327787 0 0.67876519570327787 -6.1562381312007233 0 0 0 0 30.472381012747064 -35.177318407338134 0 -35.177318407338134 -7.2937577978764239 0 0 0 0 151.54898683473584 -0.60178035715489386 0 -0.60178035715489386 -55.655780717281687 0 0 0 0 74.37269565006136 82.851123611935691 0 82.851123611935691 37.152331983430486 0 0 0 0 49.224271085622604 119.81876063276286 0 119.81876063276286 159.1296091816439 0 0 0 0 3.617533733667571 25.306402933005316 0 25.306402933005316 7.1694464836094163 0 0 0 0 269.03898578163353 -4.6498914857475029 0 -4.6498914857475029 -72.277481742585223 0 0 0 0 222.37212249630829 69.185505236348945 0 69.185505236348945 -71.286700293065223 0 0 0 0 303.0529923774302 119.58028281885527 0 119.58028281885527 -46.73167246824687 0 0 0 0 155.08358765173034 -10.886077871396083 0 -10.886077871396083 -10.813811739728408 0 0 0 0 236.67649434744635 -28.244886679493675 0 -28.244886679493675 -28.542528340090939 0 0 0 0 226.08386566907575 -81.841360249063541 0 -81.841360249063541 22.650630793212258 0 0 0 0 12.864363797821341 -6.3368087689901387 0 -6.3368087689901387 -1.730125553820848 0 0 0 0 54.520164395624306 35.776979195967215 0 35.776979195967215 2.2983418984240416 0 0 0 0 72.450214438725027 20.061367963460022 0 20.061367963460022 -2.899535979945739 0 0 0 0 27.538523352331637 37.604818355409449 0 37.604818355409449 0.96804289159442192 0 0 0 0 69.295126171407901 18.125713741746949 0 18.125713741746949 -2.0679402799869422 0 0 0 0 199.08618761729304 16.46120267087781 0 16.46120267087781 -33.058552045764372 0 0 0 0 -1.0556041357041073 -2.0273719848654537 0 -2.0273719848654537 -0.60208484574021881 0 0 0 0 -138.77004398788995 35.204861662564781 0 35.204861662564781 21.781663628774368 0 0 0 0 -26.714929828740424 82.025135982516076 0 82.025135982516076 -98.190831096046168 0 0 0 0 155.03032178770081 17.610475680033687 0 17.610475680033687 -12.833282850895557 0 0 0 0 170.8218249197671 -4.4696705739170284 0 -4.4696705739170284 -3.3272760021736758 0 0 0 0 169.81481815085863 43.344334511703437 0 43.344334511703437 -49.13135212623456 0 0 0 0 148.95467608248873 19.248340434936836 0 19.248340434936836 -10.788899939227122 0 0 0 0 142.50843133026137 73.915993260788127 0 73.915993260788127 -62.465681386673168 0 0 0 0 -27.282920119789196 90.837759271480536 0 90.837759271480536 1.0163516475986398 0 0 0 0 104.26900639902306 55.833928280559121 0 55.833928280559121 9.9168992031873131 0 0 0 0 59.5972488224686 38.143236031874217 0 38.143236031874217 7.7149787590621433 0 0 0 0 56.570028412825195 53.588780112821951 0 53.588780112821951 35.342724117257603 0 0 0 0 61.055239939774765 34.314785935432383 0 34.314785935432383 -6.1269813944390989 0 0 0 0 49.799325616743843 35.345419023619996 0 35.345419023619996 3.4278412190190508 0 0 0 0 113.73865382787335 7.8530744599040645 0 7.8530744599040645 3.1185865718471177 0 0 0 0 89.22394864981834 35.343087457495017 0 35.343087457495017 9.2127411925707747 0 0 0 0 130.48525122487627 42.317597169068449 0 42.317597169068449 2.2520303828681563 0 0 0 0 23.972798928964163 28.484654839050989 0 28.484654839050989 10.391526986266733 0 0 0 0 128.37097272681422 45.248792755526665 0 45.248792755526665 -42.826765495087784 0 0 0 0 56.106158107808483 -25.017430107532519 0 -25.017430107532519 -6.0237539229281154 0 0 0 0 109.40556661425944 18.574831899361016 0 18.574831899361016 12.102313550093641 0 0 0 0 104.08791545291024 4.6623018651885104 0 4.6623018651885104 5.4697726718823105 0 0 0 0 102.06252481011325 -1.833503204596127 0 -1.833503204596127 3.2205076061572981 0 0 0 0 109.25544356185128 1.5429937930148299 0 1.5429937930148299 1.1159836114584323 0 0 0 0 98.838164315704489 -1.6035545833894957 0 -1.6035545833894957 0.51280242780444496 0 0 0 0 117.99420083333462 27.543427003503098 0 27.543427003503098 3.5727301543938665 0 0 0 0 130.90165471791988 2.6944474191477639 0 2.6944474191477639 0.059500026338355383 0 0 0 0 16.21040080163786 16.370187605276726 0 16.370187605276726 1.6584764025007495 0 0 0 0 44.965622734425779 -9.5273097759179848 0 -9.5273097759179848 -3.911747998866911 0 0 0 0 136.70534141959797 -4.7427534263506459 0 -4.7427534263506459 -9.3282994611452068 0 0 0 0 66.941862147767097 -18.361844705758585 0 -18.361844705758585 37.186859805689409 0 0 0 0 147.03971436500433 16.991695012599905 0 16.991695012599905 2.9578697088168724 0 0 0 0 12.716865900954041 15.99966811910403 0 15.99966811910403 -2.290660249215696 0 0 0 0 66.866056431164907 23.884142831503766 0 23.884142831503766 -11.629604410095567 0 0 0 0 147.04463275747548 44.891948077487314 0 44.891948077487314 -3.7245186828708938 0 0 0 0 170.75943573287805 39.956914041355049 0 39.956914041355049 -3.594694571019545 0 0 0 0 166.67650486058847 -6.5043747247793817 0 -6.5043747247793817 20.924348589329952 0 0 0 0 249.09535301542201 66.68453180073152 0 66.68453180073152 5.2788560462781788 0 0 0 0 128.33085221097281 83.211539988068296 0 83.211539988068296 47.780705253603401 0 0 0 0 155.9411072779767 96.045938612572741 0 96.045938612572741 49.242778957144878 0 0 0 0 117.12151572650691 56.572003116660937 0 56.572003116660937 11.861004956772831 0 0 0 0 102.70826173029127 -471.00687569986451 0 -471.00687569986451 -266.76223595092256 0 0 0 0 -2.6681438258304127 0.81161137135367767 0 0.81161137135367767 -0.95806340386880606 0 0 0 0 36.043981071538838 141.5721428224154 0 141.5721428224154 -198.42106861036541 0 0 0 0 392.27591246657539 114.0795192623973 0 114.0795192623973 50.282820272483718 0 0 0 0 252.6658776292461 132.2943566450941 0 132.2943566450941 56.438639353955033 0 0 0 0 294.17831455545456 -11.433437439933769 0 -11.433437439933769 17.2477425497284 0 0 0 0 331.14957448003406 -101.61618498868972 0 -101.61618498868972 228.15604219673719 0 0 0 0 188.95700689310615 43.113795740865839 0 43.113795740865839 84.99392030915601 0 0 0 0 -117.64310791448224 -388.27137826672333 0 -388.27137826672333 96.301056823165254 0 0 0 0 94.034481003312976 132.82489331315367 0 132.82489331315367 104.12831092300655 0 0 0 0 7.6332305218584793 0.97163881541924013 0 0.97163881541924013 0.026953797719620365 0 0 0 0 20.357061845737917 -39.01427397643522 0 -39.01427397643522 -1.952613816367375 0 0 0 0 324.12342883190286 294.20323409792343 0 294.20323409792343 237.16724487997999 0 0 0 0 1013.5297667657724 -382.37509094876737 0 -382.37509094876737 -360.73834768910115 0 0 0 0 186.24642365482578 -106.96861966804647 0 -106.96861966804647 451.09151953912192 0 0 0 0 549.41874533097689 -117.95489567773788 0 -117.95489567773788 68.928106942143813 0 0 0 0 382.10677883480821 42.519025547595277 0 42.519025547595277 -25.319404470653126 0 0 0 0 260.42971753746679 9.1169236140680141 0 9.1169236140680141 22.872230612364149 0 0 0 0 179.93868185067549 128.46133845794861 0 128.46133845794861 48.785766720338813 0 0 0 0 492.43657009610979 170.46710772601199 0 170.46710772601199 20.009769638815442 0 0 0 0 151.4465018660303 71.935644658106298 0 71.935644658106298 9.6495887799856064 0 0 0 0 280.83284274442667 -21.003899094547933 0 -21.003899094547933 -0.03861666982436418 0 0 0 0 211.3844287913962 71.997501151564563 0 71.997501151564563 -25.065569822992529 0 0 0 0 321.48339172374108 130.12487763227367 0 130.12487763227367 -5.3927187138372119 0 0 0 0 -34.449993782014644 134.84581994651626 0 134.84581994651626 11.81491050405657 0 0 0 0 9.690062266048912 41.28827782666994 0 41.28827782666994 12.450496449701317 0 0 0 0 -60.381807912497607 41.559045225829891 0 41.559045225829891 54.042702436540424 0 0 0 0 113.38189969601808 87.287558999994417 0 87.287558999994417 -48.789854282049419 0 0 0 0 95.826287437193969 -0.3831450819964175 0 -0.3831450819964175 28.766325251749549 0 0 0 0 20.764298254018321 38.821682206200251 0 38.821682206200251 -3.0968017115161279 0 0 0 0 18.152011905942345 87.897400690870882 0 87.897400690870882 -3.6882553940668572 0 0 0 0 -72.133094480166619 1.3238320179251559 0 1.3238320179251559 9.6289662664130447 0 0 0 0 -44.782014229713241 -30.497391401717096 0 -30.497391401717096 45.673828074150208 0 0 0 0 -29.454678503243485 9.7597908042038171 0 9.7597908042038171 -49.710165812211926 0 0 0 0 11.716159804752181 13.367129650107103 0 13.367129650107103 2.2441421286054757 0 0 0 0 179.65320935091586 15.16272878799014 0 15.16272878799014 1.3813314676219193 0 0 0 0 76.02285153165576 55.361286256930491 0 55.361286256930491 -42.932574433048387 0 0 0 0 59.198581079504322 21.310254295104102 0 21.310254295104102 -3.4915319933723827 0 0 0 0 80.949128946987912 71.380569294071833 0 71.380569294071833 -51.8926839157998 0 0 0 0 65.403021630801959 45.151065231578457 0 45.151065231578457 -40.9343251536813 0 0 0 0 51.573735776284593 32.090681890532892 0 32.090681890532892 -53.109465859875399 0 0 0 0 64.731471459635941 7.7821719161955798 0 7.7821719161955798 -82.457897968511134 0 0 0 0 111.66057449459913 11.189943375012604 0 11.189943375012604 -53.275799590417364 0 0 0 0 99.827094622247387 23.888288524237254 0 23.888288524237254 -75.634559676152605 0 0 0 0 73.031858380061749 -27.796191064561413 0 -27.796191064561413 -86.204494163756408 0 0 0 0 94.733970419372781 -5.6259085063782095 0 -5.6259085063782095 30.283983184483304 0 0 0 0 257.27706019065226 -55.763527402301179 0 -55.763527402301179 -1.3792292535931665 0 0 0 0 143.92854716318834 16.325622471365023 0 16.325622471365023 -2.4983609559556044 0 0 0 0 92.871062583566527 78.53421479454471 0 78.53421479454471 -12.646538027493079 0 0 0 0 140.31404291867511 40.467431051551102 0 40.467431051551102 -41.866370341955417 0 0 0 0 507.74341586665832 -180.12706227109894 0 -180.12706227109894 45.012353753933212 0 0 0 0 491.6014934763225 -143.37858313225527 0 -143.37858313225527 -23.413022857550203 0 0 0 0 -3.856096533141681 -195.66123273708001 0 -195.66123273708001 52.309204433555351 0 0 0 0 600.33452233546996 -66.032461780785809 0 -66.032461780785809 -21.848299321326948 0 0 0 0 -1.1208527617338291 0.061414019526068842 0 0.061414019526068842 2.4143474816101831 0 0 0 0 438.65171035837557 -186.49849366401395 0 -186.49849366401395 -16.689477202585977 0 0 0 0 455.23681947278965 -144.15195943785398 0 -144.15195943785398 12.99602493105067 0 0 0 0 444.97852069532382 -147.99387479169746 0 -147.99387479169746 17.361133563059411 0 0 0 0 442.13475822731561 -148.81901508903161 0 -148.81901508903161 51.66006088211924 0 0 0 0 427.4256613453872 -191.77216722046057 0 -191.77216722046057 87.808787575859242 0 0 0 0 449.51216851970821 -154.18996534759026 0 -154.18996534759026 8.3888471548227699 0 0 0 0 459.44268877615104 -253.0135796982072 0 -253.0135796982072 253.13031810146822 0 0 0 0 111.57285490260983 -150.40974241601953 0 -150.40974241601953 135.57033922066648 0 0 0 0 178.40015516098356 53.40151767388079 0 53.40151767388079 24.602389221944577 0 0 0 0 246.60679530198104 -57.826383907874742 0 -57.826383907874742 41.760891102591813 0 0 0 0 503.37400334561244 -137.2450705734841 0 -137.2450705734841 11.509551927812026 0 0 0 0 344.10266182134364 -19.261337592153268 0 -19.261337592153268 40.438356343642226 0 0 0 0 165.96589909879549 111.93094977445037 0 111.93094977445037 -0.21685681147300784 0 0 0 0 340.37920158792986 -33.269902424904558 0 -33.269902424904558 -2.258625050076148 0 0 0 0 419.99313915512175 -79.763998053580963 0 -79.763998053580963 2.5345955525028216 0 0 0 0 660.92463621019124 -235.4936018827259 0 -235.4936018827259 67.237108860023909 0 0 0 0 462.47734974162449 -7.69600799446971 0 -7.69600799446971 13.848545312479473 0 0 0 0 553.28597818101116 -163.1803352082552 0 -163.1803352082552 41.626421375053155 0 0 0 0 0.1212062795465414 0.44926330969767037 0 0.44926330969767037 1.5332507005409326 0 0 0 0 -180.22900620181281 -15.720521691651584 0 -15.720521691651584 139.4133869903153 0 0 0 0 673.84937507061113 -212.45192206431557 0 -212.45192206431557 71.792720223537799 0 0 0 0 901.94373666393221 -338.79399798271743 0 -338.79399798271743 13.015296111524549 0 0 0 0 4.6456920147001597 -0.93542548780749257 0 -0.93542548780749257 4.5924445769554936 0 0 0 0 441.86337615415687 -213.64925866852582 0 -213.64925866852582 99.796711825416423 0 0 0 0 6.1549245655769482 -65.345265076650776 0 -65.345265076650776 -11.435730536437404 0 0 0 0 68.975221191212768 -49.100585148541086 0 -49.100585148541086 -28.668939559039245 0 0 0 0 73.121224428658024 -68.07347330857192 0 -68.07347330857192 -39.913880695197804 0 0 0 0 -26.151408570702188 -39.695637871123836 0 -39.695637871123836 -11.905615599305747 0 0 0 0 24.368760781959281 -37.514357175340592 0 -37.514357175340592 -47.308785160557818 0 0 0 0 37.869911240996203 3.4407787362530229 0 3.4407787362530229 2.1769675034970186 0 0 0 0 6.6888460664907257 -0.6995581368311008 0 -0.6995581368311008 3.2091350767064544 0 0 0 0 6.3438136847034698 3.0426752919286457 0 3.0426752919286457 10.642764443704152 0 0 0 0 -29.321380731009413 103.82000437263196 0 103.82000437263196 -78.07723264525157 0 0 0 0 310.90928300037922 269.58774988133337 0 269.58774988133337 258.23333917590696 0 0 0 0 60.213932779515744 51.097099465625433 0 51.097099465625433 -91.007735182917543 0 0 0 0 492.73071662369512 206.00201061422626 0 206.00201061422626 185.61629901409833 0 0 0 0 525.88420847769885 -238.41807024213358 0 -238.41807024213358 555.53268485757144 0 0 0 0 547.41175740283506 -170.79196318165941 0 -170.79196318165941 48.738208639304503 0 0 0 0 1010.4426465870056 120.35763617583871 0 120.35763617583871 198.31805726519269 0 0 0 0 784.24327140548849 -494.33528479594679 0 -494.33528479594679 282.66962800900546 0 0 0 0 868.15738634454101 119.33318965011938 0 119.33318965011938 -87.623158785567284 0 0 0 0 730.40817137098929 -463.87460594213371 0 -463.87460594213371 183.64741071014032 0 0 0 0 286.09593385827611 -63.989657807258482 0 -63.989657807258482 76.849536295117105 0 0 0 0 874.0459569428931 -243.29279220766875 0 -243.29279220766875 11.871411849968354 0 0 0 0 295.3196270679764 -56.056092825115229 0 -56.056092825115229 48.93349850875893 0 0 0 0 10.838487263631706 42.219397780085416 0 42.219397780085416 28.457823124505403 0 0 0 0 -219.39268647375866 27.338522455932889 0 27.338522455932889 174.56270558767392 0 0 0 0 -373.40232955008105 220.7321608103066 0 220.7321608103066 207.15813916927527 0 0 0 0 -154.30629269211204 -233.99779109318661 0 -233.99779109318661 -28.794840609200833 0 0 0 0 -12.338177048208308 260.56839593583891 0 260.56839593583891 -65.847378680251495 0 0 0 0 360.36271443545411 4.8476715883508632 0 4.8476715883508632 -80.238943093768739 0 0 0 0 0.40785697602332949 0.77082824272147832 0 0.77082824272147832 1.0629535672667467 0 0 0 0 169.95631060488813 -18.888900618390039 0 -18.888900618390039 23.078246292972608 0 0 0 0 191.88459582451469 -27.849999019128148 0 -27.849999019128148 20.862588224257934 0 0 0 0 158.61177455836878 -46.251336340603487 0 -46.251336340603487 11.173370671723433 0 0 0 0 162.85748758457066 -4.7821320191219812 0 -4.7821320191219812 0.64986421754611001 0 0 0 0 177.94790065272537 2.9581048450050957 0 2.9581048450050957 58.356778636472882 0 0 0 0 2.6465615208694402 4.2335227396974915 0 4.2335227396974915 3.3166346555269008 0 0 0 0 359.32521044218697 103.28036391771923 0 103.28036391771923 -101.53212665155729 0 0 0 0 71.980126535483578 116.60208609307907 0 116.60208609307907 108.893984002997 0 0 0 0 364.14751487094327 -33.758530697125252 0 -33.758530697125252 29.298706493241525 0 0 0 0 521.60864266373392 -97.144197848162293 0 -97.144197848162293 -47.253250470050432 0 0 0 0 488.75391221872633 3.0281389727264383 0 3.0281389727264383 -81.595035934177417 0 0 0 0 1.2893434798682648 1.530803826878639 0 1.530803826878639 1.5360837424246609 0 0 0 0 -199.03163580365799 103.29852453834562 0 103.29852453834562 74.250292732010735 0 0 0 0 2.6976174802111927 -61.865229912609905 0 -61.865229912609905 -18.517181817126456 0 0 0 0 118.22131912330224 123.36491498966809 0 123.36491498966809 18.76384557684483 0 0 0 0 -207.96262618676701 120.50176971076326 0 120.50176971076326 112.00517719756226 0 0 0 0 26.033258588904573 163.1347305583412 0 163.1347305583412 128.12362818610808 0 0 0 0 11.264367875233084 42.679469003190292 0 42.679469003190292 23.681531783728033 0 0 0 0 55.689418844282045 -40.211688981641601 0 -40.211688981641601 3.8992481272909743 0 0 0 0 228.60257553419797 145.23912204237809 0 145.23912204237809 -49.274037121507718 0 0 0 0 132.88646421037265 114.08140218408755 0 114.08140218408755 -146.6187111750296 0 0 0 0 171.86649104332901 -38.136597703368807 0 -38.136597703368807 110.30068754873719 0 0 0 0 64.025071193318581 -10.476593346372283 0 -10.476593346372283 1.1090919532862245 0 0 0 0 34.973802961350884 -5.9534498470338804 0 -5.9534498470338804 6.25121409455096 0 0 0 0 33.462814945709738 -8.9188509026660512 0 -8.9188509026660512 4.125898858039001 0 0 0 0 30.241535870009102 -4.5772965398300585 0 -4.5772965398300585 7.1139125102708931 0 0 0 0 18.525904605072043 -7.1034784069646264 0 -7.1034784069646264 8.6314725293524717 0 0 0 0 86.276009373512352 52.782005533068514 0 52.782005533068514 -27.506980843672864 0 0 0 0 -67.702777555423381 -197.02183566280905 0 -197.02183566280905 -14.912185207283073 0 0 0 0 21.258907726180041 -6.2370529126083056 0 -6.2370529126083056 8.4709115861151076 0 0 0 0 34.844281328521902 -8.6160140899487487 0 -8.6160140899487487 -3.7338982440523978 0 0 0 0 23.091930602373225 -2.7196453174438204 0 -2.7196453174438204 0.25175710936263229 0 0 0 0 17.287019111106929 -18.370820065386852 0 -18.370820065386852 34.09896091180417 0 0 0 0 34.579956542677621 -10.170697179717216 0 -10.170697179717216 1.3683076408882382 0 0 0 0 -4.2238686098717153 37.098579868861634 0 37.098579868861634 -19.636386903477614 0 0 0 0 30.271153358451556 4.5478805391485366 0 4.5478805391485366 4.9050873560463515 0 0 0 0 104.69129775828333 -24.748337609277769 0 -24.748337609277769 7.1311036737697577 0 0 0 0 54.740379475610098 -6.0720519601063643 0 -6.0720519601063643 3.7011917299769266 0 0 0 0 36.31563832538086 -22.575417016096253 0 -22.575417016096253 78.24026201205379 0 0 0 0 85.285623600604595 14.374200003577243 0 14.374200003577243 14.302258500344578 0 0 0 0 8.824646116519375 -0.34626935127610636 0 -0.34626935127610636 -0.71550522677656048 0 0 0 0 36.372891754523152 -2.0557350820445208 0 -2.0557350820445208 7.03827916525006 0 0 0 0 18.358130360592412 6.9168198327578096 0 6.9168198327578096 -0.53114002502088553 0 0 0 0 96.801586688801763 -43.385341105888529 0 -43.385341105888529 -10.913680795652908 0 0 0 0 97.318705537094502 76.077443208030672 0 76.077443208030672 -4.4844294810804968 0 0 0 0 81.629382154700579 46.18109365287728 0 46.18109365287728 -59.512454971561965 0 0 0 0 26.194565204886203 9.8086102924474261 0 9.8086102924474261 -4.8274646932126331 0 0 0 0 49.022972588776611 -3.1949361553561175 0 -3.1949361553561175 0.95532408552571724 0 0 0 0 32.926543636944018 10.874801111902542 0 10.874801111902542 -3.3990568691358121 0 0 0 0 34.183238086101483 0.62236875791495549 0 0.62236875791495549 4.6763913579161454 0 0 0 0 54.36166931410844 0.76345783932902123 0 0.76345783932902123 -0.25542389197653392 0 0 0 0 24.018080053693183 6.7021611724017873 0 6.7021611724017873 -1.7937881197586769 0 0 0 0 43.890071820380399 9.5244218811985775 0 9.5244218811985775 -0.62471462474786676 0 0 0 0 54.955092061733012 12.004408008729115 0 12.004408008729115 -1.2842425403814559 0 0 0 0 73.297213302757882 -11.874991243718114 0 -11.874991243718114 3.4887873207226221 0 0 0 0 70.949518881578115 -13.261262206515767 0 -13.261262206515767 4.2138334606579519 0 0 0 0 67.240839391830377 -6.4602601790957124 0 -6.4602601790957124 -2.6571749863469449 0 0 0 0 58.952333397741313 -12.089289706879754 0 -12.089289706879754 5.8783018138328771 0 0 0 0 67.002163562181522 -12.494186140313104 0 -12.494186140313104 5.8136321506035529 0 0 0 0 66.291071739860854 -9.846716130790071 0 -9.846716130790071 4.9196270881202508 0 0 0 0 63.119450838123157 -11.523717739258245 0 -11.523717739258245 11.401233636009238 0 0 0 0 -3.024720789573621 -6.5572966145573446 0 -6.5572966145573446 30.42699518970403 0 0 0 0 47.773055379023845 5.9586684547145978 0 5.9586684547145978 -6.7283982578016754 0 0 0 0 15.021871233302576 6.7606485890593149 0 6.7606485890593149 -2.265552238113326 0 0 0 0 38.275392800016562 -5.0872568103959566 0 -5.0872568103959566 3.4593855208277091 0 0 0 0 15.610915232060933 -15.212064730844048 0 -15.212064730844048 6.3400764310975859 0 0 0 0 48.937146803247742 -21.154539780132836 0 -21.154539780132836 6.3492722024557224 0 0 0 0 174.68600701105606 -20.194118122626151 0 -20.194118122626151 -11.551431577530821 0 0 0 0 18.873084463907432 -10.894700940117019 0 -10.894700940117019 2.9220818982730705 0 0 0 0 53.040186359809013 -10.47139412012848 0 -10.47139412012848 14.217291712302085 0 0 0 0 -2.0436262654572062 3.6689920801425444 0 3.6689920801425444 4.0003407588674582 0 0 0 0 43.048197922482359 -36.697155334992487 0 -36.697155334992487 11.626727405583551 0 0 0 0 42.684845623058209 -8.0653466979101722 0 -8.0653466979101722 3.6551885524349927 0 0 0 0 11.155436499815551 -26.188489976917026 0 -26.188489976917026 19.080499658179178 0 0 0 0 23.695485455392884 -11.197266014579256 0 -11.197266014579256 5.7048793844814405 0 0 0 0 23.110008474720416 -9.1575704765673294 0 -9.1575704765673294 9.62315947224306 0 0 0 0 23.499639883828593 5.3786795688267404 0 5.3786795688267404 -0.97750960059959624 0 0 0 0 34.226558050111635 -9.7231609348400525 0 -9.7231609348400525 7.8643253629716128 0 0 0 0 19.132691033330048 0.75459141997998813 0 0.75459141997998813 0.16749465289831278 0 0 0 0 11.582157889509716 -2.2677984366945338 0 -2.2677984366945338 3.7028506355775406 0 0 0 0 39.018128097406588 -5.7594155163678806 0 -5.7594155163678806 3.1327499520421043 0 0 0 0 27.642880948428171 -7.309197768142198 0 -7.309197768142198 0.55722943280742854 0 0 0 0 23.49070478297341 1.0924884593122428 0 1.0924884593122428 2.9142345243493502 0 0 0 0 50.993148488676525 -5.8151652751348593 0 -5.8151652751348593 -61.912406306418234 0 0 0 0 55.12548721476378 22.863183755245473 0 22.863183755245473 -8.7433760400926985 0 0 0 0 15.670068254781654 11.399633785972583 0 11.399633785972583 -1.3438926692047062 0 0 0 0 -1.6624697737474321 1.1721785614077049 0 1.1721785614077049 0.94654484868340205 0 0 0 0 -35.136452482256573 -1.861734351989071 0 -1.861734351989071 21.77818100940749 0 0 0 0 16.718559073672225 7.1414685488301473 0 7.1414685488301473 -1.1971023005041737 0 0 0 0 66.363102004805114 -20.553239395553646 0 -20.553239395553646 12.327455075859234 0 0 0 0 26.3620989369374 -4.0381350599595862 0 -4.0381350599595862 7.6483615224133246 0 0 0 0 -15.43434371422336 1.2518789499276863 0 1.2518789499276863 17.236068943602731 0 0 0 0 31.438676119629235 44.467841486330371 0 44.467841486330371 4.3012623414233531 0 0 0 0 5.0585469068703333 -5.0610906338816974 0 -5.0610906338816974 2.5487998968690313 0 0 0 0 0.86479080947174225 1.4341352234958151 0 1.4341352234958151 6.7451601568019512 0 0 0 0 4.3288575662008952 -4.8609195657322744 0 -4.8609195657322744 9.2548990538798535 0 0 0 0 -4.0767325058550341 -8.7044158581297779 0 -8.7044158581297779 7.5015704493125668 0 0 0 0 -3.0918410102894995 5.7345269490961073 0 5.7345269490961073 18.757460304511824 0 0 0 0 3.0300216175347146 3.602958263000545 0 3.602958263000545 11.365902909660202 0 0 0 0 10.209573526735767 6.3449237458580683 0 6.3449237458580683 11.560154251339782 0 0 0 0 23.634617340227123 5.8104111641914642 0 5.8104111641914642 10.460580358565494 0 0 0 0 22.724235348840011 -3.4818350651139554 0 -3.4818350651139554 9.9820743763666542 0 0 0 0 22.762390938832141 -2.812297379687493 0 -2.812297379687493 9.3565388746246754 0 0 0 0 7.9083538700797362 -12.320418379419834 0 -12.320418379419834 19.524380124094023 0 0 0 0 13.349129860810649 -7.9298965315011003 0 -7.9298965315011003 9.953156452023709 0 0 0 0 16.525597632818972 -3.4175853868055128 0 -3.4175853868055128 11.499245227164465 0 0 0 0 -0.49501518836959235 0.76186677196247388 0 0.76186677196247388 11.11206558526491 0 0 0 0 -8.0427280378207797 17.323255540637433 0 17.323255540637433 15.626321059698739 0 0 0 0 18.558462136395974 23.881481242179859 0 23.881481242179859 16.563015022608738 0 0 0 0 32.797266083434806 -2.8342735126817615 0 -2.8342735126817615 1.8483349709788399 0 0 0 0 41.423998102793121 22.180513710285368 0 22.180513710285368 66.340754314068761 0 0 0 0 27.673235716007184 3.7130762424332602 0 3.7130762424332602 20.127845297372801 0 0 0 0 20.926868463382561 16.551305489757539 0 16.551305489757539 68.865986061558488 0 0 0 0 0.63048352791423667 -2.0017394143681457 0 -2.0017394143681457 7.4767244471092766 0 0 0 0 9.7890847307717195 -8.1999862595336594 0 -8.1999862595336594 1.2878715171761996 0 0 0 0 384.95194987732975 89.454798438566939 0 89.454798438566939 0.093276335880881689 0 0 0 0 454.8345543982432 -127.58183384638224 0 -127.58183384638224 41.507371856511099 0 0 0 0 206.27992779645865 -192.84463508458541 0 -192.84463508458541 104.94734775276217 0 0 0 0 0.14700837560928903 -1.4686192836387448 0 -1.4686192836387448 1.4772066203426988 0 0 0 0 458.18535667363903 -2.5826545607859543 0 -2.5826545607859543 49.767523382731724 0 0 0 0 499.43227547558308 -77.205395608132164 0 -77.205395608132164 60.169292563263525 0 0 0 0 424.18523595631996 -67.410629248750638 0 -67.410629248750638 174.9760232240468 0 0 0 0 427.28103679556807 -108.44499039330947 0 -108.44499039330947 63.272305100056769 0 0 0 0 391.33369370337459 -121.60431128913183 0 -121.60431128913183 71.292182764203744 0 0 0 0 427.79166932690714 -73.082787112353344 0 -73.082787112353344 -21.108902171919226 0 0 0 0 332.51098860985076 -116.9815064669292 0 -116.9815064669292 35.734378727879516 0 0 0 0 336.95921322396316 -57.378268192800988 0 -57.378268192800988 -6.8144815339692286 0 0 0 0 163.75904109948897 27.223702042056175 0 27.223702042056175 -23.117132478186591 0 0 0 0 248.85110521991737 -48.702729749982609 0 -48.702729749982609 15.35832763342637 0 0 0 0 249.65470378230384 -41.048012619642577 0 -41.048012619642577 -11.379569188591176 0 0 0 0 282.26138620896381 -64.022921383403627 0 -64.022921383403627 -55.244820858239109 0 0 0 0 27.094411036960082 37.049708258376086 0 37.049708258376086 25.919975145835451 0 0 0 0 112.30731756664318 -147.10179388998426 0 -147.10179388998426 41.529064709799059 0 0 0 0 -0.39741128093783118 -1.7548730908452157 0 -1.7548730908452157 2.3600531216319665 0 0 0 0 408.42327773279976 39.236545838746679 0 39.236545838746679 8.778400774180227 0 0 0 0 208.48155979331932 37.206176858066328 0 37.206176858066328 99.181649390424354 0 0 0 0 247.75574898347259 2.7549403661396354 0 2.7549403661396354 61.699706964494908 0 0 0 0 287.88193850792595 -14.368804897771582 0 -14.368804897771582 68.705867800126725 0 0 0 0 67.587327109271428 -56.512995761090679 0 -56.512995761090679 87.62756592081405 0 0 0 0 199.25195188124508 53.484406210048569 0 53.484406210048569 205.81142827810072 0 0 0 0 197.77880363765871 -47.282816148507663 0 -47.282816148507663 34.344273868519849 0 0 0 0 -10.710712849439005 26.729688532891032 0 26.729688532891032 169.73347890757759 0 0 0 0 399.17317595792701 83.925521348060101 0 83.925521348060101 75.487619316521887 0 0 0 0 2.9571404507385068 0.57445461589216507 0 0.57445461589216507 0.034900668925317291 0 0 0 0 214.84700856800919 133.54190619137177 0 133.54190619137177 56.22653177608845 0 0 0 0 249.11943502703798 -65.78857490660539 0 -65.78857490660539 48.761922834697543 0 0 0 0 83.828919412904725 78.500607456598459 0 78.500607456598459 -33.470730007014936 0 0 0 0 111.47395593965484 -38.302181563240993 0 -38.302181563240993 -62.222783196295495 0 0 0 0 187.9826085279783 12.146764354532934 0 12.146764354532934 -43.281431242778126 0 0 0 0 55.495425365263202 3.8580864898007441 0 3.8580864898007441 0.0030791325548881199 0 0 0 0 95.256430582598114 3.3422957661083501 0 3.3422957661083501 -124.25958732586514 0 0 0 0 38.823499729900504 26.51610220927796 0 26.51610220927796 -88.03328960852923 0 0 0 0 117.76460299274186 11.713176190640297 0 11.713176190640297 -162.66480194727956 0 0 0 0 50.359294290377875 -14.612584664727365 0 -14.612584664727365 -47.080688688108239 0 0 0 0 74.341324739463744 48.469359989136137 0 48.469359989136137 -95.684348456946736 0 0 0 0 71.551729658133809 3.6714006448474592 0 3.6714006448474592 -3.9017900272582491 0 0 0 0 109.76532322085404 -39.50726253929588 0 -39.50726253929588 -88.983319129114534 0 0 0 0 80.38588688470918 -71.815934590211782 0 -71.815934590211782 -4.1462480954432976 0 0 0 0 -2.7567846834403724 -19.894677143148414 0 -19.894677143148414 -9.6044946149883685 0 0 0 0 -94.15129672337207 24.237479677172814 0 24.237479677172814 60.516005685173695 0 0 0 0 64.471417629829375 -107.61481124822058 0 -107.61481124822058 3.7491012453847361 0 0 0 0 110.02692432329059 82.131306997555839 0 82.131306997555839 6.2419104824839451 0 0 0 0 83.535453141725156 4.7526775709338835 0 4.7526775709338835 -74.415864718117973 0 0 0 0 61.467475066230691 -306.94294745908974 0 -306.94294745908974 435.14724974591809 0 0 0 0 238.15136724541662 54.014503345200865 0 54.014503345200865 -64.906296657604344 0 0 0 0 25.753313577384858 17.793777601457975 0 17.793777601457975 -5.2698614774221895 0 0 0 0 144.16145631557447 -272.53527882226808 0 -272.53527882226808 43.320663747643266 0 0 0 0 57.065450653375592 -3.6515369755170468 0 -3.6515369755170468 68.986771905262685 0 0 0 0 239.93579230937758 -21.791263544160756 0 -21.791263544160756 -55.848434007993262 0 0 0 0 849.82293329428649 -157.85358649319642 0 -157.85358649319642 -516.92857063909105 0 0 0 0 -0.46625597031118104 1.0592414036461548 0 1.0592414036461548 -0.21444794881041462 0 0 0 0 29.409852951655921 54.158479506037565 0 54.158479506037565 -18.439081354334121 0 0 0 0 52.608653600735124 65.671615585729342 0 65.671615585729342 -14.213470255149332 0 0 0 0 58.725960978350486 40.857871476449873 0 40.857871476449873 3.6111192638218199 0 0 0 0 24.495572847634321 14.370840460709587 0 14.370840460709587 20.328723488029482 0 0 0 0 -6.37637313875166 12.347807952199673 0 12.347807952199673 54.625360527188604 0 0 0 0 115.83304765133653 -15.838644384602958 0 -15.838644384602958 13.622311650460688 0 0 0 0 19.244381662074403 18.525122576592508 0 18.525122576592508 -4.7119793600935864 0 0 0 0 -12.383320874643687 28.237402445595762 0 28.237402445595762 12.849548663182759 0 0 0 0 4.2626080767984718 1.9201158289018743 0 1.9201158289018743 0.45619763385745493 0 0 0 0 69.273190659412649 -35.305724881205606 0 -35.305724881205606 45.392364977074521 0 0 0 0 56.002515555861464 -10.678133005113523 0 -10.678133005113523 1.7803506136151555 0 0 0 0 16.513421837631256 0.18806739580384502 0 0.18806739580384502 -0.84044916862004548 0 0 0 0 32.76350076883682 25.322110181541575 0 25.322110181541575 8.3892171565721583 0 0 0 0 35.850101637739499 9.1947882633565996 0 9.1947882633565996 46.59377293689613 0 0 0 0 12.654235488682843 6.752127102814967 0 6.752127102814967 3.2038886549345413 0 0 0 0 82.920951969615999 -48.523823643068681 0 -48.523823643068681 1.920675123671117 0 0 0 0 12.778835658311436 -79.348284344343483 0 -79.348284344343483 12.630977421165881 0 0 0 0 138.81010591310041 -46.213900374725199 0 -46.213900374725199 -14.245278132761996 0 0 0 0 82.46853681425273 -28.071348900978592 0 -28.071348900978592 108.85366603578586 0 0 0 0 4.9204164164224267 1.8407816198494231 0 1.8407816198494231 0.6099044133299536 0 0 0 0 -18.35795334634895 0.72766889114654987 0 0.72766889114654987 4.0598837872057629 0 0 0 0 107.95447079312726 -149.22251688582355 0 -149.22251688582355 175.67521270100406 0 0 0 0 16.131259215064347 67.097742473957624 0 67.097742473957624 8.5823887184305931 0 0 0 0 90.32363200004329 32.288073676743807 0 32.288073676743807 -16.422312877938566 0 0 0 0 36.02550500795769 10.900055696081608 0 10.900055696081608 5.9581383411350544 0 0 0 0 14.048752638205769 38.313876609273393 0 38.313876609273393 -8.0162173328590143 0 0 0 0 36.045299034871277 9.1065231609445618 0 9.1065231609445618 1.9769911694183975 0 0 0 0 26.204367051410372 23.549335063936269 0 23.549335063936269 -42.05114285757827 0 0 0 0 67.612900967011228 -13.176130406203356 0 -13.176130406203356 -18.704456904149993 0 0 0 0 16.923004926022259 -4.0217436500527128 0 -4.0217436500527128 0.1910947656378994 0 0 0 0 48.64405931600777 14.634765873840479 0 14.634765873840479 1.1991411860517474 0 0 0 0 3.8530289244223184 8.6745652683441961 0 8.6745652683441961 -1.5038270502220783 0 0 0 0 179.65091394129558 131.76310450104029 0 131.76310450104029 509.13912242588412 0 0 0 0 68.15839053428499 -20.587091021093329 0 -20.587091021093329 -2.477655799864408 0 0 0 0 8.6923359639913542 -120.89184568261317 0 -120.89184568261317 51.825988558046447 0 0 0 0 -11.951971737260465 -26.982252031799362 0 -26.982252031799362 201.45594269316598 0 0 0 0 4.8684203975717537 -24.547995902400544 0 -24.547995902400544 -39.621075232964358 0 0 0 0 54.529732671253441 -224.04291336202186 0 -224.04291336202186 101.38704768926982 0 0 0 0 85.373248467964004 10.84301459001199 0 10.84301459001199 -63.213761655670169 0 0 0 0 14.210304872676105 7.5092077830802282 0 7.5092077830802282 -0.17029429538028751 0 0 0 0 43.73120447844849 -109.2289118643148 0 -109.2289118643148 -120.82307340785337 0 0 0 0 1.789012324588839 -46.445693319662951 0 -46.445693319662951 3.7515780740068294 0 0 0 0 36.957926914910786 1.176024873669121 0 1.176024873669121 11.984955935749895 0 0 0 0 21.390444822721548 -29.442036691981173 0 -29.442036691981173 -1.3412487529304542 0 0 0 0 21.948717118872764 8.9546350595141604 0 8.9546350595141604 5.990604808133865 0 0 0 0 49.39363073700224 7.3138821135426042 0 7.3138821135426042 -21.317168325168495 0 0 0 0 35.419731933274306 127.3343935229932 0 127.3343935229932 148.87991178564062 0 0 0 0 -106.78598543029511 41.052541847585871 0 41.052541847585871 171.23936284258252 0 0 0 0 4.3031025582507709 -2.3471701804029266 0 -2.3471701804029266 1.0186152247054441 0 0 0 0 980.46901883650571 276.16961699452804 0 276.16961699452804 -116.32879390560993 0 0 0 0 1309.3031865797821 -330.43272939870985 0 -330.43272939870985 -409.93397490696952 0 0 0 0 9.7399691884648405 -9.2877396993042112 0 -9.2877396993042112 4.1920919723317169 0 0 0 0 25.816682259620393 -1.7596881603641208 0 -1.7596881603641208 1.0253642268231111 0 0 0 0 31.256683252227958 -5.8881046643732589 0 -5.8881046643732589 3.7579487219300063 0 0 0 0 5.6915284475544468 1.4782716015897677 0 1.4782716015897677 33.393649170982826 0 0 0 0 33.370056011073757 -5.5953783424165522 0 -5.5953783424165522 7.8725928030216892 0 0 0 0 14.868243561359122 -6.9109445199646871 0 -6.9109445199646871 7.839494167616067 0 0 0 0 2.0674960177069011 0.45323614320096794 0 0.45323614320096794 -0.50720577805053324 0 0 0 0 17.776508846934604 -5.5830618771373395 0 -5.5830618771373395 0.56003050846729252 0 0 0 0 5.3332165043102577 -22.148819262564984 0 -22.148819262564984 -6.9864821201474285 0 0 0 0 8.1052352577826241 -37.622663410975917 0 -37.622663410975917 -0.3883267752833035 0 0 0 0 10.328439020823026 -12.040875838143847 0 -12.040875838143847 12.298010532883147 0 0 0 0 49.303061360275024 -18.578353805355277 0 -18.578353805355277 -5.6667391223672983 0 0 0 0 23.571579451954904 -12.869897359334672 0 -12.869897359334672 3.899443419239657 0 0 0 0 25.692997136800841 -19.454025629731149 0 -19.454025629731149 -3.811452612861558 0 0 0 0 25.217767460140749 -16.025687301888638 0 -16.025687301888638 -9.8118248068112734 0 0 0 0 45.48172722414165 -37.536554047781507 0 -37.536554047781507 -4.9207044359608858 0 0 0 0 144.91843469161358 -28.420576323662274 0 -28.420576323662274 22.990409084512066 0 0 0 0 7.5478967763380354 -2.8383647971590165 0 -2.8383647971590165 -5.8091254004234507 0 0 0 0 6.8532065745966975 -22.413459228887405 0 -22.413459228887405 -8.2325613529101247 0 0 0 0 -0.72932053696132471 -1.5533097040835244 0 -1.5533097040835244 3.9597705671857257 0 0 0 0 147.99159647140914 51.066321875806352 0 51.066321875806352 -1.8145693323349406 0 0 0 0 86.331513410957996 59.260493490903173 0 59.260493490903173 54.851000189251863 0 0 0 0 93.826995754148811 27.721808036416405 0 27.721808036416405 -8.7576538298235391 0 0 0 0 36.735245532167028 -27.420975484693827 0 -27.420975484693827 -12.625413084810134 0 0 0 0 96.509361427335534 21.989155871688126 0 21.989155871688126 0.11092225922470789 0 0 0 0 138.65256750842673 -6.319639805744373 0 -6.319639805744373 -21.59365163270013 0 0 0 0 100.37965882109711 22.159464377900804 0 22.159464377900804 -1.13446784966618 0 0 0 0 139.42661652964307 31.931912733074569 0 31.931912733074569 -14.212185675575711 0 0 0 0 297.18007585083251 382.149644390498 0 382.149644390498 104.24795777097643 0 0 0 0 145.375344456319 9.9777218910130614 0 9.9777218910130614 1.7241596507401482 0 0 0 0 4.5478460217610746 -0.32599467427617412 0 -0.32599467427617412 -0.71354535667641983 0 0 0 0 147.95125896714308 99.220352974806246 0 99.220352974806246 148.14844574982817 0 0 0 0 -8.3746837668877561 -93.023925069812321 0 -93.023925069812321 -41.941703271721053 0 0 0 0 458.54342237875971 252.71739604668892 0 252.71739604668892 -234.78687677048583 0 0 0 0 218.03858349742222 -73.050824480348865 0 -73.050824480348865 -243.27104140871961 0 0 0 0 22.689530740375631 -17.484024907160347 0 -17.484024907160347 -9.5848174770280821 0 0 0 0 -51.94953733478178 -27.859918393445469 0 -27.859918393445469 6.603925749184782 0 0 0 0 13.212980422418724 2.760692035095758 0 2.760692035095758 -4.5114661824211169 0 0 0 0 69.958784016402205 -55.669455676652888 0 -55.669455676652888 -53.227966273056154 0 0 0 0 57.329189752636012 -6.4609655950807792 0 -6.4609655950807792 -20.557300056638269 0 0 0 0 69.471576501178788 -18.638146983294519 0 -18.638146983294519 -10.548511367445826 0 0 0 0 50.372345908525972 -12.773656942861464 0 -12.773656942861464 -1.6391073249729189 0 0 0 0 47.21671728263027 -2.0138644616981765 0 -2.0138644616981765 7.1471268406412491 0 0 0 0 43.516246125480393 6.708711612697698 0 6.708711612697698 -27.198318520233443 0 0 0 0 43.896281187262502 8.5426308409919329 0 8.5426308409919329 -22.022052185804569 0 0 0 0 51.690469208399008 -14.924419027631757 0 -14.924419027631757 -58.624134034425879 0 0 0 0 65.417813765845494 -9.4559393759273007 0 -9.4559393759273007 -59.723186839302798 0 0 0 0 43.7384192887111 -9.7665281556216215 0 -9.7665281556216215 2.1562311215358214 0 0 0 0 40.766193377581658 -12.634147534816293 0 -12.634147534816293 -12.624773871880734 0 0 0 0 80.869407534759375 63.224874452423137 0 63.224874452423137 33.861841969560828 0 0 0 0 213.73653292111703 5.3961635914699855 0 5.3961635914699855 -67.582967583199661 0 0 0 0 44.919364959132508 -14.198922893599047 0 -14.198922893599047 -44.913167764566424 0 0 0 0 5.3275357979275384 -11.068743760505271 0 -11.068743760505271 -12.718273032250774 0 0 0 0 -58.921535372137441 -59.112466221166187 0 -59.112466221166187 -0.68479452587325795 0 0 0 0 137.1066742024268 -245.51671968046639 0 -245.51671968046639 -20.616660295654583 0 0 0 0 60.573946560034528 -134.25820033910122 0 -134.25820033910122 -28.641053548181844 0 0 0 0 262.41573092417093 204.84761160318521 0 204.84761160318521 23.75504405191802 0 0 0 0 4.3486654986225517 0.66242102497588462 0 0.66242102497588462 -0.33584859976616332 0 0 0 0 52.248924582701875 -132.02556659045422 0 -132.02556659045422 -20.273224827915442 0 0 0 0 76.927237436029827 -33.32248380692522 0 -33.32248380692522 -149.50088961614983 0 0 0 0 -13.356916077304049 -40.095911633068795 0 -40.095911633068795 -123.74649186062425 0 0 0 0 10.569773477123874 -1.1944469743557562 0 -1.1944469743557562 -2.8175079134652998 0 0 0 0 17.959985169029096 -5.5373346978899463 0 -5.5373346978899463 -16.59744663822039 0 0 0 0 18.344791696566972 -8.3731606939197718 0 -8.3731606939197718 -11.189597662259985 0 0 0 0 12.651501390399062 7.8032639845587255 0 7.8032639845587255 -11.151906076427622 0 0 0 0 40.522280961973593 4.3536571784102307 0 4.3536571784102307 -13.861141747476722 0 0 0 0 64.880278981261654 6.6495453001716669 0 6.6495453001716669 -40.721860954166914 0 0 0 0 35.484163676403114 -36.3048430634949 0 -36.3048430634949 -45.843965679816392 0 0 0 0 126.17852307244902 -33.110141766265315 0 -33.110141766265315 -46.970577944146498 0 0 0 0 49.680879971856484 -51.113932462040793 0 -51.113932462040793 -39.010971489433359 0 0 0 0 34.975250022353123 -10.322466673893217 0 -10.322466673893217 -0.61478984521875191 0 0 0 0 115.26811193645699 -97.91113248588772 0 -97.91113248588772 62.678319918064517 0 0 0 0 116.61445031911717 -86.237547913377057 0 -86.237547913377057 -17.076315200609315 0 0 0 0 -11.145998843602598 -19.380012740799827 0 -19.380012740799827 -3.2490171210549263 0 0 0 0 -4.5397460802196292 -47.408223319316221 0 -47.408223319316221 -23.208741336329695 0 0 0 0 86.275715166004375 -35.065661709228152 0 -35.065661709228152 2.0783189258349921 0 0 0 0 -2.3285506008411971 -3.6258739543581129 0 -3.6258739543581129 1.2296813368604163 0 0 0 0 24.362355493911309 -6.8754549931381916 0 -6.8754549931381916 -16.923888459282352 0 0 0 0 3.4120767748199228 -6.2832915165206487 0 -6.2832915165206487 -6.344434569208719 0 0 0 0 24.615598296848475 -9.096303816861564 0 -9.096303816861564 -11.106750091307731 0 0 0 0 -15.306469941948308 15.691564113848472 0 15.691564113848472 62.016877648443824 0 0 0 0 104.70119310388691 -136.83119718068883 0 -136.83119718068883 57.83144115324319 0 0 0 0 174.75643936728011 -94.064184097996076 0 -94.064184097996076 8.6076514593878528 0 0 0 0 52.359780129925639 -99.935295394248442 0 -99.935295394248442 49.655415572993661 0 0 0 0 105.22692402816028 -93.563906403662259 0 -93.563906403662259 38.514602495470172 0 0 0 0 111.21816155069973 -78.470606225376969 0 -78.470606225376969 4.9961211891040875 0 0 0 0 103.65928817013628 -81.271908783065555 0 -81.271908783065555 4.0260781941578898 0 0 0 0 119.73858970060246 -76.086645985446012 0 -76.086645985446012 -31.501065354474576 0 0 0 0 106.38575239758211 -62.606506869936538 0 -62.606506869936538 9.5791197629841918 0 0 0 0 193.17790713487193 11.726325301097404 0 11.726325301097404 -96.443177280700183 0 0 0 0 300.43252228715573 -229.68126360893939 0 -229.68126360893939 79.254553305795525 0 0 0 0 632.16597115136392 62.389448559155426 0 62.389448559155426 -92.771911708279731 0 0 0 0 6.41231174243444 -0.1261449305682163 0 -0.1261449305682163 -3.4841537856141418 0 0 0 0 79.412873410474276 -127.26479850997885 0 -127.26479850997885 219.40156800610475 0 0 0 0 539.62852179587935 172.31355380732384 0 172.31355380732384 47.558331714782071 0 0 0 0 1.1824804219545513 -6.2125071650349355 0 -6.2125071650349355 -8.4432908863671479 0 0 0 0 -102.73069602355827 185.91715762342733 0 185.91715762342733 -236.39371182752802 0 0 0 0 0.6507027302678523 -3.663460050589805 0 -3.663460050589805 -3.4715432765248284 0 0 0 0 376.16612033672573 94.750382377746973 0 94.750382377746973 10.779182423512111 0 0 0 0 107.36674176782253 130.94331033625849 0 130.94331033625849 286.46584611404762 0 0 0 0 277.7283384679904 -82.017239965342924 0 -82.017239965342924 -237.2961392452271 0 0 0 0 339.94131018099142 77.299142045540975 0 77.299142045540975 -363.82748318347967 0 0 0 0 319.84318733750297 -149.60096498104619 0 -149.60096498104619 -66.907339720876507 0 0 0 0 400.54619835040648 187.32864847389669 0 187.32864847389669 55.106224930191047 0 0 0 0 699.20122627275123 422.38955971201051 0 422.38955971201051 211.3205929872295 0 0 0 0 273.99683521187399 201.45501655906685 0 201.45501655906685 112.67825232316636 0 0 0 0 739.48016914938216 35.359222691649528 0 35.359222691649528 2.2150389675730366 0 0 0 0 521.28206454218889 531.36171945531964 0 531.36171945531964 329.24575030605149 0 0 0 0 378.25396508048289 453.59237507883017 0 453.59237507883017 377.17959676619944 0 0 0 0 421.88876297679963 476.81306360315261 0 476.81306360315261 309.85814067359649 0 0 0 0 -148.83989986108918 -355.56242095990672 0 -355.56242095990672 -77.38975619359843 0 0 0 0 7.1264980935649191 -1.9609193451481701 0 -1.9609193451481701 -0.21680637026852567 0 0 0 0 105.60503242313825 -365.33701734786047 0 -365.33701734786047 -80.956259248346129 0 0 0 0 561.18893512534851 -72.171847118336174 0 -72.171847118336174 -0.34684432640097779 0 0 0 0 373.55840969976271 130.16178688543073 0 130.16178688543073 145.94860080914506 0 0 0 0 -350.68715580643038 101.34872452393725 0 101.34872452393725 111.41545409131606 0 0 0 0 57.206658904426149 -150.55717976427593 0 -150.55717976427593 0.06243193641360404 0 0 0 0 -26.150940190476831 -162.52629344360125 0 -162.52629344360125 52.671395638541526 0 0 0 0 130.65566443358694 -58.200911422822458 0 -58.200911422822458 -15.336939780205512 0 0 0 0 234.23365203385765 -284.7484801991817 0 -284.7484801991817 202.59435862968564 0 0 0 0 165.29534619626065 -178.49350554350923 0 -178.49350554350923 -54.719584832031614 0 0 0 0 52.754403641505633 -58.560801997423027 0 -58.560801997423027 -96.08663046013362 0 0 0 0 -15.941759433408151 -103.47718243903614 0 -103.47718243903614 60.471335982858818 0 0 0 0 -15.205523981613169 -85.409858140073936 0 -85.409858140073936 -37.346622845459933 0 0 0 0 28.640937465475872 -111.14744532862005 0 -111.14744532862005 -22.259190163204948 0 0 0 0 -107.95043372566579 40.342339028778156 0 40.342339028778156 33.734286053206233 0 0 0 0 69.317855725312256 -37.035693904879487 0 -37.035693904879487 -6.4921382484549781 0 0 0 0 -3.5396895550746308 -4.7903968842583993 0 -4.7903968842583993 -7.3959367212141141 0 0 0 0 56.510554721404333 -16.259345276518175 0 -16.259345276518175 4.2154202193922856 0 0 0 0 77.433178409439279 -32.146733328775277 0 -32.146733328775277 4.5834538435556027 0 0 0 0 -216.74646139623655 -22.619088871395036 0 -22.619088871395036 47.560297041934831 0 0 0 0 -1.6255943973316107 -3.0450174157552112 0 -3.0450174157552112 -3.0965624067855497 0 0 0 0 -0.88309544487236735 -1.0161002493517231 0 -1.0161002493517231 -0.59546040561131186 0 0 0 0 81.213889501072117 -41.586810450383432 0 -41.586810450383432 0.047164240799945453 0 0 0 0 54.996874319855124 -23.516281960141928 0 -23.516281960141928 12.062894727332576 0 0 0 0 0.045068649020151952 -0.10067017244128351 0 -0.10067017244128351 -0.023758224161876035 0 0 0 0 53.582752635265933 -29.276661809214581 0 -29.276661809214581 15.060326927420313 0 0 0 0 45.093596008548047 -32.651514578455163 0 -32.651514578455163 5.7649896447536619 0 0 0 0 -0.01777753234310353 -0.16999537475564352 0 -0.16999537475564352 -0.092246477111523117 0 0 0 0 43.404087614508171 -17.203675495791423 0 -17.203675495791423 10.965904786539198 0 0 0 0 17.760605883231619 -15.807528766226195 0 -15.807528766226195 13.052588276430377 0 0 0 0 40.909339355908742 -21.561197794234271 0 -21.561197794234271 0.0010544068184766709 0 0 0 0 17.329672444451717 -8.9867424011215569 0 -8.9867424011215569 0.023603899567469 0 0 0 0 -2.8319013848376926 -33.578354373619028 0 -33.578354373619028 -0.084612965279508179 0 0 0 0 22.951305734066409 -8.7516595344701074 0 -8.7516595344701074 11.821236489032117 0 0 0 0 -0.58936267958779354 -34.616201800264591 0 -34.616201800264591 -17.53808294975272 0 0 0 0 0.7809249214042211 -41.25357853525621 0 -41.25357853525621 10.56578309423449 0 0 0 0 46.33317964427988 -26.266108190457174 0 -26.266108190457174 8.7444807411359236 0 0 0 0 -0.068236609701529005 -0.13015005221865295 0 -0.13015005221865295 0.0012702453294443083 0 0 0 0 25.261553107833606 -42.874511426861957 0 -42.874511426861957 -12.993598267277605 0 0 0 0 36.871327475419093 -12.342625281660872 0 -12.342625281660872 -9.4734162969338058 0 0 0 0 -320.73599093107623 26.576051384902257 0 26.576051384902257 202.3823588614805 0 0 0 0 392.56220165212289 -59.552366368049661 0 -59.552366368049661 58.287401770916404 0 0 0 0 13.266837341652717 146.58880990822809 0 146.58880990822809 125.21524690915794 0 0 0 0 -15.836826339073014 44.134479419785862 0 44.134479419785862 -80.040107503786203 0 0 0 0 74.286536504572723 54.985702066168415 0 54.985702066168415 199.09688192595149 0 0 0 0 1175.6943406030332 95.544533202619277 0 95.544533202619277 -131.4346883372973 0 0 0 0 429.0606232691789 88.053726247148006 0 88.053726247148006 511.41863337169343 0 0 0 0 1185.5717229726288 -77.589043210227601 0 -77.589043210227601 -290.2563450174639 0 0 0 0 1117.5301700363198 -184.56090259778557 0 -184.56090259778557 -56.805550166571265 0 0 0 0 1649.4594385529344 -199.53966952728251 0 -199.53966952728251 -258.41070165788346 0 0 0 0 272.06590579185286 237.22885650873104 0 237.22885650873104 -30.082942951059522 0 0 0 0 -6.7886188936972758 -260.80622661356688 0 -260.80622661356688 106.97767798481982 0 0 0 0 31.435850972527987 -199.59475871238192 0 -199.59475871238192 -234.81790620859465 0 0 0 0 22.630937275187591 -2.8869168202995326 0 -2.8869168202995326 4.2805044885539001 0 0 0 0 57.369188247306738 15.763211934887295 0 15.763211934887295 9.2629914794149499 0 0 0 0 80.148883304165793 -0.31952619647199754 0 -0.31952619647199754 3.9533885395671859 0 0 0 0 12.902398073156027 -2.139344940662113 0 -2.139344940662113 3.5881450016040137 0 0 0 0 78.324554763865308 0.5009100212228077 0 0.5009100212228077 2.7610475472180269 0 0 0 0 -237.29656368703581 -150.04764663688729 0 -150.04764663688729 -125.58855663792974 0 0 0 0 44.692992098949617 6.2848236903664656 0 6.2848236903664656 4.2173164079562184 0 0 0 0 32.575707055046223 10.08954811060903 0 10.08954811060903 4.677422304073616 0 0 0 0 35.099711714116495 14.911614873135818 0 14.911614873135818 11.312449428609618 0 0 0 0 41.093242419185117 4.9120600055484829 0 4.9120600055484829 -10.237774727072974 0 0 0 0 45.34521023189771 9.728919731534063 0 9.728919731534063 -1.5483724820612643 0 0 0 0 39.736140254924806 -2.8155444246234538 0 -2.8155444246234538 2.5413092702038895 0 0 0 0 52.034589318493204 16.455642935798807 0 16.455642935798807 -12.274028222084041 0 0 0 0 69.991590447170893 -0.10904213996946055 0 -0.10904213996946055 17.516642496502953 0 0 0 0 71.167992989052436 4.8999643728983528 0 4.8999643728983528 5.472885394834293 0 0 0 0 120.91456492670113 -29.89869788359465 0 -29.89869788359465 -10.593300817450199 0 0 0 0 57.03114211246907 -12.830607259159507 0 -12.830607259159507 3.1168906452930352 0 0 0 0 75.571198074903805 10.700256260746983 0 10.700256260746983 19.541681463528434 0 0 0 0 135.60686227519909 8.1804595148763042 0 8.1804595148763042 -12.302817164606495 0 0 0 0 142.08999278258125 -12.312321471578571 0 -12.312321471578571 -6.2392123314475612 0 0 0 0 80.221417147055035 40.463498152290185 0 40.463498152290185 -20.934157233679798 0 0 0 0 -2.7681698452349224 -8.2010356417724104 0 -8.2010356417724104 2.5823804949267672 0 0 0 0 210.0898978019577 0.58079657250436867 0 0.58079657250436867 5.3115069103350834 0 0 0 0 209.09799646203464 10.132731404527931 0 10.132731404527931 3.8700156578997849 0 0 0 0 11.416903003954189 2.2306715495584513 0 2.2306715495584513 6.5653597174590894 0 0 0 0 93.369741405302193 -10.122851914841931 0 -10.122851914841931 15.47367794026286 0 0 0 0 14.634193037642845 34.19745686379656 0 34.19745686379656 11.827013963781086 0 0 0 0 201.97978489751404 -0.85816165474352601 0 -0.85816165474352601 9.7304517027332622 0 0 0 0 45.713432381736595 -10.690074526177767 0 -10.690074526177767 2.6449499146593052 0 0 0 0 24.11430054392072 14.335839248730963 0 14.335839248730963 5.1781361046633911 0 0 0 0 20.043066904036095 8.3789358821813948 0 8.3789358821813948 14.499030443196716 0 0 0 0 111.82004282387788 -31.087996091227524 0 -31.087996091227524 29.902631419916816 0 0 0 0 204.31483276696963 -5.9932800685904795 0 -5.9932800685904795 9.9314822476535483 0 0 0 0 112.55305189022329 3.504266684042932 0 3.504266684042932 -0.55045576269549201 0 0 0 0 128.70163000086905 2.7306189588716734 0 2.7306189588716734 0.58438222203767509 0 0 0 0 118.03956473252038 6.2434774210528303 0 6.2434774210528303 0.7464890449766699 0 0 0 0 215.56444151740288 -1.5749941412750559 0 -1.5749941412750559 9.4274795109730576 0 0 0 0 59.526482729925192 0.96141891836055038 0 0.96141891836055038 17.048295675895133 0 0 0 0 98.204562278173398 24.896528380134896 0 24.896528380134896 -14.786441638729002 0 0 0 0 118.34019480834831 3.4998315380030363 0 3.4998315380030363 -1.5640241294295265 0 0 0 0 115.78982707226533 -0.75740013708082188 0 -0.75740013708082188 -8.1043372716325734 0 0 0 0 117.52387180391543 -3.6629517396962541 0 -3.6629517396962541 5.9053167285137533 0 0 0 0 107.07571902871132 5.5738744178524939 0 5.5738744178524939 -1.4349631124000837 0 0 0 0 97.144901901978301 -9.0581759180773815 0 -9.0581759180773815 12.340502660837956 0 0 0 0 97.992038504627999 -11.608940042790891 0 -11.608940042790891 19.394587981028621 0 0 0 0 105.28544754943141 -28.017090395370303 0 -28.017090395370303 15.372237808288332 0 0 0 0 117.04153952549677 -20.259355727455841 0 -20.259355727455841 18.591921394614019 0 0 0 0 114.99828315278864 -4.6380510741598755 0 -4.6380510741598755 5.528896542027951 0 0 0 0 124.5347005368676 -9.440955395473793 0 -9.440955395473793 3.6689072648346155 0 0 0 0 139.93712430099549 -10.784303402262026 0 -10.784303402262026 3.5814523670669587 0 0 0 0 123.29808722323651 -37.530345315133644 0 -37.530345315133644 9.8591972139649897 0 0 0 0 249.46899044893507 42.87704855887273 0 42.87704855887273 12.595372585508812 0 0 0 0 -0.36231126767280664 1.0780171066742525 0 1.0780171066742525 3.6041469824811276 0 0 0 0 190.17630186315364 50.418185863846475 0 50.418185863846475 40.862004498780152 0 0 0 0 133.63795551139629 -2.331375018526046 0 -2.331375018526046 1.5021796083842673 0 0 0 0 132.59584174743213 -3.3416535078408742 0 -3.3416535078408742 0.7218177353597639 0 0 0 0 211.34099417502875 73.176065689027496 0 73.176065689027496 34.062017018455663 0 0 0 0 9.5131866980462476 39.856411353484305 0 39.856411353484305 24.46307206783576 0 0 0 0 -451.8372991438373 166.36271012134739 0 166.36271012134739 283.49868905610128 0 0 0 0 -97.11449869495118 282.43606404801176 0 282.43606404801176 -153.00037529841939 0 0 0 0 100.35097508371109 94.291533645329764 0 94.291533645329764 -283.74439047030955 0 0 0 0 -35.149351189509616 -210.17186015856259 0 -210.17186015856259 -34.241744165101409 0 0 0 0 180.53294589228608 -156.2843948860384 0 -156.2843948860384 47.008101921161142 0 0 0 0 -77.984321604128127 96.924494692065593 0 96.924494692065593 10.544290804467892 0 0 0 0 669.37834717732039 -55.913639454581244 0 -55.913639454581244 -123.56193863033877 0 0 0 0 1167.3106341100647 -173.96333330584457 0 -173.96333330584457 -222.05497273295259 0 0 0 0 671.35922310288879 -72.420427517751705 0 -72.420427517751705 -170.79434170034438 0 0 0 0 155.17316531974939 89.539749861892687 0 89.539749861892687 299.29291935590118 0 0 0 0 476.6945071634691 -320.62252644301816 0 -320.62252644301816 220.51649240267852 0 0 0 0 -141.86263394253911 -499.06583450380094 0 -499.06583450380094 75.455480881543053 0 0 0 0 5.1998701777326914 -3.1296163944030582 0 -3.1296163944030582 1.3947570426207534 0 0 0 0 675.35882763676636 -389.01581359026568 0 -389.01581359026568 90.188390908664587 0 0 0 0 345.04719538493009 298.0719047709099 0 298.0719047709099 -25.919475974398665 0 0 0 0 68.470444780949038 -209.56454191765715 0 -209.56454191765715 -175.04663979876113 0 0 0 0 1148.4747936585918 150.48995198172287 0 150.48995198172287 -55.283953619898966 0 0 0 0 130.8834908499266 56.664540853887956 0 56.664540853887956 -32.344170469156779 0 0 0 0 -79.143721630010987 43.537343273021179 0 43.537343273021179 -80.41572206890919 0 0 0 0 186.72279212226567 212.26582054623577 0 212.26582054623577 -27.865862364640634 0 0 0 0 157.82991539193608 9.7271276993596985 0 9.7271276993596985 -71.200787881329234 0 0 0 0 772.95075932648615 129.89037935567831 0 129.89037935567831 -80.8639257446589 0 0 0 0 -397.76487984617415 225.96475204644457 0 225.96475204644457 209.90889058594621 0 0 0 0 0.072065115170985905 0.6241240778084034 0 0.6241240778084034 4.252819126433387 0 0 0 0 381.7575017170966 189.997792239413 0 189.997792239413 -563.69363188329589 0 0 0 0 131.2901226459071 457.60347911280769 0 457.60347911280769 -366.32453562729279 0 0 0 0 -112.44546880034613 393.25426231167876 0 393.25426231167876 286.88348751649937 0 0 0 0 -13.861067715086392 657.13201630075901 0 657.13201630075901 153.10476929306242 0 0 0 0 -124.52335611805393 252.29051451768896 0 252.29051451768896 71.599827881029341 0 0 0 0 220.72740440936468 258.43752427943991 0 258.43752427943991 30.895128434229264 0 0 0 0 296.4764360213012 361.224436073383 0 361.224436073383 157.15528768779222 0 0 0 0 582.58135726100591 -111.95694172654106 0 -111.95694172654106 44.506730699602485 0 0 0 0 148.02209261895041 -29.210987865494644 0 -29.210987865494644 289.36531885937256 0 0 0 0 213.40283621333947 -42.609527738361862 0 -42.609527738361862 32.736526013284674 0 0 0 0 57.410335464723175 -25.601090671530983 0 -25.601090671530983 -72.334143905512065 0 0 0 0 201.06236999391695 37.038535376062555 0 37.038535376062555 -49.92187011427086 0 0 0 0 58.855911793462383 76.586765709537374 0 76.586765709537374 0.60663038284474169 0 0 0 0 1.0770507189735667 -4.227057043414618 0 -4.227057043414618 0.81111382116453967 0 0 0 0 78.923454437812325 74.984209652504433 0 74.984209652504433 -3.4815253113883955 0 0 0 0 8.8709037783846725 -16.513167324714232 0 -16.513167324714232 -12.968951604156587 0 0 0 0 11.076458293534301 -8.28738321323641 0 -8.28738321323641 2.1947225870918832 0 0 0 0 2.3267431757121813 -14.558940704919223 0 -14.558940704919223 -13.418673835960533 0 0 0 0 200.61726191965863 4.3265594685490214 0 4.3265594685490214 12.529463203724845 0 0 0 0 499.68049472972052 30.192731749994209 0 30.192731749994209 -49.457878313704896 0 0 0 0 970.00428507571269 -322.02368195125086 0 -322.02368195125086 15.19831413115935 0 0 0 0 79.751558858377393 -133.29917140486123 0 -133.29917140486123 99.890618241434822 0 0 0 0 92.207187486133989 -148.06723837812109 0 -148.06723837812109 27.13977934864397 0 0 0 0 -31.185688120560371 95.935583068758206 0 95.935583068758206 7.4840516043040566 0 0 0 0 10.09759902777148 -7.8758749452369443 0 -7.8758749452369443 1.3359995220614778 0 0 0 0 4.2248238023841509 -8.3602485712348482 0 -8.3602485712348482 -5.9302488204081811 0 0 0 0 6.248307219997514 -19.179760999895279 0 -19.179760999895279 -12.934632726156934 0 0 0 0 10.381136128715298 -20.45417617255714 0 -20.45417617255714 -13.013845409323039 0 0 0 0 8.8976539929506089 -3.010580713876152 0 -3.010580713876152 -1.8177721318714877 0 0 0 0 948.84999220084865 152.53155767434919 0 152.53155767434919 19.165662967856861 0 0 0 0 54.639366032351973 293.34383517530978 0 293.34383517530978 104.51681147986221 0 0 0 0 9.2858951487578452 61.161384896340678 0 61.161384896340678 -307.30559232534642 0 0 0 0 502.9234103940471 -973.44241868051904 0 -973.44241868051904 421.65889684917147 0 0 0 0 6.6555831178069411 0.090743754213974626 0 0.090743754213974626 0.038480242731601777 0 0 0 0 -292.17808456783678 186.26518018623835 0 186.26518018623835 -260.95840263672517 0 0 0 0 75.708773799531627 60.578331908095151 0 60.578331908095151 -311.07335537590427 0 0 0 0 19.025821412621156 -6.6050088869903334 0 -6.6050088869903334 -2.0357684024591443 0 0 0 0 122.08339810832695 -58.498789563024047 0 -58.498789563024047 -295.49726725380333 0 0 0 0 17.916521896352606 -37.593552826826539 0 -37.593552826826539 -298.84182526086238 0 0 0 0 22.640945435327012 11.519240601414936 0 11.519240601414936 -312.60730892032143 0 0 0 0 277.19422406521335 9.630974464242172 0 9.630974464242172 -315.63393523000104 0 0 0 0 132.01373677162337 -98.699627692569436 0 -98.699627692569436 -275.63601610204091 0 0 0 0 351.98532022576546 -57.980753815573394 0 -57.980753815573394 -268.85620065424632 0 0 0 0 253.01876430163975 106.11050439262408 0 106.11050439262408 -149.69731652415459 0 0 0 0 -61.721026151339174 564.61397702858108 0 564.61397702858108 -295.60369097093007 0 0 0 0 874.62559354236873 535.2608387714605 0 535.2608387714605 -294.72015076276853 0 0 0 0 -274.87491256623298 594.05433616092068 0 594.05433616092068 -213.27754632636015 0 0 0 0 357.97654734126991 233.90953837924667 0 233.90953837924667 -317.76504201551688 0 0 0 0 147.78448076167842 4.9727545157686563 0 4.9727545157686563 -196.4303731035792 0 0 0 0 -6.3132550218579127 -24.799686528398411 0 -24.799686528398411 -23.332823455785501 0 0 0 0 760.95147199192434 409.44480823023059 0 409.44480823023059 -246.52939236499833 0 0 0 0 5.6966045908854426 -2.292852789205682 0 -2.292852789205682 -0.001905443546233343 0 0 0 0 46.337883140251506 -60.7975526202531 0 -60.7975526202531 -286.691874939846 0 0 0 0 84.693343069942784 -168.13837685129573 0 -168.13837685129573 -149.32686303598194 0 0 0 0 -50.476675114172394 -188.30510076874631 0 -188.30510076874631 -176.31653965066994 0 0 0 0 104.3778563431697 -130.39398429525932 0 -130.39398429525932 -261.23029267378251 0 0 0 0 -150.14910616038833 -207.34916841207092 0 -207.34916841207092 -225.7240181996815 0 0 0 0 145.08406654027931 -85.225659299688289 0 -85.225659299688289 -5.7209381270645281 0 0 0 0 13.673086518014316 -128.26074225518539 0 -128.26074225518539 -428.23632273613777 0 0 0 0 -21.226339785353048 -324.79371334487291 0 -324.79371334487291 -407.71131559935338 0 0 0 0 15.538243847349463 -5.3245553910016667 0 -5.3245553910016667 -0.18710469277064212 0 0 0 0 -175.22706635098621 -77.630482287353445 0 -77.630482287353445 -195.61793586709553 0 0 0 0 -55.742014701914741 -203.43205702681047 0 -203.43205702681047 -68.919817334261779 0 0 0 0 -20.83476224183687 -70.922524817442451 0 -70.922524817442451 -22.970059148892602 0 0 0 0 73.185472967568785 -173.36415420145957 0 -173.36415420145957 -188.89277149965238 0 0 0 0 149.73637017093279 -34.795221216004563 0 -34.795221216004563 -98.062772836482395 0 0 0 0 169.23659137933373 -79.51246119671714 0 -79.51246119671714 -34.947512959309449 0 0 0 0 68.775543103369273 -121.46263788950534 0 -121.46263788950534 -17.620062149409421 0 0 0 0 47.065371460601455 -118.32083397793549 0 -118.32083397793549 0.16702473965246684 0 0 0 0 775.83235185590456 131.74066456239808 0 131.74066456239808 109.63699871454591 0 0 0 0 226.41911622929911 42.124334440453111 0 42.124334440453111 -70.087364339943178 0 0 0 0 652.11981624501641 255.14283898985974 0 255.14283898985974 -7.6172075039677232 0 0 0 0 298.37437354237773 -170.58607170963592 0 -170.58607170963592 19.102960035817425 0 0 0 0 181.18752196714195 40.474111342752522 0 40.474111342752522 137.05759664327539 0 0 0 0 646.16372008858889 -38.869621757427673 0 -38.869621757427673 0.76592163926453405 0 0 0 0 1554.0607656967913 621.18522697482035 0 621.18522697482035 170.45444928955322 0 0 0 0 131.39632000957499 -69.374565285968245 0 -69.374565285968245 -0.35967122874476171 0 0 0 0 3.4863017137387828 -0.49162215564086864 0 -0.49162215564086864 -0.38853752892181048 0 0 0 0 62.379301850625779 18.11273882613358 0 18.11273882613358 109.7930672281949 0 0 0 0 11.099544197342766 0.79916169408285886 0 0.79916169408285886 -0.0033720730473184501 0 0 0 0 17.719323610153992 1.7538726958918147 0 1.7538726958918147 -2.7728283996353875 0 0 0 0 4.941023033482594 2.7771403259081069 0 2.7771403259081069 1.7681290022375706 0 0 0 0 21.475002790581129 5.420825890316145 0 5.420825890316145 2.6186326698259297 0 0 0 0 22.429711785793188 -0.80613890798545906 0 -0.80613890798545906 -4.8825628062462236 0 0 0 0 20.360585693109897 11.793531201651831 0 11.793531201651831 9.500448213081313 0 0 0 0 -3.2236277209884179 4.8329338012721053 0 4.8329338012721053 5.2952065027652537 0 0 0 0 112.48042026202893 89.420844361747726 0 89.420844361747726 -37.63531473066115 0 0 0 0 28.189777045859955 10.212112217327899 0 10.212112217327899 3.2766495300130032 0 0 0 0 1185.7850589464142 622.09913795538705 0 622.09913795538705 -87.985772363137244 0 0 0 0 9.7195163186949003 -1.9193770020189902 0 -1.9193770020189902 0.28310464032182325 0 0 0 0 935.24785232904833 410.84145990591742 0 410.84145990591742 -79.648450860863079 0 0 0 0 620.05616848739737 -4.615014087632062 0 -4.615014087632062 258.92090455539324 0 0 0 0 2.2889987256606332 2.0084407505118236 0 2.0084407505118236 1.2184577131460488 0 0 0 0 1181.752732011606 11.596400320355997 0 11.596400320355997 -79.270341385981737 0 0 0 0 43.219391574617475 18.74299259643999 0 18.74299259643999 4.911976477877829 0 0 0 0 4.531481441397716 0.54310199967900985 0 0.54310199967900985 -0.98495439665217188 0 0 0 0 -0.02687351049667086 0.55334010197330485 0 0.55334010197330485 1.2681311624335492 0 0 0 0 43.037185983848758 29.982765520977409 0 29.982765520977409 13.86900711677481 0 0 0 0 33.703514981927583 18.512335207580122 0 18.512335207580122 19.244620600177086 0 0 0 0 59.098768383788411 39.378545539913603 0 39.378545539913603 3.6894526163446244 0 0 0 0 61.662006048602052 25.279830809320174 0 25.279830809320174 -2.0503428262145462 0 0 0 0 6.525649919691574 5.5233479994398067 0 5.5233479994398067 -3.6343941729439813 0 0 0 0 -75.804260920049273 95.840858522248027 0 95.840858522248027 -46.695940125859806 0 0 0 0 -39.438177113304846 182.29568038966238 0 182.29568038966238 82.666762236100112 0 0 0 0 49.430595949466806 15.502263433989015 0 15.502263433989015 17.541862067487273 0 0 0 0 1.7672310258036248 -0.66998909762307335 0 -0.66998909762307335 -1.6127987033687177 0 0 0 0 1272.7712902603089 348.94394464863137 0 348.94394464863137 -120.80709372249385 0 0 0 0 564.12984244333347 -448.75399723689497 0 -448.75399723689497 19.175919189830438 0 0 0 0 1656.5097158923818 -528.44676995013549 0 -528.44676995013549 -234.64282514226943 0 0 0 0 1845.6796434598509 -78.157110399090243 0 -78.157110399090243 -146.45987602605919 0 0 0 0 7.8074641556036681 -2.6273697118477912 0 -2.6273697118477912 0.61672715696883262 0 0 0 0 74.098538433128851 3.9278860239186315 0 3.9278860239186315 1.4180820783276431 0 0 0 0 59.88494888326386 -4.289249850838587 0 -4.289249850838587 1.7010781154002217 0 0 0 0 56.652934812067542 -5.0973392367327506 0 -5.0973392367327506 3.7133012668316496 0 0 0 0 61.550539015057439 24.616217517623568 0 24.616217517623568 5.9456926198017754 0 0 0 0 10.287936796018542 11.243114191880267 0 11.243114191880267 4.4142400005357629 0 0 0 0 54.103838830342283 6.7937100667318191 0 6.7937100667318191 -3.2441389491791597 0 0 0 0 7.2625772673234801 -1.1521918213641982 0 -1.1521918213641982 -0.074525083139364234 0 0 0 0 63.017150298386696 -9.4216053765910601 0 -9.4216053765910601 -6.4877361239323363 0 0 0 0 8.1995579756671759 8.2494559158963909 0 8.2494559158963909 -3.2562203458205929 0 0 0 0 33.408734671060301 10.785207729954141 0 10.785207729954141 -3.7212507098993228 0 0 0 0 18.416846056148643 19.978921575841412 0 19.978921575841412 10.58489787500821 0 0 0 0 37.64862479470321 9.7816480875272873 0 9.7816480875272873 -7.9973907834648799 0 0 0 0 60.782029484049417 -6.6368337380409912 0 -6.6368337380409912 -9.877947832065729 0 0 0 0 42.487261578207836 -9.6102991548996215 0 -9.6102991548996215 -3.9029578685967863 0 0 0 0 62.110609711395227 -4.5939772518394193 0 -4.5939772518394193 -9.9488383547804915 0 0 0 0 28.743707633872873 -6.2544694904764242 0 -6.2544694904764242 -0.74782252735457511 0 0 0 0 19.662085853298777 -7.0147623228298244 0 -7.0147623228298244 -4.1357088875142267 0 0 0 0 34.24261360186938 -1.2011940216374342 0 -1.2011940216374342 -10.337588659897619 0 0 0 0 49.325959233072354 8.5585526458703054 0 8.5585526458703054 -3.0988841205481457 0 0 0 0 27.737635910441043 0.92577637286035497 0 0.92577637286035497 -4.3783157303949123 0 0 0 0 32.194254653848475 8.7885949618327004 0 8.7885949618327004 -2.1449409472074876 0 0 0 0 60.810977510976954 0.55467427520892387 0 0.55467427520892387 -8.72040636096113 0 0 0 0 43.553223716313369 -2.5394859559885847 0 -2.5394859559885847 0.010875718245093384 0 0 0 0 9.4725864636760235 6.8964452635642886 0 6.8964452635642886 0.33079594188158135 0 0 0 0 3.6867731779202586 -39.943188232416901 0 -39.943188232416901 0.035798654647905867 0 0 0 0 20.048273480206262 -1.0540071626962231 0 -1.0540071626962231 0.95622730756247165 0 0 0 0 11.314369594157313 -6.7644076943188338 0 -6.7644076943188338 -1.1079494879337564 0 0 0 0 82.648452801440726 18.316231936902277 0 18.316231936902277 -8.9308096438699778 0 0 0 0 0.078746007258189366 -0.033882310890021472 0 -0.033882310890021472 0.21440677503010133 0 0 0 0 4.1814399298164062 -1.1719239821941352 0 -1.1719239821941352 -0.61230274787831585 0 0 0 0 1.5027946808986599 -1.7551884930199064 0 -1.7551884930199064 -0.0040368612192306997 0 0 0 0 39.612196982474416 -0.64857075553914001 0 -0.64857075553914001 -6.4638115040174853 0 0 0 0 1.9531886325972891 -0.82220208914037585 0 -0.82220208914037585 -0.68116052873237842 0 0 0 0 5.329202782799257 -2.7566929161513349 0 -2.7566929161513349 -0.32249496991739846 0 0 0 0 13.264478624199455 -6.7884221396894304 0 -6.7884221396894304 -1.8176776078314076 0 0 0 0 15.886096148789534 -9.0343696084584906 0 -9.0343696084584906 0.09328320336904905 0 0 0 0 14.401342644356191 -2.9715310465417133 0 -2.9715310465417133 -3.6114479119660245 0 0 0 0 30.822586413720273 -17.234109186994189 0 -17.234109186994189 -19.453340432612336 0 0 0 0 4.1171588790602982 -2.887030236811361 0 -2.887030236811361 -3.3515460785173561 0 0 0 0 3.3162462560867425 -1.7008803455293522 0 -1.7008803455293522 0.0086030916087886673 0 0 0 0 1.7657116054989501 0.32310080761253346 0 0.32310080761253346 -0.18031492948871608 0 0 0 0 3.4315696215708158 -2.0702693894498925 0 -2.0702693894498925 1.0801778217799356 0 0 0 0 2.119605432410026 4.6824340063666234 0 4.6824340063666234 -3.955729187853219 0 0 0 0 -10.869670894739102 -1.8281829857291019 0 -1.8281829857291019 26.618209894762014 0 0 0 0 2.3386812721108754 -0.37322395588226698 0 -0.37322395588226698 1.3130769796066915 0 0 0 0 4.174964749472565 -3.4721706838275725 0 -3.4721706838275725 1.8037594693544667 0 0 0 0 29.010372624645242 8.6207163462650627 0 8.6207163462650627 -8.6727127813852434 0 0 0 0 7.7918516936770175 -27.048227200660801 0 -27.048227200660801 20.062126496524165 0 0 0 0 34.664813769748434 -18.498461625636949 0 -18.498461625636949 18.573456855416072 0 0 0 0 32.834790038366918 -21.787174948572599 0 -21.787174948572599 36.272400592788699 0 0 0 0 83.327853305119788 -31.793339349408303 0 -31.793339349408303 19.803862628690364 0 0 0 0 1.7672442207112908 -2.840607334263666 0 -2.840607334263666 52.825351336312515 0 0 0 0 54.253186317102518 -34.300679105679642 0 -34.300679105679642 25.463643382648293 0 0 0 0 21.030845942121232 -29.061110244186267 0 -29.061110244186267 29.0345679704605 0 0 0 0 36.804093864950119 -22.504250736261007 0 -22.504250736261007 26.104691780469359 0 0 0 0 67.314093997963937 -53.359775854177258 0 -53.359775854177258 33.069881879938642 0 0 0 0 37.272243144107051 -12.967470142646103 0 -12.967470142646103 3.5605189882752128 0 0 0 0 0.8697142179007642 -11.275218726292202 0 -11.275218726292202 15.22767090974888 0 0 0 0 0.84408449538750574 -13.434530428882773 0 -13.434530428882773 24.360406066820829 0 0 0 0 21.595106952529477 -7.889439325326582 0 -7.889439325326582 14.933205276234681 0 0 0 0 -8.4761431501974585 -16.877946898425716 0 -16.877946898425716 -43.177265238657228 0 0 0 0 144.05594621889759 -16.963237076081285 0 -16.963237076081285 1.4144716149193997 0 0 0 0 193.59175029836479 -18.75676314432544 0 -18.75676314432544 -28.284445449512972 0 0 0 0 0.29644281998818656 -1.0507059276902453 0 -1.0507059276902453 2.8065190544485312 0 0 0 0 57.915094242780469 -87.871863486226133 0 -87.871863486226133 7.2147198453969565 0 0 0 0 49.237110732225119 -76.192106436905163 0 -76.192106436905163 11.985792866829968 0 0 0 0 14.131676590361167 -89.369426213118885 0 -89.369426213118885 21.915170570297164 0 0 0 0 37.926855742087355 -14.243490730416852 0 -14.243490730416852 -12.974244987752968 0 0 0 0 47.525182950368617 -5.5777272850434656 0 -5.5777272850434656 -7.0763243718109834 0 0 0 0 37.617189760610927 -11.750784870508824 0 -11.750784870508824 -3.5131667769996966 0 0 0 0 1.5185439649503678 -11.795162916358095 0 -11.795162916358095 -0.46709548445414839 0 0 0 0 23.09342224615898 -29.655210631449094 0 -29.655210631449094 0.35525285102334614 0 0 0 0 38.088552107219584 -11.264051302524422 0 -11.264051302524422 -13.679567409823903 0 0 0 0 4.2421291183501353 -3.9563279222068815 0 -3.9563279222068815 -3.0458539317664859 0 0 0 0 19.11810756700055 -15.026982471455625 0 -15.026982471455625 -4.4196528992310569 0 0 0 0 20.551081062992239 0.12490028133655073 0 0.12490028133655073 -5.6247774423217702 0 0 0 0 4.4177514094626531 -17.85913791456278 0 -17.85913791456278 -19.950947558281769 0 0 0 0 0.43840542709222063 -11.749875409846709 0 -11.749875409846709 13.42140721528358 0 0 0 0 -38.355095507897204 -48.681122160056816 0 -48.681122160056816 5.5064973802915347 0 0 0 0 2.6069667970004957 -17.327580976715126 0 -17.327580976715126 -8.3714060177542251 0 0 0 0 24.916173422770896 -13.753481934095333 0 -13.753481934095333 0.47717775138724328 0 0 0 0 3.1104108185585062 -4.0716977477408136 0 -4.0716977477408136 6.6978846505323686 0 0 0 0 -3.6054586575028793 -4.6067611814838472 0 -4.6067611814838472 1.2181313527018216 0 0 0 0 29.431998303247383 -27.707581079442434 0 -27.707581079442434 -8.1696903799584106 0 0 0 0 49.040658983256435 -17.889730528358996 0 -17.889730528358996 -18.710441808017208 0 0 0 0 -43.355469545494998 0.99293770865006081 0 0.99293770865006081 16.940728956792782 0 0 0 0 51.594490971852792 -13.480424529367497 0 -13.480424529367497 -7.8896981816369589 0 0 0 0 57.80686173439608 -4.5689004922494405 0 -4.5689004922494405 -3.7612282254776801 0 0 0 0 45.819928405093378 -14.539977050310881 0 -14.539977050310881 -0.69184917453048911 0 0 0 0 62.538393380615162 -8.5700170623238137 0 -8.5700170623238137 5.5098670213537844 0 0 0 0 63.817646421579411 -6.7193520903099397 0 -6.7193520903099397 -4.6475422986104604 0 0 0 0 60.071065246855142 -2.1804453193833524 0 -2.1804453193833524 3.8570884147732158 0 0 0 0 53.498685330436274 -17.41336580302783 0 -17.41336580302783 0.29278386224132191 0 0 0 0 55.832385367655661 -1.4026726867722346 0 -1.4026726867722346 13.878902725563876 0 0 0 0 58.503138624626445 -3.8747523846209333 0 -3.8747523846209333 12.824301788208913 0 0 0 0 82.103360240609618 -5.8494223601215936 0 -5.8494223601215936 12.933350026677346 0 0 0 0 188.66867311234819 34.885589272379093 0 34.885589272379093 -114.03133623423037 0 0 0 0 57.240878555082872 -11.216871485658455 0 -11.216871485658455 0.71115527432831338 0 0 0 0 60.315952524048043 -14.805604011429011 0 -14.805604011429011 32.828662931940926 0 0 0 0 60.176290607312694 7.953880178262807 0 7.953880178262807 50.742998232425521 0 0 0 0 -3.9906532019231236 -13.215303065562694 0 -13.215303065562694 24.269622087021162 0 0 0 0 6.9226264519529082 4.7022166292857861 0 4.7022166292857861 -2.2791421826796165 0 0 0 0 36.919651549949776 -59.480015266700093 0 -59.480015266700093 32.795283402096175 0 0 0 0 25.837927703760215 -15.44857903692133 0 -15.44857903692133 50.919457264135929 0 0 0 0 35.948211313993681 -9.0763270441499557 0 -9.0763270441499557 1.5715745018021976 0 0 0 0 70.963649498691666 -20.84227289717785 0 -20.84227289717785 19.682650926087945 0 0 0 0 33.730121554435755 -29.483707505181343 0 -29.483707505181343 13.818000304094767 0 0 0 0 41.305675178475212 -11.271657536076873 0 -11.271657536076873 17.915920088667463 0 0 0 0 8.5325565657494735 -21.152708725774367 0 -21.152708725774367 10.495713918798629 0 0 0 0 47.946328133810312 -26.197778698780894 0 -26.197778698780894 2.6337962320915267 0 0 0 0 34.330708379653515 -5.3434179922828662 0 -5.3434179922828662 -5.3853634101940315 0 0 0 0 22.840976153899732 -17.444916072605082 0 -17.444916072605082 3.6909953710370451 0 0 0 0 11.671782207314209 -50.671579415327322 0 -50.671579415327322 -10.154637120395591 0 0 0 0 -144.5919168786786 -131.7714963149306 0 -131.7714963149306 148.64315883420102 0 0 0 0 45.145112388854614 -0.31385171548696178 0 -0.31385171548696178 -25.092068400704989 0 0 0 0 184.33723376173293 -116.03340436993602 0 -116.03340436993602 -16.79183200112324 0 0 0 0 265.84263762275805 51.755314510285118 0 51.755314510285118 -157.53719291674156 0 0 0 0 69.130478602601215 76.39394064385155 0 76.39394064385155 202.78922237831065 0 0 0 0 46.820196609834966 2.6615370754245546 0 2.6615370754245546 -27.655704505757626 0 0 0 0 83.506318418163573 -74.972334007760423 0 -74.972334007760423 -131.79836917511986 0 0 0 0 29.184087547263545 -17.5889278026699 0 -17.5889278026699 2.7327084273405196 0 0 0 0 17.906565502885002 -7.208641848849453 0 -7.208641848849453 -8.3965931615829135 0 0 0 0 18.164148229290731 1.0808781724554706 0 1.0808781724554706 10.819949316882798 0 0 0 0 0.040789620703435503 -36.178207311767267 0 -36.178207311767267 7.607889578264917 0 0 0 0 34.36523126042448 -16.624842638563678 0 -16.624842638563678 -18.401125088293952 0 0 0 0 16.208929825515952 -1.0434012129131816 0 -1.0434012129131816 35.347959234900713 0 0 0 0 28.168081126113975 -16.285194196022786 0 -16.285194196022786 -0.86029531836504702 0 0 0 0 44.481568233690325 -7.44230931825909 0 -7.44230931825909 -2.5023083532176162 0 0 0 0 20.689388250513048 -10.556118283474792 0 -10.556118283474792 0.74474667085478763 0 0 0 0 42.29188525522477 -13.852096862588382 0 -13.852096862588382 -8.6852243167906522 0 0 0 0 31.040644276393579 2.2245131550938027 0 2.2245131550938027 -4.3028240868059822 0 0 0 0 57.807567705560686 -11.455773451124571 0 -11.455773451124571 -7.4135712739995352 0 0 0 0 46.975471550249495 -10.161026165642397 0 -10.161026165642397 -23.312324351699317 0 0 0 0 46.753569742199033 -2.1072704984835582 0 -2.1072704984835582 -33.426542182085541 0 0 0 0 34.343054727617186 -13.753205143182337 0 -13.753205143182337 -6.9201746838727036 0 0 0 0 44.541190660478605 -8.1286779974407182 0 -8.1286779974407182 -10.707696911173116 0 0 0 0 9.6876637570595534 -10.682709896860501 0 -10.682709896860501 -4.4670795636615352 0 0 0 0 81.056956923901453 -24.749549145864393 0 -24.749549145864393 -30.031158253697786 0 0 0 0 43.103451915216283 -7.9347204378400988 0 -7.9347204378400988 3.7562119167159835 0 0 0 0 39.88451283914037 -13.419366003734012 0 -13.419366003734012 -2.1830936188362102 0 0 0 0 42.830538504407741 0.35353678798128385 0 0.35353678798128385 20.37423179145776 0 0 0 0 51.60756011052581 -28.563670367296709 0 -28.563670367296709 7.1550476910432508 0 0 0 0 43.138267762963551 -9.9796537577757096 0 -9.9796537577757096 2.0714091944400366 0 0 0 0 50.446146279908135 11.450866079861029 0 11.450866079861029 -29.313648752187589 0 0 0 0 105.02657278433617 -28.150408034232839 0 -28.150408034232839 20.22016495540629 0 0 0 0 109.44929535350821 -11.914893963012673 0 -11.914893963012673 11.776253494911263 0 0 0 0 -8.4067174748852267 31.179489717546417 0 31.179489717546417 -19.344944597121795 0 0 0 0 5.71367164409412 4.0762861476241596 0 4.0762861476241596 4.5177382016802001 0 0 0 0 0.16313335974001575 -0.77300684572746547 0 -0.77300684572746547 2.8799718471255744 0 0 0 0 51.906177796132397 -118.20644660084463 0 -118.20644660084463 -33.959318645348098 0 0 0 0 89.360757037735311 -24.37763914780453 0 -24.37763914780453 29.218882784038215 0 0 0 0 80.899421401220025 -21.315778739972075 0 -21.315778739972075 21.071826331926786 0 0 0 0 90.617123938398436 -17.720854409746607 0 -17.720854409746607 19.583601322449795 0 0 0 0 105.05328580315108 -71.879210080413088 0 -71.879210080413088 -4.6624861884210986 0 0 0 0 31.687775962112937 -80.357153086879407 0 -80.357153086879407 25.879316532823623 0 0 0 0 62.466532814549282 104.87951977025068 0 104.87951977025068 131.83595235102985 0 0 0 0 7.1533448281261371 -91.905738090328214 0 -91.905738090328214 27.910731258163651 0 0 0 0 42.313486414961517 5.1203984547003358 0 5.1203984547003358 -33.570862072499835 0 0 0 0 12.997058681956815 -7.5754011354988222 0 -7.5754011354988222 2.796043231824008 0 0 0 0 28.310141501971145 -4.0905288153537445 0 -4.0905288153537445 0.97221342674712674 0 0 0 0 38.256922677508555 -2.5774201868022146 0 -2.5774201868022146 -6.7615420058441771 0 0 0 0 29.594652501837118 -4.4414164965628515 0 -4.4414164965628515 3.6538325907050648 0 0 0 0 -2721.32668748172 -1979.0709962759747 0 -1979.0709962759747 1649.4941955967993 0 0 0 0 25.367894774799311 -8.9349533672529624 0 -8.9349533672529624 1.5105009454522351 0 0 0 0 480.40974067081697 375.40541813073105 0 375.40541813073105 150.96255964564193 0 0 0 0 -244.1992894342402 -343.85002490648185 0 -343.85002490648185 -173.04610772962678 0 0 0 0 340.9038133402355 192.82487306343955 0 192.82487306343955 -137.45340146940907 0 0 0 0 358.11402248521335 233.23714411308583 0 233.23714411308583 -123.07665622470904 0 0 0 0 210.56392993326881 208.54090336690342 0 208.54090336690342 -110.68234704029146 0 0 0 0 318.07821783871623 255.27456422147134 0 255.27456422147134 -109.38417583780847 0 0 0 0 575.8990194335347 387.74654250719504 0 387.74654250719504 92.283681484798763 0 0 0 0 376.79977750268881 251.50795626534818 0 251.50795626534818 25.087671392597258 0 0 0 0 428.07832160283579 280.43802423362831 0 280.43802423362831 -94.934999639388707 0 0 0 0 332.89536500119721 184.937490878267 0 184.937490878267 -67.214851659999113 0 0 0 0 438.37922539829742 326.9301934373193 0 326.9301934373193 -17.110784324313272 0 0 0 0 609.4189239279367 258.27884013618223 0 258.27884013618223 -108.50093698120054 0 0 0 0 645.73050709805102 248.23771278380696 0 248.23771278380696 -135.76508208867517 0 0 0 0 716.03203162597492 232.43202614502297 0 232.43202614502297 -102.24207338990345 0 0 0 0 511.58128567019594 -151.61538628105694 0 -151.61538628105694 -265.8663799386477 0 0 0 0 824.69753408743418 80.112227179725778 0 80.112227179725778 -212.65472035339189 0 0 0 0 789.06993474168121 -25.529805387450324 0 -25.529805387450324 135.44058369583945 0 0 0 0 4736.6014255963964 5106.0328234461977 0 5106.0328234461977 4591.6755901984798 0 0 0 0 667.92806511651725 413.95252832101323 0 413.95252832101323 89.244248773165737 0 0 0 0 951.03354903031141 325.38960711456366 0 325.38960711456366 -70.644283616770281 0 0 0 0 104.36137953479192 16.700435991112613 0 16.700435991112613 -38.187023962714875 0 0 0 0 69.028001865648548 27.565964163887202 0 27.565964163887202 -30.220358198724625 0 0 0 0 100.52837254834594 9.8391938803421226 0 9.8391938803421226 -38.67003557548469 0 0 0 0 83.298200185134192 41.472442994622384 0 41.472442994622384 -5.5841965799581885 0 0 0 0 118.41462527250405 32.575557583566479 0 32.575557583566479 -29.779370901670745 0 0 0 0 350.13953796681017 -166.54271109519306 0 -166.54271109519306 -11.271922659084311 0 0 0 0 98.767904711610754 40.102119538502222 0 40.102119538502222 -67.355080598465747 0 0 0 0 76.823355635026871 11.459601919589204 0 11.459601919589204 1.7069651230472671 0 0 0 0 91.258566554635763 10.617840116025491 0 10.617840116025491 -60.224407014739313 0 0 0 0 20.518122331071936 -50.65723446384294 0 -50.65723446384294 17.818734903821223 0 0 0 0 -21.802514728857204 -17.759792960827895 0 -17.759792960827895 163.98787880525265 0 0 0 0 25.674548849503083 1.257744056480874 0 1.257744056480874 0.18172605629558958 0 0 0 0 96.087533584388439 149.61414409580084 0 149.61414409580084 399.40637154410871 0 0 0 0 30.852113877510874 1.8639657304854182 0 1.8639657304854182 -8.6058861724994991 0 0 0 0 -4.5560764802066842 44.811263319741556 0 44.811263319741556 611.23098857815751 0 0 0 0 -2751.4530032622861 -3533.4485254529468 0 -3533.4485254529468 -366.11796731965558 0 0 0 0 50.656186350097414 -18.885034586462211 0 -18.885034586462211 -4.1751997447490794 0 0 0 0 54.853663011774188 -6.1513704293263345 0 -6.1513704293263345 1.0855302083164133 0 0 0 0 44.486279740813188 -138.35856667877852 0 -138.35856667877852 -151.44687191157902 0 0 0 0 45.818670397630115 -3.319916128880692 0 -3.319916128880692 -4.7502608506922588 0 0 0 0 78.292240047885571 -188.10119992413729 0 -188.10119992413729 -159.79068916637789 0 0 0 0 30.607387561215432 -1.5965767793504044 0 -1.5965767793504044 -1.1238396695747024 0 0 0 0 28.161981246448704 -5.7132931008986816 0 -5.7132931008986816 -24.841474375834878 0 0 0 0 29.063517727190629 -3.0918670624268998 0 -3.0918670624268998 -26.57555265013707 0 0 0 0 44.348907105621038 -18.566906654811476 0 -18.566906654811476 -2.7919857499337013 0 0 0 0 38.662327416881453 -5.1834220175842347 0 -5.1834220175842347 -17.499894314054472 0 0 0 0 21.604923410341144 -9.4940374601701478 0 -9.4940374601701478 -58.155825828745947 0 0 0 0 35.496960446689172 -12.559424104742318 0 -12.559424104742318 -4.9910429180724663 0 0 0 0 462.82695066053566 -87.525440477767916 0 -87.525440477767916 -246.45609431775847 0 0 0 0 34.274891737547705 4.6885502476229668 0 4.6885502476229668 -3.8937179861838671 0 0 0 0 54.231876161284561 -28.328949117067623 0 -28.328949117067623 -11.631500564942993 0 0 0 0 34.476494979314054 -11.195767927155238 0 -11.195767927155238 0.83866220214036602 0 0 0 0 27.675176839227788 -5.5473197494684428 0 -5.5473197494684428 -56.622170467073374 0 0 0 0 50.385059796622954 -12.55662849696364 0 -12.55662849696364 -568.69217176252414 0 0 0 0 -146.32318727258826 -232.5216545770495 0 -232.5216545770495 -131.75955322682785 0 0 0 0 142.22877332463395 -118.21161953738556 0 -118.21161953738556 -125.1540002605098 0 0 0 0 -57.004652659641579 143.33297305323049 0 143.33297305323049 -65.236468272583807 0 0 0 0 268.57374833512586 133.72858158656663 0 133.72858158656663 -110.46406522685811 0 0 0 0 238.02235655818731 -164.99537279277553 0 -164.99537279277553 -105.89860250162837 0 0 0 0 271.14196845859442 170.84407463457589 0 170.84407463457589 -76.819643995660044 0 0 0 0 617.51619522513647 -265.77067313596365 0 -265.77067313596365 -8.7267986962483874 0 0 0 0 79.852151149796555 -145.17262204872634 0 -145.17262204872634 7.3130682283383521 0 0 0 0 1.1391656777414028 -168.7433797255635 0 -168.7433797255635 -64.334854584638379 0 0 0 0 -78.861135320825269 -67.09564128494776 0 -67.09564128494776 -84.411501356577219 0 0 0 0 66.639596784545574 -115.86934857038761 0 -115.86934857038761 -57.671530578413595 0 0 0 0 8.7611006865045056 -183.24577516853572 0 -183.24577516853572 59.969982386613992 0 0 0 0 -1.2040068238785864 -2.2078628431417542 0 -2.2078628431417542 -1.95575971204015 0 0 0 0 52.497862363627064 -231.92508265159839 0 -231.92508265159839 -150.29929272724755 0 0 0 0 18.229950439970708 44.735406555454738 0 44.735406555454738 -77.875598314127501 0 0 0 0 -358.08485136355739 25.571648406228924 0 25.571648406228924 111.99124961551172 0 0 0 0 93.333339952543611 -56.806869576144116 0 -56.806869576144116 581.76361498836468 0 0 0 0 8.6277602058423213 -0.49622621767642983 0 -0.49622621767642983 0.030400114426051408 0 0 0 0 465.37916226054949 457.70113989794771 0 457.70113989794771 288.25222430990942 0 0 0 0 91.789154236379545 -243.33538221392519 0 -243.33538221392519 107.40791529152548 0 0 0 0 850.58404285429424 268.48487663596939 0 268.48487663596939 -85.247481787008383 0 0 0 0 514.90774827558198 332.80790544105059 0 332.80790544105059 -6.590656907747416 0 0 0 0 380.44876589474734 146.13912852074645 0 146.13912852074645 -117.08580845082724 0 0 0 0 561.17781015114451 288.60127027857175 0 288.60127027857175 -120.83106694249091 0 0 0 0 131.65388699548203 -90.178482638137211 0 -90.178482638137211 -57.126912677264045 0 0 0 0 420.176029432012 71.925876911643854 0 71.925876911643854 -84.284296079935757 0 0 0 0 282.70456238364568 172.35556819707813 0 172.35556819707813 -111.79558357558443 0 0 0 0 86.493099781131605 -50.556778366434202 0 -50.556778366434202 -86.465348771767182 0 0 0 0 133.09298001709976 183.84121895447475 0 183.84121895447475 65.083543018944653 0 0 0 0 22.354285456861248 -2.644805428865638 0 -2.644805428865638 -0.065208540134157666 0 0 0 0 75.751233159258845 -16.523614629615889 0 -16.523614629615889 -230.1084595360598 0 0 0 0 0.4338287222199142 30.911563262352125 0 30.911563262352125 -97.884162066738824 0 0 0 0 156.61046965664718 -105.82070647164977 0 -105.82070647164977 -21.048754454638583 0 0 0 0 51.127023358856604 -116.71546412096068 0 -116.71546412096068 13.720659187616498 0 0 0 0 419.48078265890945 -318.48936865500787 0 -318.48936865500787 -17.413907521340015 0 0 0 0 745.25355829973705 -72.187548673694423 0 -72.187548673694423 -126.56910372003792 0 0 0 0 278.65754090481641 -95.547730660837146 0 -95.547730660837146 -43.887218285160557 0 0 0 0 290.29177481769875 -105.67253127566481 0 -105.67253127566481 -128.97208947318478 0 0 0 0 118.69962399391807 -142.64586462056033 0 -142.64586462056033 -3.4897590227898014 0 0 0 0 -233.79614971153205 -29.389734786610347 0 -29.389734786610347 99.957284706326021 0 0 0 0 50.292740089498693 321.55411917199672 0 321.55411917199672 134.33429936945032 0 0 0 0 -21.96810480003478 21.644060915776901 0 21.644060915776901 108.75873468881686 0 0 0 0 -60.544995282340096 -179.02148626245668 0 -179.02148626245668 -16.463162211537451 0 0 0 0 607.27680865529692 352.72252252565738 0 352.72252252565738 41.69328857469182 0 0 0 0 264.96188054288359 79.682926160299573 0 79.682926160299573 -32.548085807823206 0 0 0 0 383.14419335073035 -20.571670142597643 0 -20.571670142597643 -81.809454081417783 0 0 0 0 266.8986125451338 -31.512054773506549 0 -31.512054773506549 -82.779066651926669 0 0 0 0 276.19846584249171 105.47413067002745 0 105.47413067002745 -34.532835059193246 0 0 0 0 153.43382180422486 21.515439505394305 0 21.515439505394305 -3.8469016483303484 0 0 0 0 175.22402075759601 8.6935386960458096 0 8.6935386960458096 -4.3986836115165158 0 0 0 0 68.68416169603006 -0.73837441569267748 0 -0.73837441569267748 30.684155379603315 0 0 0 0 143.2053929590038 31.092425898392179 0 31.092425898392179 44.260935500031792 0 0 0 0 24.963779254088877 -62.119336951579413 0 -62.119336951579413 65.275838891494004 0 0 0 0 158.59861388118588 -31.027375943352894 0 -31.027375943352894 10.374082694810525 0 0 0 0 84.872780686549959 -26.5664681309316 0 -26.5664681309316 18.476834180101424 0 0 0 0 178.71431971678976 -61.119300309608207 0 -61.119300309608207 17.468431331516403 0 0 0 0 180.93771206673409 -64.426503074437477 0 -64.426503074437477 -2.7664760249339579 0 0 0 0 242.77526098044473 -32.4318820233525 0 -32.4318820233525 -41.410968603583989 0 0 0 0 270.29465071455343 -18.036310038343913 0 -18.036310038343913 -36.992883082382463 0 0 0 0 264.04750933453761 -27.896531951263761 0 -27.896531951263761 -36.668928841573276 0 0 0 0 272.78844131220831 -52.464429035989696 0 -52.464429035989696 -28.098687396387405 0 0 0 0 263.50065132489362 -53.155312665990124 0 -53.155312665990124 -17.845725163054752 0 0 0 0 269.84894017912302 -19.364000050475823 0 -19.364000050475823 31.932289304310441 0 0 0 0 336.76908533590904 -82.726799101531327 0 -82.726799101531327 -3.0479495445754594 0 0 0 0 243.7582805051934 -51.930941958016277 0 -51.930941958016277 -8.2971971650234764 0 0 0 0 0.92686926967780892 -0.032203656167453687 0 -0.032203656167453687 -0.060912493793469774 0 0 0 0 231.1868681050546 -154.65316640546982 0 -154.65316640546982 86.087888359537246 0 0 0 0 257.14594162022695 -97.371966004217114 0 -97.371966004217114 -0.097407999172000187 0 0 0 0 2.2196176264842506 5.1884329525392605 0 5.1884329525392605 -11.613213647824425 0 0 0 0 266.95863709540572 -79.818093078348113 0 -79.818093078348113 -0.85593255819282366 0 0 0 0 127.78717543400126 -112.74212830561601 0 -112.74212830561601 83.415063212910738 0 0 0 0 136.68190482052159 -58.04873124956859 0 -58.04873124956859 -4.2147555197622495 0 0 0 0 245.80804438726045 -40.024122274668798 0 -40.024122274668798 -43.814757195916684 0 0 0 0 226.58232765359571 -90.240233344766963 0 -90.240233344766963 -44.317319399046603 0 0 0 0 212.67971027907333 -31.206374582355387 0 -31.206374582355387 0.058722167149806714 0 0 0 0 169.89406309784681 -65.651142901865555 0 -65.651142901865555 -5.3403470353376221 0 0 0 0 128.92209155365708 -34.550913225680553 0 -34.550913225680553 -0.016307277246747201 0 0 0 0 80.496188233184512 -50.109264149241561 0 -50.109264149241561 16.134735217641953 0 0 0 0 131.34704755444545 -65.862659139797159 0 -65.862659139797159 9.8343094916646692 0 0 0 0 80.914651703866184 -30.13892313070674 0 -30.13892313070674 5.5363039540853975 0 0 0 0 107.49543002768769 22.441508881715627 0 22.441508881715627 7.658969651784524 0 0 0 0 74.272763314060285 -23.953925173504576 0 -23.953925173504576 0.047880036724131506 0 0 0 0 0.15967264374835111 -0.016868389493879477 0 -0.016868389493879477 0.096468127345681068 0 0 0 0 158.63752453902271 -1.1447309932577061 0 -1.1447309932577061 0.012455923616366637 0 0 0 0 160.08887190901441 8.3967026053673806 0 8.3967026053673806 -10.998340585264531 0 0 0 0 45.484604302917433 7.2691029081900211 0 7.2691029081900211 9.3767528255976629 0 0 0 0 0.055050605564247235 -0.12411428649323852 0 -0.12411428649323852 -0.053701018760796526 0 0 0 0 141.23242639230739 24.195397134116646 0 24.195397134116646 -3.843308769156863 0 0 0 0 55.642964283426409 -9.4350630058545448 0 -9.4350630058545448 31.769466232144431 0 0 0 0 32.174183548544534 26.527452857648711 0 26.527452857648711 20.01129795665409 0 0 0 0 16.139380182372406 -36.601216063247591 0 -36.601216063247591 15.720035702543996 0 0 0 0 51.692254512498039 -18.826364177436247 0 -18.826364177436247 -140.87437581979327 0 0 0 0 -47.756160157470731 -53.083349791787555 0 -53.083349791787555 14.071686584996328 0 0 0 0 -0.020529338592780277 -0.17753759563692029 0 -0.17753759563692029 -0.11802526819659165 0 0 0 0 -4.7442644266120624 -82.63566717905158 0 -82.63566717905158 -101.94078104537709 0 0 0 0 -25.945623363862978 -79.127229793298199 0 -79.127229793298199 -27.831830732197044 0 0 0 0 -4.7519778421556111 -21.842840872560579 0 -21.842840872560579 -139.76436505827365 0 0 0 0 44.082542399890372 -51.877588983086319 0 -51.877588983086319 -154.22546980412713 0 0 0 0 26.591586437614751 -75.788436361280361 0 -75.788436361280361 14.371690871932309 0 0 0 0 96.652952123193245 -71.418094606382795 0 -71.418094606382795 -30.762032039815381 0 0 0 0 43.49345283918592 -11.202983258138602 0 -11.202983258138602 27.677573561473679 0 0 0 0 59.882138294415199 -15.859145978971796 0 -15.859145978971796 15.125581911741108 0 0 0 0 4.4038900593893118 2.7670696633703358 0 2.7670696633703358 1.1188603019267112 0 0 0 0 236.54680489361635 -10.420752706600352 0 -10.420752706600352 0.040573799947429559 0 0 0 0 2242.3818052156712 53.111894159655463 0 53.111894159655463 -203.32926216005933 0 0 0 0 249.8575313563706 -20.133066791450513 0 -20.133066791450513 -5.1651861993953752 0 0 0 0 263.62110027245217 -7.1774006492072395 0 -7.1774006492072395 -0.058662294304018668 0 0 0 0 225.01080814559828 34.850733919044153 0 34.850733919044153 -9.2007891830770063 0 0 0 0 157.64154391345892 23.164113736141115 0 23.164113736141115 10.044046841290561 0 0 0 0 129.50077139780478 39.792819100813304 0 39.792819100813304 47.768862538849305 0 0 0 0 298.90952654274588 29.605471398081043 0 29.605471398081043 -7.0793374213332712 0 0 0 0 326.19143875676673 94.181551140032411 0 94.181551140032411 20.861570573336138 0 0 0 0 130.46383000310743 18.795925142808983 0 18.795925142808983 95.243817324205224 0 0 0 0 429.27840360693881 -83.548268052120775 0 -83.548268052120775 79.754606674906682 0 0 0 0 291.03620205991319 12.450858095926517 0 12.450858095926517 33.221087608485362 0 0 0 0 394.99228147781105 -51.672612821532724 0 -51.672612821532724 -1.7092047487691975 0 0 0 0 5.2459110816540431 5.9256065605505626 0 5.9256065605505626 3.5235324311254042 0 0 0 0 742.55282924108906 -176.69099003780761 0 -176.69099003780761 -165.19808907154885 0 0 0 0 933.49123071277427 172.13690348625133 0 172.13690348625133 -6.8283799331883301 0 0 0 0 832.73004612264049 440.32381858496808 0 440.32381858496808 -372.35908136309672 0 0 0 0 -278.38412485332083 623.07925378003608 0 623.07925378003608 -196.49644082904206 0 0 0 0 -230.74567890922481 320.1060155263346 0 320.1060155263346 417.9650805306112 0 0 0 0 -191.29899927455699 -81.847649531920069 0 -81.847649531920069 306.18068306485725 0 0 0 0 -50.739253031661065 386.1404342120677 0 386.1404342120677 583.6105571464941 0 0 0 0 599.39750101397658 431.23540266223199 0 431.23540266223199 -30.59898405554577 0 0 0 0 689.41261922286867 988.38067056919783 0 988.38067056919783 518.32855538846843 0 0 0 0 949.96526416198321 460.01473473478097 0 460.01473473478097 -9.6902440862936317 0 0 0 0 1.8236794776841521 2.5008644105415669 0 2.5008644105415669 2.7859586160803831 0 0 0 0 -419.37424317887053 -85.947035017089547 0 -85.947035017089547 366.92354781110453 0 0 0 0 125.61333636377822 -317.03671947583985 0 -317.03671947583985 -104.12244607110506 0 0 0 0 248.17676837189356 488.67687508606605 0 488.67687508606605 -167.06119563091283 0 0 0 0 -0.91468665165490393 2.2480279935594041 0 2.2480279935594041 0.98859157948755638 0 0 0 0 171.23445180615818 49.402663832725352 0 49.402663832725352 -488.818086732658 0 0 0 0 160.84711576430709 -128.58332297866582 0 -128.58332297866582 -32.384490088201119 0 0 0 0 2.7931228981947243 -6.0740726668151197 0 -6.0740726668151197 0.15220527367432579 0 0 0 0 27.62203364080051 311.75568500745476 0 311.75568500745476 -139.12966850705652 0 0 0 0 -205.51215474297351 -62.710368014725162 0 -62.710368014725162 83.578657073545628 0 0 0 0 531.99025223114586 322.45452707590181 0 322.45452707590181 -7.0147631479526353 0 0 0 0 946.94740852170798 -150.62282004601099 0 -150.62282004601099 -97.030383835487214 0 0 0 0 116.81491469845059 58.747219927831622 0 58.747219927831622 -5.0327181043144265 0 0 0 0 230.9047730617167 -64.947772336629328 0 -64.947772336629328 -1.085605649436161 0 0 0 0 210.3142856281047 -10.374847312228979 0 -10.374847312228979 -136.92623980473513 0 0 0 0 -11.563375751895364 -60.378578786211222 0 -60.378578786211222 -101.73569947257545 0 0 0 0 47.073721250235394 -8.422002886594953 0 -8.422002886594953 -7.3033096964536526 0 0 0 0 51.400495847081402 -7.5775674930710863 0 -7.5775674930710863 -7.3580182284858893 0 0 0 0 44.349059899788699 -1.442389061653671 0 -1.442389061653671 -5.8686457521698685 0 0 0 0 30.463537021264699 -6.5172187418568939 0 -6.5172187418568939 -4.6331247507054201 0 0 0 0 52.72211373857499 -0.0028448928838997745 0 -0.0028448928838997745 -5.7808014283655211 0 0 0 0 165.75250391410373 -150.7996044193228 0 -150.7996044193228 79.536429465175388 0 0 0 0 33.86707111063879 -8.0405623516617197 0 -8.0405623516617197 -13.420092253234543 0 0 0 0 39.142561446977197 -0.39263096419608701 0 -0.39263096419608701 -12.821559553094971 0 0 0 0 111.98158843602869 -176.18466719227308 0 -176.18466719227308 -81.5456717661109 0 0 0 0 12.235962919915266 3.2498066496945057 0 3.2498066496945057 -9.5841198324298063 0 0 0 0 73.386478993284982 56.417104856673177 0 56.417104856673177 60.2176523408707 0 0 0 0 140.2818288251583 -88.634942134048288 0 -88.634942134048288 53.286509626739644 0 0 0 0 189.03954106962192 -252.84988025308121 0 -252.84988025308121 102.48803189019645 0 0 0 0 188.94329261769599 -190.14457958962203 0 -190.14457958962203 189.3299094213944 0 0 0 0 157.58175263379235 -201.42763129964624 0 -201.42763129964624 206.51611113766012 0 0 0 0 47.346061608008483 -2.1282033130976998 0 -2.1282033130976998 -3.2759498692811544 0 0 0 0 40.643823765069101 6.9510552789911344 0 6.9510552789911344 -14.041633916056355 0 0 0 0 25.704316514995298 17.965205374414836 0 17.965205374414836 194.42267886447823 0 0 0 0 20.498463729260095 -7.2513940393297389 0 -7.2513940393297389 -3.6567576415199712 0 0 0 0 70.24785198157349 -19.42131496927345 0 -19.42131496927345 1.9976160493213095 0 0 0 0 245.07205325627001 -52.182065148324909 0 -52.182065148324909 10.110161204036558 0 0 0 0 59.636681246196531 -107.65575070273349 0 -107.65575070273349 354.64179737366067 0 0 0 0 16.880497737263795 -153.57076454973389 0 -153.57076454973389 -251.35785022846994 0 0 0 0 297.43226292089093 -357.82971713403731 0 -357.82971713403731 290.09619333773935 0 0 0 0 221.83812847198715 -327.92059138138688 0 -327.92059138138688 373.27787560174329 0 0 0 0 183.25756006472511 -571.50723419037467 0 -571.50723419037467 674.51363628353556 0 0 0 0 -195.80864303160342 -50.511280834261925 0 -50.511280834261925 1096.2716430770574 0 0 0 0 594.63131672504824 -1047.8664517014831 0 -1047.8664517014831 1226.0621012704005 0 0 0 0 705.35174181134789 -1159.8841215771881 0 -1159.8841215771881 2437.4007245956554 0 0 0 0 1392.6639600035269 1157.6083637857516 0 1157.6083637857516 589.7475951163824 0 0 0 0 55.101476127631031 -0.8088653890997648 0 -0.8088653890997648 -14.313766035533263 0 0 0 0 -3.3084623362665297 1.7464406585984307 0 1.7464406585984307 33.06420239712611 0 0 0 0 32.299461384492929 -6.2765697220988557 0 -6.2765697220988557 0.25478176226243437 0 0 0 0 -95.741873785780626 76.855211398784377 0 76.855211398784377 -1.0746462551387594 0 0 0 0 -129.4996163394826 -157.72288310873705 0 -157.72288310873705 -56.191746523423944 0 0 0 0 211.99275528077851 -198.99280211323264 0 -198.99280211323264 -225.7379402815136 0 0 0 0 43.729568991198903 -30.755711801298062 0 -30.755711801298062 -157.11135362779603 0 0 0 0 -15.303898013633443 -154.41578889379701 0 -154.41578889379701 -259.21898137146746 0 0 0 0 4.8875891084063028 2.7273990807949815 0 2.7273990807949815 -2.2908406879383461 0 0 0 0 25.133093147509499 -82.247371719842434 0 -82.247371719842434 -285.9868204766621 0 0 0 0 61.228591145800237 71.573399157137032 0 71.573399157137032 -37.913169341925808 0 0 0 0 -69.909405654005241 -117.69338703191221 0 -117.69338703191221 -142.49660949505792 0 0 0 0 -16.753483710897854 -59.348199084365717 0 -59.348199084365717 -88.545712502463971 0 0 0 0 67.063408555521164 -55.791816364522106 0 -55.791816364522106 -102.15352863631063 0 0 0 0 21.851872563915094 -29.309844887766303 0 -29.309844887766303 -10.332885390954743 0 0 0 0 76.144537523563486 -79.081920892766277 0 -79.081920892766277 -322.93178878048457 0 0 0 0 25.926772995179249 -3.0250315134780266 0 -3.0250315134780266 -1.1246587409956705 0 0 0 0 23.641808957232854 -5.7067348454035027 0 -5.7067348454035027 0.034643303328274255 0 0 0 0 45.233168556122109 7.9196286538685854 0 7.9196286538685854 -29.240569256491312 0 0 0 0 25.546320247878612 -106.41138331251649 0 -106.41138331251649 -227.10982161808022 0 0 0 0 25.402663509947047 -1.0421524460187328 0 -1.0421524460187328 -2.8018846059138118 0 0 0 0 53.754079065991391 9.525032831854233 0 9.525032831854233 -4.1137769173014931 0 0 0 0 50.497233069254435 -5.574177132447403 0 -5.574177132447403 -3.9547623005269088 0 0 0 0 38.751732473238292 2.6774579804072616 0 2.6774579804072616 0.49370490645573284 0 0 0 0 50.361418743079412 0.045449924572949385 0 0.045449924572949385 -4.4290979106763189 0 0 0 0 27.072478104538163 -8.2186318840661912 0 -8.2186318840661912 0.025854154635605475 0 0 0 0 36.443924333754694 -8.5611099918614855 0 -8.5611099918614855 -10.332533899488453 0 0 0 0 28.52397878430952 -5.9007290143437245 0 -5.9007290143437245 -1.9914339287519525 0 0 0 0 39.533718359700288 3.334825142047066 0 3.334825142047066 -7.8832823577095041 0 0 0 0 34.042569766927045 -3.3361824152552799 0 -3.3361824152552799 -2.8811721847255285 0 0 0 0 44.448463812266709 -3.2422854021444891 0 -3.2422854021444891 0.11336590156292914 0 0 0 0 53.301240935761598 -4.9604756975611508 0 -4.9604756975611508 -6.8158107651338469 0 0 0 0 113.01798662861256 2.8129548158409534 0 2.8129548158409534 -35.321005023355042 0 0 0 0 54.396649507936672 8.8057303343459807 0 8.8057303343459807 -7.9181846847160386 0 0 0 0 41.420586745816365 -10.176688105797581 0 -10.176688105797581 -13.511926512414362 0 0 0 0 47.480614034609232 2.3946688695848977 0 2.3946688695848977 -0.65098205101972173 0 0 0 0 52.909049785608659 -13.061351135487257 0 -13.061351135487257 4.9632241830881867 0 0 0 0 1112.9421475040144 833.7919582332861 0 833.7919582332861 -89.537753763973342 0 0 0 0 102.67292912619081 20.974700515294295 0 20.974700515294295 0.90425210798030142 0 0 0 0 -52.750755880202632 -338.41760709821119 0 -338.41760709821119 -116.73838620463425 0 0 0 0 255.94661403694772 -68.328843624975434 0 -68.328843624975434 -233.95172596196471 0 0 0 0 82.519674631497764 30.78412681505165 0 30.78412681505165 -13.987253515173506 0 0 0 0 25.481590657298398 7.5415024196046545 0 7.5415024196046545 -4.6226065291562737 0 0 0 0 -757.42309490815387 -352.86075379175372 0 -352.86075379175372 -12.255379572746278 0 0 0 0 113.35919225009275 9.4658841584221136 0 9.4658841584221136 -39.572478145893911 0 0 0 0 120.25538006593706 10.146282776869498 0 10.146282776869498 -42.106338542207482 0 0 0 0 116.52282592497068 13.974920340187623 0 13.974920340187623 -39.632059793803592 0 0 0 0 130.01250951473048 2.4791421099138944 0 2.4791421099138944 -56.591084007411098 0 0 0 0 304.08891164032684 -7.8690709253411057 0 -7.8690709253411057 -57.826775962618534 0 0 0 0 137.49563219293486 -15.265882644382216 0 -15.265882644382216 -15.391463720938269 0 0 0 0 130.29518093365186 -1.2627961925791453 0 -1.2627961925791453 -35.340195965526846 0 0 0 0 62.760619702996337 -30.790297253991469 0 -30.790297253991469 -13.533860226607807 0 0 0 0 29.657938292499949 -18.360888795253601 0 -18.360888795253601 -14.533229849723108 0 0 0 0 61.54907112827641 1.9557171724102318 0 1.9557171724102318 -3.1802408644978186 0 0 0 0 125.727342424987 19.864036664206196 0 19.864036664206196 13.906390011050917 0 0 0 0 293.28078590710356 -98.718896624023273 0 -98.718896624023273 25.693339554790327 0 0 0 0 24.935095778011345 8.0333683431512952 0 8.0333683431512952 -7.2784886254458092 0 0 0 0 60.930834392436736 -43.745573141036445 0 -43.745573141036445 -17.169596731574188 0 0 0 0 50.711558538750978 -13.69024685441471 0 -13.69024685441471 -18.822182312401946 0 0 0 0 3.8412511111061178 -10.56238854860834 0 -10.56238854860834 -13.705354528195391 0 0 0 0 -233.50249048114347 406.58814151624472 0 406.58814151624472 -520.26275891459818 0 0 0 0 142.80395313521149 116.4395100735959 0 116.4395100735959 -297.27358903681125 0 0 0 0 110.61767787871941 -218.33566091338696 0 -218.33566091338696 -234.76508654227928 0 0 0 0 7.5486279328107457 -4.5019235616831281 0 -4.5019235616831281 1.0103466013209257 0 0 0 0 -337.20454551761213 -342.77191730085144 0 -342.77191730085144 -235.70033027419299 0 0 0 0 378.25486508038011 -603.44496085349363 0 -603.44496085349363 -141.80426224534551 0 0 0 0 397.14643844451348 220.8045685891347 0 220.8045685891347 -669.37045904633123 0 0 0 0 365.2030100176853 356.46626396759387 0 356.46626396759387 -509.49427334258849 0 0 0 0 128.06592849124172 -65.850040511163641 0 -65.850040511163641 -1.6860268797140634 0 0 0 0 170.89057031484117 -76.166608271798793 0 -76.166608271798793 -8.3689532477665693 0 0 0 0 125.11414099109243 -51.175890873094232 0 -51.175890873094232 9.6524339678184674 0 0 0 0 65.795441013251548 -54.228944929125376 0 -54.228944929125376 9.9565607267498422 0 0 0 0 -1.9945736574074715 -2.2463714784367141 0 -2.2463714784367141 -4.313563401793008 0 0 0 0 1219.195771230472 -505.47578103860951 0 -505.47578103860951 -197.34427320675377 0 0 0 0 796.82161607221769 -727.63246190672351 0 -727.63246190672351 124.27878300761313 0 0 0 0 776.8719409951882 -565.61141148789238 0 -565.61141148789238 42.59157324906846 0 0 0 0 1162.2255093010608 -745.15899933905121 0 -745.15899933905121 124.86070931339827 0 0 0 0 1396.479438182927 -956.80051254712089 0 -956.80051254712089 330.75166802458807 0 0 0 0 944.62301337958706 -688.6080608549596 0 -688.6080608549596 180.18758814818466 0 0 0 0 906.48836055706306 -904.46047886254996 0 -904.46047886254996 410.44139177526813 0 0 0 0 530.0995010400402 -576.96326772196903 0 -576.96326772196903 231.34944579410785 0 0 0 0 242.30442192018381 -367.23098313461333 0 -367.23098313461333 347.18552069851285 0 0 0 0 507.52206516957085 -635.13305127482317 0 -635.13305127482317 230.42985190077025 0 0 0 0 649.57775730456342 -606.80267431608831 0 -606.80267431608831 32.396256991946302 0 0 0 0 656.76262326167489 -569.3021832071322 0 -569.3021832071322 90.677179395203893 0 0 0 0 417.12113527630572 -481.56547955587303 0 -481.56547955587303 151.79283713838868 0 0 0 0 311.00100936356466 -370.7770513269852 0 -370.7770513269852 226.3495378337409 0 0 0 0 275.28034235469386 -214.7401658057347 0 -214.7401658057347 83.497386209623073 0 0 0 0 195.56066732501495 -199.96756604323218 0 -199.96756604323218 101.26172209188462 0 0 0 0 486.92956034486269 -337.65243827648226 0 -337.65243827648226 81.53164198502509 0 0 0 0 154.90296537535323 -53.657477261729582 0 -53.657477261729582 8.6916523141389916 0 0 0 0 297.82531378765998 -184.89497254497292 0 -184.89497254497292 37.179797791324631 0 0 0 0 138.98949531422113 -209.29255581717143 0 -209.29255581717143 127.7248521321435 0 0 0 0 19.594329877364004 3.2524978395355788 0 3.2524978395355788 -9.93238224016077 0 0 0 0 786.20354314683937 -309.97320673748663 0 -309.97320673748663 -12.232456549093541 0 0 0 0 300.66083240949956 -189.03376679757321 0 -189.03376679757321 6.1424645324650555 0 0 0 0 1472.7001191198506 -49.113986968281552 0 -49.113986968281552 -57.55371280009841 0 0 0 0 380.84664248741319 -30.070851755069498 0 -30.070851755069498 -52.959864208825365 0 0 0 0 0.42939139128679926 -1.1835583408736454 0 -1.1835583408736454 2.8190429448138445 0 0 0 0 783.28705429083493 -506.96303803102307 0 -506.96303803102307 164.92192195124832 0 0 0 0 938.69406883465126 -634.04317869852969 0 -634.04317869852969 99.882242088657222 0 0 0 0 617.30666092588945 -537.91118421912029 0 -537.91118421912029 65.75839015837073 0 0 0 0 709.99632413811923 -519.30624612785573 0 -519.30624612785573 69.392756734281647 0 0 0 0 690.30240654453155 -560.17011684585395 0 -560.17011684585395 10.450222257908081 0 0 0 0 736.68168217247876 -590.67891265004653 0 -590.67891265004653 140.72926763726906 0 0 0 0 444.67779767757747 -435.59636617088228 0 -435.59636617088228 95.455358324242781 0 0 0 0 521.59764096717845 -388.16586128736981 0 -388.16586128736981 43.83850466539127 0 0 0 0 673.74428275808168 -293.52796498093545 0 -293.52796498093545 -183.32511840280085 0 0 0 0 731.80312988006335 -590.83620986201868 0 -590.83620986201868 32.311426243912251 0 0 0 0 -106.54509119841896 44.894863208683404 0 44.894863208683404 -929.10545594045652 0 0 0 0 254.3497201315331 -58.173494583053809 0 -58.173494583053809 -182.19664676704326 0 0 0 0 120.54398534126085 -98.150835147312648 0 -98.150835147312648 59.266171312326207 0 0 0 0 281.32323605617785 -400.09037589554447 0 -400.09037589554447 316.1278330319015 0 0 0 0 45.270275480870623 314.19684082803184 0 314.19684082803184 -1093.1245784664541 0 0 0 0 14.590839591724773 -1.0111744235822506 0 -1.0111744235822506 -1.3792045656222074 0 0 0 0 655.52662360621616 -654.45655244189118 0 -654.45655244189118 481.04019466807785 0 0 0 0 781.59079799399115 -458.8823701231313 0 -458.8823701231313 246.31625948096644 0 0 0 0 835.78513550305797 -541.0481242523399 0 -541.0481242523399 186.92772582802007 0 0 0 0 668.3281677617997 -1217.0367668989657 0 -1217.0367668989657 9.60551486448162 0 0 0 0 -207.26139587533544 -351.82540997078513 0 -351.82540997078513 540.7496973478269 0 0 0 0 -302.2983022075241 -1443.2546833463323 0 -1443.2546833463323 -35.019962154209452 0 0 0 0 -778.6590823927254 -450.29170696680103 0 -450.29170696680103 545.1663698636919 0 0 0 0 344.6520176521044 346.87849752149867 0 346.87849752149867 225.37146528981657 0 0 0 0 124.03280132202053 2.3077930636109443 0 2.3077930636109443 114.6662793324374 0 0 0 0 650.18976408785238 187.3420644992261 0 187.3420644992261 -90.285019634771459 0 0 0 0 453.17646043249988 254.68342212736201 0 254.68342212736201 162.01879473036547 0 0 0 0 102.32517274211568 69.355113928703702 0 69.355113928703702 100.80141502642135 0 0 0 0 343.32882676791633 77.223027893712299 0 77.223027893712299 -36.069592499239889 0 0 0 0 -118.63431084551848 -517.21575726651429 0 -517.21575726651429 -1628.6752562780721 0 0 0 0 36.443810390100055 -7.1521204151176079 0 -7.1521204151176079 -3.7466353584115719 0 0 0 0 320.11135172129434 -47.019115181417078 0 -47.019115181417078 -70.950404170297816 0 0 0 0 1080.2500902078609 -303.92979369525062 0 -303.92979369525062 -1878.8018076395554 0 0 0 0 -7.4517320510640275 122.11249101373485 0 122.11249101373485 -908.13722714165533 0 0 0 0 -42.276159504282987 163.63199161426985 0 163.63199161426985 -670.96059885350371 0 0 0 0 356.61350759223569 -151.14202115716341 0 -151.14202115716341 -1340.5262238056212 0 0 0 0 3.7472435402267159 -0.7064571456924682 0 -0.7064571456924682 -0.1055109105256623 0 0 0 0 31.948815094780002 -11.477074992506459 0 -11.477074992506459 -10.403969776384884 0 0 0 0 5.047930859216379 -7.8723359193254225 0 -7.8723359193254225 -7.1466415233775233 0 0 0 0 20.925837521469873 -9.4687278904875569 0 -9.4687278904875569 0.55235121349411243 0 0 0 0 25.583427952908096 -5.3944187564345611 0 -5.3944187564345611 -14.279031088836973 0 0 0 0 18.948548921500333 -16.791283182844609 0 -16.791283182844609 -11.704608932876909 0 0 0 0 -67.086164200882195 123.47909928583192 0 123.47909928583192 -98.740797602837574 0 0 0 0 19.378651167288126 -4.5746756066082312 0 -4.5746756066082312 -2.4711790770577986 0 0 0 0 87.775501036387141 -96.31706995882233 0 -96.31706995882233 -509.24387319494343 0 0 0 0 63.060436236977694 273.06486878361682 0 273.06486878361682 -793.98286989068538 0 0 0 0 189.96147019587079 39.873447832861928 0 39.873447832861928 392.74980882031099 0 0 0 0 164.88490296392411 58.391431267284347 0 58.391431267284347 422.5915212744564 0 0 0 0 -165.37845005189592 283.58513382259048 0 283.58513382259048 68.383878291413723 0 0 0 0 358.93941186780285 155.65511808037024 0 155.65511808037024 53.873024152776409 0 0 0 0 399.40957659962442 -194.80351022615676 0 -194.80351022615676 -374.12542120616536 0 0 0 0 1058.9652783091879 215.84468187955406 0 215.84468187955406 -141.25151914996047 0 0 0 0 828.72266695848884 -592.22522766937198 0 -592.22522766937198 -160.65185520725441 0 0 0 0 720.68939568892529 -657.56015364479856 0 -657.56015364479856 -31.111091385285931 0 0 0 0 2287.1166042278492 -479.77116343541616 0 -479.77116343541616 -11.896277854091409 0 0 0 0 682.90008282680355 49.221370536626637 0 49.221370536626637 336.25253448147356 0 0 0 0 578.06536572441109 -5.3729988412567309 0 -5.3729988412567309 1176.8483720368549 0 0 0 0 1070.9400231189065 -46.152120117800166 0 -46.152120117800166 117.5919794626829 0 0 0 0 16.255754168509725 -4.3599216767537925 0 -4.3599216767537925 0.85917603782618857 0 0 0 0 1721.3570799049048 827.29641270602042 0 827.29641270602042 391.28286736323673 0 0 0 0 2348.0325854852272 -829.18556611906718 0 -829.18556611906718 589.06497903959166 0 0 0 0 1365.081937590483 543.0546714094271 0 543.0546714094271 3.1923170762305642 0 0 0 0 746.98587978039723 33.158818954440363 0 33.158818954440363 -39.050289071331605 0 0 0 0 1292.4031565568198 -207.09447112385644 0 -207.09447112385644 59.514381073971094 0 0 0 0 581.50647985066462 -372.96949718228097 0 -372.96949718228097 749.59140454187514 0 0 0 0 398.69981812865808 -15.494019956203573 0 -15.494019956203573 189.12032262369672 0 0 0 0 240.5448807484936 -81.324563510640715 0 -81.324563510640715 313.5860627916058 0 0 0 0 393.58878113976971 -235.81508176527103 0 -235.81508176527103 256.11531120811003 0 0 0 0 271.4759015918753 -101.2430010615239 0 -101.2430010615239 146.22348246012183 0 0 0 0 173.22337129950756 -141.49794956585899 0 -141.49794956585899 175.08035151316193 0 0 0 0 105.82419107251189 -43.607698533763184 0 -43.607698533763184 121.69817696334081 0 0 0 0 53.494464103103383 -86.303019666964829 0 -86.303019666964829 115.37860750288461 0 0 0 0 50.274546477043259 80.447596197199942 0 80.447596197199942 24.630770444648761 0 0 0 0 75.886081570199167 -49.408020222025812 0 -49.408020222025812 204.84472884903352 0 0 0 0 251.75412671721824 -38.724404326314286 0 -38.724404326314286 126.46798662727468 0 0 0 0 159.73759972928292 163.95727248010067 0 163.95727248010067 3.0111727587710106 0 0 0 0 -45.291513628282701 10.401412583016153 0 10.401412583016153 -18.477632038017681 0 0 0 0 4.7840346239059954 4.7037534461076831 0 4.7037534461076831 3.5954843865860591 0 0 0 0 9.0815215851616813 194.45781027750661 0 194.45781027750661 -119.46473154052045 0 0 0 0 59.087063040366047 68.319987137169747 0 68.319987137169747 -85.671734632444895 0 0 0 0 9.0337070038913225 -2.1527486795454251 0 -2.1527486795454251 -47.213977331319711 0 0 0 0 -8.8447947778477101 49.521290283276471 0 49.521290283276471 -90.418289446177965 0 0 0 0 -38.15370777023054 39.599125216566165 0 39.599125216566165 -77.374865307666369 0 0 0 0 -96.091568935840769 137.03379003954944 0 137.03379003954944 -127.7165110291661 0 0 0 0 4.9815598166533448 5.1583183155460404 0 5.1583183155460404 4.4108496765731653 0 0 0 0 -49.188737786724232 94.874234477287473 0 94.874234477287473 -85.04699939049128 0 0 0 0 -53.735327028311985 29.251421664799146 0 29.251421664799146 -28.7259195961351 0 0 0 0 -131.17333310597314 173.6407381039071 0 173.6407381039071 -66.859571501506863 0 0 0 0 -31.177013217937201 1.2276173673239441 0 1.2276173673239441 -11.35969706243813 0 0 0 0 -7.5922527010116028 37.231722144157146 0 37.231722144157146 40.849286747485223 0 0 0 0 -139.44128908615676 110.20098667742565 0 110.20098667742565 -24.791232745008216 0 0 0 0 3.8987096863275781 4.2084001791174614 0 4.2084001791174614 3.9245489473819397 0 0 0 0 157.39978075692488 -22.701239939832249 0 -22.701239939832249 -52.154609554723265 0 0 0 0 -5.3411165167053696 41.904426862700575 0 41.904426862700575 -9.5405272585841203 0 0 0 0 -4.0514557160349796 75.052554659068619 0 75.052554659068619 -62.79446711067601 0 0 0 0 27.476841467199847 3.9637968828394605 0 3.9637968828394605 -25.565494641327291 0 0 0 0 70.351693117758259 4.7098246310293916 0 4.7098246310293916 -48.889580555658995 0 0 0 0 -13.026795638535987 154.52053342906504 0 154.52053342906504 -155.93963841452273 0 0 0 0 207.7499645788921 214.98667213365547 0 214.98667213365547 -200.23002610877256 0 0 0 0 183.75283377671076 111.26600886831596 0 111.26600886831596 -49.183942749489916 0 0 0 0 264.97381631469761 72.110966511383481 0 72.110966511383481 -41.437730450870447 0 0 0 0 277.54381484139594 130.36488245092505 0 130.36488245092505 -22.511525296358968 0 0 0 0 120.72737628263712 114.94014267534305 0 114.94014267534305 -38.973766977404068 0 0 0 0 124.45354108710126 89.229118532961436 0 89.229118532961436 132.12471352386387 0 0 0 0 -19.403482050533057 266.20406418423636 0 266.20406418423636 13.26591283331345 0 0 0 0 115.79395974670479 67.110949799404466 0 67.110949799404466 103.44540036399781 0 0 0 0 256.13943315528741 -49.829054033242187 0 -49.829054033242187 51.934564913024246 0 0 0 0 132.79680359372287 -4.3838123160415989 0 -4.3838123160415989 146.16150875855209 0 0 0 0 121.41107177153026 39.359025146178112 0 39.359025146178112 28.968373227816528 0 0 0 0 103.49082950162119 38.775402208506307 0 38.775402208506307 43.230041119940665 0 0 0 0 141.55189921997953 -32.030434676916911 0 -32.030434676916911 23.744984627789655 0 0 0 0 101.34241399927123 -11.203349621883291 0 -11.203349621883291 24.915644013572717 0 0 0 0 179.06227785166993 -33.657833498923992 0 -33.657833498923992 13.223676084479052 0 0 0 0 236.16698867085142 18.638713228351122 0 18.638713228351122 31.977122052985692 0 0 0 0 165.37597740290221 -5.4739534575252264 0 -5.4739534575252264 30.333711526972593 0 0 0 0 27.430479698246927 42.080016563436629 0 42.080016563436629 -61.660615907748138 0 0 0 0 108.80134254002769 25.635210333446366 0 25.635210333446366 -41.597271795388167 0 0 0 0 20.385647428236553 27.366159603319716 0 27.366159603319716 0.21137872108147349 0 0 0 0 101.87613980290189 -5.4010220767860631 0 -5.4010220767860631 -18.125147302598521 0 0 0 0 61.201237044675509 -25.039153787786233 0 -25.039153787786233 -12.961432851684776 0 0 0 0 27.522383416129742 12.231284561400457 0 12.231284561400457 -38.917331987013867 0 0 0 0 50.68277308618417 -32.56706414559433 0 -32.56706414559433 -24.94113987401272 0 0 0 0 44.241938581399154 -42.368435772215747 0 -42.368435772215747 -39.84990565780015 0 0 0 0 36.705805140125449 -40.983469920185158 0 -40.983469920185158 -34.661799898583325 0 0 0 0 91.620385116999387 -34.669770206064285 0 -34.669770206064285 -9.6990186681344284 0 0 0 0 52.315783686728537 -40.462644093916253 0 -40.462644093916253 13.231273501825285 0 0 0 0 35.40041869219931 -67.912080742616567 0 -67.912080742616567 -6.174679840120362 0 0 0 0 28.812700522910745 -34.239365517034045 0 -34.239365517034045 13.977933166549604 0 0 0 0 31.8221106097335 -43.304257356085969 0 -43.304257356085969 4.4302472967036977 0 0 0 0 38.050972446355445 -131.53803233766899 0 -131.53803233766899 -29.54952155372996 0 0 0 0 -36.162968537944835 -88.507989652057176 0 -88.507989652057176 3.25012860019811 0 0 0 0 106.09987729290151 -84.119853989182729 0 -84.119853989182729 -54.362556631351168 0 0 0 0 46.674937938209041 -121.62629063874439 0 -121.62629063874439 -77.472614421685819 0 0 0 0 41.226350901291426 -65.12263191412967 0 -65.12263191412967 -56.586133323943216 0 0 0 0 41.145387327531353 -64.511342461796119 0 -64.511342461796119 -4.4920954401034585 0 0 0 0 163.18574594393431 -83.841681374140251 0 -83.841681374140251 26.268887647765752 0 0 0 0 39.349536050460301 -13.861613523087499 0 -13.861613523087499 26.676320790436655 0 0 0 0 152.36815938077052 -5.5569736722501659 0 -5.5569736722501659 -12.313011982456089 0 0 0 0 200.51892668077198 -33.255167798348623 0 -33.255167798348623 -10.973626680483914 0 0 0 0 96.207053928617825 24.606453907017645 0 24.606453907017645 16.253662129601199 0 0 0 0 32.37763786954747 -3.5575905954112841 0 -3.5575905954112841 18.383351002740806 0 0 0 0 0.84926248645791702 0.7029128932759221 0 0.7029128932759221 0.63470972553015892 0 0 0 0 134.99511740230082 78.815913348276297 0 78.815913348276297 -8.6510581281181089 0 0 0 0 32.711893692801823 -1.0124446658107615 0 -1.0124446658107615 101.84396787035658 0 0 0 0 107.01391038067231 31.005370169753963 0 31.005370169753963 -89.940315950408007 0 0 0 0 -90.367828868736979 99.33585160299117 0 99.33585160299117 3.1005341547404939 0 0 0 0 226.16750747142214 -139.06676463212489 0 -139.06676463212489 57.959690746586467 0 0 0 0 120.05398205631354 -21.506429182718854 0 -21.506429182718854 1.6787993068341436 0 0 0 0 48.266136176902364 31.244394623706096 0 31.244394623706096 -40.921056791779748 0 0 0 0 51.576736323564546 -15.564968615303314 0 -15.564968615303314 16.570112229042067 0 0 0 0 94.548411849566037 -13.231387349303162 0 -13.231387349303162 -12.460931577404494 0 0 0 0 68.13449223763746 -18.32819335241372 0 -18.32819335241372 -33.881475025910376 0 0 0 0 -802.56060143982177 -274.47135997995031 0 -274.47135997995031 8.2529730892686644 0 0 0 0 -40.176980874472065 -170.4096354576742 0 -170.4096354576742 22.039140972143969 0 0 0 0 384.51148354366887 -174.95997287029644 0 -174.95997287029644 -246.68158870073523 0 0 0 0 56.232946886040736 -242.11611116881969 0 -242.11611116881969 -179.44575941989649 0 0 0 0 216.27827495476231 -131.36764547492234 0 -131.36764547492234 -108.70935805354301 0 0 0 0 -21.60305428718857 -177.1335859995099 0 -177.1335859995099 -32.573145323935705 0 0 0 0 -123.57497795022209 -58.748992845958128 0 -58.748992845958128 27.21702826893852 0 0 0 0 13.723832629664685 -43.970523489235973 0 -43.970523489235973 23.215957208859948 0 0 0 0 4.7061609341855046 0.47065347239824007 0 0.47065347239824007 3.6334869889390076 0 0 0 0 112.8860954469128 -86.984213604202296 0 -86.984213604202296 36.168009402321289 0 0 0 0 25.662739691557363 -17.133395672185316 0 -17.133395672185316 29.699612046458014 0 0 0 0 3.9075950073728904 -1.6597256717655853 0 -1.6597256717655853 0.93455206538716062 0 0 0 0 95.650879836350214 -36.776237843411792 0 -36.776237843411792 0.27489916344705989 0 0 0 0 77.281269356564735 -45.03904393373918 0 -45.03904393373918 43.820030712316878 0 0 0 0 21.479530155277189 4.9992437177913303 0 4.9992437177913303 -6.7826884427449885 0 0 0 0 3423.4442582212796 2877.2347917331135 0 2877.2347917331135 3018.419781333323 0 0 0 0 45.144265367853222 -31.762287141278648 0 -31.762287141278648 20.280616027726403 0 0 0 0 -0.72866280587695087 -4.903415863063401 0 -4.903415863063401 9.7980173180898369 0 0 0 0 571.32603671547258 -232.95080133852639 0 -232.95080133852639 -242.4639344855641 0 0 0 0 87.400651724776253 -498.68563204629055 0 -498.68563204629055 -339.74152125305773 0 0 0 0 367.74746670978493 -149.68315222262356 0 -149.68315222262356 -205.28901360861687 0 0 0 0 585.13291897033923 -153.28764155054091 0 -153.28764155054091 -317.52774199262058 0 0 0 0 800.17136138968635 35.199060533770648 0 35.199060533770648 -165.87891840280327 0 0 0 0 366.61083275498822 155.09239792149606 0 155.09239792149606 -34.725460150573667 0 0 0 0 829.46624901350697 390.1494370320126 0 390.1494370320126 51.029128858177501 0 0 0 0 380.92095617760788 360.94160426817461 0 360.94160426817461 316.54031247386638 0 0 0 0 135.57274631908513 192.33453566396975 0 192.33453566396975 240.78770454667347 0 0 0 0 547.24067710561212 306.70329108867895 0 306.70329108867895 83.011050208950451 0 0 0 0 221.9220587141026 106.15178081164848 0 106.15178081164848 -22.496385313280484 0 0 0 0 304.25151391196414 187.32046075905953 0 187.32046075905953 57.382843999816799 0 0 0 0 481.30050932656741 50.908797743969103 0 50.908797743969103 -172.20710115277654 0 0 0 0 630.85149376798654 165.62278857896632 0 165.62278857896632 -84.25697753772738 0 0 0 0 300.37769904365996 -8.4704452573034246 0 -8.4704452573034246 -149.89878099105613 0 0 0 0 314.162382033217 7.5863749331927011 0 7.5863749331927011 -133.02615541201658 0 0 0 0 254.02683674040964 103.90575922351846 0 103.90575922351846 -23.987031404258005 0 0 0 0 212.4885728052468 -4.9253243280569663 0 -4.9253243280569663 -85.821767739335669 0 0 0 0 128.13364221858501 33.263206360899837 0 33.263206360899837 -63.573573759291179 0 0 0 0 172.05257402957068 -42.528931436737622 0 -42.528931436737622 -118.80666470075157 0 0 0 0 73.052241043362301 98.470280830801158 0 98.470280830801158 30.538159848902296 0 0 0 0 142.19265203115356 118.20703363713568 0 118.20703363713568 2.2776726016286304 0 0 0 0 165.9565399344574 188.25562754921242 0 188.25562754921242 117.24942963669503 0 0 0 0 96.945489941514097 125.06128320539756 0 125.06128320539756 124.42104468620965 0 0 0 0 17.441570264374604 91.334751477450254 0 91.334751477450254 189.17597270206215 0 0 0 0 68.27819339070993 76.06139703142162 0 76.06139703142162 62.756699231006451 0 0 0 0 36.003262719244958 42.58582112929696 0 42.58582112929696 30.001125415429215 0 0 0 0 84.32304136127641 50.484986129911334 0 50.484986129911334 -9.5608222170988029 0 0 0 0 122.67030383333622 73.20975944858094 0 73.20975944858094 -3.2978580176211949 0 0 0 0 153.59623823857692 26.970177878438108 0 26.970177878438108 -37.032328487896983 0 0 0 0 127.32106458086491 98.557250164652487 0 98.557250164652487 -24.094422060213219 0 0 0 0 283.29508174344664 150.30877359931495 0 150.30877359931495 -69.125547428211576 0 0 0 0 67.070656428317307 118.56101928111853 0 118.56101928111853 35.600544216017241 0 0 0 0 111.91928324435139 133.14207473443875 0 133.14207473443875 17.728293282799939 0 0 0 0 3.889396079321159 153.35058972784802 0 153.35058972784802 16.217953905216547 0 0 0 0 155.37464277249819 201.60888923636665 0 201.60888923636665 -50.017238285281451 0 0 0 0 2.0706764949924832 2.0216530886904138 0 2.0216530886904138 1.5092112349346394 0 0 0 0 480.10510318415618 85.743230028392944 0 85.743230028392944 -154.2372703911447 0 0 0 0 -138.58279563649558 224.07847273144563 0 224.07847273144563 -50.865401635039873 0 0 0 0 -13.714488949197403 27.184040373614593 0 27.184040373614593 -97.613992814272251 0 0 0 0 11.509073064225959 80.419030661022333 0 80.419030661022333 -153.55229652630467 0 0 0 0 -5.8459135867888108 0.64084954220049895 0 0.64084954220049895 -71.703481795664828 0 0 0 0 44.568826984526822 6.3389129036696943 0 6.3389129036696943 -86.674474136142067 0 0 0 0 78.545415746237268 -19.5569237551363 0 -19.5569237551363 -71.219116894679644 0 0 0 0 87.543984686653857 -19.964641427617842 0 -19.964641427617842 -78.969295593637739 0 0 0 0 43.591941327831591 77.305833376347138 0 77.305833376347138 -57.146524365578621 0 0 0 0 47.976979831131757 55.321313912376617 0 55.321313912376617 -39.181757476289121 0 0 0 0 4808.9169433347852 344.66285342336363 0 344.66285342336363 -378.84016247364372 0 0 0 0 4552.9917530207604 -211.30901839306517 0 -211.30901839306517 715.85649333368156 0 0 0 0 4498.2550166830988 349.20355302823879 0 349.20355302823879 1359.3347197460914 0 0 0 0 2323.7290800109768 1594.3024266133261 0 1594.3024266133261 56.951408814566847 0 0 0 0 27.951783768133396 5.7038561946457236 0 5.7038561946457236 1.8042146809325343 0 0 0 0 52.584376633370994 1319.5785344821429 0 1319.5785344821429 257.75299311253787 0 0 0 0 402.39791365923884 -606.04381622531992 0 -606.04381622531992 -425.79023227741914 0 0 0 0 864.41432267989876 -310.7508542443303 0 -310.7508542443303 267.04515527319495 0 0 0 0 745.0779507480911 95.118934341418822 0 95.118934341418822 547.44126177527392 0 0 0 0 2478.2369870017792 -341.90196942825111 0 -341.90196942825111 21.928064468793693 0 0 0 0 3275.0855833435053 873.17285499788886 0 873.17285499788886 -68.905156350599896 0 0 0 0 1861.3051179714967 258.07957999380216 0 258.07957999380216 241.82086858262068 0 0 0 0 769.10365582165832 -270.73783297346097 0 -270.73783297346097 291.55293114915116 0 0 0 0 1466.2738044973485 -43.957633427540316 0 -43.957633427540316 189.05379453500234 0 0 0 0 1559.8941424944787 -241.71170150822422 0 -241.71170150822422 202.21540777219784 0 0 0 0 4193.7009361196833 -275.05206342758402 0 -275.05206342758402 -375.06913966590429 0 0 0 0 4185.4190729888651 1250.3334888655245 0 1250.3334888655245 493.3111378316504 0 0 0 0 4429.72253420169 544.66179392856122 0 544.66179392856122 -234.79323418488207 0 0 0 0 4501.1512201423902 380.03136767502269 0 380.03136767502269 18.830705027755368 0 0 0 0 4423.0340874185404 493.56894649723938 0 493.56894649723938 190.81520451058807 0 0 0 0 4499.2317923710361 337.47235112377933 0 337.47235112377933 327.69765442293709 0 0 0 0 3837.3978684542526 74.820015511635589 0 74.820015511635589 334.3343031868892 0 0 0 0 3903.5564554013126 488.135402460622 0 488.135402460622 1390.4486184106725 0 0 0 0 3276.3083562789689 -178.46955678468589 0 -178.46955678468589 881.68159262835889 0 0 0 0 4108.2798348651413 -379.58619637897812 0 -379.58619637897812 42.02670982613747 0 0 0 0 4499.7971997725399 -25.057980120755524 0 -25.057980120755524 337.63481594438781 0 0 0 0 2172.17444194376 -747.83635769553553 0 -747.83635769553553 -25.819551677370299 0 0 0 0 -358.75915937690297 55.834224687079839 0 55.834224687079839 0.26698451571221654 0 0 0 0 2781.6787724877504 -207.02338225868621 0 -207.02338225868621 440.58273360736223 0 0 0 0 -1127.5923317580018 -77.67930256975373 0 -77.67930256975373 456.83680242811636 0 0 0 0 13.299799156817528 -1.0634584627140384 0 -1.0634584627140384 -0.30929121949725702 0 0 0 0 4493.2580114520824 -1295.4249816016425 0 -1295.4249816016425 -561.952074091545 0 0 0 0 4306.0172644951381 516.00730532029957 0 516.00730532029957 -30.399720086448454 0 0 0 0 2225.0561726564047 -2130.3175795579205 0 -2130.3175795579205 -37.851597669499924 0 0 0 0 2033.4662635006534 413.24458522201616 0 413.24458522201616 436.81527370942007 0 0 0 0 3756.0491050380006 770.38575793934785 0 770.38575793934785 -1.239965125849849 0 0 0 0 3691.4542184120974 262.02282592675419 0 262.02282592675419 56.807421566702885 0 0 0 0 12.268839143468256 2.119610419607028 0 2.119610419607028 -0.46104942637140817 0 0 0 0 2126.9610053089418 1918.3878750653473 0 1918.3878750653473 -553.86789753700191 0 0 0 0 3224.3055891966214 171.82123554586002 0 171.82123554586002 -353.06174861749724 0 0 0 0 3594.6018045631645 1451.0421282438917 0 1451.0421282438917 -468.25993818507482 0 0 0 0 3035.1704492514546 1211.8205512431341 0 1211.8205512431341 -38.371331613440532 0 0 0 0 2685.6627548189708 1516.6218779887895 0 1516.6218779887895 -291.69190855422363 0 0 0 0 2110.7359313221677 642.85682906853708 0 642.85682906853708 -1.6240537676038116 0 0 0 0 4142.7713119451364 965.9689779601722 0 965.9689779601722 -140.27714282559552 0 0 0 0 1406.0378043647506 -1014.3750939915224 0 -1014.3750939915224 70.845481641099241 0 0 0 0 26.146542065286496 0.56019470692157824 0 0.56019470692157824 0.63900408888233851 0 0 0 0 1858.0920570897142 1903.3977717221771 0 1903.3977717221771 1313.891637198848 0 0 0 0 60.29061491956179 -2.9657982538020349 0 -2.9657982538020349 -1.6457591464510293 0 0 0 0 415.36333275050856 12.892729989883037 0 12.892729989883037 -154.08003158895076 0 0 0 0 43.503415706800297 208.84375885535519 0 208.84375885535519 -459.15280583994536 0 0 0 0 51.155845877656247 426.16715773279941 0 426.16715773279941 -305.24557307861369 0 0 0 0 116.94314444833435 -21.098229105095911 0 -21.098229105095911 2.4906387821174576 0 0 0 0 116.54032521229237 -36.162564963435671 0 -36.162564963435671 22.132892946927313 0 0 0 0 48.16203445775318 -20.557536332064501 0 -20.557536332064501 21.306743266766716 0 0 0 0 104.46376207115827 -24.029526582958624 0 -24.029526582958624 -1.4746451911996701 0 0 0 0 108.7179906257079 -19.222161517031054 0 -19.222161517031054 -0.60319607939572961 0 0 0 0 17.305295673330448 -0.21570355742736069 0 -0.21570355742736069 -1.5444880502257696 0 0 0 0 -120.80619814785314 105.44676475433198 0 105.44676475433198 -221.96938413016352 0 0 0 0 16.784423530446873 -19.032936301624716 0 -19.032936301624716 6.9814323495364183 0 0 0 0 168.10492646955254 -31.801240518831811 0 -31.801240518831811 12.756794492139761 0 0 0 0 168.13228207683289 -27.289099665029163 0 -27.289099665029163 1.5688561540835622 0 0 0 0 32.184335500925954 -17.98449170416626 0 -17.98449170416626 2.466522429224824 0 0 0 0 193.06667367172486 170.37883780588263 0 170.37883780588263 130.91618766764492 0 0 0 0 17.48227329967591 -1.8098256638383248 0 -1.8098256638383248 -2.7073454000784531 0 0 0 0 2.3365292579314882 -7.0294258494608357 0 -7.0294258494608357 -0.4117694483451263 0 0 0 0 490.88109558218275 -184.7337429596796 0 -184.7337429596796 155.32127779576467 0 0 0 0 208.56350190668309 96.924150105856484 0 96.924150105856484 469.26035355283136 0 0 0 0 2231.8109275539609 463.65292694846698 0 463.65292694846698 -208.45526969766064 0 0 0 0 107.60906105632603 -32.473282072976104 0 -32.473282072976104 18.39506371798695 0 0 0 0 7.141745702575804 -9.7720061284793189 0 -9.7720061284793189 4.944540253217105 0 0 0 0 92.735390262780129 1.7053916424834838 0 1.7053916424834838 10.878556002000998 0 0 0 0 67.054199739126489 -30.584343151613318 0 -30.584343151613318 0.10862470722341586 0 0 0 0 115.1331492278623 -30.638503614435137 0 -30.638503614435137 -2.5333357849993448 0 0 0 0 72.951304612273816 -32.506227147893483 0 -32.506227147893483 -0.26038989775369892 0 0 0 0 2.3924951421712706 -0.54072625741983416 0 -0.54072625741983416 -0.01131117742404876 0 0 0 0 16.13333037996199 -10.143595438597881 0 -10.143595438597881 -6.1202405231199251 0 0 0 0 0.25519945421976331 1.7672179158796837 0 1.7672179158796837 0.81581693779515252 0 0 0 0 1715.3635215643371 717.14033540936407 0 717.14033540936407 304.95992670216867 0 0 0 0 71.497763929830398 0.071771152336122412 0 0.071771152336122412 -5.3467332712664977 0 0 0 0 65.249621153139742 -1.2217260225713051 0 -1.2217260225713051 -0.016434466187689994 0 0 0 0 52.247900323112844 -7.4000239659592895 0 -7.4000239659592895 0.55194288333609465 0 0 0 0 8.6530489100268255 -0.69159527260882214 0 -0.69159527260882214 -0.33614492633357973 0 0 0 0 57.904505506565329 -6.6535172044850759 0 -6.6535172044850759 0.058750847813560547 0 0 0 0 10.659079792322615 5.861605810455444 0 5.861605810455444 -4.820861535146709 0 0 0 0 73.87350093034911 -15.168408335835881 0 -15.168408335835881 -4.7846191551213542 0 0 0 0 31.381837471413746 -12.986617511606568 0 -12.986617511606568 7.7372060683901509 0 0 0 0 41.007354603847489 -15.245297604999735 0 -15.245297604999735 -0.14277592558505603 0 0 0 0 57.738308346510166 -7.79850857354025 0 -7.79850857354025 6.9664807847640358 0 0 0 0 25.313428392637917 2.0117838873534879 0 2.0117838873534879 -2.7892427301465288 0 0 0 0 71.692120595296728 6.6878629464653629 0 6.6878629464653629 -0.30398804005879576 0 0 0 0 126.27097946920549 -1.1961764122790495 0 -1.1961764122790495 -12.556168089170033 0 0 0 0 75.994140008260729 -51.259605132617835 0 -51.259605132617835 12.190864604566016 0 0 0 0 66.114915361802559 41.793845016392204 0 41.793845016392204 32.908224851707217 0 0 0 0 79.939371910535556 0.75500416596935693 0 0.75500416596935693 -8.7681277147130299 0 0 0 0 17.943062633751936 -13.670253723395277 0 -13.670253723395277 -8.4599571751968003 0 0 0 0 182.41667212487664 24.18433636231395 0 24.18433636231395 -19.872800568700185 0 0 0 0 82.275233806526956 3.1255329553133322 0 3.1255329553133322 -8.466332404300303 0 0 0 0 10.212884815157508 -16.627698637858828 0 -16.627698637858828 1.199926625570928 0 0 0 0 42.282991449537803 -99.250167372602391 0 -99.250167372602391 -45.281978376875259 0 0 0 0 -7.9565788427644293 -42.130948084644501 0 -42.130948084644501 118.06860057261929 0 0 0 0 29.208140482451256 -9.5505941537893655 0 -9.5505941537893655 0.5505386215935828 0 0 0 0 33.617216578044463 -15.238565300327082 0 -15.238565300327082 7.7040420945832011 0 0 0 0 40.182258864879259 -14.405139686264391 0 -14.405139686264391 -1.2104511509559188 0 0 0 0 78.399084379954729 -17.452927441238899 0 -17.452927441238899 -3.392089738818413 0 0 0 0 37.751208054425661 -17.547441498656212 0 -17.547441498656212 -3.0329017296120924 0 0 0 0 36.859142208599053 -13.879995179772454 0 -13.879995179772454 0.77867989712467223 0 0 0 0 44.891027734527597 -21.377111741348926 0 -21.377111741348926 -2.6241728463799063 0 0 0 0 17.254773216300237 -0.29668080967439892 0 -0.29668080967439892 4.6220279982371721 0 0 0 0 3.7086366088372245 -1.4759798373309536 0 -1.4759798373309536 0.061289244589470826 0 0 0 0 213.85121271919343 34.878967853948893 0 34.878967853948893 13.729702401813483 0 0 0 0 0.21986113752922165 -2.6465504308247958 0 -2.6465504308247958 2.5725163270603364 0 0 0 0 -6.9226170473411912 21.726419536817957 0 21.726419536817957 -29.017190796128716 0 0 0 0 37.142710572836222 -8.7155733970348592 0 -8.7155733970348592 -9.0046830827459416 0 0 0 0 57.726999789330876 -8.7885864905757813 0 -8.7885864905757813 -84.915374155163136 0 0 0 0 53.47274662595737 -35.667788868192957 0 -35.667788868192957 -8.6018103354999766 0 0 0 0 50.397214014199562 -69.296975735233218 0 -69.296975735233218 -0.052330513064589468 0 0 0 0 48.092568264219153 -63.038111040827289 0 -63.038111040827289 -3.6304737582886446 0 0 0 0 76.083122126583476 -82.342657432342548 0 -82.342657432342548 -55.971112987749166 0 0 0 0 90.929527871005121 -39.546459966999691 0 -39.546459966999691 -2.8190688293288986 0 0 0 0 72.277976092562312 -35.730317887730052 0 -35.730317887730052 -19.569092419721301 0 0 0 0 72.274514859513147 -46.916355180388564 0 -46.916355180388564 -0.14398139881086536 0 0 0 0 82.957062648599276 -36.095221791588017 0 -36.095221791588017 -6.5446066626063839 0 0 0 0 64.69658754116972 -31.489853989662151 0 -31.489853989662151 6.0284943748215483 0 0 0 0 82.686765771979481 -39.784052930687238 0 -39.784052930687238 14.608814906892803 0 0 0 0 67.677385802671779 -26.439965217523877 0 -26.439965217523877 -20.694072512599178 0 0 0 0 34.862958183221053 -10.393555949280085 0 -10.393555949280085 -0.15345026891100133 0 0 0 0 61.369275924138492 -29.18080646571434 0 -29.18080646571434 -0.18219325310008117 0 0 0 0 87.124309646183974 -22.507640420606094 0 -22.507640420606094 10.154504578997148 0 0 0 0 86.073893596185371 -27.435992354328846 0 -27.435992354328846 -4.6428348136269051 0 0 0 0 83.135954838100588 -16.721628621360651 0 -16.721628621360651 0.25751163122367871 0 0 0 0 88.042082967760507 -26.660204545086344 0 -26.660204545086344 1.9448099449909932 0 0 0 0 105.30075014889007 -23.957338224628074 0 -23.957338224628074 -2.910035550219618 0 0 0 0 18.00292887891959 -5.5842016689296941 0 -5.5842016689296941 4.7583362975537984 0 0 0 0 100.37481392297195 -17.061250024551555 0 -17.061250024551555 2.8592011039072531 0 0 0 0 112.88886547777656 -12.842267541149567 0 -12.842267541149567 4.7166652926352981 0 0 0 0 -121.73827963627991 91.547059026388069 0 91.547059026388069 -128.57062947692702 0 0 0 0 98.829222337109968 -21.7150165356461 0 -21.7150165356461 0.661197669755893 0 0 0 0 94.718761365395039 -22.174651341976642 0 -22.174651341976642 7.6926649656916197 0 0 0 0 100.96630585487583 -14.556218744452963 0 -14.556218744452963 12.315363473939215 0 0 0 0 111.75881349807605 -18.330125465069614 0 -18.330125465069614 -2.0512828875471314 0 0 0 0 -124.90415933905751 5.7381447073581739 0 5.7381447073581739 57.890724156741271 0 0 0 0 -154.28330076493148 85.342331071822798 0 85.342331071822798 35.765130253892494 0 0 0 0 -167.11183030187385 213.34930309840752 0 213.34930309840752 -199.30951716009622 0 0 0 0 -189.85736793349497 99.037510930239932 0 99.037510930239932 32.218801451661875 0 0 0 0 -211.0546211793262 -251.66343770496178 0 -251.66343770496178 265.79864368874769 0 0 0 0 -635.09027648917981 230.3821096217705 0 230.3821096217705 32.915288380393122 0 0 0 0 -420.47435589757515 74.642364692876072 0 74.642364692876072 143.17124226197166 0 0 0 0 -286.71306803320476 329.35374046517541 0 329.35374046517541 14.2651867065033 0 0 0 0 0.94999346418521213 -0.55495295247609988 0 -0.55495295247609988 0.31324960784474376 0 0 0 0 -683.35245066418429 279.57377657270115 0 279.57377657270115 93.039238036601489 0 0 0 0 -913.12990656751208 46.637849286748747 0 46.637849286748747 82.618611874502051 0 0 0 0 -3.741613994595312 2.8214399965971495 0 2.8214399965971495 -0.36300062005222022 0 0 0 0 86.301064971426968 -32.867726767936801 0 -32.867726767936801 27.737370866178935 0 0 0 0 94.647221056860872 -19.519634766588752 0 -19.519634766588752 10.405856293955367 0 0 0 0 101.10925479963771 -12.014428542525366 0 -12.014428542525366 23.596131783577221 0 0 0 0 -224.35073540844314 341.14166286096707 0 341.14166286096707 332.19686664892811 0 0 0 0 -138.46699996085954 308.1457822546887 0 308.1457822546887 88.97092436160051 0 0 0 0 -164.88556231398252 167.94590968341868 0 167.94590968341868 116.11681969195538 0 0 0 0 30.324376999109518 264.21636864025197 0 264.21636864025197 83.954756379783021 0 0 0 0 294.52918833438889 -307.05508353498612 0 -307.05508353498612 565.90769925983557 0 0 0 0 -170.11895457777428 -3.8946520769563335 0 -3.8946520769563335 444.95708750495572 0 0 0 0 175.55465590560925 -287.18715889848033 0 -287.18715889848033 233.55191808647842 0 0 0 0 -88.407547419759794 -16.172742690765403 0 -16.172742690765403 253.29306059656165 0 0 0 0 416.20963253582886 10.91261156669276 0 10.91261156669276 428.27175452836588 0 0 0 0 -239.86741503545636 151.19094402539406 0 151.19094402539406 -92.603693095197514 0 0 0 0 -6.494652822158514 -6.4128652132968966 0 -6.4128652132968966 6.945133843769856 0 0 0 0 91.939463012400665 -48.913967430901948 0 -48.913967430901948 3.647935651372336 0 0 0 0 -284.13371262262808 -175.73872692958321 0 -175.73872692958321 161.11397557379399 0 0 0 0 -171.89400084799786 179.7292085319414 0 179.7292085319414 -176.7176137338223 0 0 0 0 -458.29379395947035 101.14935981638746 0 101.14935981638746 216.28048289864773 0 0 0 0 -36.991711747577938 -221.09543716559475 0 -221.09543716559475 213.48468190616722 0 0 0 0 -162.49992493489117 -42.945023988295247 0 -42.945023988295247 94.990473844788653 0 0 0 0 -43.091812646220205 -209.09036816643538 0 -209.09036816643538 280.51577930797896 0 0 0 0 330.2853560296644 -396.29789025707839 0 -396.29789025707839 397.0279294031285 0 0 0 0 -53.090915038512321 -290.82565230224515 0 -290.82565230224515 366.09575367924299 0 0 0 0 178.8026166712807 -194.44896001120742 0 -194.44896001120742 244.26359186015065 0 0 0 0 116.99606203781514 -407.53670170104556 0 -407.53670170104556 110.32978918934009 0 0 0 0 286.50437598780263 24.130382165535138 0 24.130382165535138 77.551471644717139 0 0 0 0 87.533408749543014 -181.64699132993667 0 -181.64699132993667 -182.35919260555147 0 0 0 0 68.30016173288459 -142.22456696330164 0 -142.22456696330164 111.18030021687844 0 0 0 0 19.325611825639498 -30.739260546804417 0 -30.739260546804417 39.701991865650143 0 0 0 0 52.331666193465935 -98.939516351108523 0 -98.939516351108523 24.500011329183849 0 0 0 0 34.599586724260007 -73.541696606843004 0 -73.541696606843004 57.005942984744252 0 0 0 0 -7.5687836013516119 -8.2670007159064767 0 -8.2670007159064767 4.0865761948924435 0 0 0 0 32.924265738591203 -64.937527727800102 0 -64.937527727800102 27.685768404029204 0 0 0 0 57.808065560398973 -53.352219987195213 0 -53.352219987195213 32.650433744300244 0 0 0 0 -36.748312941461336 -187.21560962611215 0 -187.21560962611215 96.464470227327411 0 0 0 0 85.541595871989557 -200.76820324467042 0 -200.76820324467042 203.43138488469526 0 0 0 0 230.33193363976898 -231.21590313019306 0 -231.21590313019306 -31.782106558435544 0 0 0 0 52.459451188507956 -104.87948882449564 0 -104.87948882449564 -12.488250241578891 0 0 0 0 31.357879439296084 -55.337875139658649 0 -55.337875139658649 86.936914168708427 0 0 0 0 16.378770522511331 -12.004101975156345 0 -12.004101975156345 263.66706411010733 0 0 0 0 50.455206396683934 -331.74444318444284 0 -331.74444318444284 300.95703043667527 0 0 0 0 802.28021029676893 308.3504553030657 0 308.3504553030657 216.12603160455978 0 0 0 0 -493.83530717658141 398.80518926458274 0 398.80518926458274 281.72081943321928 0 0 0 0 308.59255841513368 -271.84103567631729 0 -271.84103567631729 -518.81260493741922 0 0 0 0 259.42073935302324 -20.794780403183154 0 -20.794780403183154 141.22303011249068 0 0 0 0 13.367654254844751 2.2389923792307229 0 2.2389923792307229 -7.4450552427261307 0 0 0 0 -16.102093303634319 223.18391054825338 0 223.18391054825338 -257.84910558942966 0 0 0 0 -178.80623130321328 176.15268126604724 0 176.15268126604724 -110.63573128638222 0 0 0 0 40.939037450922456 8.7033911964441018 0 8.7033911964441018 -4.5440281518424079 0 0 0 0 40.045797564220265 1.5749415097589399 0 1.5749415097589399 10.030244049325692 0 0 0 0 -34.424725365468476 67.32449107341256 0 67.32449107341256 -53.790319119595097 0 0 0 0 58.833395644367556 146.7064791813126 0 146.7064791813126 -201.35423475427956 0 0 0 0 145.37939773767721 -13.21985512326421 0 -13.21985512326421 -100.50704620817987 0 0 0 0 129.1900638100924 -42.652169449315124 0 -42.652169449315124 -152.95931655466211 0 0 0 0 144.81011644449609 -90.845524430881881 0 -90.845524430881881 -57.94612277385113 0 0 0 0 84.139896960026817 -101.79425755879697 0 -101.79425755879697 -12.458629180325108 0 0 0 0 177.01055816825829 -80.718132201401886 0 -80.718132201401886 -90.631838046102757 0 0 0 0 0.4574425224201093 0.18418235745275524 0 0.18418235745275524 -0.57736930555176791 0 0 0 0 203.69142941867176 -161.52732466163786 0 -161.52732466163786 9.0153766124544745 0 0 0 0 241.44724148482783 -27.468144409022898 0 -27.468144409022898 -61.520818793419039 0 0 0 0 -12.479937756725121 -36.181657373034795 0 -36.181657373034795 2.2550787761060747 0 0 0 0 146.617023009072 -125.22109933223658 0 -125.22109933223658 -88.516631589264762 0 0 0 0 38.312140594749508 79.160527170984579 0 79.160527170984579 -153.9595273217019 0 0 0 0 40.606529945437728 8.6161159738203565 0 8.6161159738203565 -3.9923619200972462 0 0 0 0 34.82711410471893 27.648723954253331 0 27.648723954253331 -19.183143908041806 0 0 0 0 241.7608056701647 128.73010242528005 0 128.73010242528005 -61.87975358555741 0 0 0 0 46.693432771478513 1.1917507682178865 0 1.1917507682178865 -4.1225881429719022 0 0 0 0 53.916536273871316 -7.1060220434197348 0 -7.1060220434197348 -34.462166188574308 0 0 0 0 38.539468887632552 6.7195889593278864 0 6.7195889593278864 -0.72446745075516883 0 0 0 0 51.365740242225002 15.497041875571306 0 15.497041875571306 0.41526255961946035 0 0 0 0 39.872831316359225 1.2626944918488801 0 1.2626944918488801 2.5801404768760854 0 0 0 0 45.759248766116798 7.8898606356668797 0 7.8898606356668797 3.8571173422363279 0 0 0 0 53.261139550246298 4.4724205283597271 0 4.4724205283597271 0.0019576022905906246 0 0 0 0 66.599221014857903 14.261297993106371 0 14.261297993106371 -1.3560451173127301 0 0 0 0 41.917634467026801 2.2279971330280186 0 2.2279971330280186 0.003843654315594329 0 0 0 0 40.998903635350871 2.2682623799750257 0 2.2682623799750257 1.1169072539201106 0 0 0 0 42.358799099150929 0.83811270473248856 0 0.83811270473248856 -2.5312559825875054 0 0 0 0 39.340867328384775 2.1428635909540232 0 2.1428635909540232 1.1341594735946869 0 0 0 0 40.254101002666062 2.4111058167523183 0 2.4111058167523183 0.03602196511475661 0 0 0 0 42.001489148620749 3.7658476540616164 0 3.7658476540616164 -5.5733611262129106 0 0 0 0 43.713205821724841 -4.5664570891679812 0 -4.5664570891679812 -9.053538714971781 0 0 0 0 39.720821399605143 3.6672237446047262 0 3.6672237446047262 -1.1734045649990938 0 0 0 0 32.382361244453932 15.888794212041986 0 15.888794212041986 1.3551549170268942 0 0 0 0 45.817864104566979 15.353149027865006 0 15.353149027865006 -15.845601866869428 0 0 0 0 47.061762833051034 6.3743121283171682 0 6.3743121283171682 -6.333867070612456 0 0 0 0 13.037034383681487 4.6312437801835244 0 4.6312437801835244 -0.7495205264860586 0 0 0 0 10.212660082773652 0.4560772543031959 0 0.4560772543031959 -0.059364719290450341 0 0 0 0 2408.2492446093675 -528.63859622456255 0 -528.63859622456255 -346.14857129176312 0 0 0 0 1063.8215668096091 580.78706228360636 0 580.78706228360636 2.244608117122425 0 0 0 0 2037.3919358076382 -630.94148067223045 0 -630.94148067223045 136.2056150307337 0 0 0 0 784.50755360932089 -203.53382890513905 0 -203.53382890513905 105.95147030097974 0 0 0 0 8.9668683766068398 -3.6459803025156816 0 -3.6459803025156816 -1.2521719880960056 0 0 0 0 45.33501487209287 3.9578086766694973 0 3.9578086766694973 0.090345312677842404 0 0 0 0 40.989179258298464 2.135628560836798 0 2.135628560836798 0.52784008272533001 0 0 0 0 1984.5798553012573 124.73230232791504 0 124.73230232791504 -179.0633522384409 0 0 0 0 2.4765211582948439 -2.1946697009668981 0 -2.1946697009668981 -0.13854622004596909 0 0 0 0 1979.4239261160619 71.929075764502556 0 71.929075764502556 -136.78508461500493 0 0 0 0 40.272279042445007 1.5010593667962879 0 1.5010593667962879 0.0014141963475480901 0 0 0 0 1990.7142151407752 143.13907024952115 0 143.13907024952115 0.22781053461262285 0 0 0 0 1937.5937346235587 96.762655867536338 0 96.762655867536338 0.0068807948732961541 0 0 0 0 1959.3197927076108 91.498450109225018 0 91.498450109225018 -81.515162364740377 0 0 0 0 1992.6691675889379 114.5186282015006 0 114.5186282015006 -205.91553243200946 0 0 0 0 1914.2264706791902 147.11969406024519 0 147.11969406024519 -100.08806152866963 0 0 0 0 2059.397790523828 -33.557011504390005 0 -33.557011504390005 -241.13413448898251 0 0 0 0 1807.1978470351169 -90.185517607894212 0 -90.185517607894212 -236.59994194301166 0 0 0 0 2169.7777005405223 367.88271929496409 0 367.88271929496409 -106.25258876451323 0 0 0 0 1865.4402415520017 171.68984241374383 0 171.68984241374383 -231.60581331423384 0 0 0 0 2249.6926088448381 -387.72720803604096 0 -387.72720803604096 220.04439283888317 0 0 0 0 1966.6905316447483 -52.986468287853498 0 -52.986468287853498 -145.69808239298578 0 0 0 0 1995.1355219273246 6.2167035909438795 0 6.2167035909438795 -386.16677587907537 0 0 0 0 1961.7190281810181 300.92737506615947 0 300.92737506615947 -80.630188590224179 0 0 0 0 2292.0953335763334 749.96726746463855 0 749.96726746463855 50.124311645693069 0 0 0 0 3069.5936358734471 -277.87077450415012 0 -277.87077450415012 -427.99801696641816 0 0 0 0 3032.228333206207 164.14302405634817 0 164.14302405634817 -91.576701065359771 0 0 0 0 16.637371606448824 6.0885920323051579 0 6.0885920323051579 3.3999457744696944 0 0 0 0 3544.6471169180877 -1619.1769095999871 0 -1619.1769095999871 515.62972409449185 0 0 0 0 4291.8900163306243 269.25998444938114 0 269.25998444938114 -326.49921561052815 0 0 0 0 2667.0300142300403 -480.43657287433382 0 -480.43657287433382 -379.98440400668198 0 0 0 0 2634.2506107417285 -145.94672591618337 0 -145.94672591618337 -455.50331119050099 0 0 0 0 737.78944012192369 -665.34977924223244 0 -665.34977924223244 219.66499856360633 0 0 0 0 790.04421789605112 226.34113617027526 0 226.34113617027526 -153.02608900515787 0 0 0 0 -44.602003443535068 -147.10795483448231 0 -147.10795483448231 258.92978296739864 0 0 0 0 37.513735128461121 15.988533577488298 0 15.988533577488298 3.5643949688340486 0 0 0 0 7.4510865354823181 -134.67823451701943 0 -134.67823451701943 -493.92038672967692 0 0 0 0 44.296635711638373 188.64765065614836 0 188.64765065614836 536.15860397628285 0 0 0 0 693.16446779447142 -46.521537996057305 0 -46.521537996057305 -621.58421336173933 0 0 0 0 114.14222047841031 523.91766713508548 0 523.91766713508548 1178.8135185166188 0 0 0 0 845.33233742199081 1242.8277767974209 0 1242.8277767974209 1181.4311995417429 0 0 0 0 1258.071623440308 1600.1841822563133 0 1600.1841822563133 693.69296646903103 0 0 0 0 838.49566927478008 209.57253755374904 0 209.57253755374904 811.20293903135598 0 0 0 0 3603.7895662787196 1438.7384361040004 0 1438.7384361040004 1309.6404621215606 0 0 0 0 1361.4446181313833 -986.10138116580265 0 -986.10138116580265 642.2496555238954 0 0 0 0 3719.4132091958309 -1765.7779322589486 0 -1765.7779322589486 884.27844654383216 0 0 0 0 28.139320582014932 -7.6877929829583493 0 -7.6877929829583493 4.0052041096172966 0 0 0 0 2841.5209494929586 561.28545766597745 0 561.28545766597745 90.531612320740123 0 0 0 0 3248.9280824950256 691.11242542493562 0 691.11242542493562 1043.2439744327316 0 0 0 0 4042.2827608663938 -1002.1977253351603 0 -1002.1977253351603 1252.9517757683293 0 0 0 0 1302.4466929167174 1439.2188641215594 0 1439.2188641215594 327.70362649214985 0 0 0 0 3598.0086897680594 -1004.2078675948326 0 -1004.2078675948326 2196.682728574362 0 0 0 0 183.45146886511066 537.00120486491778 0 537.00120486491778 -426.00505800128144 0 0 0 0 504.93074439294287 1.042307024396905 0 1.042307024396905 -170.82806200311961 0 0 0 0 1130.1420806565147 89.427527667634422 0 89.427527667634422 -326.08022901971981 0 0 0 0 1413.3112547949859 -606.50999393096026 0 -606.50999393096026 -159.44172926473857 0 0 0 0 2920.7908011299005 205.27219545628714 0 205.27219545628714 -147.46374270483921 0 0 0 0 644.75613982434152 58.399666767532835 0 58.399666767532835 -94.574367779212025 0 0 0 0 701.21867715031112 148.36632141174118 0 148.36632141174118 -391.93019473582808 0 0 0 0 0.9131245818339071 6.9219913426734649 0 6.9219913426734649 3.5883213137666736 0 0 0 0 -1986.9243906749325 736.93559811177624 0 736.93559811177624 850.65507727106933 0 0 0 0 3274.2707932909143 1299.9944099799093 0 1299.9944099799093 352.54775021787418 0 0 0 0 1272.6091015724232 346.48075104845202 0 346.48075104845202 242.5367870829499 0 0 0 0 1793.874947451055 726.82464570648654 0 726.82464570648654 63.902505403519172 0 0 0 0 -648.05539436715662 327.80037582475825 0 327.80037582475825 -12.653889813543174 0 0 0 0 -0.6458809150313316 18.665695041935749 0 18.665695041935749 6.4074951944733112 0 0 0 0 1715.4084242860652 801.14859543667649 0 801.14859543667649 -1.218680827655362 0 0 0 0 4.7363580876553897 230.64259037519219 0 230.64259037519219 928.23217442859527 0 0 0 0 1432.5447807933087 301.02455893314095 0 301.02455893314095 -220.45854687713634 0 0 0 0 7.2331452641634577 19.8012330291387 0 19.8012330291387 -1.6971235242590348 0 0 0 0 -72.206424913747469 98.652409164305141 0 98.652409164305141 -62.718448814437124 0 0 0 0 66.822433381923474 141.29106521397262 0 141.29106521397262 -92.601828577588094 0 0 0 0 65.163893228919733 113.25904966910061 0 113.25904966910061 -68.808656583735228 0 0 0 0 239.74290190433385 61.961843268658868 0 61.961843268658868 -108.33485091665227 0 0 0 0 510.64650420899852 164.59862789561089 0 164.59862789561089 -315.32137975706587 0 0 0 0 632.03671086030954 -274.4870067023686 0 -274.4870067023686 -101.76416962758753 0 0 0 0 353.29017819124056 -117.22710581469312 0 -117.22710581469312 -135.45804341384155 0 0 0 0 247.71936515935522 -131.40732959884394 0 -131.40732959884394 -55.612083899794698 0 0 0 0 70.925808865300496 -67.0619467180627 0 -67.0619467180627 -47.908481011391018 0 0 0 0 53.631488462856112 1.1952539792284043 0 1.1952539792284043 -4.6300726996370791 0 0 0 0 17.289255530049559 116.78853728756485 0 116.78853728756485 -86.749394720778838 0 0 0 0 44.009894188064209 116.56743986480157 0 116.56743986480157 -143.45719687388271 0 0 0 0 224.46693202726601 -240.50816833940166 0 -240.50816833940166 -772.66236414718298 0 0 0 0 24.243077818813617 226.32933538869491 0 226.32933538869491 -1270.6956476308483 0 0 0 0 2.2998582787177497 -0.26153658180950856 0 -0.26153658180950856 -4.1533908789510239 0 0 0 0 -201.45361279901408 575.37293052852829 0 575.37293052852829 -1060.0691646786868 0 0 0 0 151.94401917522191 314.49575337012277 0 314.49575337012277 -1253.770307078194 0 0 0 0 38.330901330068514 -1.6441675879154189 0 -1.6441675879154189 -2.8336467954332973 0 0 0 0 -147.67827811558527 164.50469895626853 0 164.50469895626853 -240.8364324092405 0 0 0 0 19.623859768675175 -8.3265632277481245 0 -8.3265632277481245 -296.14153644368605 0 0 0 0 1155.0639342232171 -988.57410034681016 0 -988.57410034681016 204.3893038909564 0 0 0 0 1128.2832325657873 -521.02541157276232 0 -521.02541157276232 217.7747940700001 0 0 0 0 900.04945222352399 -466.53207354686583 0 -466.53207354686583 282.05434988955676 0 0 0 0 939.04981160603347 -585.74774315247487 0 -585.74774315247487 300.13735228448456 0 0 0 0 959.84781497489894 -253.40493635128064 0 -253.40493635128064 555.88053651365863 0 0 0 0 935.39804602925142 -611.83671860239474 0 -611.83671860239474 879.27873634238404 0 0 0 0 1757.6830101105588 -510.01192268657906 0 -510.01192268657906 -4.8668906590219194 0 0 0 0 8.4232841881918716 -0.84362806161885828 0 -0.84362806161885828 -8.455845190271468 0 0 0 0 975.55972245821613 -315.98189662665652 0 -315.98189662665652 167.25014776430953 0 0 0 0 4.240498076572635 -0.56005840675668139 0 -0.56005840675668139 -3.4796723723568359 0 0 0 0 639.24360269284807 -477.39943073112363 0 -477.39943073112363 170.63987097816653 0 0 0 0 860.0138384088641 -492.06835352243161 0 -492.06835352243161 163.38166633262176 0 0 0 0 949.01272265951411 -550.18714560123237 0 -550.18714560123237 -110.87232994494434 0 0 0 0 694.48307792072592 -801.55092139518433 0 -801.55092139518433 -65.937521917066078 0 0 0 0 730.32012792043679 -723.18274422480545 0 -723.18274422480545 -487.70307758484205 0 0 0 0 1839.0203172871843 -735.7333794676756 0 -735.7333794676756 -488.56299377778441 0 0 0 0 980.73277596126718 -670.52398856857235 0 -670.52398856857235 457.47385003169848 0 0 0 0 2056.1572332117212 -1153.7035042648008 0 -1153.7035042648008 72.320261140157072 0 0 0 0 1107.0323170015981 -805.40059766189825 0 -805.40059766189825 -491.82685569460455 0 0 0 0 -265.82913709589047 -341.73394778256329 0 -341.73394778256329 -643.14494490518996 0 0 0 0 12.27140044561243 -1.8709764763860335 0 -1.8709764763860335 -1.8490573135800155 0 0 0 0 1360.0103774655145 -1241.0954888361273 0 -1241.0954888361273 1111.2223218463362 0 0 0 0 6.884619350591322 3.3520924721082359 0 3.3520924721082359 -0.19317212572235398 0 0 0 0 1310.204262983345 432.24268666011494 0 432.24268666011494 -420.96494376182727 0 0 0 0 2712.2306485942099 -564.94881310477319 0 -564.94881310477319 516.74076876357526 0 0 0 0 1663.4899017500138 491.67713948017217 0 491.67713948017217 2.355854099947237 0 0 0 0 136.21866030117963 165.17631207768204 0 165.17631207768204 806.40257251914113 0 0 0 0 442.02895820899994 1094.7657192043496 0 1094.7657192043496 -1023.0268153114607 0 0 0 0 192.55255209055758 -179.43025806449555 0 -179.43025806449555 7.8824878021900986 0 0 0 0 1228.562305221516 -490.23082065794028 0 -490.23082065794028 -629.32683117917259 0 0 0 0 19.494893011196439 17.247644593317972 0 17.247644593317972 12.012976498032126 0 0 0 0 -135.59803991798253 267.77688971177429 0 267.77688971177429 -286.34014484962267 0 0 0 0 -82.048409243107017 79.565577769056404 0 79.565577769056404 -149.37074420325223 0 0 0 0 -130.02517956041993 286.07095535710584 0 286.07095535710584 -305.75010023927916 0 0 0 0 381.97985194938155 49.212507954613443 0 49.212507954613443 -646.50400129682248 0 0 0 0 18.803001202493192 13.594530478919722 0 13.594530478919722 7.966991816696682 0 0 0 0 51.123670425819 -7.2218546567382873 0 -7.2218546567382873 -27.609979965210584 0 0 0 0 114.02706240201951 -8.7557475492966432 0 -8.7557475492966432 -123.24345730818277 0 0 0 0 94.482271897810278 -31.502860110652136 0 -31.502860110652136 -117.97565251113127 0 0 0 0 -67.341795612832357 94.878054823659227 0 94.878054823659227 -134.66506100769402 0 0 0 0 -171.16939889612695 138.87408663092145 0 138.87408663092145 -54.262823784938988 0 0 0 0 105.02746749788275 -45.445318690890602 0 -45.445318690890602 -105.10479394093682 0 0 0 0 291.54480308239727 282.43786628807874 0 282.43786628807874 49.711282472565586 0 0 0 0 624.98270401054697 843.92176976570079 0 843.92176976570079 461.86850532290191 0 0 0 0 632.98260050835961 382.19129913775737 0 382.19129913775737 -262.49353280232117 0 0 0 0 -573.85860069325645 1140.7469110923846 0 1140.7469110923846 595.31075699048972 0 0 0 0 -1017.1009006965905 194.40863973745223 0 194.40863973745223 1017.0758720332333 0 0 0 0 6.6329315222322407 8.7630999427889833 0 8.7630999427889833 8.3201710078644631 0 0 0 0 39.955524068587692 952.7779612335404 0 952.7779612335404 949.81878109589491 0 0 0 0 687.27249895915156 890.33773631311396 0 890.33773631311396 644.60200166873983 0 0 0 0 1698.4704236009857 269.43804679811615 0 269.43804679811615 117.75874325935001 0 0 0 0 -1415.1290979199694 530.4618966650313 0 530.4618966650313 1363.8737200247122 0 0 0 0 -456.56606053360156 101.99837884678914 0 101.99837884678914 200.00489451450903 0 0 0 0 -487.42467743541783 222.67994044534001 0 222.67994044534001 279.17311777655414 0 0 0 0 271.0610064619832 490.69268973270118 0 490.69268973270118 463.24023032869627 0 0 0 0 14.340678113429689 9.0380421418690133 0 9.0380421418690133 -9.0518142892330538 0 0 0 0 624.7425194226962 299.79406509818091 0 299.79406509818091 347.1335461895178 0 0 0 0 410.32262521851226 771.91902426320121 0 771.91902426320121 610.41040810426989 0 0 0 0 25.800681669059244 -1.170933445497937 0 -1.170933445497937 -3.7898176992895181 0 0 0 0 72.404480577597951 21.949008775399001 0 21.949008775399001 2.4184533298519013 0 0 0 0 130.33133773476584 -77.836785285534233 0 -77.836785285534233 -144.00901009766835 0 0 0 0 24.429073046514532 265.79155214424964 0 265.79155214424964 -84.961699486062798 0 0 0 0 46.34679800358748 25.140059890068279 0 25.140059890068279 9.5527232132368383 0 0 0 0 -242.11473455490341 466.79117726401887 0 466.79117726401887 686.1929388882736 0 0 0 0 315.29934090407369 316.52727595138538 0 316.52727595138538 726.54557140946645 0 0 0 0 17.414294170161611 8.6465931957694551 0 8.6465931957694551 5.8648906079262479 0 0 0 0 378.36903429872473 766.48837794419649 0 766.48837794419649 2286.9746868019288 0 0 0 0 1853.943828776275 -461.61168841512517 0 -461.61168841512517 -99.141957519764446 0 0 0 0 2088.8687945112251 -797.58615164777689 0 -797.58615164777689 1325.2509362491178 0 0 0 0 1762.7725481852976 1112.4954615099875 0 1112.4954615099875 1481.0743170805802 0 0 0 0 1361.6300433475117 298.36921024534013 0 298.36921024534013 -205.35760759469161 0 0 0 0 2806.4304070096914 735.50301537439384 0 735.50301537439384 -150.3927318103772 0 0 0 0 1473.5626473829034 108.66026819313629 0 108.66026819313629 -76.542556932552998 0 0 0 0 129.23243867872225 -248.48205363175862 0 -248.48205363175862 176.06422796116453 0 0 0 0 407.93529915775434 304.00600176737078 0 304.00600176737078 -27.049900824731139 0 0 0 0 607.7838749136281 -7.3088472821780215 0 -7.3088472821780215 85.754261545240297 0 0 0 0 1291.503267195003 347.16419204208694 0 347.16419204208694 -4.6584655787737574 0 0 0 0 372.01870030170539 160.79320860864595 0 160.79320860864595 665.64736373671894 0 0 0 0 115.91080242070893 -323.18672798693717 0 -323.18672798693717 118.76982481349569 0 0 0 0 85.053612354153302 71.997126825446799 0 71.997126825446799 147.35960516801651 0 0 0 0 -1.9655395374314821 -1.018402809199273 0 -1.018402809199273 1.7595812783818143 0 0 0 0 54.16526941909251 31.480192022512597 0 31.480192022512597 85.852890402000412 0 0 0 0 87.149082968491712 26.575497073187762 0 26.575497073187762 -2.496484569298218 0 0 0 0 69.273763001838233 11.031995342428388 0 11.031995342428388 -2.9375454041933153 0 0 0 0 75.807318175306136 21.003408522932034 0 21.003408522932034 -0.88347045431055449 0 0 0 0 -180.88388109886728 -27.829506090221457 0 -27.829506090221457 185.59836963469525 0 0 0 0 12.255201712142224 5.6536490591852271 0 5.6536490591852271 4.1768563586478891 0 0 0 0 11.666201336511136 -11.391487435031507 0 -11.391487435031507 -3.3820411973153321 0 0 0 0 95.507072907205497 25.514458621982087 0 25.514458621982087 4.2179056235519443 0 0 0 0 230.61770691505808 -9.1436208113477733 0 -9.1436208113477733 -119.40762968997569 0 0 0 0 47.932158224881277 29.621456684661325 0 29.621456684661325 5.0986271004819628 0 0 0 0 39.13721193447418 -7.5722468590254266 0 -7.5722468590254266 -15.570250655012501 0 0 0 0 -12.784793186401657 -17.88575721522534 0 -17.88575721522534 60.007522634551151 0 0 0 0 54.029553478001617 -36.333787080478714 0 -36.333787080478714 33.486936305083418 0 0 0 0 276.07933913725719 -181.87179985501029 0 -181.87179985501029 -98.959722615199553 0 0 0 0 -10.01324041416612 -9.6262326307003434 0 -9.6262326307003434 1.4715360837595188 0 0 0 0 142.33864271098719 41.697640141392583 0 41.697640141392583 -381.82811445012385 0 0 0 0 14.550200831930852 -148.8279496534019 0 -148.8279496534019 -149.69629075964303 0 0 0 0 268.12774941046882 219.32276422315334 0 219.32276422315334 -1062.7443876302414 0 0 0 0 70.454484640931014 14.617192802047114 0 14.617192802047114 0.63852002669863017 0 0 0 0 574.37169693296164 -687.75116069053422 0 -687.75116069053422 -119.39832230528347 0 0 0 0 969.26172470099118 376.83935289883357 0 376.83935289883357 -852.38740275102782 0 0 0 0 90.229935937929781 21.629216882915479 0 21.629216882915479 1.4889960242372158 0 0 0 0 1303.1750186284626 471.94215407394631 0 471.94215407394631 310.83723216356634 0 0 0 0 517.59250439543393 -224.47437162896648 0 -224.47437162896648 -299.75269651507347 0 0 0 0 2228.1636596420904 -932.22750226624373 0 -932.22750226624373 -221.34892080284524 0 0 0 0 3110.4698723040419 -428.21681471540103 0 -428.21681471540103 -159.78360769751907 0 0 0 0 654.77491621664376 -318.96304444070302 0 -318.96304444070302 514.16701918318449 0 0 0 0 569.04684968776201 81.914664496372438 0 81.914664496372438 297.45216197809032 0 0 0 0 845.9613222865446 -466.89935047186509 0 -466.89935047186509 1107.2525898520212 0 0 0 0 186.75522387116507 1.2927038253363889 0 1.2927038253363889 248.4636411205224 0 0 0 0 321.25328264245763 -89.379611448051833 0 -89.379611448051833 199.96328095815238 0 0 0 0 -100.84959105849703 271.62349559954691 0 271.62349559954691 348.90946573396241 0 0 0 0 -198.93143158448947 450.38928140826926 0 450.38928140826926 147.17688713395091 0 0 0 0 -478.35575393083127 461.75442898705285 0 461.75442898705285 -21.335682630299289 0 0 0 0 38.103819657269923 537.72929365832442 0 537.72929365832442 -579.60027144736432 0 0 0 0 -353.66046145401197 203.16503193725157 0 203.16503193725157 -30.800560379109584 0 0 0 0 -257.20444051947561 323.51525642507931 0 323.51525642507931 236.3975679757491 0 0 0 0 -236.22668290007277 310.57668494145923 0 310.57668494145923 -86.250794062632735 0 0 0 0 -48.743874561172561 236.59255682395406 0 236.59255682395406 -65.679927045655631 0 0 0 0 -47.484033470333088 164.1763208193961 0 164.1763208193961 223.90631518587517 0 0 0 0 -132.86071722992347 289.10469092599351 0 289.10469092599351 545.02130239977123 0 0 0 0 -296.22652358235791 413.15468193745971 0 413.15468193745971 416.50366068025141 0 0 0 0 70.445768635487184 322.83068938570568 0 322.83068938570568 415.00867043578842 0 0 0 0 60.592218876859988 322.10092861345447 0 322.10092861345447 390.9324438481849 0 0 0 0 55.317943622329039 377.46576520079373 0 377.46576520079373 540.48076577486529 0 0 0 0 344.02529784225771 155.88896096161835 0 155.88896096161835 334.32816705000073 0 0 0 0 861.19982094495208 29.767076264395428 0 29.767076264395428 280.95328683250659 0 0 0 0 395.12886028901266 364.69465477918482 0 364.69465477918482 198.287849672628 0 0 0 0 407.91303797197179 560.45492874292813 0 560.45492874292813 92.406601358377813 0 0 0 0 410.18135623612761 430.45717623742655 0 430.45717623742655 485.34294719685772 0 0 0 0 512.88041788376722 578.03269772447038 0 578.03269772447038 176.73534566754029 0 0 0 0 338.94945434344118 237.45938217792701 0 237.45938217792701 85.272538702123143 0 0 0 0 971.78400206829974 78.112913365509229 0 78.112913365509229 170.59329713627545 0 0 0 0 1025.6410570703883 264.25658461875537 0 264.25658461875537 160.82582029023757 0 0 0 0 1148.3766814285555 -204.9789941377017 0 -204.9789941377017 -161.13136451184391 0 0 0 0 43.31581246087444 321.77132859286007 0 321.77132859286007 215.28808795849736 0 0 0 0 3.1055175697108837 2.8867745990746414 0 2.8867745990746414 3.4579063282978613 0 0 0 0 878.51775906096009 323.30458890431015 0 323.30458890431015 517.23441267944963 0 0 0 0 857.60177185691282 229.68956287684745 0 229.68956287684745 389.36040621306176 0 0 0 0 1007.6869806034229 218.46949308175255 0 218.46949308175255 388.65130208182944 0 0 0 0 992.33118700707564 420.58631475751304 0 420.58631475751304 286.71168112408805 0 0 0 0 1085.5317791292327 398.36804461428727 0 398.36804461428727 266.96585918675311 0 0 0 0 1018.700723185837 290.90209688556934 0 290.90209688556934 97.141119450842268 0 0 0 0 1173.1163249572128 236.14806912780261 0 236.14806912780261 33.256188198981249 0 0 0 0 1148.5886851202522 176.60647845894403 0 176.60647845894403 85.949348914247821 0 0 0 0 1560.7400831621781 -206.97423907785469 0 -206.97423907785469 117.1145802806891 0 0 0 0 871.58299153914595 42.054592180355272 0 42.054592180355272 32.798206483389322 0 0 0 0 1252.510689543953 363.63954833282492 0 363.63954833282492 -129.95440871707478 0 0 0 0 1462.0820526849184 175.48849247349759 0 175.48849247349759 -372.60794742077042 0 0 0 0 1276.6027326731119 451.66127176573764 0 451.66127176573764 -150.07712376393499 0 0 0 0 -141.75697813135048 504.54206330631632 0 504.54206330631632 -46.645187173254271 0 0 0 0 775.61564862594241 308.82146197240422 0 308.82146197240422 172.92986566818092 0 0 0 0 1088.8203903004178 546.05161149819401 0 546.05161149819401 -43.239127485511915 0 0 0 0 1549.8715101052803 387.39348301724726 0 387.39348301724726 168.94613634090913 0 0 0 0 1502.8643928957899 348.85278641453101 0 348.85278641453101 173.65864167674971 0 0 0 0 1304.3888307723537 684.77715247665117 0 684.77715247665117 723.31658748903953 0 0 0 0 1246.9544830890081 498.84666664575229 0 498.84666664575229 480.97575070363536 0 0 0 0 1041.3845991641792 528.59412559171972 0 528.59412559171972 519.39619547718553 0 0 0 0 4500.0513006305991 -623.25354561359927 0 -623.25354561359927 45.411518851073147 0 0 0 0 1805.9640839994681 -532.06756070711174 0 -532.06756070711174 250.45890710169556 0 0 0 0 3294.1069190119742 -692.89400894204175 0 -692.89400894204175 223.7790260648658 0 0 0 0 2137.2985452241192 548.59252915186039 0 548.59252915186039 211.33403082991663 0 0 0 0 3328.9015583755681 795.99491667397433 0 795.99491667397433 326.08203549432358 0 0 0 0 2008.1973094660061 385.85839174966998 0 385.85839174966998 299.47567549971154 0 0 0 0 2517.886474007013 130.65912450622864 0 130.65912450622864 -133.7487725079144 0 0 0 0 1886.0150056318816 -48.90286426632025 0 -48.90286426632025 -184.7544087805793 0 0 0 0 2010.327956924215 -2.8693890971051701 0 -2.8693890971051701 -337.19760823772788 0 0 0 0 1205.2916135358209 108.08840452908082 0 108.08840452908082 26.019964336547666 0 0 0 0 1716.102690037329 227.39599105489654 0 227.39599105489654 -435.35686519732843 0 0 0 0 8.597232172258785 3.779432367903766 0 3.779432367903766 -1.7177262321353128 0 0 0 0 2047.8807034756901 27.75208015168414 0 27.75208015168414 -704.05498910280562 0 0 0 0 4493.3359853452566 -365.8509561221129 0 -365.8509561221129 -864.02361299175232 0 0 0 0 1304.9542135346564 -433.95870448471129 0 -433.95870448471129 -80.244600228733816 0 0 0 0 2039.2130957884656 -184.44325236468001 0 -184.44325236468001 -281.74631542112445 0 0 0 0 1943.4084385517344 -473.20676966092742 0 -473.20676966092742 -173.24917867889673 0 0 0 0 -563.36097656008496 -242.40655120281747 0 -242.40655120281747 94.902441602701103 0 0 0 0 1832.7702656001129 -1108.1712558764921 0 -1108.1712558764921 -854.31239638061538 0 0 0 0 4490.3961107790237 -1671.8650642149933 0 -1671.8650642149933 -851.37190933060981 0 0 0 0 2571.9006630477379 2367.067671396795 0 2367.067671396795 -315.92062589453462 0 0 0 0 1932.1265084626793 -1964.2694718994092 0 -1964.2694718994092 4.6964526601418441 0 0 0 0 25.771373485503091 -1.5320761621990346 0 -1.5320761621990346 -0.52922568877806531 0 0 0 0 4493.0704217410821 1761.4324100812546 0 1761.4324100812546 -1112.0749234306234 0 0 0 0 2382.2076819250942 1092.6280530186471 0 1092.6280530186471 -586.66956050587305 0 0 0 0 424.92714185017394 1439.5271119548049 0 1439.5271119548049 156.8153597941282 0 0 0 0 47.750414366699147 -4.670668040967751 0 -4.670668040967751 -2.5978030042634028 0 0 0 0 743.45378247545159 -41.478530355983025 0 -41.478530355983025 -1652.2858449490038 0 0 0 0 1594.1328161365818 976.90810017440037 0 976.90810017440037 -592.0035734433543 0 0 0 0 22.026277753425745 -3.0182880319462484 0 -3.0182880319462484 -0.67143371789449136 0 0 0 0 744.6055273198217 -1765.8867967207448 0 -1765.8867967207448 -99.011645562307265 0 0 0 0 89.43974218810763 -469.8052014022453 0 -469.8052014022453 293.50170093908639 0 0 0 0 1431.2161149719614 -650.82473980901079 0 -650.82473980901079 -2020.6920291770587 0 0 0 0 1636.50963907408 -927.05954735891692 0 -927.05954735891692 984.54958902251951 0 0 0 0 1288.7750770866169 -427.81831624608401 0 -427.81831624608401 280.66910084775446 0 0 0 0 1089.2085109606487 -1143.1954838408328 0 -1143.1954838408328 268.17778502669694 0 0 0 0 5774.8921170713729 -1633.6944253041702 0 -1633.6944253041702 1074.7736015480652 0 0 0 0 3578.5908195235679 1280.7370179278169 0 1280.7370179278169 736.23973156546879 0 0 0 0 4500.7158202253413 699.4794873377441 0 699.4794873377441 245.3856453977485 0 0 0 0 4348.1037548803797 1200.228658211649 0 1200.228658211649 -596.05206668006667 0 0 0 0 683.03593435084622 701.88401010254415 0 701.88401010254415 368.51645083835024 0 0 0 0 3000.1956753167688 691.2795014263238 0 691.2795014263238 -277.7816796706245 0 0 0 0 4499.2523608001429 1406.1886581477147 0 1406.1886581477147 53.628210441222542 0 0 0 0 5538.2172427410615 678.80359625496783 0 678.80359625496783 74.010222258993394 0 0 0 0 13.450014552242788 9.3290888175922504 0 9.3290888175922504 4.87251979791351 0 0 0 0 5479.611218282138 910.07761604116308 0 910.07761604116308 196.18634267705207 0 0 0 0 -271.6265623923282 173.21777300944427 0 173.21777300944427 76.213245240063316 0 0 0 0 16.248442408010305 -7.9330637832806303 0 -7.9330637832806303 13.811868494517299 0 0 0 0 56.670379779221548 -53.231709387547653 0 -53.231709387547653 -8.1040150347364488 0 0 0 0 13.200761425230667 2.5128325323690319 0 2.5128325323690319 4.588515428377832 0 0 0 0 52.351059545551834 8.2651092515475284 0 8.2651092515475284 5.4283484681540131 0 0 0 0 370.54265347125329 -160.12279209955031 0 -160.12279209955031 56.416808393242917 0 0 0 0 55.005944796510448 333.66832581443771 0 333.66832581443771 301.61870774432384 0 0 0 0 49.414802034292777 43.048222566684188 0 43.048222566684188 24.080148885782322 0 0 0 0 -117.21314461604379 498.37251454623413 0 498.37251454623413 -221.0815412715956 0 0 0 0 457.10171616924345 58.049215396873024 0 58.049215396873024 -460.38137743235984 0 0 0 0 305.44452314742375 85.363179379081657 0 85.363179379081657 273.43278912333153 0 0 0 0 -603.6000006476097 744.34617762098242 0 744.34617762098242 -420.09159024954897 0 0 0 0 1883.2118577607398 192.65889220545958 0 192.65889220545958 17.124111488108021 0 0 0 0 45.079280170970634 38.967542694019897 0 38.967542694019897 22.177029350118065 0 0 0 0 2315.1401797165599 567.0687682139212 0 567.0687682139212 -276.72545616753916 0 0 0 0 1196.6121995507856 -480.11605722461661 0 -480.11605722461661 -158.007531727257 0 0 0 0 2690.1721981117662 -39.190907422464363 0 -39.190907422464363 -566.68762796992019 0 0 0 0 3342.4634136434033 90.214366432250756 0 90.214366432250756 -570.20754076810033 0 0 0 0 4498.619839778723 -294.80229402674576 0 -294.80229402674576 -705.85117892228652 0 0 0 0 2327.9598158913286 -1100.321334347489 0 -1100.321334347489 291.0070613486368 0 0 0 0 -873.63506242020867 1899.3778677285654 0 1899.3778677285654 1093.0614922255222 0 0 0 0 -205.40143830984925 -291.33768056436088 0 -291.33768056436088 -69.733144783174794 0 0 0 0 19.785972399417489 15.532308885474691 0 15.532308885474691 11.525497357813922 0 0 0 0 6026.4192405089052 -1072.8675676705404 0 -1072.8675676705404 283.67837228939004 0 0 0 0 4504.0217663305339 1614.8055655074686 0 1614.8055655074686 3224.0662800611076 0 0 0 0 2319.5623879180202 2428.5261147369752 0 2428.5261147369752 1085.8079737102657 0 0 0 0 5323.1746120267708 1157.5263089648984 0 1157.5263089648984 152.17163579019092 0 0 0 0 835.6025232299944 1584.664093023355 0 1584.664093023355 1546.8367382489187 0 0 0 0 4289.1161450423533 1859.2264496642692 0 1859.2264496642692 697.45308443257795 0 0 0 0 2050.2730486374021 739.52187491996176 0 739.52187491996176 648.70305721371165 0 0 0 0 7.2766991919604891 3.4947181089706447 0 3.4947181089706447 -1.4255292269595403 0 0 0 0 1218.5155997583497 -46.201956807948122 0 -46.201956807948122 -24.343432000368423 0 0 0 0 4495.6056154359103 2322.0472209439845 0 2322.0472209439845 -424.15994797831627 0 0 0 0 4995.4674268595118 -26.894088789337843 0 -26.894088789337843 -280.86668108350932 0 0 0 0 764.89008991458104 430.62241090496025 0 430.62241090496025 820.42299633847176 0 0 0 0 814.16815762018086 621.05433457099389 0 621.05433457099389 1241.7017931568175 0 0 0 0 2048.8527497803288 822.68808382382781 0 822.68808382382781 677.00202660169145 0 0 0 0 1375.2716865197544 528.88767033244449 0 528.88767033244449 629.53666649998286 0 0 0 0 914.44603685321817 199.0578676934189 0 199.0578676934189 492.01720101994897 0 0 0 0 376.23786154978006 135.36934691598867 0 135.36934691598867 650.60025166386913 0 0 0 0 637.38726237138326 -37.306555977744893 0 -37.306555977744893 -202.97181868705229 0 0 0 0 451.10191317720455 501.93696559042473 0 501.93696559042473 798.52303289834072 0 0 0 0 639.93030533644924 29.114642984303373 0 29.114642984303373 -862.08626051662804 0 0 0 0 1090.6718185407008 -663.25123151159369 0 -663.25123151159369 -240.99276073142755 0 0 0 0 1.2861043469747386 -0.46077019924423723 0 -0.46077019924423723 -2.379165802204037 0 0 0 0 566.6468273197388 166.56206349317563 0 166.56206349317563 -205.97379446353909 0 0 0 0 -109.24482830027409 205.92862848602681 0 205.92862848602681 -108.54357509577517 0 0 0 0 501.6953497432205 16.549248872405883 0 16.549248872405883 76.511909483896488 0 0 0 0 544.05428437252885 -146.1136382030279 0 -146.1136382030279 52.983568756775639 0 0 0 0 691.29017327868496 32.083627199342118 0 32.083627199342118 -406.25608633113848 0 0 0 0 576.34181653952692 27.362046929120766 0 27.362046929120766 552.80046677532641 0 0 0 0 533.4504462436671 -208.36269269492487 0 -208.36269269492487 0.97518672274782148 0 0 0 0 729.69572592814075 -107.11910609316891 0 -107.11910609316891 30.667917671785688 0 0 0 0 689.94912880989432 -152.44715884092341 0 -152.44715884092341 125.73738532877906 0 0 0 0 747.5949022308946 165.09143280905283 0 165.09143280905283 375.23954803829804 0 0 0 0 698.50414009235101 -435.34761998521117 0 -435.34761998521117 18.456446143700077 0 0 0 0 1126.3590314756075 145.08773143503583 0 145.08773143503583 213.5134254676093 0 0 0 0 771.54479855909449 -250.58538616215139 0 -250.58538616215139 182.09577904279831 0 0 0 0 486.24198111103033 -344.96724760752522 0 -344.96724760752522 284.35326362853721 0 0 0 0 1171.9522280436722 -102.93168773827915 0 -102.93168773827915 4.8020698063401142 0 0 0 0 825.79922890143644 74.110379221479434 0 74.110379221479434 536.330693773441 0 0 0 0 662.64551698381547 -80.636388803444788 0 -80.636388803444788 67.352268952716486 0 0 0 0 684.7138734044056 -150.30351936308398 0 -150.30351936308398 181.82949194620414 0 0 0 0 722.56624603136152 -25.435471168409094 0 -25.435471168409094 -181.01856085203326 0 0 0 0 720.44342300630342 -20.334207642067668 0 -20.334207642067668 -27.608964625823319 0 0 0 0 774.8265348066343 102.43651129578484 0 102.43651129578484 -88.222480581657692 0 0 0 0 725.21371426105907 65.980374701382061 0 65.980374701382061 -149.19656643685857 0 0 0 0 829.56554283534933 -198.52418397598672 0 -198.52418397598672 98.001920843138578 0 0 0 0 795.20673937434913 95.449617750670768 0 95.449617750670768 135.53518875504597 0 0 0 0 952.88165283680428 -15.04962985632551 0 -15.04962985632551 -46.726331490385746 0 0 0 0 720.02771708666114 15.554270598334369 0 15.554270598334369 -32.599917623738747 0 0 0 0 620.70347730339563 -85.210076290867164 0 -85.210076290867164 40.875643385543299 0 0 0 0 753.37296312207764 -26.172691457597011 0 -26.172691457597011 -73.208900329793323 0 0 0 0 605.07125907157388 23.919300304721787 0 23.919300304721787 -87.983815998697537 0 0 0 0 811.66850346126012 49.665207312345956 0 49.665207312345956 -130.5375039103028 0 0 0 0 716.62955324409995 71.333441382368164 0 71.333441382368164 -132.24647787549293 0 0 0 0 737.80987119663041 99.554734548455599 0 99.554734548455599 -164.2927282139226 0 0 0 0 667.82507305078616 112.09015047841467 0 112.09015047841467 -144.91195866586713 0 0 0 0 627.22217714024009 -0.86044512635817227 0 -0.86044512635817227 -116.65114678275495 0 0 0 0 449.69500227685785 89.748201763880388 0 89.748201763880388 -105.5622322480649 0 0 0 0 395.96191335200274 97.206626820668589 0 97.206626820668589 -57.681363565251559 0 0 0 0 575.6662050550367 51.984171307827495 0 51.984171307827495 -142.26995712593271 0 0 0 0 570.24515982085268 119.6799097536375 0 119.6799097536375 -117.81511312784642 0 0 0 0 760.05977412025095 163.13568308792856 0 163.13568308792856 -126.08729810510158 0 0 0 0 552.38661498889269 134.31539006630555 0 134.31539006630555 -46.161265125881073 0 0 0 0 558.36548101725566 104.00111100538265 0 104.00111100538265 -109.66846178729065 0 0 0 0 834.82668397866655 107.63244900884547 0 107.63244900884547 -115.0372357210972 0 0 0 0 1035.1461808478634 53.920429499225065 0 53.920429499225065 -128.05925022823044 0 0 0 0 814.3036826856478 83.380169398633825 0 83.380169398633825 -143.55055855893806 0 0 0 0 812.50693788650096 123.77604861185046 0 123.77604861185046 -170.68389970217322 0 0 0 0 842.91052466441761 52.560990392605163 0 52.560990392605163 -175.3667979814918 0 0 0 0 948.19885893919854 77.098796378359111 0 77.098796378359111 -175.74058286859963 0 0 0 0 756.16785937591339 66.507766393562633 0 66.507766393562633 -173.95929574315915 0 0 0 0 783.72657846423681 95.642396523395291 0 95.642396523395291 -172.84860788597234 0 0 0 0 788.77428696408606 87.225842039106283 0 87.225842039106283 -164.70527186379604 0 0 0 0 738.12886447847995 99.595405155569779 0 99.595405155569779 -169.88136688781378 0 0 0 0 738.82455573929474 52.670216774517485 0 52.670216774517485 -154.12813108727823 0 0 0 0 621.78627150232205 58.911709633887881 0 58.911709633887881 -203.13598703749813 0 0 0 0 638.48402382544737 14.049590450815003 0 14.049590450815003 -145.47605527769792 0 0 0 0 770.13220995414486 17.541686037000659 0 17.541686037000659 -175.16006090394058 0 0 0 0 395.59108711383305 132.0677894124151 0 132.0677894124151 -72.027695248162217 0 0 0 0 216.91168684849254 -54.532811245133416 0 -54.532811245133416 -118.00568154493249 0 0 0 0 4.3708002422926313 1.0566878370549802 0 1.0566878370549802 -6.3996882574520804 0 0 0 0 491.10241958613187 -330.11612693712277 0 -330.11612693712277 13.025425199517485 0 0 0 0 661.62828486591025 -34.056448745129273 0 -34.056448745129273 -307.85305791023256 0 0 0 0 409.58785199862905 -134.6101329097246 0 -134.6101329097246 77.167598686874044 0 0 0 0 662.20770793207339 35.344429839688928 0 35.344429839688928 -136.58803635788354 0 0 0 0 845.49691897616867 -82.956375398978707 0 -82.956375398978707 -82.56583438664893 0 0 0 0 1129.3690845051606 -81.103813573835396 0 -81.103813573835396 -135.55560876712116 0 0 0 0 804.58953564304102 -394.4950674534075 0 -394.4950674534075 215.24359520703547 0 0 0 0 3.0729144022202064 0.75302287780525035 0 0.75302287780525035 -3.1719536650310758 0 0 0 0 153.22734086960554 -47.501995567150061 0 -47.501995567150061 -101.4255146950095 0 0 0 0 98.172126259138167 469.56890551585298 0 469.56890551585298 -405.07800060846694 0 0 0 0 1638.3753861865407 -528.85003927135676 0 -528.85003927135676 -48.985195928867597 0 0 0 0 134.88443727469712 48.61498990502605 0 48.61498990502605 -174.38783258211515 0 0 0 0 183.35823450641692 -43.778145379799298 0 -43.778145379799298 -257.76263403968551 0 0 0 0 18.697419468377511 7.8513956786817118 0 7.8513956786817118 1.8866140369537412 0 0 0 0 49.685494876998064 42.282917787657958 0 42.282917787657958 13.114918975476776 0 0 0 0 2243.3228500317928 -196.00951286694817 0 -196.00951286694817 -380.61155329376561 0 0 0 0 693.00953303927963 497.94221714466369 0 497.94221714466369 -570.65680998190146 0 0 0 0 395.65033698407933 -250.999269434079 0 -250.999269434079 -94.59568346780361 0 0 0 0 858.05997815320734 -550.798113482595 0 -550.798113482595 99.492105860666925 0 0 0 0 1313.2543097327252 325.17443728978424 0 325.17443728978424 -596.78461679598149 0 0 0 0 488.46205209098116 347.01324634220828 0 347.01324634220828 99.216366795131307 0 0 0 0 188.69420243618515 30.192784441416279 0 30.192784441416279 119.5829646148477 0 0 0 0 562.875372157112 193.55033069364981 0 193.55033069364981 27.49936059785523 0 0 0 0 548.02878048890489 171.67687891387709 0 171.67687891387709 -50.332597391058698 0 0 0 0 596.58876267422602 86.323142796141383 0 86.323142796141383 48.232613899707758 0 0 0 0 273.84563829182298 157.73868563989799 0 157.73868563989799 34.285689071427441 0 0 0 0 1748.8174973227578 -59.23689157684646 0 -59.23689157684646 -202.42303410733075 0 0 0 0 834.9486488567054 225.75533908840907 0 225.75533908840907 -37.388656899852322 0 0 0 0 1292.3036438431154 407.13324609654774 0 407.13324609654774 -43.312071475996618 0 0 0 0 984.44945715717768 28.747494122507305 0 28.747494122507305 -46.069983954179406 0 0 0 0 145.97769153105764 -94.057377900151664 0 -94.057377900151664 6.2678726359135908 0 0 0 0 129.76729752049141 -4.5950906992838014 0 -4.5950906992838014 -62.481940710102876 0 0 0 0 394.38969419201021 16.896644897603892 0 16.896644897603892 -66.893737356575912 0 0 0 0 134.20781088476829 -21.332500853566145 0 -21.332500853566145 -14.317590212743358 0 0 0 0 24.900420662780569 5.1376414039766871 0 5.1376414039766871 -20.127991888274373 0 0 0 0 189.98216993195638 9.2883621760617885 0 9.2883621760617885 -97.293085888199982 0 0 0 0 108.74531898279614 -23.091545873845007 0 -23.091545873845007 -9.4261299384389048 0 0 0 0 128.82485888158044 -8.0635370544184184 0 -8.0635370544184184 -21.553219046125292 0 0 0 0 207.66595136215619 -103.38965980588017 0 -103.38965980588017 -129.25186350317631 0 0 0 0 275.01719598117052 -21.584429717825742 0 -21.584429717825742 -94.838866110529693 0 0 0 0 -11.085537355467409 -21.460565030574092 0 -21.460565030574092 2.3415481165063712 0 0 0 0 400.85816318708385 412.45101849169077 0 412.45101849169077 255.37886070652621 0 0 0 0 110.32192514964117 10.94301435735656 0 10.94301435735656 20.059091688322383 0 0 0 0 196.31097568708083 77.276293616393858 0 77.276293616393858 30.952496721535681 0 0 0 0 161.73007766214141 84.85355960645029 0 84.85355960645029 461.85495780386191 0 0 0 0 110.74739574173145 52.59537033692186 0 52.59537033692186 13.984940853996278 0 0 0 0 75.179281363779367 59.229052668461229 0 59.229052668461229 10.146432481961469 0 0 0 0 31.118941592401121 0.83107748110472812 0 0.83107748110472812 8.1010097159606698 0 0 0 0 141.44137203095306 -70.730433700857247 0 -70.730433700857247 -110.54784577513055 0 0 0 0 69.100519604391593 -94.978022208120365 0 -94.978022208120365 -24.978966167419458 0 0 0 0 157.61178267614741 -124.15177347634199 0 -124.15177347634199 -15.803842293702928 0 0 0 0 80.256125825373616 -52.270854689587367 0 -52.270854689587367 -28.230018196054097 0 0 0 0 228.8008550106897 -180.53230505505326 0 -180.53230505505326 27.340044072869205 0 0 0 0 100.30884139767973 38.005731509181075 0 38.005731509181075 -0.16885132096223288 0 0 0 0 83.150863074886729 10.289836366793509 0 10.289836366793509 -16.088219195117745 0 0 0 0 -8.9952934998436831 11.884336330881752 0 11.884336330881752 70.087224561553739 0 0 0 0 28.248650256966386 -8.6422827988139801 0 -8.6422827988139801 -13.814203574143814 0 0 0 0 102.17438288581616 9.1648702778195457 0 9.1648702778195457 -23.295010519330845 0 0 0 0 50.8133958224834 -18.167407965609812 0 -18.167407965609812 -12.651589745100905 0 0 0 0 73.37088182696607 39.172041916127341 0 39.172041916127341 6.3628332576945468 0 0 0 0 65.582832157229859 20.065219201174585 0 20.065219201174585 -6.735150486096245 0 0 0 0 106.44203493329405 57.932489760550197 0 57.932489760550197 -9.3844796465036779 0 0 0 0 53.084544532999793 29.251804677222211 0 29.251804677222211 -3.6489835053172008 0 0 0 0 110.154799596261 -2.8799340110142566 0 -2.8799340110142566 -14.983206612469758 0 0 0 0 82.464382231293712 65.802511851837153 0 65.802511851837153 8.1021796582247134 0 0 0 0 9.7389763819129485 6.8913352941461312 0 6.8913352941461312 -1.1350654028840985 0 0 0 0 23.635075601197627 14.47072133802881 0 14.47072133802881 -16.881305188307138 0 0 0 0 93.446853719251521 -146.13070577602684 0 -146.13070577602684 7.6619487787147591 0 0 0 0 48.82131179206803 4.6824215039734653 0 4.6824215039734653 -14.503667019284654 0 0 0 0 87.573680720764969 5.0158863672040752 0 5.0158863672040752 -24.462037198209146 0 0 0 0 126.05547389350249 -127.05859549073284 0 -127.05859549073284 -133.96398828655856 0 0 0 0 17.467471781309371 15.852863926763092 0 15.852863926763092 15.614879911113015 0 0 0 0 587.39170315748197 65.984959606493248 0 65.984959606493248 34.414641971837682 0 0 0 0 449.8073705707211 22.868501350470979 0 22.868501350470979 21.051625945609658 0 0 0 0 262.95833096897695 -231.08274383462776 0 -231.08274383462776 134.49350890434835 0 0 0 0 110.34191979193565 -149.78417309371343 0 -149.78417309371343 227.96995939631506 0 0 0 0 7.6486279473927254 2.2314201853144269 0 2.2314201853144269 4.3259290508170913 0 0 0 0 630.69798707365408 -274.59070198625795 0 -274.59070198625795 73.330699355966317 0 0 0 0 -1.6634863682901724 2.0589910173101345 0 2.0589910173101345 -6.3096569457123515 0 0 0 0 10.232018849710585 121.75349225825175 0 121.75349225825175 86.974384619764351 0 0 0 0 187.7468261264803 3.5607825545093874 0 3.5607825545093874 4.5959603559058451 0 0 0 0 810.75202948867809 655.6535618889302 0 655.6535618889302 138.45694617970912 0 0 0 0 993.36933646557736 -296.33965176718357 0 -296.33965176718357 -164.55040326411836 0 0 0 0 400.74301623769861 60.52070011277101 0 60.52070011277101 -166.20655275344507 0 0 0 0 0.5333048441492636 -0.46864931822155143 0 -0.46864931822155143 -0.73125195953430655 0 0 0 0 210.27913295017788 93.668411137455678 0 93.668411137455678 -29.751439277527425 0 0 0 0 30.011701457733579 -228.77733528696672 0 -228.77733528696672 83.064362482145953 0 0 0 0 438.9152179373923 -153.25217028481211 0 -153.25217028481211 1.0566726588122037 0 0 0 0 369.25796150325186 -107.16841432781825 0 -107.16841432781825 -51.039998354572162 0 0 0 0 583.71378761620508 -114.65136868422132 0 -114.65136868422132 -72.490293214108533 0 0 0 0 533.07858193061838 -303.24840408772161 0 -303.24840408772161 21.041791069530518 0 0 0 0 950.18184847322482 -493.25234388541685 0 -493.25234388541685 206.28108288166823 0 0 0 0 616.51489805724123 -66.915330913944217 0 -66.915330913944217 -19.850706861888284 0 0 0 0 266.77345278760185 -251.77853785679872 0 -251.77853785679872 244.52851212137739 0 0 0 0 172.96431058149756 336.60862636567072 0 336.60862636567072 -3.3543731038516853 0 0 0 0 467.81241341773648 -121.45433865910022 0 -121.45433865910022 26.357583012839314 0 0 0 0 0.95075800160779522 2.6495098470560947 0 2.6495098470560947 5.3906120596485554 0 0 0 0 -372.22679544067068 169.22149881927953 0 169.22149881927953 128.35281058409839 0 0 0 0 4.2474887350017241 5.004674897109183 0 5.004674897109183 7.6921351464861942 0 0 0 0 -433.29394567794952 -178.94200681161374 0 -178.94200681161374 473.40170509726886 0 0 0 0 5.5311059059344529 6.3152699097394986 0 6.3152699097394986 6.8273631634564307 0 0 0 0 645.36228431754444 555.68168950659128 0 555.68168950659128 -332.73121769372574 0 0 0 0 165.57847787253559 -87.016508860790054 0 -87.016508860790054 78.08773320598084 0 0 0 0 111.7882119549613 15.768765351551792 0 15.768765351551792 -42.974913288298922 0 0 0 0 147.66826891790333 41.465689031113584 0 41.465689031113584 -153.20798189382913 0 0 0 0 75.633168682034011 -28.239480923345127 0 -28.239480923345127 -71.307776016471507 0 0 0 0 109.91141976098879 -16.888829437240929 0 -16.888829437240929 -97.066874240562356 0 0 0 0 111.24069033845444 -37.373199015776208 0 -37.373199015776208 -114.41694828882396 0 0 0 0 -57.063147941298666 92.503740971824755 0 92.503740971824755 -190.70175620411464 0 0 0 0 260.46101362032277 104.79262395771786 0 104.79262395771786 -39.480188752129834 0 0 0 0 42.597238217276754 21.810078836976572 0 21.810078836976572 -60.486717832355225 0 0 0 0 9.3865507189802884 187.16770774489737 0 187.16770774489737 -56.158252682766033 0 0 0 0 -19.278725892014336 117.98671956267253 0 117.98671956267253 43.087819608957034 0 0 0 0 -3.0495069116859668 189.16231857547422 0 189.16231857547422 -41.696972812947934 0 0 0 0 -19.739670059643686 48.850636720640068 0 48.850636720640068 148.90177999708794 0 0 0 0 449.40392792774765 198.054413644124 0 198.054413644124 85.034824506321456 0 0 0 0 105.12332544320088 69.293779481385172 0 69.293779481385172 65.549224506764403 0 0 0 0 120.30386666803679 182.84542303693343 0 182.84542303693343 60.982299330077694 0 0 0 0 24.467418720567366 -92.259837200474976 0 -92.259837200474976 215.0357347230638 0 0 0 0 94.859072592735174 192.8687695607041 0 192.8687695607041 280.78664600417051 0 0 0 0 -6.6349420567639754 66.150199391244541 0 66.150199391244541 27.833491759725803 0 0 0 0 22.815448763329186 26.622585998336035 0 26.622585998336035 -57.330654212210902 0 0 0 0 -101.40357725872309 -59.278106655941428 0 -59.278106655941428 51.154172492537327 0 0 0 0 16.99993225232194 8.2570463970656363 0 8.2570463970656363 3.6117594232960322 0 0 0 0 56.792696880398239 15.274702856431709 0 15.274702856431709 -23.456094180364509 0 0 0 0 66.303299808416341 41.666473802124756 0 41.666473802124756 -3.2549663862791931 0 0 0 0 60.1198775711091 42.156679880650699 0 42.156679880650699 -3.0121416054444126 0 0 0 0 117.84907750741695 7.9352048384307636 0 7.9352048384307636 0.014374509441040573 0 0 0 0 11.847741065129142 10.684178174060776 0 10.684178174060776 -15.256872461630206 0 0 0 0 9.6622094578051474 -48.308299222348523 0 -48.308299222348523 -7.4991936410351627 0 0 0 0 -46.479356749681756 46.624068862038371 0 46.624068862038371 112.06746046271118 0 0 0 0 8.1929238072644353 10.494996691660255 0 10.494996691660255 -0.90560924377612917 0 0 0 0 80.361985345956782 34.217627376037171 0 34.217627376037171 -67.361495807214851 0 0 0 0 321.13849042165384 -27.439642616099718 0 -27.439642616099718 -40.858740907820902 0 0 0 0 0.68499293918318926 0.40138160365799536 0 0.40138160365799536 -6.6271789676754018 0 0 0 0 193.79814206947049 50.683765372761627 0 50.683765372761627 -68.532920369186229 0 0 0 0 -5.8775762477744138 66.413542383134882 0 66.413542383134882 23.727681574272538 0 0 0 0 22.941871553921374 135.33270354414117 0 135.33270354414117 39.774054702421381 0 0 0 0 98.758956874495198 161.37068606500611 0 161.37068606500611 -127.24521095426189 0 0 0 0 28.902443993691122 215.70026211395907 0 215.70026211395907 -19.777802147075363 0 0 0 0 -10.60610295584047 294.32651262149011 0 294.32651262149011 -158.90273353519751 0 0 0 0 17.86139674136939 -215.48479535848628 0 -215.48479535848628 -469.53815231362751 0 0 0 0 377.31232070046826 537.01022719405205 0 537.01022719405205 -71.188606233943119 0 0 0 0 12.553910045622615 -353.31907090900813 0 -353.31907090900813 609.94812721646667 0 0 0 0 1081.0102533570025 173.85393853276719 0 173.85393853276719 -676.44647505138892 0 0 0 0 1229.8414526109264 -289.42439745335787 0 -289.42439745335787 243.04192864481774 0 0 0 0 681.08960248527001 109.22623957062069 0 109.22623957062069 708.57329755545015 0 0 0 0 -238.44035988239193 196.42033619344579 0 196.42033619344579 -13.149824533724313 0 0 0 0 -136.36025139789126 465.65193557742879 0 465.65193557742879 -44.300142944051913 0 0 0 0 7.1667605199056084 4.8388430821292445 0 4.8388430821292445 3.3349639329801377 0 0 0 0 635.55760590927093 -590.20026613306595 0 -590.20026613306595 526.77453691473056 0 0 0 0 1118.699537888695 -120.47730458763679 0 -120.47730458763679 713.27768310799092 0 0 0 0 1132.1224698690057 -1099.8325512324491 0 -1099.8325512324491 972.89593668043881 0 0 0 0 680.4538226374425 -357.04539489760327 0 -357.04539489760327 312.8458532778709 0 0 0 0 765.20334678285872 -475.39192889553124 0 -475.39192889553124 365.42694712417688 0 0 0 0 772.99645577886258 -184.25455852232153 0 -184.25455852232153 530.70572817586935 0 0 0 0 483.59987411479233 -392.22057010748767 0 -392.22057010748767 382.78997749146492 0 0 0 0 500.96524870316352 -730.34966298308518 0 -730.34966298308518 -450.06188378718798 0 0 0 0 722.78792377132049 -278.75798574551209 0 -278.75798574551209 165.92024275334234 0 0 0 0 480.66812196184765 7.1734041576510208 0 7.1734041576510208 -336.26643229585869 0 0 0 0 811.13920198830601 -444.5232902025391 0 -444.5232902025391 -18.43754495631174 0 0 0 0 994.82089127833024 -682.1182872234624 0 -682.1182872234624 190.48761658705735 0 0 0 0 590.67149836487442 -394.92383602777556 0 -394.92383602777556 77.587264791447524 0 0 0 0 603.69665817788336 -297.03542911754744 0 -297.03542911754744 39.023621099547654 0 0 0 0 726.44942421287124 -237.3485983710184 0 -237.3485983710184 -114.97592375666682 0 0 0 0 463.838328425074 -181.17259003808567 0 -181.17259003808567 -26.413366716083829 0 0 0 0 314.7270295599883 -162.97993656618337 0 -162.97993656618337 16.024098988882542 0 0 0 0 371.14955900576024 -63.849614585258905 0 -63.849614585258905 -16.544889435846699 0 0 0 0 66.05664878339303 -47.490900421693482 0 -47.490900421693482 46.521127929895556 0 0 0 0 240.95013009323156 -47.245352317893207 0 -47.245352317893207 -47.317067701315409 0 0 0 0 252.13157589739785 -173.51587196669237 0 -173.51587196669237 153.34002507847617 0 0 0 0 327.30890328696114 -133.25918069470936 0 -133.25918069470936 90.290027303510215 0 0 0 0 12.439054837059302 -24.9123244901037 0 -24.9123244901037 147.04484013743104 0 0 0 0 533.95551087726199 -301.19841967680679 0 -301.19841967680679 112.87622787574833 0 0 0 0 524.36573320639582 -328.06977821380877 0 -328.06977821380877 151.61845121903707 0 0 0 0 461.48501415809733 -301.90084593496329 0 -301.90084593496329 142.87872070014328 0 0 0 0 316.45110354255303 -210.48357647953668 0 -210.48357647953668 247.26773413595879 0 0 0 0 410.49194086894568 -209.64572034920849 0 -209.64572034920849 210.82742928526633 0 0 0 0 211.34080404872657 -125.95152665982351 0 -125.95152665982351 386.26984317522363 0 0 0 0 308.77392768839491 9.9542205007953726 0 9.9542205007953726 240.10516362837416 0 0 0 0 223.06198170275138 121.63367768554993 0 121.63367768554993 433.68729284423807 0 0 0 0 19.824298681371147 135.42657667807794 0 135.42657667807794 147.13050509398681 0 0 0 0 -9.5838324140931945 288.9519843419348 0 288.9519843419348 -266.12847124560108 0 0 0 0 223.05361441324339 127.77700506968105 0 127.77700506968105 -39.375007163882401 0 0 0 0 -23.385388249177595 37.845615120112541 0 37.845615120112541 193.97374740631847 0 0 0 0 209.69940744110363 -42.354823211606892 0 -42.354823211606892 168.90321116741126 0 0 0 0 -5.9459479855868267 -115.28642988266083 0 -115.28642988266083 193.6817302187269 0 0 0 0 100.53347528539598 -91.173216934211055 0 -91.173216934211055 222.94032650796677 0 0 0 0 97.736795088479994 11.918311507380253 0 11.918311507380253 118.33455185480395 0 0 0 0 -5.6889939278044039 -13.301306835885534 0 -13.301306835885534 193.10333704113543 0 0 0 0 47.885846266646695 175.83205026803029 0 175.83205026803029 169.81348390626044 0 0 0 0 -284.99301391503832 217.59017756936805 0 217.59017756936805 264.86466524998332 0 0 0 0 -13.908879549904142 33.643825266391048 0 33.643825266391048 18.628395699350079 0 0 0 0 99.731548909636331 47.285887553332259 0 47.285887553332259 3.5122899394436899 0 0 0 0 91.501433807541616 59.467111239063797 0 59.467111239063797 15.746808727184089 0 0 0 0 -21.223885368945176 33.48019354901939 0 33.48019354901939 4.6047692787849579 0 0 0 0 129.20857463505672 74.260404693449914 0 74.260404693449914 4.2516287436188804 0 0 0 0 107.15429312228298 54.657296327810627 0 54.657296327810627 5.2027717704986571 0 0 0 0 483.15677380420675 228.58815961505445 0 228.58815961505445 -309.53425797718501 0 0 0 0 -240.82007488164527 -175.34065945389079 0 -175.34065945389079 -3.1946116386193353 0 0 0 0 208.67232703091577 46.981070724393476 0 46.981070724393476 -186.56120119681418 0 0 0 0 223.79783906054217 61.983064045014828 0 61.983064045014828 91.322657836333747 0 0 0 0 -6.7128724500056762 5.0394128873760451 0 5.0394128873760451 -3.5823424818544609 0 0 0 0 -597.04793349647662 38.475240431381849 0 38.475240431381849 96.086139940144676 0 0 0 0 21.083472283199555 40.423537339938662 0 40.423537339938662 -5.2905037428994959 0 0 0 0 116.28201179095777 64.390558714307474 0 64.390558714307474 11.446924246613875 0 0 0 0 370.50815921433968 69.934625690004168 0 69.934625690004168 -52.092256903260022 0 0 0 0 255.86625116730283 56.501084788485969 0 56.501084788485969 17.733601885640383 0 0 0 0 53.851936345191177 0.21562252444473984 0 0.21562252444473984 -4.5149197178789082 0 0 0 0 -317.40549986724363 3.108831942359302 0 3.108831942359302 158.47542506587433 0 0 0 0 37.666699541728732 10.932319175465778 0 10.932319175465778 -19.627204199870327 0 0 0 0 1128.7795036213065 242.43246777247987 0 242.43246777247987 -65.35785251458401 0 0 0 0 118.14685241332336 292.89002986788 0 292.89002986788 57.542244705422036 0 0 0 0 537.89607436380174 1005.4996979379919 0 1005.4996979379919 470.2063079226964 0 0 0 0 202.82997312262887 523.43663615460309 0 523.43663615460309 273.11804554826176 0 0 0 0 455.461059158426 631.56070618014223 0 631.56070618014223 282.63464020829815 0 0 0 0 405.1521375147604 321.65199444326896 0 321.65199444326896 -128.31641437274266 0 0 0 0 811.94391045093653 53.569141133500125 0 53.569141133500125 -727.69478756246485 0 0 0 0 487.0531519946453 -38.900808517661062 0 -38.900808517661062 -129.62880835165788 0 0 0 0 368.91718232598942 -26.692196567977721 0 -26.692196567977721 -8.0384373986030777 0 0 0 0 11.960643444775485 -1.4735230244338844 0 -1.4735230244338844 -0.77944474001776065 0 0 0 0 450.73761636597919 -342.73421874590304 0 -342.73421874590304 -1154.8672931502069 0 0 0 0 193.07775766755367 506.8202079578532 0 506.8202079578532 138.92014693142119 0 0 0 0 134.77943179535214 142.59019830401758 0 142.59019830401758 419.78613532753116 0 0 0 0 144.75758702016356 137.46580599293986 0 137.46580599293986 -183.62186158884833 0 0 0 0 186.77929637993657 470.07668978400579 0 470.07668978400579 -39.337177722967681 0 0 0 0 209.97385008011588 77.212295868865141 0 77.212295868865141 -106.43087706888329 0 0 0 0 111.09760681436188 83.628340364570079 0 83.628340364570079 -7.4329658873508846 0 0 0 0 219.20175090730481 104.32141139620785 0 104.32141139620785 -94.387775563027276 0 0 0 0 90.830359928092719 7.2690553639839095 0 7.2690553639839095 -27.188782117489211 0 0 0 0 193.70033796943244 155.23423863028665 0 155.23423863028665 58.369734213942138 0 0 0 0 125.29762558765287 41.50358621772375 0 41.50358621772375 83.295140012452975 0 0 0 0 189.48051825231948 23.675246707768157 0 23.675246707768157 -10.641857663392972 0 0 0 0 219.82345510626328 26.6641434947785 0 26.6641434947785 -24.496354665961007 0 0 0 0 178.3979100210835 61.448327921034313 0 61.448327921034313 -30.350557378359881 0 0 0 0 799.32154170214199 257.95987288990909 0 257.95987288990909 -358.53028579698002 0 0 0 0 -553.53660672462138 278.19151316913849 0 278.19151316913849 271.68421945419686 0 0 0 0 -184.84760934159567 -10.533623525382609 0 -10.533623525382609 179.94026933812165 0 0 0 0 -684.26366415233861 339.97770318937819 0 339.97770318937819 166.00221878038519 0 0 0 0 0.18421499204524849 -0.93118258588610558 0 -0.93118258588610558 -5.884090038647166 0 0 0 0 43.652066004294561 17.558394747599209 0 17.558394747599209 -20.575305303545228 0 0 0 0 839.06889471561954 293.22225777067342 0 293.22225777067342 -81.813182990499627 0 0 0 0 438.44696988024953 -216.50772249906095 0 -216.50772249906095 30.275729209387009 0 0 0 0 -0.34736677351975231 -17.504397165682349 0 -17.504397165682349 -99.394399398314818 0 0 0 0 79.389663562840724 177.74824922453081 0 177.74824922453081 420.17649840455124 0 0 0 0 306.46464490731705 -60.755273814949305 0 -60.755273814949305 -121.10409947629523 0 0 0 0 486.47469633105356 -295.245980449527 0 -295.245980449527 -266.50229055212367 0 0 0 0 3.0083351279274879 -0.86509779603986914 0 -0.86509779603986914 -18.910667280516215 0 0 0 0 -194.25244418925286 61.757690418805396 0 61.757690418805396 -13.765104447471458 0 0 0 0 94.189549888058536 141.68438645879087 0 141.68438645879087 -137.09655552784352 0 0 0 0 171.58292135269949 -4.1394814378563751 0 -4.1394814378563751 -89.568289255134005 0 0 0 0 269.19480897540052 -31.289543922954181 0 -31.289543922954181 -90.184939687964516 0 0 0 0 476.89159173630105 -123.40954773361136 0 -123.40954773361136 -108.18449149717344 0 0 0 0 314.16553626382665 3.0722056028789666 0 3.0722056028789666 -140.74153622231097 0 0 0 0 315.10288096469776 246.20587289699642 0 246.20587289699642 -42.015448963251401 0 0 0 0 660.88870941198547 -57.427377659430931 0 -57.427377659430931 -156.05207845069913 0 0 0 0 99.096030363622873 -21.8885950384552 0 -21.8885950384552 -28.24570238610881 0 0 0 0 1003.2731427352674 -496.51462826798115 0 -496.51462826798115 288.97231747052501 0 0 0 0 531.31641316290188 -213.13573924870616 0 -213.13573924870616 -66.30775471891684 0 0 0 0 414.09834781673817 -156.02003065987719 0 -156.02003065987719 32.691514826394268 0 0 0 0 474.57577928500541 -156.99135558331909 0 -156.99135558331909 -94.727831360725759 0 0 0 0 447.5134058243857 -152.9534068479843 0 -152.9534068479843 -79.508962960370809 0 0 0 0 511.59636595538359 -247.71944306206251 0 -247.71944306206251 18.079806383751929 0 0 0 0 399.56505350514635 -175.90195623769432 0 -175.90195623769432 20.888292134801304 0 0 0 0 226.13006431819667 -43.515464593175238 0 -43.515464593175238 40.76745021367492 0 0 0 0 240.6056591954075 -64.067795680260133 0 -64.067795680260133 -35.59876818362136 0 0 0 0 85.148536887063528 76.878312194330647 0 76.878312194330647 -101.24589725624094 0 0 0 0 292.06594097585184 -37.756586835999769 0 -37.756586835999769 -108.56271720297499 0 0 0 0 236.86932938831524 17.256760657118321 0 17.256760657118321 -62.974227395860908 0 0 0 0 228.69917897441337 -34.629161913461758 0 -34.629161913461758 20.378503717827243 0 0 0 0 2.5987296192852227 5.5386284044858947 0 5.5386284044858947 0.74810836125791269 0 0 0 0 26.525744425900825 -48.252302410944168 0 -48.252302410944168 -32.852509527532675 0 0 0 0 429.40617942663266 -124.68644041290236 0 -124.68644041290236 -50.858502115720512 0 0 0 0 225.81690596471526 -35.795784209947215 0 -35.795784209947215 53.840757567320907 0 0 0 0 11.081452906263905 12.712268943427887 0 12.712268943427887 11.001448904160227 0 0 0 0 0.29050640290734009 57.013643756052261 0 57.013643756052261 -30.18658424602836 0 0 0 0 -43.821753047228412 61.143597984114876 0 61.143597984114876 -18.646463205917826 0 0 0 0 18.086571213199932 44.370639742162894 0 44.370639742162894 -34.035039621845499 0 0 0 0 -45.90033022876014 70.720326185757131 0 70.720326185757131 169.15667916199436 0 0 0 0 3.3542863613554772 3.7163990520791614 0 3.7163990520791614 5.7561063978906226 0 0 0 0 9.495765347210142 13.53027142338874 0 13.53027142338874 -29.173116649498965 0 0 0 0 58.657025249762228 36.296370800573982 0 36.296370800573982 -36.583612979112502 0 0 0 0 16.218160971580801 42.021692469142181 0 42.021692469142181 -21.894317105162372 0 0 0 0 65.306936695240438 36.435314420934446 0 36.435314420934446 -38.647188988477865 0 0 0 0 42.407722141393606 46.828218854077932 0 46.828218854077932 -32.963743621881804 0 0 0 0 0.67566797946673418 19.252328959337667 0 19.252328959337667 -31.425248419016004 0 0 0 0 66.996472909414479 29.373225807282154 0 29.373225807282154 -43.386864716745549 0 0 0 0 12.114072720647933 -1.1806735159836066 0 -1.1806735159836066 -30.361618644192291 0 0 0 0 -88.127299531042809 -98.463794303787381 0 -98.463794303787381 -138.12409554741225 0 0 0 0 53.46388108985775 11.281970075794788 0 11.281970075794788 -82.611094311170746 0 0 0 0 40.398925528665529 17.318765681867319 0 17.318765681867319 -23.327381602357114 0 0 0 0 19.583384479934466 11.273311891325648 0 11.273311891325648 -19.549521240527611 0 0 0 0 12.096271071856791 32.050348817519762 0 32.050348817519762 -30.47647356703601 0 0 0 0 12.56466002469017 16.949984450910424 0 16.949984450910424 -16.999744637871135 0 0 0 0 34.869027767777311 79.379222366951836 0 79.379222366951836 -37.717449229839985 0 0 0 0 11.275119163533446 5.9675700496038573 0 5.9675700496038573 -13.311477007555339 0 0 0 0 41.961699585126553 7.0240534750041661 0 7.0240534750041661 -63.551695902127904 0 0 0 0 816.9020785489738 217.21364492611576 0 217.21364492611576 -182.49458764973724 0 0 0 0 142.25880708553171 284.93293013028887 0 284.93293013028887 106.13655146740075 0 0 0 0 140.86585105626727 -66.212787886888691 0 -66.212787886888691 -15.690833211932841 0 0 0 0 -3.1480404900070909 -0.16088828449231585 0 -0.16088828449231585 -0.82357989361632278 0 0 0 0 275.8071183455686 80.997094700194793 0 80.997094700194793 16.51583346204643 0 0 0 0 -679.80847880159854 499.97534872796655 0 499.97534872796655 126.71024101108742 0 0 0 0 -773.80800870818712 191.9039528348444 0 191.9039528348444 219.12474644876238 0 0 0 0 -2.3260223531230579 -0.43360525814843243 0 -0.43360525814843243 -10.51221122406805 0 0 0 0 -54.057824405281281 966.68343956400713 0 966.68343956400713 -4.7181461740547093 0 0 0 0 1857.843966494067 1308.0880529869019 0 1308.0880529869019 -64.934423364769486 0 0 0 0 872.04993467987515 -252.52522356847339 0 -252.52522356847339 -249.26346446706111 0 0 0 0 718.71819737442274 -203.83142786993767 0 -203.83142786993767 -196.90005052011156 0 0 0 0 668.24331035573414 -528.58377030052623 0 -528.58377030052623 215.97927132104633 0 0 0 0 1882.7573315768382 -677.20593108617231 0 -677.20593108617231 -72.237972663058372 0 0 0 0 682.38578818594397 -656.86914787540388 0 -656.86914787540388 479.85444794571731 0 0 0 0 23.298391326298585 -8.9851375977534786 0 -8.9851375977534786 2.5253675219956317 0 0 0 0 914.16686355849743 1269.9460995924424 0 1269.9460995924424 284.66379688930829 0 0 0 0 3337.5419682439824 422.94258104653636 0 422.94258104653636 -184.18704961796539 0 0 0 0 147.06956684422039 -322.48729079797874 0 -322.48729079797874 411.24369769956661 0 0 0 0 -304.41324075314333 -646.89458594543112 0 -646.89458594543112 955.91587077885492 0 0 0 0 -445.56155513448903 51.49873735605388 0 51.49873735605388 35.008396840139085 0 0 0 0 1551.015771835062 215.45907669820474 0 215.45907669820474 -567.07413235884451 0 0 0 0 21.969433150283294 29.660515922652394 0 29.660515922652394 -56.319739715651622 0 0 0 0 26.03302253914444 15.308714794248999 0 15.308714794248999 -22.863178496440923 0 0 0 0 19.315695450570757 29.115159905761431 0 29.115159905761431 -15.83103600154227 0 0 0 0 700.8020202187181 -296.96255639486026 0 -296.96255639486026 -808.65960516428913 0 0 0 0 -580.73341522087867 830.80566420502669 0 830.80566420502669 434.37271494442393 0 0 0 0 7.2478156708087624 10.11691467235935 0 10.11691467235935 -1.400162956724758 0 0 0 0 13.276504346388435 5.4758658195422498 0 5.4758658195422498 -9.8776528124798748 0 0 0 0 487.68647286064152 -920.6007046015834 0 -920.6007046015834 941.22961922757167 0 0 0 0 355.16560233517066 -135.31772199628296 0 -135.31772199628296 185.99320665299183 0 0 0 0 777.00390801697881 -445.18959771212656 0 -445.18959771212656 -135.87923416555486 0 0 0 0 509.10132012194663 -477.85532620900176 0 -477.85532620900176 -123.78619373548763 0 0 0 0 35.822807156755204 5.3952168946949826 0 5.3952168946949826 -28.940313999132581 0 0 0 0 788.2791458538336 -227.35423819830839 0 -227.35423819830839 -123.39171319351226 0 0 0 0 -33.549678372488415 441.12468166472718 0 441.12468166472718 204.24919902810325 0 0 0 0 419.91091414360562 258.26766692774254 0 258.26766692774254 90.10353682409027 0 0 0 0 774.39209268437116 -263.79392840765877 0 -263.79392840765877 -155.72593356944799 0 0 0 0 967.8315596607863 103.21011167805591 0 103.21011167805591 -83.255171057227471 0 0 0 0 2022.1263504475355 -576.76031117370621 0 -576.76031117370621 -40.974581369443513 0 0 0 0 434.97905540845386 346.62674171029448 0 346.62674171029448 24.48951169643351 0 0 0 0 1689.9990001868427 629.61269663290295 0 629.61269663290295 -8.9623436894398765 0 0 0 0 -653.23235624322842 25.093140611030321 0 25.093140611030321 2185.6540204141347 0 0 0 0 4220.4033033330197 583.59102521172008 0 583.59102521172008 48.056704787983108 0 0 0 0 3400.4903632510686 3711.9177117679374 0 3711.9177117679374 -1062.462855593647 0 0 0 0 261.5780154912718 -2.6774185875158154 0 -2.6774185875158154 -112.17711272607632 0 0 0 0 29.948172389010466 -18.047695755460111 0 -18.047695755460111 10.180884608518609 0 0 0 0 32.176594615964859 -614.12486233359778 0 -614.12486233359778 -203.01493549010843 0 0 0 0 234.7189907089487 35.722344115941951 0 35.722344115941951 -161.26579962458644 0 0 0 0 242.93961163676431 7.6134646150657961 0 7.6134646150657961 -116.75872782935771 0 0 0 0 128.01497729460243 19.662101280244087 0 19.662101280244087 75.694059553226907 0 0 0 0 140.59854190161059 11.023388269437874 0 11.023388269437874 52.11307688951706 0 0 0 0 -20.086851243424462 193.68683225499478 0 193.68683225499478 -82.061056114979522 0 0 0 0 -19.513766186020803 21.447343809131098 0 21.447343809131098 122.80787836119021 0 0 0 0 13.418963596312096 -178.43408952349819 0 -178.43408952349819 371.44749742270392 0 0 0 0 -125.9175402890578 -11.860939892881362 0 -11.860939892881362 241.43239635387772 0 0 0 0 240.07751721530803 -259.01522476601122 0 -259.01522476601122 245.29769196970574 0 0 0 0 223.8117873040901 -328.04783445059411 0 -328.04783445059411 299.99485037256318 0 0 0 0 145.43338696828869 -224.98432828020941 0 -224.98432828020941 241.0883015113709 0 0 0 0 150.34787937835154 -160.03148075027065 0 -160.03148075027065 148.43654182339924 0 0 0 0 113.92149993217026 -96.524195143377256 0 -96.524195143377256 223.20519328861837 0 0 0 0 163.15567756752716 -148.54305794454103 0 -148.54305794454103 129.46079526639278 0 0 0 0 193.82632310822373 -192.286558627251 0 -192.286558627251 111.64621808357106 0 0 0 0 236.09524540036364 -192.82479781517054 0 -192.82479781517054 26.892706410948449 0 0 0 0 247.91415348352166 -216.70752119210374 0 -216.70752119210374 50.849894969547677 0 0 0 0 348.35402193538903 -305.39777252224849 0 -305.39777252224849 115.25368009351723 0 0 0 0 372.34650442854036 -265.96604376289042 0 -265.96604376289042 -0.97848193768459168 0 0 0 0 201.86738043221703 -70.463116498648787 0 -70.463116498648787 73.0112541024655 0 0 0 0 126.97020279506978 -28.86616938280531 0 -28.86616938280531 57.491906468584489 0 0 0 0 180.07712538389023 -114.48554612073815 0 -114.48554612073815 60.076146936859459 0 0 0 0 156.67836787971464 -132.04178109434201 0 -132.04178109434201 90.250451913405414 0 0 0 0 186.73501414699422 -172.31804209036545 0 -172.31804209036545 59.255287634275646 0 0 0 0 246.81965442636283 -110.00532481138862 0 -110.00532481138862 34.394743957025184 0 0 0 0 204.59037988846831 -154.72083261788885 0 -154.72083261788885 -8.9518255404736919 0 0 0 0 208.41140153974993 -161.16736750738619 0 -161.16736750738619 -8.1928337053491305 0 0 0 0 200.4865030545443 -146.69812206934614 0 -146.69812206934614 32.33274798174898 0 0 0 0 212.77878968164441 -179.53697410613677 0 -179.53697410613677 -6.1192677658864341 0 0 0 0 213.50545037144184 -150.68085206437263 0 -150.68085206437263 -57.202670575243246 0 0 0 0 193.02504925844551 -162.56431544425186 0 -162.56431544425186 -60.698094477846098 0 0 0 0 229.2933452824218 -167.37821507486024 0 -167.37821507486024 -113.66119175448694 0 0 0 0 233.09754237874586 -138.96671341895762 0 -138.96671341895762 -56.566488976117398 0 0 0 0 243.29740104970915 -146.12175090042774 0 -146.12175090042774 -97.93582602008064 0 0 0 0 240.18633660014825 -11.354097628342789 0 -11.354097628342789 -11.778911614790033 0 0 0 0 282.11137595081527 -154.83796231888255 0 -154.83796231888255 -160.63732877929442 0 0 0 0 314.99000600195905 -16.70353892388664 0 -16.70353892388664 -175.27429745550398 0 0 0 0 179.27384367393097 -131.16529932889443 0 -131.16529932889443 -117.51089272567128 0 0 0 0 29.396326904431788 1.6855923556059835 0 1.6855923556059835 -3.7920684685511858 0 0 0 0 385.1474028174016 -42.922081266642408 0 -42.922081266642408 -457.78523042128018 0 0 0 0 205.27326456224137 9.1311668595986415 0 9.1311668595986415 -5.9979185721087962 0 0 0 0 -22.373145160505373 -227.33802197960904 0 -227.33802197960904 -387.99034094143644 0 0 0 0 165.01162330771422 -32.962497393485705 0 -32.962497393485705 -206.09820695453709 0 0 0 0 267.61739502024284 -158.88848777245619 0 -158.88848777245619 -83.527494756695887 0 0 0 0 430.50934419254918 -47.382436453797254 0 -47.382436453797254 -268.0830003815845 0 0 0 0 246.63654006063007 -120.34070865770354 0 -120.34070865770354 -189.31839214362367 0 0 0 0 274.50558492541313 -178.84504481308613 0 -178.84504481308613 -100.94087619558104 0 0 0 0 220.19353436362871 -143.16393893889926 0 -143.16393893889926 -53.427795604453422 0 0 0 0 261.38814955228008 -203.02395492728283 0 -203.02395492728283 26.142987648667258 0 0 0 0 293.39168133162821 -161.26483098696326 0 -161.26483098696326 -84.400849345514871 0 0 0 0 386.01222660392523 -236.92562365100912 0 -236.92562365100912 -22.639100305461398 0 0 0 0 389.15552966952964 -251.88773936876532 0 -251.88773936876532 1.1466753330923893 0 0 0 0 693.51782279931649 -172.57607197200923 0 -172.57607197200923 -223.11479561927354 0 0 0 0 1196.2760595348009 351.96528797129304 0 351.96528797129304 -397.28140527495907 0 0 0 0 237.32908133174351 567.54388973593268 0 567.54388973593268 -6.1541996942901278 0 0 0 0 341.44267199813476 223.23393698646578 0 223.23393698646578 -270.50312408545005 0 0 0 0 -70.739034004298446 126.05385233910783 0 126.05385233910783 -67.084650539723043 0 0 0 0 520.92017411437701 -16.677097640003922 0 -16.677097640003922 -72.58242747837329 0 0 0 0 219.85135577748954 10.112541961649987 0 10.112541961649987 -13.188550176908151 0 0 0 0 202.83059330537435 120.20804324152743 0 120.20804324152743 -134.84013498018248 0 0 0 0 216.19754076473691 148.65014266544313 0 148.65014266544313 -195.63435636465601 0 0 0 0 263.61543366345722 174.85123027069221 0 174.85123027069221 -200.06619976144339 0 0 0 0 380.85430541709866 -142.10593068562093 0 -142.10593068562093 -340.38564319667375 0 0 0 0 112.43361779848783 -50.871112042674667 0 -50.871112042674667 -15.774370299906764 0 0 0 0 110.78118752417407 0.78921220105477641 0 0.78921220105477641 46.959246159994564 0 0 0 0 0.14170001176833225 -3.0626025815792417 0 -3.0626025815792417 1.8149164924516974 0 0 0 0 439.87326237311208 192.918918934065 0 192.918918934065 -76.693906415468533 0 0 0 0 712.85436265625322 39.192490642978214 0 39.192490642978214 -115.93947314400111 0 0 0 0 117.48512721047882 -28.935754992609077 0 -28.935754992609077 29.228987744056667 0 0 0 0 448.46226967952316 -84.699421774223651 0 -84.699421774223651 51.74042317062208 0 0 0 0 476.33528233741526 48.258138230006807 0 48.258138230006807 -143.63935069761783 0 0 0 0 -1.3343526451572023 -2.9459166319752512 0 -2.9459166319752512 5.4952480601677225 0 0 0 0 145.1358066766179 21.703764026004038 0 21.703764026004038 42.391785574062851 0 0 0 0 207.43769670296615 -7.4747778014406023 0 -7.4747778014406023 112.3033923237349 0 0 0 0 339.71403071392069 117.66708670645382 0 117.66708670645382 -12.43761648831503 0 0 0 0 169.9205380273479 66.711660819898043 0 66.711660819898043 89.481811464740758 0 0 0 0 27.542940043744355 -22.889044888982291 0 -22.889044888982291 -6.6040416491284528 0 0 0 0 160.18196891085245 -13.279969861362474 0 -13.279969861362474 -17.621722236707456 0 0 0 0 125.20291129168436 -9.1223613113112947 0 -9.1223613113112947 -0.95315704606321106 0 0 0 0 166.76309420075268 -43.959937432276206 0 -43.959937432276206 -40.187042275407663 0 0 0 0 187.83820724274119 -18.424417970110767 0 -18.424417970110767 -10.698370442237319 0 0 0 0 192.41669071828437 -25.197745370594021 0 -25.197745370594021 -4.3613749273877147 0 0 0 0 206.89218004087888 9.0050735047171599 0 9.0050735047171599 1.6450385460412917 0 0 0 0 246.59419051721125 72.433842988121569 0 72.433842988121569 -21.685320758260801 0 0 0 0 59.802533851146805 -15.246117715808126 0 -15.246117715808126 2.7517995191940265 0 0 0 0 3122.6994682395307 -1271.3924841416676 0 -1271.3924841416676 -687.73515366608899 0 0 0 0 1448.0746260100386 -781.3298617889086 0 -781.3298617889086 -198.45653657364528 0 0 0 0 1739.2083481512818 377.14679447033905 0 377.14679447033905 -53.731909490810949 0 0 0 0 -1075.136839564082 -298.2237202084408 0 -298.2237202084408 278.44561608056335 0 0 0 0 29.546005950806261 -16.048066279073183 0 -16.048066279073183 -3.6494049733387115 0 0 0 0 -236.86634814643912 128.25945065236078 0 128.25945065236078 -117.64276001991311 0 0 0 0 42.153244006590484 -46.274924420958236 0 -46.274924420958236 -21.094340777411034 0 0 0 0 -242.78930336681515 221.07121669518847 0 221.07121669518847 199.48587589258932 0 0 0 0 1238.9316610681562 -861.44953431606837 0 -861.44953431606837 -113.29501361887014 0 0 0 0 1608.376883181365 1215.8748590502914 0 1215.8748590502914 744.3208868351885 0 0 0 0 13.848213494432457 -1.5058037905489883 0 -1.5058037905489883 0.18002205024609808 0 0 0 0 650.94737557430926 85.77206582632607 0 85.77206582632607 2166.828980516575 0 0 0 0 2376.5581073085923 -729.18237420847845 0 -729.18237420847845 -328.71552952059119 0 0 0 0 47.369205330359989 59.94683696256201 0 59.94683696256201 63.560825208580098 0 0 0 0 682.53697067991016 334.7483222089877 0 334.7483222089877 400.00949349521522 0 0 0 0 227.00328752672158 203.60276029665715 0 203.60276029665715 -333.61325658041824 0 0 0 0 88.50327205825306 48.257147589565932 0 48.257147589565932 -81.463171181506368 0 0 0 0 29.220416923689804 -0.82586085209355531 0 -0.82586085209355531 -64.623380175456575 0 0 0 0 1.3444638764257775 9.609077423553039 0 9.609077423553039 4.6100850745944957 0 0 0 0 14.979961542368784 18.798154927186488 0 18.798154927186488 30.491054075952274 0 0 0 0 -18.653069298771015 1380.8631651008309 0 1380.8631651008309 1735.3297061598773 0 0 0 0 25.980660734086996 -602.7640180479425 0 -602.7640180479425 184.74900049157031 0 0 0 0 -765.79659903823631 181.91549248648357 0 181.91549248648357 1337.4253105606094 0 0 0 0 588.51043261328596 1051.7960455555362 0 1051.7960455555362 556.70879195546604 0 0 0 0 266.50523453675851 1725.7555288120966 0 1725.7555288120966 186.89781420982308 0 0 0 0 -2215.2583754515508 1545.3773912343395 0 1545.3773912343395 534.73947752392996 0 0 0 0 8.1329015102738857 -4.1403068184708829 0 -4.1403068184708829 23.354503545677701 0 0 0 0 623.56160147397895 1100.888552645773 0 1100.888552645773 220.71060466122162 0 0 0 0 330.86702800553576 -2602.1253641585481 0 -2602.1253641585481 804.25185100829549 0 0 0 0 1562.3925343081064 1485.4183380626546 0 1485.4183380626546 -205.1269326321908 0 0 0 0 -320.20727973450266 1209.1905425208797 0 1209.1905425208797 383.51947136318449 0 0 0 0 3692.2887188021414 3646.2628095059354 0 3646.2628095059354 -103.48459009564044 0 0 0 0 3435.0805888722639 -565.8734168920821 0 -565.8734168920821 -297.41046047109194 0 0 0 0 -46.367859509515256 -113.19118919629818 0 -113.19118919629818 377.26336306725898 0 0 0 0 1046.5962191105937 -807.67764367866221 0 -807.67764367866221 614.67323440810333 0 0 0 0 45.78655085455911 6.7262932978752001 0 6.7262932978752001 -1.6393275262685147 0 0 0 0 -48.178094864459126 -4.0946486683969852 0 -4.0946486683969852 -165.65709055974366 0 0 0 0 2.0169027766633008 82.600326164555895 0 82.600326164555895 -65.139736573124537 0 0 0 0 -189.45015428225815 -34.884037791313858 0 -34.884037791313858 9.7577931829482623 0 0 0 0 -165.28450393752428 30.083501947382956 0 30.083501947382956 184.38806720756929 0 0 0 0 5547.897584234539 -1429.9501307058765 0 -1429.9501307058765 -2636.2939870187902 0 0 0 0 94.967347785127316 -39.28655181394106 0 -39.28655181394106 -2.089936852577067 0 0 0 0 2039.9810541488096 2576.2852494938684 0 2576.2852494938684 543.71451120756137 0 0 0 0 -2207.2041511287593 -468.47381624579396 0 -468.47381624579396 1149.2126881584782 0 0 0 0 66.768093765389779 -55.010237878848429 0 -55.010237878848429 1.6926662092023435 0 0 0 0 175.49568196142354 -25.035689133046162 0 -25.035689133046162 10.623429810592825 0 0 0 0 90.851127660910237 -110.36083930355457 0 -110.36083930355457 -45.515661167188348 0 0 0 0 405.49637515219365 -63.567309569048803 0 -63.567309569048803 -99.633026817989503 0 0 0 0 361.48463436491147 -107.10722179809636 0 -107.10722179809636 -137.17881421050879 0 0 0 0 344.69788000733752 -55.984940052681281 0 -55.984940052681281 -18.410095210907457 0 0 0 0 208.22605224159452 -57.070681423115872 0 -57.070681423115872 27.978613602810128 0 0 0 0 230.8400573473682 -70.981014075693508 0 -70.981014075693508 26.725963793966912 0 0 0 0 269.77268270305649 -209.87945879348217 0 -209.87945879348217 -157.9839569316041 0 0 0 0 52.314683555481409 -121.61163594850653 0 -121.61163594850653 -35.278494747955769 0 0 0 0 -247.70446476868347 -220.48130086781703 0 -220.48130086781703 208.12715951135215 0 0 0 0 377.15279912657934 -17.309798008209096 0 -17.309798008209096 -132.54158369513041 0 0 0 0 290.06031939765671 -67.427305962322507 0 -67.427305962322507 -17.637469244287608 0 0 0 0 278.36373714428737 26.630551782406091 0 26.630551782406091 -134.95638138605636 0 0 0 0 803.89756667002439 338.7717545528684 0 338.7717545528684 50.259229270632886 0 0 0 0 155.59152607725628 -165.95010953025667 0 -165.95010953025667 -316.27614938674196 0 0 0 0 -146.63177175926103 -244.24601389534701 0 -244.24601389534701 193.36469521357867 0 0 0 0 61.603606528237222 -123.3100868184473 0 -123.3100868184473 -28.386126695317618 0 0 0 0 706.74001755426434 -896.28993038549947 0 -896.28993038549947 -1223.4552772930192 0 0 0 0 0.16925194246141473 -166.69633266146457 0 -166.69633266146457 -273.76328779434334 0 0 0 0 -69.415673309301866 -93.043393404212509 0 -93.043393404212509 -14.933296838107808 0 0 0 0 346.19954710942693 -434.44891350399621 0 -434.44891350399621 338.76585949352977 0 0 0 0 -319.3416432455997 35.164366198866787 0 35.164366198866787 300.52207412225562 0 0 0 0 10.681933995984934 -7.0440105125730383 0 -7.0440105125730383 5.0721221423585643 0 0 0 0 -9.4549194092396647 -269.61972774836113 0 -269.61972774836113 355.4777903600766 0 0 0 0 400.66860811485139 -92.017598385166252 0 -92.017598385166252 -143.54349219930918 0 0 0 0 420.21266644501884 -168.50769954306816 0 -168.50769954306816 -165.40177827653224 0 0 0 0 311.1903685158868 -66.407613895367831 0 -66.407613895367831 -258.19136907316715 0 0 0 0 344.42614811021485 -175.70363710657693 0 -175.70363710657693 -218.30873170019186 0 0 0 0 263.21094813471427 -198.56766656984655 0 -198.56766656984655 -144.40060206902172 0 0 0 0 271.92524671940191 -192.45918488961252 0 -192.45918488961252 -143.51260204970004 0 0 0 0 251.8248091561909 -177.76065371627919 0 -177.76065371627919 -172.43341247103672 0 0 0 0 173.6860806720797 -149.97934672634801 0 -149.97934672634801 -138.12184469673412 0 0 0 0 186.48288992881135 -206.5940197922464 0 -206.5940197922464 -119.59120351309866 0 0 0 0 10.670963511431182 -113.69972976740974 0 -113.69972976740974 -43.7333951568462 0 0 0 0 48.362767607541173 -207.46414256102162 0 -207.46414256102162 2.7490480363985625 0 0 0 0 265.18051893750089 -241.99252119211997 0 -241.99252119211997 -103.76979123526871 0 0 0 0 431.55607012166729 -260.46783115154267 0 -260.46783115154267 -124.09692398968764 0 0 0 0 182.23503614473884 -292.74266321044888 0 -292.74266321044888 45.570993066417941 0 0 0 0 389.74477993835171 -49.324084995578232 0 -49.324084995578232 10.911418446112634 0 0 0 0 357.78802750670002 114.72530291061048 0 114.72530291061048 660.54324078578793 0 0 0 0 509.96775043699381 -194.09001951797882 0 -194.09001951797882 -62.031809930482268 0 0 0 0 838.29261396732795 141.78060305737927 0 141.78060305737927 -34.933947533654646 0 0 0 0 1059.0232228158384 200.51538204387816 0 200.51538204387816 -64.675482452013057 0 0 0 0 153.55128836016593 -124.99202652236545 0 -124.99202652236545 192.44349937320203 0 0 0 0 848.10698566643623 14.318928864551708 0 14.318928864551708 -156.44994085199414 0 0 0 0 257.33126772903779 -135.93890197180815 0 -135.93890197180815 14.74830097697668 0 0 0 0 1112.7303843458358 -380.74543716621338 0 -380.74543716621338 -6.0815059856104199 0 0 0 0 1357.3362740554876 363.87004972611476 0 363.87004972611476 -142.91525602617639 0 0 0 0 987.22062417036796 14.586811361619766 0 14.586811361619766 -434.96571773338883 0 0 0 0 -171.20413276286854 22.290056988782908 0 22.290056988782908 126.21249822497839 0 0 0 0 -109.41928185556753 -30.254699020665157 0 -30.254699020665157 49.444634299823292 0 0 0 0 -23.974003869276203 105.68079858665669 0 105.68079858665669 223.29435989801573 0 0 0 0 -153.12347982845677 -57.4002930878558 0 -57.4002930878558 164.78458124391943 0 0 0 0 -220.48790111114067 -104.15373436339178 0 -104.15373436339178 70.344180922501778 0 0 0 0 1502.5582972739176 835.4205419500222 0 835.4205419500222 400.03003204827837 0 0 0 0 -27.883973293237887 -264.75890180026545 0 -264.75890180026545 199.85439282279367 0 0 0 0 1.3006395870914957 -1.1789900539240321 0 -1.1789900539240321 11.916507235324438 0 0 0 0 310.40476297392888 -120.54128651769224 0 -120.54128651769224 688.50219837787336 0 0 0 0 972.97527956315025 562.43508028368979 0 562.43508028368979 -278.69275106550049 0 0 0 0 -474.75831657247909 16.156441463753254 0 16.156441463753254 472.4598443791424 0 0 0 0 378.48701852499903 622.13510476541239 0 622.13510476541239 -3.5254332932656212 0 0 0 0 50.773068233540727 45.4552497133553 0 45.4552497133553 31.873080853778639 0 0 0 0 -375.63601141900654 582.80574069668364 0 582.80574069668364 -206.39094542428984 0 0 0 0 708.11059653077245 178.38484833158873 0 178.38484833158873 -440.72035620105999 0 0 0 0 3223.9517499047788 -171.72696587718536 0 -171.72696587718536 -286.20481253629032 0 0 0 0 4500.9688907953805 -993.14441283084113 0 -993.14441283084113 -614.2241277692342 0 0 0 0 2894.352709259892 -849.75992905395503 0 -849.75992905395503 -318.73383462751315 0 0 0 0 373.63839947662012 480.53695854677488 0 480.53695854677488 449.14428064251848 0 0 0 0 43.854128330344302 33.770041990559072 0 33.770041990559072 22.688430105982967 0 0 0 0 -753.78600890521557 429.71823370724769 0 429.71823370724769 108.28699727202275 0 0 0 0 2355.1922741061735 -186.7294439945012 0 -186.7294439945012 -419.58368481539702 0 0 0 0 2427.5084575372448 -994.74358526335322 0 -994.74358526335322 -94.272483859325689 0 0 0 0 4495.766739652141 -2266.762255398251 0 -2266.762255398251 659.42639713535459 0 0 0 0 18.635003772215292 10.470847109043774 0 10.470847109043774 10.112709499804971 0 0 0 0 -170.07374912955856 22.310431418020045 0 22.310431418020045 145.13533944204588 0 0 0 0 -127.34483505787784 84.330936735253545 0 84.330936735253545 26.910961427664006 0 0 0 0 -21.252633611595229 195.98928767987769 0 195.98928767987769 295.06603908636333 0 0 0 0 -70.53669657517878 847.32337897644425 0 847.32337897644425 1679.8675628073986 0 0 0 0 3692.6636042095561 1975.2803241230345 0 1975.2803241230345 -518.91860956926564 0 0 0 0 2077.250221573453 1234.7754964892142 0 1234.7754964892142 -50.267744693965255 0 0 0 0 1.9931340505517072 -3.1189158172259752 0 -3.1189158172259752 -8.0233146224507266 0 0 0 0 4493.0231142993835 1151.2899903754724 0 1151.2899903754724 -1025.0665992581985 0 0 0 0 3262.6429867352381 202.73022949015814 0 202.73022949015814 -373.07025885798345 0 0 0 0 4323.40497886905 82.450834941911083 0 82.450834941911083 -385.23471727135973 0 0 0 0 2.7164490545492543 -10.510308489598295 0 -10.510308489598295 -23.849505000410822 0 0 0 0 4107.243407869264 -53.117515138212298 0 -53.117515138212298 -156.85195085673544 0 0 0 0 350.1067214470022 54.509627500536226 0 54.509627500536226 -32.714939284607681 0 0 0 0 227.33027511401815 82.790057457095827 0 82.790057457095827 46.503717241095728 0 0 0 0 127.25893347454257 105.36551903182772 0 105.36551903182772 23.488482017944079 0 0 0 0 231.22301047911606 76.399432813975181 0 76.399432813975181 14.994593139481367 0 0 0 0 791.27245673719449 213.84526074164796 0 213.84526074164796 -1.5532794921155073 0 0 0 0 410.84738436801126 52.75639607958783 0 52.75639607958783 45.170201704992834 0 0 0 0 173.43181672886203 211.6698904752127 0 211.6698904752127 185.05745679660049 0 0 0 0 373.24740051733534 345.2903333795648 0 345.2903333795648 255.35353608201052 0 0 0 0 13.052235936753277 91.791869892743534 0 91.791869892743534 187.08062401026427 0 0 0 0 -132.34561990533621 -12.166975788478794 0 -12.166975788478794 126.93805628211931 0 0 0 0 -19.784781709160598 107.09324136232499 0 107.09324136232499 152.77213561670567 0 0 0 0 22.27460283444816 81.307407745346609 0 81.307407745346609 96.30402752273676 0 0 0 0 -0.84313829472769442 -2.9245849322786412 0 -2.9245849322786412 35.511182759649905 0 0 0 0 -237.76643196281202 -50.716663710843704 0 -50.716663710843704 121.15842882850802 0 0 0 0 -99.522202996045962 34.515623931751293 0 34.515623931751293 97.471241039898814 0 0 0 0 -85.31289488094626 3.7212030778568987 0 3.7212030778568987 -2.5349579110516061 0 0 0 0 -90.610177853150162 54.29478910951434 0 54.29478910951434 37.441996889783695 0 0 0 0 -81.397603319157497 64.240929387638971 0 64.240929387638971 45.114365558123609 0 0 0 0 -25.497616959437437 110.32770507934947 0 110.32770507934947 80.988747536282972 0 0 0 0 -79.416181359410984 60.408278161556154 0 60.408278161556154 48.336106652790477 0 0 0 0 -4.941684946345049 99.108316288699825 0 99.108316288699825 29.146667677608548 0 0 0 0 104.31458378339448 155.90497576145481 0 155.90497576145481 103.18426846271575 0 0 0 0 26.306549940760306 81.351520516318033 0 81.351520516318033 49.248463699341301 0 0 0 0 -2.5924663373443764 107.29197554232906 0 107.29197554232906 56.687268786495679 0 0 0 0 -7.0766218359894992 75.936934646090322 0 75.936934646090322 -11.593563918779182 0 0 0 0 131.24796445330139 98.683568327279318 0 98.683568327279318 -8.9150133476277915 0 0 0 0 22.634410574370122 107.06486296261392 0 107.06486296261392 -40.536531903258492 0 0 0 0 54.64927423006263 36.43334097376696 0 36.43334097376696 14.241601702750934 0 0 0 0 -51.108190488677792 54.997495856067872 0 54.997495856067872 -11.756236586608793 0 0 0 0 93.499317574343877 35.925243837939888 0 35.925243837939888 -141.17536572849485 0 0 0 0 49.766606844055786 -18.576270665129186 0 -18.576270665129186 -101.0838711229535 0 0 0 0 63.77647419389892 40.350851065435236 0 40.350851065435236 17.322141081264569 0 0 0 0 156.99565182144579 74.394650761070807 0 74.394650761070807 -118.01993158454934 0 0 0 0 222.70078384145927 210.28060273780602 0 210.28060273780602 -190.0292420665628 0 0 0 0 4285.087080725938 -249.96104512243392 0 -249.96104512243392 26.251508176408642 0 0 0 0 4501.4104467496618 -28.555585662345614 0 -28.555585662345614 559.53024742330763 0 0 0 0 121.83577917354114 73.60222949046107 0 73.60222949046107 -72.450822859082109 0 0 0 0 12.975645734816576 -13.653915505442342 0 -13.653915505442342 -39.680743011554831 0 0 0 0 3.0474314651871452 -1.1732486842154159 0 -1.1732486842154159 -3.925365592098415 0 0 0 0 5532.4688877437511 -790.13504029072135 0 -790.13504029072135 -247.81855394108817 0 0 0 0 4349.5460316525387 -265.94133626880932 0 -265.94133626880932 -27.466281740057511 0 0 0 0 4500.5492543753771 -115.75357573594002 0 -115.75357573594002 -267.62335115688808 0 0 0 0 163.87201417559845 42.69801343144627 0 42.69801343144627 -107.07552201133331 0 0 0 0 232.76999564212019 -3.3557106236221443 0 -3.3557106236221443 -31.658291925123194 0 0 0 0 133.00559120608523 42.768222187703941 0 42.768222187703941 -31.317803000355354 0 0 0 0 120.35000154784939 -0.86483421876982902 0 -0.86483421876982902 -116.55847863504127 0 0 0 0 45.56374683319882 -44.857095559103044 0 -44.857095559103044 24.375568773383517 0 0 0 0 85.222883334547589 -24.908482988470979 0 -24.908482988470979 -5.0600640013301632 0 0 0 0 88.79798379263957 47.156689549345174 0 47.156689549345174 -14.516141368206263 0 0 0 0 122.26376630866434 75.388827494051839 0 75.388827494051839 79.00342788958551 0 0 0 0 32.990962386569436 1.4829203630486134 0 1.4829203630486134 -12.928584804169539 0 0 0 0 133.82540845999392 8.1796969452998169 0 8.1796969452998169 -11.614732697612595 0 0 0 0 42.733412847694126 -55.496279501892332 0 -55.496279501892332 -14.391045234097064 0 0 0 0 71.844092056263577 -29.082785816883302 0 -29.082785816883302 -15.800357269256727 0 0 0 0 56.173202752339421 -78.711365279928941 0 -78.711365279928941 -50.073693550206031 0 0 0 0 97.319008821090392 -44.826525130752941 0 -44.826525130752941 -65.226632208790193 0 0 0 0 104.11705457450444 -90.454297031780243 0 -90.454297031780243 -88.360081767249994 0 0 0 0 47.087791649362771 -14.488755013873288 0 -14.488755013873288 -96.943564211577041 0 0 0 0 24.699650462889167 -2.3269046126526547 0 -2.3269046126526547 -10.319843669176432 0 0 0 0 93.983836511943082 88.290656618561613 0 88.290656618561613 -379.8437767092953 0 0 0 0 -216.58082164034568 -138.52331269627973 0 -138.52331269627973 491.47117407712881 0 0 0 0 121.65367587434594 -71.49661041114723 0 -71.49661041114723 -129.39441259848286 0 0 0 0 -1.1636059838442918 -19.604943940975886 0 -19.604943940975886 -7.0752192813093782 0 0 0 0 71.215640496225717 -18.324834281530649 0 -18.324834281530649 -2.5856765494959366 0 0 0 0 124.55284276480961 -69.816431262841888 0 -69.816431262841888 -82.660884579747631 0 0 0 0 68.895585020552971 -53.317123201348977 0 -53.317123201348977 -44.089889397907427 0 0 0 0 77.280184706600267 -108.28133236584108 0 -108.28133236584108 23.608271267462442 0 0 0 0 200.57832609018078 -109.76768000404627 0 -109.76768000404627 19.553939277144309 0 0 0 0 568.40245734982454 238.31322524724783 0 238.31322524724783 -483.63637440441698 0 0 0 0 427.66893120708119 -188.9325500887212 0 -188.9325500887212 -359.5758019512532 0 0 0 0 267.14692179085569 -12.165092410759897 0 -12.165092410759897 -16.109490694160488 0 0 0 0 -214.80592643887212 157.66975920019013 0 157.66975920019013 447.07970220510833 0 0 0 0 35.81540724409632 -38.382975043511593 0 -38.382975043511593 -8.5988537650917998 0 0 0 0 -40.911476946988842 111.5070152928798 0 111.5070152928798 145.40376830872151 0 0 0 0 60.56342437773128 -533.08857670014595 0 -533.08857670014595 216.8905152672105 0 0 0 0 399.47516424772766 300.91838482010826 0 300.91838482010826 -370.88666023730002 0 0 0 0 122.00255324388252 -358.61927922012785 0 -358.61927922012785 -10.92724658573843 0 0 0 0 712.68750961311798 -414.93194078317254 0 -414.93194078317254 -130.32159394546761 0 0 0 0 100.26586134329429 156.48654104809233 0 156.48654104809233 -167.78396854240555 0 0 0 0 588.15724700455576 -27.185735258651221 0 -27.185735258651221 -124.11534516533311 0 0 0 0 538.567366798492 161.20831535321491 0 161.20831535321491 -278.88329274474017 0 0 0 0 1065.43783844787 -124.64223387790844 0 -124.64223387790844 -1432.7322044412103 0 0 0 0 536.09765863004668 -70.179520760818377 0 -70.179520760818377 -156.01748943118764 0 0 0 0 1597.4138782819464 -1119.3329321171841 0 -1119.3329321171841 424.40610779584131 0 0 0 0 506.58792279437876 477.01542987074936 0 477.01542987074936 -15.505840142477609 0 0 0 0 349.5095495602236 -518.13061789062613 0 -518.13061789062613 -1177.8419579983674 0 0 0 0 14.644602755214024 41.722299479443635 0 41.722299479443635 -26.013848540748796 0 0 0 0 796.1315948477004 289.29767779296344 0 289.29767779296344 -313.15390909382222 0 0 0 0 421.77602061767175 63.510892130847878 0 63.510892130847878 -368.36459782191469 0 0 0 0 609.21276139426845 300.66406123757906 0 300.66406123757906 -275.20884174845742 0 0 0 0 630.24916750796547 168.25316203880857 0 168.25316203880857 -300.88816984991445 0 0 0 0 820.16190826194907 98.060468624111309 0 98.060468624111309 -296.97398311210964 0 0 0 0 -47.66532153030721 -280.85997128278859 0 -280.85997128278859 -261.70707261103234 0 0 0 0 297.57931533047304 101.79758003737516 0 101.79758003737516 -296.43739123063051 0 0 0 0 -86.950803116299085 -23.653041139966604 0 -23.653041139966604 -266.83871677378193 0 0 0 0 282.13719938821146 -65.794348513372469 0 -65.794348513372469 -29.754337414771573 0 0 0 0 167.4335358015378 -54.331729412238019 0 -54.331729412238019 93.072046183615385 0 0 0 0 83.249496862507996 -1.3408500430866965 0 -1.3408500430866965 0.80844968977784148 0 0 0 0 210.67292029508098 1.1709230353676503 0 1.1709230353676503 -2.142577251588591 0 0 0 0 177.83436057134531 97.570648515031507 0 97.570648515031507 -99.910831626020808 0 0 0 0 131.28550499495032 160.50640912536437 0 160.50640912536437 59.291363216224909 0 0 0 0 114.61709515624989 -2.488641706456292 0 -2.488641706456292 -138.90092398243723 0 0 0 0 152.77167440590247 30.594372116516922 0 30.594372116516922 -1.6886803973859532 0 0 0 0 201.23341406523468 112.93850358882628 0 112.93850358882628 -337.42948922405594 0 0 0 0 157.7654726024152 32.544628275669204 0 32.544628275669204 6.252630551484387 0 0 0 0 211.2857660679274 126.50149495154983 0 126.50149495154983 -241.27003864362496 0 0 0 0 133.90634440715075 33.347718892453486 0 33.347718892453486 42.811144436919676 0 0 0 0 137.06163671283321 -17.477465321534964 0 -17.477465321534964 4.6565415429704444 0 0 0 0 153.51332977276252 -28.338053093794542 0 -28.338053093794542 -80.109236772004806 0 0 0 0 226.31384510180942 67.693675400530083 0 67.693675400530083 -178.28819271457405 0 0 0 0 153.3710174080602 -6.7161263927143295 0 -6.7161263927143295 12.668557565856645 0 0 0 0 59.245690420561004 36.231968208579929 0 36.231968208579929 -1.86848408199603 0 0 0 0 73.745492042165452 26.886015277450863 0 26.886015277450863 4.7558785436251094 0 0 0 0 131.60652902724541 31.769719799077848 0 31.769719799077848 -38.654983229695063 0 0 0 0 86.883744503248707 28.491191202273782 0 28.491191202273782 1.9618970671193878 0 0 0 0 93.634645089237893 98.791980688653211 0 98.791980688653211 -45.161349282399897 0 0 0 0 175.82008382317144 61.179919330686062 0 61.179919330686062 -41.444007537194921 0 0 0 0 43.732566021000636 -7.7952422778823021 0 -7.7952422778823021 -29.695264381941954 0 0 0 0 106.39228450492374 38.62282331728693 0 38.62282331728693 -27.774411114532995 0 0 0 0 186.51938260137103 57.692283988350027 0 57.692283988350027 -140.34198233459665 0 0 0 0 161.84516650555634 128.90107961693957 0 128.90107961693957 -124.08619078418405 0 0 0 0 189.14387826724851 6.19946772079129 0 6.19946772079129 -139.55290797339785 0 0 0 0 158.71439220110591 36.402211658249776 0 36.402211658249776 5.9688438588196364 0 0 0 0 157.68663091964845 17.843057573933038 0 17.843057573933038 -9.7510421905574276 0 0 0 0 148.08877659852442 8.8895377028566145 0 8.8895377028566145 -8.5238126730237127 0 0 0 0 151.34949231434439 21.321009039809724 0 21.321009039809724 -20.364893306084923 0 0 0 0 151.05537947545236 11.207856337709018 0 11.207856337709018 -17.299856248054766 0 0 0 0 157.17744423832846 3.4242713660589743 0 3.4242713660589743 -61.867226675569327 0 0 0 0 175.52435781418171 40.93983829534136 0 40.93983829534136 -69.185264353853199 0 0 0 0 151.14334397054336 22.711276295827702 0 22.711276295827702 -29.039691092437351 0 0 0 0 139.08044092962518 42.780243653821344 0 42.780243653821344 -37.052408049479709 0 0 0 0 142.73713231348665 36.593761969055777 0 36.593761969055777 -27.672445918141534 0 0 0 0 146.77929051121464 17.991572679326055 0 17.991572679326055 -9.0096727002610351 0 0 0 0 137.837895698176 24.307633190381239 0 24.307633190381239 -9.8226562587751687 0 0 0 0 139.69172821699067 19.889932491471313 0 19.889932491471313 -4.6347204555731878 0 0 0 0 142.4966446501785 17.579494820543914 0 17.579494820543914 -9.7977986268501809 0 0 0 0 142.6919755343697 12.845018161591724 0 12.845018161591724 0.90153064694641216 0 0 0 0 129.49480598617083 30.969511813563258 0 30.969511813563258 -13.018100814946592 0 0 0 0 143.20270789480128 25.306023995413852 0 25.306023995413852 0.15480365373696259 0 0 0 0 147.01984486290894 18.537545099748968 0 18.537545099748968 -5.5168845841944858 0 0 0 0 147.45985474619374 28.115404997892256 0 28.115404997892256 -24.458514731546529 0 0 0 0 145.93039885869075 12.588344599004813 0 12.588344599004813 0.28416721949179191 0 0 0 0 140.79147300033947 15.933492849049799 0 15.933492849049799 1.0110299802072404 0 0 0 0 144.75420361334909 15.463219029222728 0 15.463219029222728 0.66220340159998159 0 0 0 0 143.00294899738947 18.745676346389246 0 18.745676346389246 1.7121333737013629 0 0 0 0 159.03207923757145 31.22389579135961 0 31.22389579135961 0.42262684966954112 0 0 0 0 147.53975974710193 24.206848022239114 0 24.206848022239114 9.5953311064258742 0 0 0 0 158.36611386998266 46.003777476180403 0 46.003777476180403 31.404451892629368 0 0 0 0 145.3243881841845 29.37415537126526 0 29.37415537126526 18.780984248582172 0 0 0 0 155.45776686238241 20.391085567388473 0 20.391085567388473 0.73024769133189693 0 0 0 0 147.07735399271041 16.072345628885387 0 16.072345628885387 11.067363408104939 0 0 0 0 146.9904249245119 44.741606820182369 0 44.741606820182369 56.956777885296106 0 0 0 0 157.71215506672161 28.715025760295248 0 28.715025760295248 16.451155275404744 0 0 0 0 175.04214928691363 71.406371242138903 0 71.406371242138903 27.812193286867114 0 0 0 0 202.71186403397587 91.663909008766495 0 91.663909008766495 29.221798006813742 0 0 0 0 197.57388894895848 65.542006712065813 0 65.542006712065813 6.4904541289288318 0 0 0 0 179.06565490197499 55.727648588390821 0 55.727648588390821 13.523088200960046 0 0 0 0 175.39996073415386 61.047776608360437 0 61.047776608360437 20.6248361561411 0 0 0 0 154.68410843674792 38.010634997437592 0 38.010634997437592 11.647701343361405 0 0 0 0 154.99073796316497 32.929537542280059 0 32.929537542280059 -13.56340119948436 0 0 0 0 176.18369434649685 46.340557919106459 0 46.340557919106459 -1.9565997046011034 0 0 0 0 155.42981448874343 47.197486731034587 0 47.197486731034587 9.4951181680644368 0 0 0 0 197.85885227183462 50.256744973085006 0 50.256744973085006 -1.8166332272176078 0 0 0 0 155.24039532229654 49.178897763904388 0 49.178897763904388 -10.185966593038756 0 0 0 0 100.78754801762989 40.157886846483962 0 40.157886846483962 15.790198248545494 0 0 0 0 120.33093579046545 43.7635839762861 0 43.7635839762861 -12.006720983183186 0 0 0 0 141.58447778975824 29.903920869664944 0 29.903920869664944 -8.064228311013494 0 0 0 0 434.94598068467167 80.547346567888781 0 80.547346567888781 16.875576218054505 0 0 0 0 234.37392397838994 199.56650058597097 0 199.56650058597097 123.77897480614411 0 0 0 0 1.4728103333115712 -15.951950604664001 0 -15.951950604664001 -5.4217356352064545 0 0 0 0 172.70912813898758 -134.69881680537401 0 -134.69881680537401 -5.1146508894989609 0 0 0 0 144.81877872670157 160.68962307376023 0 160.68962307376023 268.50340508895897 0 0 0 0 151.0195822291862 30.436688630371464 0 30.436688630371464 236.23773331642587 0 0 0 0 169.17314814971178 45.161902542919961 0 45.161902542919961 31.886809245635959 0 0 0 0 213.49168335353897 153.75305212149942 0 153.75305212149942 89.499052555426942 0 0 0 0 151.36434283289418 32.789009462994727 0 32.789009462994727 113.86815246163133 0 0 0 0 231.56306297655829 108.06726683403485 0 108.06726683403485 -22.286713461193358 0 0 0 0 192.09035803780716 93.133760094681747 0 93.133760094681747 55.33157803384529 0 0 0 0 187.35269592054101 107.09623828537769 0 107.09623828537769 21.806901271333118 0 0 0 0 204.60708985889869 86.661351921281948 0 86.661351921281948 38.180925029491846 0 0 0 0 223.03496973475558 101.71521956493052 0 101.71521956493052 22.509859684684443 0 0 0 0 218.76315703160435 135.36341424406669 0 135.36341424406669 -6.8967869859061466 0 0 0 0 132.47899128552854 -36.785433362776899 0 -36.785433362776899 -94.449005740611938 0 0 0 0 8.7015791235962752 -81.981702705365393 0 -81.981702705365393 -81.532982553935653 0 0 0 0 16.971672902043792 18.073896612034332 0 18.073896612034332 -33.395869148519523 0 0 0 0 117.49802095209361 58.267262145222958 0 58.267262145222958 -53.315547859097933 0 0 0 0 51.106111855525143 -17.848245255955277 0 -17.848245255955277 -28.013548024953263 0 0 0 0 157.04990527301561 57.477169543515629 0 57.477169543515629 30.999834211486814 0 0 0 0 199.10294514990528 99.83373341768538 0 99.83373341768538 33.04293846282053 0 0 0 0 15.92098200609805 6.9768785113208835 0 6.9768785113208835 3.551155228405527 0 0 0 0 22.293917718459852 -37.610979176422916 0 -37.610979176422916 -54.219448935320315 0 0 0 0 194.27344245687709 102.0436208042338 0 102.0436208042338 53.586934929087874 0 0 0 0 55.359750949499698 -16.808051058158817 0 -16.808051058158817 -7.5797243555762206 0 0 0 0 52.482126950732464 -28.337259961924332 0 -28.337259961924332 -4.8182980919802105 0 0 0 0 80.825356968030974 -45.908757617923129 0 -45.908757617923129 -160.25953402764299 0 0 0 0 81.949345326967887 -190.9809926642813 0 -190.9809926642813 -126.104099978249 0 0 0 0 16.917980391823221 -39.997691247460352 0 -39.997691247460352 -54.438631305404215 0 0 0 0 53.854496476921128 0.028189537976089696 0 0.028189537976089696 -46.44810187242193 0 0 0 0 65.814674237896725 -7.7434910626217288 0 -7.7434910626217288 24.966534435327048 0 0 0 0 174.69198768659408 29.153005361524265 0 29.153005361524265 8.9765833161300179 0 0 0 0 177.0849394957022 53.164592978839437 0 53.164592978839437 13.760378239232523 0 0 0 0 249.2561699328362 71.475531906980905 0 71.475531906980905 5.8249951607831463 0 0 0 0 243.28559094943193 46.946615084518271 0 46.946615084518271 -20.946177213982082 0 0 0 0 217.25399019651377 114.09806102309449 0 114.09806102309449 41.164446292405046 0 0 0 0 268.86392712093948 105.85359549926761 0 105.85359549926761 7.9107454513250559 0 0 0 0 250.97931158903521 126.26679528574641 0 126.26679528574641 34.830537405316136 0 0 0 0 193.85624219740566 73.402566697703605 0 73.402566697703605 16.36507986433935 0 0 0 0 239.60198668230441 85.056916013623777 0 85.056916013623777 -6.0571935622756428 0 0 0 0 215.39694493470597 103.16326784102785 0 103.16326784102785 20.918181428827666 0 0 0 0 217.93983731750632 115.52253932872372 0 115.52253932872372 38.146103627398638 0 0 0 0 217.69074015310866 123.98489179055554 0 123.98489179055554 58.532436963640066 0 0 0 0 2.5365370976505801 -25.921912408321077 0 -25.921912408321077 -25.781889179620521 0 0 0 0 52.63240694554375 -12.711881917761701 0 -12.711881917761701 -19.384863934350925 0 0 0 0 27.069924678500371 -51.703631925580112 0 -51.703631925580112 -71.470751923262483 0 0 0 0 -1.2270325631834567 -46.090495062875561 0 -46.090495062875561 -32.210259993575164 0 0 0 0 65.442756340706921 -20.230254412535245 0 -20.230254412535245 -19.440090316713722 0 0 0 0 104.69618429836767 13.083697859961291 0 13.083697859961291 -30.655410065010546 0 0 0 0 23.927736709549208 -29.84768322250784 0 -29.84768322250784 -73.020559965130815 0 0 0 0 101.61165133467853 6.0229845329433971 0 6.0229845329433971 -23.024761432201558 0 0 0 0 -4.7905668468058593 -15.17028597320148 0 -15.17028597320148 -10.379121624090461 0 0 0 0 -93.760891587036895 -88.828501301975848 0 -88.828501301975848 106.25723846394612 0 0 0 0 1.5973424896073993 -143.85590828441127 0 -143.85590828441127 -13.462075051844295 0 0 0 0 3.8720372316602152 -198.57106126089639 0 -198.57106126089639 -292.59310509277566 0 0 0 0 -136.43961614923319 -219.52565126446643 0 -219.52565126446643 37.676710669518798 0 0 0 0 296.88337416424474 226.42965108291901 0 226.42965108291901 183.85336962449674 0 0 0 0 306.63390809357224 13.878112897806204 0 13.878112897806204 -41.858124378499269 0 0 0 0 327.5903625850915 185.2275684822489 0 185.2275684822489 120.09210680625984 0 0 0 0 85.584063789900796 41.47426546162788 0 41.47426546162788 4.0666829061326428 0 0 0 0 402.42016520715697 112.39858131349138 0 112.39858131349138 -24.518166663514421 0 0 0 0 210.11809878976783 -40.628688748054628 0 -40.628688748054628 -30.648366227109364 0 0 0 0 103.17719033879257 71.809717441783675 0 71.809717441783675 15.34151139907226 0 0 0 0 54.458278831454521 35.946926033224372 0 35.946926033224372 2.2208157582240666 0 0 0 0 67.8492539642466 21.193376766621213 0 21.193376766621213 -4.4559134762057511 0 0 0 0 63.995118864622782 -66.759229350036236 0 -66.759229350036236 97.812074013238089 0 0 0 0 100.77185941848438 36.199008983286149 0 36.199008983286149 -1.7928233735774484 0 0 0 0 42.643632148125988 -13.904960840527281 0 -13.904960840527281 -9.0781990397108814 0 0 0 0 57.882416197520627 19.928642815683887 0 19.928642815683887 -7.3829446931054106 0 0 0 0 105.34030903223902 30.682790660869614 0 30.682790660869614 4.1222430547986733 0 0 0 0 -169.51275588490535 -283.49179711475153 0 -283.49179711475153 -79.042857544438448 0 0 0 0 -6.5854805696507412 -77.450897681787595 0 -77.450897681787595 -28.021644437390258 0 0 0 0 -184.7435213541612 -280.0414650150924 0 -280.0414650150924 30.758810255829303 0 0 0 0 -6.6385955542071429 -32.012920268673504 0 -32.012920268673504 -1.6930944301833204 0 0 0 0 93.513440939101883 -30.998824618307339 0 -30.998824618307339 -34.798717235588683 0 0 0 0 30.976503194877296 -35.652460530696658 0 -35.652460530696658 -25.781048883882249 0 0 0 0 30.749691093515139 -38.813935098442016 0 -38.813935098442016 -47.658876254281495 0 0 0 0 64.088286688394589 -16.777165203718113 0 -16.777165203718113 -8.6395830825876399 0 0 0 0 114.14946355501525 -30.064226497689354 0 -30.064226497689354 -39.551897505643872 0 0 0 0 54.51803618541453 -98.835701925053854 0 -98.835701925053854 -7.0605510120758481 0 0 0 0 62.042563583803712 -93.795254960267982 0 -93.795254960267982 -123.69113336207556 0 0 0 0 29.725655309236231 -12.706139284362877 0 -12.706139284362877 -19.880345268578928 0 0 0 0 181.11533591966145 -87.641218548168808 0 -87.641218548168808 188.37612837112647 0 0 0 0 76.484229846413655 -24.21946743209628 0 -24.21946743209628 -148.78237793693552 0 0 0 0 54.336677137558581 -12.105590940409115 0 -12.105590940409115 145.61533236990181 0 0 0 0 216.22732559268479 76.186240256313567 0 76.186240256313567 -36.419545921072313 0 0 0 0 391.05163004508358 -30.671772369357541 0 -30.671772369357541 27.177738601229066 0 0 0 0 285.81239201214339 149.63104016959937 0 149.63104016959937 20.465783413369763 0 0 0 0 212.20403984532823 125.69383174914037 0 125.69383174914037 226.95037851810912 0 0 0 0 297.52177729770483 105.03010186715028 0 105.03010186715028 -2.0864776724715739 0 0 0 0 7.5812235218849366 1.0648281076188653 0 1.0648281076188653 -1.3518057855369303 0 0 0 0 181.0178927101224 3.738069101611444 0 3.738069101611444 -59.441402424544322 0 0 0 0 -10.575974908570061 101.65998211655744 0 101.65998211655744 -86.838522102252682 0 0 0 0 6.3092613405198392 3.0936375195136634 0 3.0936375195136634 -1.0136164474130895 0 0 0 0 18.652727490349207 60.543290844625972 0 60.543290844625972 -82.710897802049431 0 0 0 0 6.3617221097933339 8.5615278463245801 0 8.5615278463245801 -5.283681453337576 0 0 0 0 68.567129640287021 -39.666335024863088 0 -39.666335024863088 74.297513273456616 0 0 0 0 27.080871050739745 24.723362601481412 0 24.723362601481412 7.9103872997621121 0 0 0 0 -50.11806864241953 30.574903613708784 0 30.574903613708784 96.560055681003817 0 0 0 0 -0.97591131864464842 85.424640162177525 0 85.424640162177525 116.09991068497288 0 0 0 0 -20.157759846842964 10.568327205874709 0 10.568327205874709 85.581457089113883 0 0 0 0 -11.907316422351869 -14.03340175798337 0 -14.03340175798337 124.97660068831055 0 0 0 0 36.805805708085245 21.69456968016641 0 21.69456968016641 96.531288826253785 0 0 0 0 29.190218192896282 41.151500761615353 0 41.151500761615353 48.777605218661847 0 0 0 0 127.4216669491434 48.021000984645525 0 48.021000984645525 5.2808962544378915 0 0 0 0 250.74700980831403 65.600293839021106 0 65.600293839021106 5.1639470417001121 0 0 0 0 359.75616003299365 217.47722546580144 0 217.47722546580144 68.432252373497477 0 0 0 0 78.603924596420256 92.420329398902368 0 92.420329398902368 15.300932851380594 0 0 0 0 66.760185618739342 77.762646855946286 0 77.762646855946286 65.649218567904882 0 0 0 0 292.31254567080759 39.866126536965794 0 39.866126536965794 -58.028906581250105 0 0 0 0 1.4041484597674412 1.6900238489946986 0 1.6900238489946986 1.8781794776710194 0 0 0 0 -50.685905111138709 145.53648181619866 0 145.53648181619866 90.75908982159126 0 0 0 0 -91.87039419310895 -14.510053266595378 0 -14.510053266595378 80.214851439921631 0 0 0 0 -117.09466520963906 54.600995758230283 0 54.600995758230283 110.65263661759332 0 0 0 0 -28.54244152866886 2.844642513495387 0 2.844642513495387 -14.854511947349835 0 0 0 0 -43.252814446277625 29.023758336384503 0 29.023758336384503 94.778078669683737 0 0 0 0 -16.672119662283876 -48.651785430627491 0 -48.651785430627491 111.50013804037144 0 0 0 0 -6.7551487036807885 -12.779808700544869 0 -12.779808700544869 120.39550643323787 0 0 0 0 143.26587097058655 -11.647649250019612 0 -11.647649250019612 88.06200544130354 0 0 0 0 -6.6823211000446463 -12.057586613584476 0 -12.057586613584476 119.94579706833701 0 0 0 0 -47.079937544389395 9.7036524491390992 0 9.7036524491390992 112.68811602172173 0 0 0 0 -44.800069218850695 -23.00134654353792 0 -23.00134654353792 122.5076846573337 0 0 0 0 29.746810570205753 -4.3906316501748943 0 -4.3906316501748943 2.3460091443677875 0 0 0 0 -31.966878951105173 -10.639952623565705 0 -10.639952623565705 131.49269768822273 0 0 0 0 62.594544340288849 -326.34345650320108 0 -326.34345650320108 -148.10313202979506 0 0 0 0 -79.443202033766283 85.43302804050046 0 85.43302804050046 133.05910455473759 0 0 0 0 14.694360425008654 397.07107804941114 0 397.07107804941114 -80.195682411696453 0 0 0 0 19.122007570462301 -98.755939874141404 0 -98.755939874141404 -60.861058711100213 0 0 0 0 84.185775037534768 -85.05526539981156 0 -85.05526539981156 -194.73954554554803 0 0 0 0 37.407404067539574 4.8407090165300417 0 4.8407090165300417 -104.75110561031397 0 0 0 0 49.887212181680013 -17.542135129831241 0 -17.542135129831241 6.6869465387171028 0 0 0 0 13.204285744090328 -6.0867089957391372 0 -6.0867089957391372 2.1850211941405155 0 0 0 0 383.85012797886156 306.03510934630867 0 306.03510934630867 -332.70724938276669 0 0 0 0 387.55387951698503 282.00011089397094 0 282.00011089397094 -347.43464082336482 0 0 0 0 35.838602890610161 -14.726216432515624 0 -14.726216432515624 3.9475093278967694 0 0 0 0 92.293061595773906 -596.26291984672639 0 -596.26291984672639 62.499875426489552 0 0 0 0 68.542869974597124 -107.29666086119687 0 -107.29666086119687 -96.024040020050506 0 0 0 0 315.7638084096543 -327.37860386456623 0 -327.37860386456623 -575.64857941928869 0 0 0 0 -203.64608354087977 -67.864454749233573 0 -67.864454749233573 646.45234980852752 0 0 0 0 177.8185707724042 19.04440647739591 0 19.04440647739591 71.591259727147104 0 0 0 0 8.2705030635402181 -2.6334804153550078 0 -2.6334804153550078 0.77060024371634572 0 0 0 0 194.99827018126962 -0.098399761340715486 0 -0.098399761340715486 509.7249229693 0 0 0 0 328.14482032304659 432.91137341476008 0 432.91137341476008 24.494040935189787 0 0 0 0 214.39893124830996 -10.747612158887932 0 -10.747612158887932 -107.84916430643943 0 0 0 0 299.97187003870204 -243.34639048773545 0 -243.34639048773545 179.73925551566936 0 0 0 0 130.93805630983843 -85.198949662312657 0 -85.198949662312657 77.905328993433386 0 0 0 0 404.85672388159946 -112.01887804573977 0 -112.01887804573977 48.925922984765066 0 0 0 0 229.53934658117942 -126.32928699399363 0 -126.32928699399363 77.114760546342211 0 0 0 0 221.92392367304365 -167.66625716820087 0 -167.66625716820087 164.80957384544882 0 0 0 0 295.35810997194494 -204.5180547280998 0 -204.5180547280998 65.628263772950618 0 0 0 0 250.74347751929599 -157.13217814468888 0 -157.13217814468888 61.065999314059354 0 0 0 0 160.01392855362792 -84.492728044510727 0 -84.492728044510727 84.208662601693959 0 0 0 0 307.83063349078475 -25.601557629713923 0 -25.601557629713923 106.1932167973215 0 0 0 0 765.05224464634375 -97.481463600609075 0 -97.481463600609075 83.999712417468061 0 0 0 0 1075.2722240265284 51.88805307289158 0 51.88805307289158 -123.67785301789269 0 0 0 0 1086.2069337727917 76.607005447163601 0 76.607005447163601 -75.941479063853649 0 0 0 0 855.78892632930365 174.16505684732954 0 174.16505684732954 258.19871083952194 0 0 0 0 1051.6954743697788 27.315681835199115 0 27.315681835199115 -64.356923667955471 0 0 0 0 1043.1297177990491 6.285224359104177 0 6.285224359104177 -103.426399937741 0 0 0 0 604.97795754202525 408.1554326768852 0 408.1554326768852 -170.12191498590755 0 0 0 0 6.3453462252021495 2.3863163237910641 0 2.3863163237910641 0.19622620649011324 0 0 0 0 1242.6137107095637 -851.13619354907405 0 -851.13619354907405 674.68098295354912 0 0 0 0 1428.843361614985 12.077015078904651 0 12.077015078904651 243.66316685194624 0 0 0 0 938.81708268642251 317.90817258527943 0 317.90817258527943 188.73247996175587 0 0 0 0 426.8741745756779 66.182859151272737 0 66.182859151272737 358.89871441064224 0 0 0 0 769.62435617604206 390.05259189449259 0 390.05259189449259 238.67151397963471 0 0 0 0 771.66237158219155 59.734858279799937 0 59.734858279799937 209.00558933728576 0 0 0 0 645.56742179626599 -477.32861610616078 0 -477.32861610616078 225.48251159823349 0 0 0 0 609.69642025997746 -342.90730311842003 0 -342.90730311842003 479.16379512092851 0 0 0 0 741.11521951878967 -614.1629474264505 0 -614.1629474264505 192.38403007813304 0 0 0 0 617.91894804828917 -724.33199387568357 0 -724.33199387568357 318.39308980206897 0 0 0 0 15.742648815493055 6.9274249561465666 0 6.9274249561465666 -2.7810726158699204 0 0 0 0 177.4197893832752 -43.618813201026569 0 -43.618813201026569 -633.6008585226615 0 0 0 0 291.41060856825789 277.31160410560756 0 277.31160410560756 -598.82069466436599 0 0 0 0 291.47754446411273 1377.3345690681829 0 1377.3345690681829 1013.402982213398 0 0 0 0 289.98400035189115 317.99570399515324 0 317.99570399515324 -299.60294929882957 0 0 0 0 281.95857116047409 124.60955097866804 0 124.60955097866804 -305.2122591654396 0 0 0 0 -22.146910209732596 -75.180196405557126 0 -75.180196405557126 -103.05192722531342 0 0 0 0 172.29460946534527 -145.22792473213224 0 -145.22792473213224 121.14798678644615 0 0 0 0 234.32286287975148 -65.405061138377675 0 -65.405061138377675 -133.65948217329378 0 0 0 0 278.52338325104938 138.46124075675709 0 138.46124075675709 -357.12509322916776 0 0 0 0 290.96296224716934 237.608557973497 0 237.608557973497 35.230239484996673 0 0 0 0 -72.464221666523372 -189.13852370586017 0 -189.13852370586017 -345.58857745722435 0 0 0 0 -428.91403641256329 444.10348113736381 0 444.10348113736381 -161.0768580572385 0 0 0 0 720.45376972010126 -512.70710367612946 0 -512.70710367612946 351.61624763106795 0 0 0 0 6.3601089809798168 -2.6697202367138857 0 -2.6697202367138857 -9.7064636486389144 0 0 0 0 630.90786627050147 -537.48826514191296 0 -537.48826514191296 347.09324228825517 0 0 0 0 22.258223181954236 -10.273884998169137 0 -10.273884998169137 -7.9590053615152101 0 0 0 0 21.426372440953855 -8.948752898239178 0 -8.948752898239178 0.70267111361636125 0 0 0 0 39.464509710887796 -10.256591804757818 0 -10.256591804757818 -1.111647503399297 0 0 0 0 1.2113381620509971 -8.1001605350830914 0 -8.1001605350830914 -0.40620039901771499 0 0 0 0 10.262703766781215 2.3866329385215153 0 2.3866329385215153 -8.4164732293495845 0 0 0 0 146.01114487843734 -22.272145173371655 0 -22.272145173371655 170.96739800708951 0 0 0 0 550.87545889092144 59.127615553316616 0 59.127615553316616 -183.20023155297133 0 0 0 0 545.01446680508889 53.136624178614824 0 53.136624178614824 53.561768912130219 0 0 0 0 834.05551225092495 273.96734627567162 0 273.96734627567162 -77.914575687207659 0 0 0 0 872.97008860346978 111.23351354763508 0 111.23351354763508 -113.52140609708931 0 0 0 0 820.71485728630796 229.79916727031934 0 229.79916727031934 125.80855150747652 0 0 0 0 909.08030846244947 285.66283578467483 0 285.66283578467483 22.953100409285071 0 0 0 0 880.41640334975091 353.53913748489583 0 353.53913748489583 328.26970887431912 0 0 0 0 1492.2255305771105 448.37720754737495 0 448.37720754737495 16.303942329051779 0 0 0 0 683.89571160229389 432.49467932497691 0 432.49467932497691 303.54800170944327 0 0 0 0 1021.7898991420807 776.03900741888174 0 776.03900741888174 54.38955501298642 0 0 0 0 1400.3899204001209 -42.26131442460337 0 -42.26131442460337 -12.616898369126488 0 0 0 0 -3.7723260124349736 50.708232124230818 0 50.708232124230818 -116.57739680492205 0 0 0 0 4.6281042052916916 -0.28027895763804622 0 -0.28027895763804622 -1.2781166591062032 0 0 0 0 708.47680737227165 -251.27306790494717 0 -251.27306790494717 -74.185828558195226 0 0 0 0 832.39735925193236 -390.84118768931262 0 -390.84118768931262 168.40331399371394 0 0 0 0 735.94369061787438 -464.14406949043439 0 -464.14406949043439 143.80821300147636 0 0 0 0 4.676405266731658 -1.2508580315938786 0 -1.2508580315938786 -1.4773726490667283 0 0 0 0 995.11688197123249 -408.45011580865935 0 -408.45011580865935 90.893949256997985 0 0 0 0 864.80724174591887 -580.70273054913821 0 -580.70273054913821 -47.047119550318712 0 0 0 0 839.79288300617191 -602.06747697992546 0 -602.06747697992546 401.04087893283804 0 0 0 0 676.53887599705195 -404.68030985647965 0 -404.68030985647965 162.64817402019668 0 0 0 0 661.43078879163659 -437.09271285099226 0 -437.09271285099226 234.59162793421433 0 0 0 0 729.63751785509521 -407.63038706311772 0 -407.63038706311772 97.789443686890991 0 0 0 0 713.20022418200097 -454.91436424884068 0 -454.91436424884068 160.09053028439007 0 0 0 0 355.76490492653102 -207.8439213755974 0 -207.8439213755974 969.53402068750506 0 0 0 0 266.01200463168061 -24.502062671333402 0 -24.502062671333402 596.66373929966494 0 0 0 0 267.4842364666838 409.78834456652703 0 409.78834456652703 776.98928002247555 0 0 0 0 514.5351808481646 -313.6825094887414 0 -313.6825094887414 390.83617545283897 0 0 0 0 394.1544239521827 -265.22492035961591 0 -265.22492035961591 408.86049054018144 0 0 0 0 510.35100774165767 -308.38647674205561 0 -308.38647674205561 667.60807162698893 0 0 0 0 524.63024880109879 -255.23879799975549 0 -255.23879799975549 589.44948762732804 0 0 0 0 648.97990647413826 -722.20051876729281 0 -722.20051876729281 696.70666383053276 0 0 0 0 1129.7258237569622 -319.78096770756929 0 -319.78096770756929 698.33034067451399 0 0 0 0 558.66142744072567 -431.49448326904758 0 -431.49448326904758 1436.4671636991338 0 0 0 0 259.14528677865746 105.21664729809982 0 105.21664729809982 1597.743012183726 0 0 0 0 973.75118524386198 -399.04547188841121 0 -399.04547188841121 1125.7580472824648 0 0 0 0 2183.8999739709398 -1237.3485998316037 0 -1237.3485998316037 2051.6381030570601 0 0 0 0 3113.2535879596544 -1259.0281538748127 0 -1259.0281538748127 785.51939707182476 0 0 0 0 2836.7547717938869 -780.07285515431658 0 -780.07285515431658 791.97281335360867 0 0 0 0 1005.8614179573196 -287.32793714935883 0 -287.32793714935883 1510.097739347076 0 0 0 0 2555.6626330823492 -259.91383711687695 0 -259.91383711687695 1187.4894826071231 0 0 0 0 997.1474788180858 -358.44947590476045 0 -358.44947590476045 1444.4453501136406 0 0 0 0 1396.8133039695167 267.3676125025076 0 267.3676125025076 -205.39036872953011 0 0 0 0 3208.1448190523079 -657.57825994039194 0 -657.57825994039194 215.71203125891179 0 0 0 0 1438.1153725649638 1138.065724526479 0 1138.065724526479 -396.68346350167803 0 0 0 0 317.37729827762814 1215.4410363553213 0 1215.4410363553213 -399.78239156425593 0 0 0 0 2139.7359426121839 930.71512670458628 0 930.71512670458628 -430.41299389654523 0 0 0 0 1017.2564749454032 744.11667561843115 0 744.11667561843115 67.515197322096583 0 0 0 0 434.8412269075634 973.56078527484283 0 973.56078527484283 121.02162018390027 0 0 0 0 558.42898882263762 537.34646654811638 0 537.34646654811638 35.210246691104658 0 0 0 0 3077.3071161427561 -1077.2212913226299 0 -1077.2212913226299 271.66635011155745 0 0 0 0 13.148246297162984 5.9353732701925139 0 5.9353732701925139 -0.052185968662197268 0 0 0 0 3012.2975811854994 -764.47027808402356 0 -764.47027808402356 341.4682882619536 0 0 0 0 133.41283065237803 21.153727166588396 0 21.153727166588396 -133.81386060708718 0 0 0 0 22.078631974235833 -9.9550915376088192 0 -9.9550915376088192 0.11911662215453145 0 0 0 0 728.80557165854407 -2050.4246051807586 0 -2050.4246051807586 4893.4784043260242 0 0 0 0 3345.8134474516846 -2046.2355660282037 0 -2046.2355660282037 1775.4077178626535 0 0 0 0 1580.4423427535266 -300.80771999784849 0 -300.80771999784849 840.21648933085362 0 0 0 0 1434.8646111873404 -1637.7517844569186 0 -1637.7517844569186 1888.3003181967615 0 0 0 0 1732.6841956539647 -421.53577092548403 0 -421.53577092548403 -1807.0471515413183 0 0 0 0 935.39534194137377 -1219.1995937493175 0 -1219.1995937493175 5.2806447280563589 0 0 0 0 -206.29321975538915 604.56497860383661 0 604.56497860383661 632.54151912717543 0 0 0 0 881.25551281547268 -569.44984481280562 0 -569.44984481280562 1259.0124874368703 0 0 0 0 2007.8151605169405 458.3054090497169 0 458.3054090497169 2076.7066524140282 0 0 0 0 592.55568885600223 604.18258764966595 0 604.18258764966595 908.99540896860799 0 0 0 0 246.54688145934051 1093.2370899890198 0 1093.2370899890198 -671.45061975655699 0 0 0 0 28.916948612401029 258.53368501634213 0 258.53368501634213 702.60823304218229 0 0 0 0 85.508506923353707 703.48976340178388 0 703.48976340178388 272.99102977549228 0 0 0 0 -131.7779725715809 221.62309205917791 0 221.62309205917791 -182.05974722792689 0 0 0 0 181.6446433505771 375.66230556213395 0 375.66230556213395 772.91835416654794 0 0 0 0 199.35252925167151 807.67718536683628 0 807.67718536683628 393.20991696909459 0 0 0 0 419.55440424679546 -701.2754882126012 0 -701.2754882126012 504.86380115864148 0 0 0 0 22.783151615862153 -284.58364098108507 0 -284.58364098108507 206.96388077145684 0 0 0 0 -115.72285715675389 597.61388063119989 0 597.61388063119989 357.68273152284922 0 0 0 0 37.634092378371861 -669.8713979899477 0 -669.8713979899477 1282.4647900062653 0 0 0 0 892.0974166355154 -4.3716011274286757 0 -4.3716011274286757 -73.603534382967268 0 0 0 0 1126.3238249969727 -993.43221667767477 0 -993.43221667767477 -574.00236966607713 0 0 0 0 12.078675015046656 -6.3605621179982021 0 -6.3605621179982021 -2.1489684925963641 0 0 0 0 915.68608874868232 -643.06619543161787 0 -643.06619543161787 113.63788431030116 0 0 0 0 581.87860038401413 -509.22567113558915 0 -509.22567113558915 351.93490168726203 0 0 0 0 414.64109789635404 28.421279738139219 0 28.421279738139219 55.398842478803772 0 0 0 0 -753.65724883112125 -1606.9753370984649 0 -1606.9753370984649 -649.4054408245031 0 0 0 0 513.43248401437086 -513.78152438578229 0 -513.78152438578229 263.48918273023037 0 0 0 0 537.94345578513457 -640.18254835141852 0 -640.18254835141852 114.94256138655419 0 0 0 0 493.77995319390902 -591.48483056479745 0 -591.48483056479745 100.54845881182018 0 0 0 0 563.0463477306912 -209.88036034666936 0 -209.88036034666936 -129.29552279176596 0 0 0 0 -20.32269262112095 -6.648934537419791 0 -6.648934537419791 -94.429121885754711 0 0 0 0 281.06237694673473 -225.29056799226919 0 -225.29056799226919 181.76505197607321 0 0 0 0 84.987973331095418 -118.99713498298388 0 -118.99713498298388 169.94623197196734 0 0 0 0 64.097023454931332 362.42687985100929 0 362.42687985100929 240.60494672129553 0 0 0 0 388.0612290956924 306.27890470942043 0 306.27890470942043 43.14783982016138 0 0 0 0 105.84401710212114 273.11191710295498 0 273.11191710295498 -340.49411419775379 0 0 0 0 64.632911096094176 709.64404947816092 0 709.64404947816092 12.827613349465992 0 0 0 0 -229.47653680853546 -11.886731972525013 0 -11.886731972525013 -114.16132904945857 0 0 0 0 131.85404739330988 463.94380925828239 0 463.94380925828239 -1221.3710334363411 0 0 0 0 43.940729149914375 -2.8617260908161981 0 -2.8617260908161981 6.0200634167697169 0 0 0 0 42.986940778384451 -119.63102293125189 0 -119.63102293125189 78.430072637287935 0 0 0 0 -729.52881423194776 432.2491566522574 0 432.2491566522574 -83.028671437772346 0 0 0 0 -315.88476266065845 -262.32185521163183 0 -262.32185521163183 -914.54818825648795 0 0 0 0 332.99818483358831 -129.09654286462813 0 -129.09654286462813 -406.74081677060985 0 0 0 0 173.20908469063397 -115.17265797510167 0 -115.17265797510167 -687.61153931055424 0 0 0 0 -168.05938173952745 479.53592335827483 0 479.53592335827483 -593.36992995046262 0 0 0 0 -210.60658171489195 88.626145596080832 0 88.626145596080832 -308.54330454774447 0 0 0 0 165.28568589999486 -727.08584217331372 0 -727.08584217331372 2435.022314403433 0 0 0 0 426.69010179145334 -414.65510743143977 0 -414.65510743143977 1997.9812255637498 0 0 0 0 61.266869654409788 -7.5989782008577667 0 -7.5989782008577667 4.7307081062609297 0 0 0 0 444.82472516116104 -646.95590157072456 0 -646.95590157072456 3164.7042918902789 0 0 0 0 829.62490148895085 -247.7583416288453 0 -247.7583416288453 -343.19802104757764 0 0 0 0 920.42541175875522 -555.62518420410015 0 -555.62518420410015 605.45559364097107 0 0 0 0 1320.552768215377 -1086.2515033859445 0 -1086.2515033859445 700.18144268579999 0 0 0 0 280.00074164139096 -1179.9287035703164 0 -1179.9287035703164 1690.1288253084294 0 0 0 0 392.90534972614114 -387.19815193270324 0 -387.19815193270324 1481.1006950784058 0 0 0 0 101.47800448568523 -991.77610842452304 0 -991.77610842452304 1012.494886108283 0 0 0 0 407.02033162111184 -431.45551359599813 0 -431.45551359599813 466.40218892238204 0 0 0 0 1227.999847543917 -974.08831267830465 0 -974.08831267830465 643.20586939350324 0 0 0 0 117.87288855581937 -198.26372604866492 0 -198.26372604866492 2034.3100058776713 0 0 0 0 136.01269120358631 -28.494308951981676 0 -28.494308951981676 -7.7678977523656556 0 0 0 0 172.87295808015915 -210.53031515572729 0 -210.53031515572729 104.13745489707799 0 0 0 0 355.53808374051732 353.65363300709748 0 353.65363300709748 -1200.4720389009008 0 0 0 0 -90.732151581338258 -1204.70357006828 0 -1204.70357006828 2402.7452215959206 0 0 0 0 41.284955142526641 -4.5494799300092836 0 -4.5494799300092836 8.9409071391363177 0 0 0 0 1058.8467886911531 -125.8185663505144 0 -125.8185663505144 -1453.9215981365051 0 0 0 0 215.21786417095882 -30.758509920834197 0 -30.758509920834197 -13.214472394651825 0 0 0 0 424.23093266529031 -210.94067889165763 0 -210.94067889165763 -311.09676818009984 0 0 0 0 77.577749494225827 137.51288631781568 0 137.51288631781568 348.02431660172988 0 0 0 0 367.92979097428179 -1827.6411380615427 0 -1827.6411380615427 1614.4536842108573 0 0 0 0 303.76828865780772 -591.29201456705778 0 -591.29201456705778 324.77274812907399 0 0 0 0 15.743221374146536 -5.306425340897988 0 -5.306425340897988 -9.5650517218222646 0 0 0 0 -307.53906494692637 -1181.2698018695028 0 -1181.2698018695028 1573.5635034183347 0 0 0 0 -362.5900704851083 -158.22033797578297 0 -158.22033797578297 706.87910423142057 0 0 0 0 557.44399115849228 157.8314992189753 0 157.8314992189753 -84.720403402145166 0 0 0 0 540.89085952743881 155.73915075357627 0 155.73915075357627 68.375649826586596 0 0 0 0 -376.39708350740511 230.15275805465353 0 230.15275805465353 77.532146796202142 0 0 0 0 204.825930552307 -369.88236029769041 0 -369.88236029769041 -582.00160910032537 0 0 0 0 260.40868969863732 -35.71576727982756 0 -35.71576727982756 -219.30029370512057 0 0 0 0 730.50635069245618 -559.25953151722388 0 -559.25953151722388 -2156.2304702708461 0 0 0 0 182.70836667095233 -33.244582470424355 0 -33.244582470424355 2.8462601107698697 0 0 0 0 -434.45464021613589 -1148.828658372473 0 -1148.828658372473 158.36619888764653 0 0 0 0 -801.60050069709541 -32.55582382474131 0 -32.55582382474131 262.9831813173023 0 0 0 0 43.370339768014674 624.94826671498686 0 624.94826671498686 -965.4702862011145 0 0 0 0 2425.2349505754974 -748.43125311924996 0 -748.43125311924996 -3276.7576499703009 0 0 0 0 215.18654651684847 -222.12396038642328 0 -222.12396038642328 -171.02000486910947 0 0 0 0 174.05296472652481 -243.70725926144041 0 -243.70725926144041 -121.77155127486549 0 0 0 0 259.12539123441911 -33.361127691726914 0 -33.361127691726914 0.86278133034132587 0 0 0 0 100.79361462737415 -182.56102361033709 0 -182.56102361033709 -63.832357910323481 0 0 0 0 335.26206072049354 -198.1040663056956 0 -198.1040663056956 -63.900494875910226 0 0 0 0 104.25645852504022 -207.55907334304084 0 -207.55907334304084 -21.91505453915488 0 0 0 0 136.54302880421301 -222.63368648387632 0 -222.63368648387632 -17.09371261718843 0 0 0 0 173.02306004165803 -220.75246308798614 0 -220.75246308798614 -29.605904580843344 0 0 0 0 136.70454190218516 -225.30811781576449 0 -225.30811781576449 20.337510531113367 0 0 0 0 158.4854903107389 -251.9073455450407 0 -251.9073455450407 -70.530040758469113 0 0 0 0 4.8284366002957029 0.45010548076811929 0 0.45010548076811929 -0.41660863966744266 0 0 0 0 -25.2777666754846 -186.89041303594331 0 -186.89041303594331 -5.071611281190826 0 0 0 0 376.40964823677245 58.580789665887607 0 58.580789665887607 258.8753790047449 0 0 0 0 343.79146237482564 -181.97278587605888 0 -181.97278587605888 -58.038327088735969 0 0 0 0 113.08461316142711 -54.363433321885168 0 -54.363433321885168 419.57610731219847 0 0 0 0 2.7205196992332645 -1.9177902579966197 0 -1.9177902579966197 0.88386571931975766 0 0 0 0 542.62902016444559 -52.326993725105694 0 -52.326993725105694 225.92742491358149 0 0 0 0 500.64358306494614 86.704091327929746 0 86.704091327929746 264.51940739816382 0 0 0 0 653.19811354054673 201.47966343806547 0 201.47966343806547 33.123498945828032 0 0 0 0 356.30123613911047 230.23448941340718 0 230.23448941340718 127.48460412557324 0 0 0 0 361.98403584598964 -200.92604554675836 0 -200.92604554675836 -86.03943076021551 0 0 0 0 217.08179301430755 -187.60390664053102 0 -187.60390664053102 155.20778666478509 0 0 0 0 331.83162409220722 -31.645562700742325 0 -31.645562700742325 2.9379517223475888 0 0 0 0 -111.35829029090382 83.797768891361557 0 83.797768891361557 -712.93292648057832 0 0 0 0 336.19153104033467 36.105331539802137 0 36.105331539802137 -60.857100361800121 0 0 0 0 452.5989778002986 27.341318131734624 0 27.341318131734624 -1391.012188906403 0 0 0 0 25.777565521585245 -0.41206321206024654 0 -0.41206321206024654 -2.798743419317788 0 0 0 0 674.23343684991414 546.7213071059623 0 546.7213071059623 -1653.3998278363943 0 0 0 0 171.1633454036928 -21.648781277972375 0 -21.648781277972375 84.712981332161007 0 0 0 0 301.29752610859765 -28.784290187138346 0 -28.784290187138346 0.64643899665616722 0 0 0 0 311.99264954644241 212.54921964905907 0 212.54921964905907 -1613.8701179776908 0 0 0 0 -730.69855798939534 571.23020978170825 0 571.23020978170825 -430.29688311140831 0 0 0 0 13.719765216878073 -5.0573703067317446 0 -5.0573703067317446 -1.850711336723327 0 0 0 0 267.39201603460469 -50.698436459805635 0 -50.698436459805635 -52.670602075146235 0 0 0 0 208.0715005127131 -182.60723975623114 0 -182.60723975623114 -122.53077112400024 0 0 0 0 54.09694601405954 -56.356447665614724 0 -56.356447665614724 -24.459970565118056 0 0 0 0 63.304344019874407 10.291249303586483 0 10.291249303586483 -341.75164333569955 0 0 0 0 135.71623871575503 -132.15305679609037 0 -132.15305679609037 -152.52148877926174 0 0 0 0 45.742574594527468 4.6594515705337471 0 4.6594515705337471 -27.975046443525116 0 0 0 0 347.63050177401783 18.640622571889253 0 18.640622571889253 -57.75415535475986 0 0 0 0 416.39663060226758 241.21980856224582 0 241.21980856224582 -200.77999971213103 0 0 0 0 685.63557685536944 -88.060250765196997 0 -88.060250765196997 -126.30616730304837 0 0 0 0 391.97109564624043 14.803533554114551 0 14.803533554114551 -152.4052599128554 0 0 0 0 780.91277646022354 -212.58833587810432 0 -212.58833587810432 -115.83420936957009 0 0 0 0 517.68015294570432 17.825196324663466 0 17.825196324663466 122.72732494061893 0 0 0 0 5.2992345392169682 -0.024569601879019132 0 -0.024569601879019132 -0.50285586324550735 0 0 0 0 409.85470424084997 -426.1877823759346 0 -426.1877823759346 -152.24241201130008 0 0 0 0 126.80809181748373 139.02482791986176 0 139.02482791986176 150.97203055908722 0 0 0 0 -80.711478358796739 -93.144017618156795 0 -93.144017618156795 3.73556262880129 0 0 0 0 453.55797533231816 -187.98301086709216 0 -187.98301086709216 20.275411655150037 0 0 0 0 208.4110590741293 81.651197239153134 0 81.651197239153134 -435.8875125734794 0 0 0 0 9.9013195812054136 -0.24021099646311406 0 -0.24021099646311406 -0.84375323851421946 0 0 0 0 157.39764216402364 -50.6630439636956 0 -50.6630439636956 -99.830290062042877 0 0 0 0 226.18835404380843 165.27077661977091 0 165.27077661977091 569.95997222634651 0 0 0 0 174.02278927171574 314.02010461174177 0 314.02010461174177 587.40839341479546 0 0 0 0 401.69801322921376 376.22196126032918 0 376.22196126032918 558.7117618577322 0 0 0 0 1102.659107570722 317.24530415377103 0 317.24530415377103 267.60461734211344 0 0 0 0 439.57575136937521 108.20190219576807 0 108.20190219576807 323.14813375350786 0 0 0 0 446.4471337384075 42.567526223339428 0 42.567526223339428 176.95846806825284 0 0 0 0 722.77091559775545 -163.84396274592291 0 -163.84396274592291 74.608458251266711 0 0 0 0 448.76267240168454 -165.16613452806541 0 -165.16613452806541 91.607710916077849 0 0 0 0 543.01563376901686 -141.97775117113815 0 -141.97775117113815 214.15397763378769 0 0 0 0 572.35715669002093 -223.68193382153913 0 -223.68193382153913 86.722614014409942 0 0 0 0 560.30058234701573 -240.43731170223782 0 -240.43731170223782 -110.65481860341151 0 0 0 0 466.35852810872348 -247.57052576413162 0 -247.57052576413162 87.50496250852575 0 0 0 0 114.9082869296326 116.28032857454309 0 116.28032857454309 121.76218305410293 0 0 0 0 450.45457605907541 130.76262218841248 0 130.76262218841248 11.574505256805423 0 0 0 0 325.18175965789851 3.4703289049425621 0 3.4703289049425621 131.1318280420237 0 0 0 0 500.64255991196842 11.226347925505706 0 11.226347925505706 120.10338797003715 0 0 0 0 499.78147923460438 22.718476119681554 0 22.718476119681554 172.73924836042352 0 0 0 0 600.93789951316467 -51.629376483790111 0 -51.629376483790111 91.105737218672857 0 0 0 0 576.51239189509579 -21.177155659473101 0 -21.177155659473101 74.720472269358652 0 0 0 0 583.4829221268501 7.3788070054924901 0 7.3788070054924901 10.233592118393062 0 0 0 0 307.10988675974295 164.30220640463995 0 164.30220640463995 33.846529465838103 0 0 0 0 481.09401676607467 214.17605136893872 0 214.17605136893872 -97.347405468772195 0 0 0 0 86.553820744436507 254.14575197154215 0 254.14575197154215 51.080712824279544 0 0 0 0 315.01629496723399 312.25399197781826 0 312.25399197781826 -22.560437652198743 0 0 0 0 258.98968318778134 136.52073953939271 0 136.52073953939271 122.08005114719799 0 0 0 0 3.5704975691644165 -2.9892037545248016 0 -2.9892037545248016 2.4586939792198024 0 0 0 0 91.617516922817913 -40.763252281426276 0 -40.763252281426276 135.80635729677851 0 0 0 0 287.64447554980143 197.88574735362818 0 197.88574735362818 -77.657839817896729 0 0 0 0 88.929895680676054 218.3294123283049 0 218.3294123283049 507.46492771689555 0 0 0 0 246.99094566245094 77.925553389220909 0 77.925553389220909 40.0040240107719 0 0 0 0 1.8664017239460549 -1.1188454848583582 0 -1.1188454848583582 1.0904960725828232 0 0 0 0 275.68086080276589 191.70514494905547 0 191.70514494905547 130.56694125342824 0 0 0 0 94.728519646336281 187.09590878164545 0 187.09590878164545 664.69810117141969 0 0 0 0 330.7977827431896 189.01744855740344 0 189.01744855740344 588.9390867328475 0 0 0 0 -31.692368720485319 181.7042062141777 0 181.7042062141777 634.72779108051373 0 0 0 0 -30.171540254348656 50.666381235005701 0 50.666381235005701 698.30923785286404 0 0 0 0 414.72373288850758 -53.53049922067521 0 -53.53049922067521 408.21650177695392 0 0 0 0 235.27503962988158 130.03283077759306 0 130.03283077759306 220.48953661651603 0 0 0 0 433.47836817869995 111.31656948823957 0 111.31656948823957 196.2722789416639 0 0 0 0 425.42369285790846 60.704011954871476 0 60.704011954871476 377.26159520055626 0 0 0 0 296.99334132271179 -54.929853209501289 0 -54.929853209501289 478.63347331779005 0 0 0 0 345.40522012435395 -142.48386649266195 0 -142.48386649266195 263.69786703464615 0 0 0 0 454.05582741117723 -150.45157275522752 0 -150.45157275522752 231.41344024192267 0 0 0 0 361.48074686441487 -127.65783047793229 0 -127.65783047793229 274.93919647518578 0 0 0 0 464.0914664982356 -131.68231165377983 0 -131.68231165377983 211.09095725667157 0 0 0 0 472.37015912753304 -99.810226133191463 0 -99.810226133191463 277.23481783295131 0 0 0 0 399.90014574567249 -18.486837645793912 0 -18.486837645793912 198.23021988487017 0 0 0 0 571.42487079904231 -203.7706529459316 0 -203.7706529459316 241.70135516847404 0 0 0 0 538.00197495316024 -153.94275709211615 0 -153.94275709211615 244.06229109731066 0 0 0 0 444.47646137900483 -176.03114866428223 0 -176.03114866428223 250.99407490328758 0 0 0 0 501.36818168547688 -181.60944850153214 0 -181.60944850153214 263.76578734735449 0 0 0 0 566.35656099853622 -213.25764897242743 0 -213.25764897242743 193.31020379210076 0 0 0 0 545.03346216393038 -182.94363812782012 0 -182.94363812782012 161.55642267329858 0 0 0 0 554.65276242830896 -193.0678422112353 0 -193.0678422112353 266.26594552862844 0 0 0 0 542.60871649405635 -175.05421492109292 0 -175.05421492109292 158.99154842571988 0 0 0 0 584.20128914729685 -161.72559607272342 0 -161.72559607272342 141.66609527479613 0 0 0 0 598.24559479195523 -174.64093389858772 0 -174.64093389858772 125.68410107319323 0 0 0 0 570.3310052093675 -208.36650291808019 0 -208.36650291808019 134.63573017531417 0 0 0 0 507.61559980197035 -201.7992639408285 0 -201.7992639408285 155.12487931001669 0 0 0 0 528.82709219568642 -185.81522171403412 0 -185.81522171403412 161.04832527702911 0 0 0 0 539.8020840241079 -63.274863473803634 0 -63.274863473803634 134.26480265484497 0 0 0 0 524.01991042064037 -32.219348120985387 0 -32.219348120985387 199.74661834527524 0 0 0 0 532.13188349970369 -117.09111659427617 0 -117.09111659427617 161.10639652023747 0 0 0 0 543.75100916028896 -148.73993356041228 0 -148.73993356041228 210.46595205010584 0 0 0 0 596.39333287052068 -132.16385130001618 0 -132.16385130001618 128.78759302813978 0 0 0 0 597.04381953216216 -114.76685748917862 0 -114.76685748917862 103.56831085012891 0 0 0 0 619.33134057438929 -71.539926396245846 0 -71.539926396245846 103.33684911042292 0 0 0 0 573.21385938870662 -62.695651569176334 0 -62.695651569176334 126.49225223503072 0 0 0 0 823.42553648291141 -31.27592543217088 0 -31.27592543217088 86.344015248705546 0 0 0 0 633.21638520672423 -65.078045884445601 0 -65.078045884445601 88.159632766972209 0 0 0 0 594.48035134247039 -69.832327120849186 0 -69.832327120849186 108.59142588250052 0 0 0 0 718.32265092688067 34.222105536380695 0 34.222105536380695 55.49617266974019 0 0 0 0 863.66606876587684 35.930607004693229 0 35.930607004693229 -76.84304016526039 0 0 0 0 706.72073280952281 -148.21895370335733 0 -148.21895370335733 26.498290020304921 0 0 0 0 1054.5139830256921 -185.46377414727431 0 -185.46377414727431 14.294383622760051 0 0 0 0 775.78868224451617 -293.9411219110716 0 -293.9411219110716 59.894945463656768 0 0 0 0 642.54829533892007 -175.56479006352674 0 -175.56479006352674 98.736167144452338 0 0 0 0 698.5965898440063 -179.19130827473418 0 -179.19130827473418 83.220249981299276 0 0 0 0 692.97902114079443 -114.38309656309775 0 -114.38309656309775 90.451098718495814 0 0 0 0 645.76678645772517 -253.08131512445925 0 -253.08131512445925 133.85960020346283 0 0 0 0 531.47703685808301 -213.01166429595287 0 -213.01166429595287 137.9528309980451 0 0 0 0 536.59517388534732 -204.13641672368976 0 -204.13641672368976 126.06277433198375 0 0 0 0 485.5322689796576 -157.73596347856073 0 -157.73596347856073 143.08640104147844 0 0 0 0 356.79409406524883 -207.92193591838077 0 -207.92193591838077 213.35715551975409 0 0 0 0 458.63818665077542 -243.47386220457338 0 -243.47386220457338 213.88031121960739 0 0 0 0 717.59279600951777 -461.49155925212199 0 -461.49155925212199 334.70543561625163 0 0 0 0 500.24346929767614 -252.41596538942895 0 -252.41596538942895 187.98210446473604 0 0 0 0 482.54410266303967 -229.48917629522111 0 -229.48917629522111 178.75621063169092 0 0 0 0 360.55768352703853 -249.40824838842173 0 -249.40824838842173 367.01140978482726 0 0 0 0 397.40093564544986 -219.35002475561123 0 -219.35002475561123 360.77955558460962 0 0 0 0 207.79117585905033 -42.019679544676819 0 -42.019679544676819 259.67588852418157 0 0 0 0 230.07570122818106 -81.230931053655695 0 -81.230931053655695 148.40879617428618 0 0 0 0 194.52144146376844 151.40445519710266 0 151.40445519710266 -15.56056425159295 0 0 0 0 173.91274224859217 -2.977332525363181 0 -2.977332525363181 139.93546199873526 0 0 0 0 48.425979913892661 79.684425566574646 0 79.684425566574646 489.75413177812516 0 0 0 0 284.79953148347886 61.403368414632496 0 61.403368414632496 -601.29211663348542 0 0 0 0 202.02686840641763 253.4094526029844 0 253.4094526029844 152.60034540893685 0 0 0 0 272.66737184541489 497.86616454400973 0 497.86616454400973 1318.2904478378914 0 0 0 0 463.48110606337286 -506.99639048815698 0 -506.99639048815698 732.67548680471918 0 0 0 0 1181.4843589513584 -2180.6280098181778 0 -2180.6280098181778 3743.7136754833327 0 0 0 0 2767.1993937248717 -1011.3402651997349 0 -1011.3402651997349 121.30576434994873 0 0 0 0 731.3081215477614 1015.3421058032582 0 1015.3421058032582 -2018.8321757747435 0 0 0 0 -1063.9333408015154 3468.0588214373711 0 3468.0588214373711 3885.7333558291393 0 0 0 0 66.162027030828767 -18.618049885927711 0 -18.618049885927711 3.9149862984736634 0 0 0 0 903.0783771042702 -1992.7666751164761 0 -1992.7666751164761 1580.9788897235239 0 0 0 0 1133.5112104684085 296.23894318280509 0 296.23894318280509 -489.17388326611035 0 0 0 0 2065.6957128638242 -205.07238442660673 0 -205.07238442660673 -229.52820887305279 0 0 0 0 4317.682049164503 -3732.8277999595903 0 -3732.8277999595903 -1501.3396824506926 0 0 0 0 1040.7415987850734 -1443.474871357148 0 -1443.474871357148 1087.4344151940131 0 0 0 0 1662.6008352314379 -510.15254528958405 0 -510.15254528958405 195.18275223699311 0 0 0 0 1587.3507464579307 295.69447968292297 0 295.69447968292297 -361.72894896337129 0 0 0 0 760.86567486829244 384.91938219739495 0 384.91938219739495 -152.06348743677518 0 0 0 0 1397.9631867324351 -74.98426883690172 0 -74.98426883690172 -55.765632428203389 0 0 0 0 1385.4039998650424 -539.9536554178103 0 -539.9536554178103 158.95810262007217 0 0 0 0 1273.8999351423008 -161.64598756283522 0 -161.64598756283522 -103.06533601405317 0 0 0 0 546.9482716509392 -651.59857659328782 0 -651.59857659328782 882.86726895909305 0 0 0 0 176.77475387530035 63.927331658662297 0 63.927331658662297 -72.297823484874243 0 0 0 0 166.7869986145588 92.985583858374412 0 92.985583858374412 33.79799426986574 0 0 0 0 147.94567229830045 14.182621209454737 0 14.182621209454737 7.3636858755089634 0 0 0 0 135.24593226205434 125.35106246446594 0 125.35106246446594 -66.651894115449068 0 0 0 0 46.30573774311506 86.619276069713123 0 86.619276069713123 -53.428856754351727 0 0 0 0 124.86152244525067 96.385040049393183 0 96.385040049393183 -82.639444293545239 0 0 0 0 125.34716382527131 92.932076606372448 0 92.932076606372448 -60.118797899021956 0 0 0 0 217.3209267258535 60.559638041140715 0 60.559638041140715 -56.999222951952561 0 0 0 0 124.10423734791607 49.411876484532058 0 49.411876484532058 -58.271718751411754 0 0 0 0 153.06367045237312 30.636524749596902 0 30.636524749596902 141.10643038042326 0 0 0 0 175.60581794426753 71.874835865049135 0 71.874835865049135 58.156050241970661 0 0 0 0 199.41536429070402 8.2406987931535696 0 8.2406987931535696 28.124382531143056 0 0 0 0 199.82271886471699 10.168924899079684 0 10.168924899079684 160.31240237539714 0 0 0 0 334.58505734743494 -60.27787789184498 0 -60.27787789184498 129.51771227778409 0 0 0 0 289.51580312914484 -83.160333631897629 0 -83.160333631897629 134.09550909912411 0 0 0 0 396.44857078442146 -127.39424053144739 0 -127.39424053144739 177.45123510936901 0 0 0 0 296.38812088072154 -17.438838791862509 0 -17.438838791862509 145.50288820631249 0 0 0 0 338.57520795641176 8.9186813127735149 0 8.9186813127735149 125.72423120543135 0 0 0 0 166.33686935859896 19.507371284373221 0 19.507371284373221 163.3506896915751 0 0 0 0 170.17142819776564 37.941385266753059 0 37.941385266753059 251.96900249327064 0 0 0 0 173.17853333651692 61.997621649745724 0 61.997621649745724 67.0771835888645 0 0 0 0 210.95467331072541 -15.120243620746805 0 -15.120243620746805 50.136880841979519 0 0 0 0 216.43086880608644 -51.54123476201039 0 -51.54123476201039 174.07963654581545 0 0 0 0 220.83135585026321 143.36448616940561 0 143.36448616940561 125.53655909703139 0 0 0 0 97.36092452874891 75.385054048523216 0 75.385054048523216 234.11113070864121 0 0 0 0 151.70684326629089 52.029844880033579 0 52.029844880033579 109.25222461142221 0 0 0 0 193.60094147965447 116.92544809971332 0 116.92544809971332 152.56775105965608 0 0 0 0 318.06699729425236 46.884869277326288 0 46.884869277326288 163.17800930136855 0 0 0 0 96.366821304442965 60.449264347436383 0 60.449264347436383 143.14417821401366 0 0 0 0 368.39053648802656 180.13299958635707 0 180.13299958635707 101.57204761423236 0 0 0 0 -23.385905341932812 122.12966079255693 0 122.12966079255693 132.08040885296032 0 0 0 0 -101.66810859406723 -70.856063637043917 0 -70.856063637043917 90.546524964118419 0 0 0 0 -2.9988453092119016 3.9380041525946581 0 3.9380041525946581 7.0565452038517833 0 0 0 0 13.032290854360326 -49.591777428158821 0 -49.591777428158821 93.22992179022458 0 0 0 0 115.16001298690844 63.322008420510429 0 63.322008420510429 96.57220832501298 0 0 0 0 481.25674850813812 -117.73476401501102 0 -117.73476401501102 121.53904205917206 0 0 0 0 509.06547228389127 -116.47520186976307 0 -116.47520186976307 94.901760943610498 0 0 0 0 548.6984269543791 9.9206690450182577 0 9.9206690450182577 85.652874587395672 0 0 0 0 296.65843269672769 10.814952819588143 0 10.814952819588143 137.31539412483471 0 0 0 0 817.13630870459565 21.27522838650475 0 21.27522838650475 -13.036919451492849 0 0 0 0 373.50237950987753 49.405512894306796 0 49.405512894306796 90.993560790499032 0 0 0 0 633.28100039023593 -156.20024871864644 0 -156.20024871864644 99.40064713413949 0 0 0 0 723.23890297587786 -260.51764030380582 0 -260.51764030380582 217.55527134637305 0 0 0 0 579.75131915778366 -230.69195986277646 0 -230.69195986277646 313.45428407734471 0 0 0 0 415.34016414445614 212.64326390225006 0 212.64326390225006 49.665935874937531 0 0 0 0 843.71407030745831 -311.04810587795282 0 -311.04810587795282 133.0280896284653 0 0 0 0 801.27727939152874 -148.70873054939739 0 -148.70873054939739 50.948573015843067 0 0 0 0 706.10960047111803 -97.702010243971927 0 -97.702010243971927 288.56705282299896 0 0 0 0 0.039684095141193865 2.2802142155004912 0 2.2802142155004912 -1.4396908827696731 0 0 0 0 45.691034008661518 -83.812536771731175 0 -83.812536771731175 -96.081467686880387 0 0 0 0 10.296108437920658 -0.12347152987790366 0 -0.12347152987790366 0.046554934883735299 0 0 0 0 28.129380173408208 19.324164957903122 0 19.324164957903122 -25.789200911919579 0 0 0 0 11.824770935286324 43.944369172702181 0 43.944369172702181 52.945050391087534 0 0 0 0 389.85623530585508 -314.31974171635193 0 -314.31974171635193 218.02315169306405 0 0 0 0 4.9142105012468988 0.85074456423027911 0 0.85074456423027911 -0.13993768810119134 0 0 0 0 63.322653415620152 31.814782232816469 0 31.814782232816469 263.70063928285526 0 0 0 0 453.70201352323602 -1.7751648845796808 0 -1.7751648845796808 249.12428566130018 0 0 0 0 0.31874540071628843 0.75761760053054594 0 0.75761760053054594 -0.77784382896720317 0 0 0 0 46.530941712033382 124.41144886782649 0 124.41144886782649 164.63943367159936 0 0 0 0 81.134665041112385 182.20152599267703 0 182.20152599267703 234.70105793014864 0 0 0 0 1.2843516935172374 108.45044649391912 0 108.45044649391912 272.3467316536844 0 0 0 0 44.506849786872863 97.923683241883055 0 97.923683241883055 250.77250049426857 0 0 0 0 -16.840258624109993 78.097722875505042 0 78.097722875505042 263.83032840767646 0 0 0 0 35.785244049166977 48.162224938692475 0 48.162224938692475 205.63643239320936 0 0 0 0 19.359440154454205 58.710700096324672 0 58.710700096324672 337.90205209164895 0 0 0 0 64.460025233862325 157.58375100711964 0 157.58375100711964 329.72342769534043 0 0 0 0 1137.5440020365222 -113.86639014642878 0 -113.86639014642878 143.40363543464014 0 0 0 0 458.60032385782506 269.47119850166496 0 269.47119850166496 279.72958736167948 0 0 0 0 452.38649175998398 -37.180493350037068 0 -37.180493350037068 144.32764343806866 0 0 0 0 10.298096212225914 151.33846259480561 0 151.33846259480561 319.69509226882474 0 0 0 0 5.4071568904508176 2.3709996612936823 0 2.3709996612936823 1.918902340409677 0 0 0 0 696.67247255871007 -598.80702459445297 0 -598.80702459445297 523.45970585376017 0 0 0 0 49.588329003923718 65.156418820688828 0 65.156418820688828 -81.725912714487947 0 0 0 0 -13.756266971579862 24.751052671715115 0 24.751052671715115 218.33170051982552 0 0 0 0 53.381163825705585 -98.495464327364033 0 -98.495464327364033 -28.771004469221225 0 0 0 0 646.27702434982007 -172.28281364654478 0 -172.28281364654478 206.65012565144207 0 0 0 0 647.99897870218956 -200.85073577216576 0 -200.85073577216576 280.77743466742027 0 0 0 0 786.34294583296833 79.991821398746765 0 79.991821398746765 371.0057761999966 0 0 0 0 704.38686923457954 -349.80751218436444 0 -349.80751218436444 550.11712266610175 0 0 0 0 655.36011496566789 -111.23249541909655 0 -111.23249541909655 91.876694846273494 0 0 0 0 1056.8704547292755 -240.0698417471059 0 -240.0698417471059 78.477712337797129 0 0 0 0 682.06994987163853 -182.73460117093674 0 -182.73460117093674 -43.351175361432183 0 0 0 0 607.61560371558926 -2.3191104056032827 0 -2.3191104056032827 27.451088579626685 0 0 0 0 226.09976155731238 -169.98122868780638 0 -169.98122868780638 192.4508284451158 0 0 0 0 360.04372270661588 -299.21154617451566 0 -299.21154617451566 202.3390609566994 0 0 0 0 15.833877227091644 5.7416266674847627 0 5.7416266674847627 2.3277945309579509 0 0 0 0 295.86293359246793 -172.63788071360591 0 -172.63788071360591 38.313453528848186 0 0 0 0 221.62012906649943 -176.89675605366449 0 -176.89675605366449 181.78756848454168 0 0 0 0 210.54662276631279 -203.33527766695261 0 -203.33527766695261 127.50020541685262 0 0 0 0 579.39294808791055 -159.49225499923955 0 -159.49225499923955 66.938516996396743 0 0 0 0 621.82012248075762 -223.49726847808989 0 -223.49726847808989 -10.178693651013873 0 0 0 0 486.47999688052187 -260.6700304972868 0 -260.6700304972868 -7.5483023007306898 0 0 0 0 223.01779778634955 -160.14236408204079 0 -160.14236408204079 52.825106856425691 0 0 0 0 374.68791763983336 -248.0004893774119 0 -248.0004893774119 -27.12641543512018 0 0 0 0 407.33036592571261 -248.23935955577082 0 -248.23935955577082 -87.213321516493352 0 0 0 0 410.61213659068289 -187.45963651657434 0 -187.45963651657434 -65.225540635701236 0 0 0 0 391.32409561350232 -229.15501010175524 0 -229.15501010175524 -106.61948262324813 0 0 0 0 303.90297961995384 -241.09467424033221 0 -241.09467424033221 -100.14154307268495 0 0 0 0 476.32670169979792 -150.78416917630591 0 -150.78416917630591 -114.91957908497568 0 0 0 0 481.18559060208463 -163.42771541995683 0 -163.42771541995683 -87.564070605000381 0 0 0 0 582.21895588693269 -118.96932115826695 0 -118.96932115826695 -82.618259683301176 0 0 0 0 574.58049536690851 -71.471040208474165 0 -71.471040208474165 -68.876467053013641 0 0 0 0 504.2128206221787 -50.758032991811149 0 -50.758032991811149 -74.621970319960155 0 0 0 0 559.89079735627638 -90.248396341732033 0 -90.248396341732033 -152.41617471189082 0 0 0 0 475.72970078478011 -102.7502099632601 0 -102.7502099632601 -143.7844584311074 0 0 0 0 448.95690064601695 -69.26752221293502 0 -69.26752221293502 -176.91417795372661 0 0 0 0 504.77298220705961 -106.91702254449018 0 -106.91702254449018 -182.33483910288714 0 0 0 0 497.04600767181643 -103.63409187556735 0 -103.63409187556735 -183.72375088878255 0 0 0 0 497.74891938654139 -90.506578670308244 0 -90.506578670308244 -188.50779622088277 0 0 0 0 181.51408075182735 -39.375864947090008 0 -39.375864947090008 -127.12543472530024 0 0 0 0 186.30757026654862 -74.549931847920021 0 -74.549931847920021 -36.625717358543852 0 0 0 0 -205.85768577088857 -188.88456514041772 0 -188.88456514041772 -40.57307226510602 0 0 0 0 -1.6715475385012191 -1.9817072742672366 0 -1.9817072742672366 0.43148511275201906 0 0 0 0 362.25646084535674 -206.68168842598496 0 -206.68168842598496 -124.40142551553745 0 0 0 0 331.3678067762412 -166.72580123032742 0 -166.72580123032742 -113.28359761671931 0 0 0 0 325.17384786186267 -34.102958057667365 0 -34.102958057667365 -61.980061226975124 0 0 0 0 238.90737811302643 23.536050114502615 0 23.536050114502615 -40.625790028075954 0 0 0 0 226.02872250502332 42.03537508299587 0 42.03537508299587 -131.78677786873988 0 0 0 0 306.3284012854001 25.250639432556227 0 25.250639432556227 -138.64930661245103 0 0 0 0 298.10545106279574 -47.916956346986012 0 -47.916956346986012 -66.035025000093583 0 0 0 0 255.90277196841271 13.670050597324462 0 13.670050597324462 -129.1004458267771 0 0 0 0 299.13885537859824 -77.121615363724459 0 -77.121615363724459 -70.393281997347003 0 0 0 0 386.60670588310859 -53.063507735083192 0 -53.063507735083192 -107.6206833693138 0 0 0 0 379.44122346417316 -137.1833755047538 0 -137.1833755047538 -138.66629037940208 0 0 0 0 543.07250222185394 -199.16828538362051 0 -199.16828538362051 -115.60518093606538 0 0 0 0 489.62260562487654 -85.857593496088214 0 -85.857593496088214 -126.48433378620402 0 0 0 0 413.37023917497299 -2.3162396091818778 0 -2.3162396091818778 -46.214483758785832 0 0 0 0 494.41496074238603 -77.638708193826062 0 -77.638708193826062 -130.12122351906012 0 0 0 0 502.98032701689408 0.4299447342197027 0 0.4299447342197027 -48.026200042860523 0 0 0 0 345.17652919271131 42.665108316461428 0 42.665108316461428 22.99773605887242 0 0 0 0 397.11674246828807 -22.991151300878812 0 -22.991151300878812 -62.702427324914609 0 0 0 0 378.87874814698625 48.500652673710974 0 48.500652673710974 -39.853474519431643 0 0 0 0 463.42253745846028 111.01231430333257 0 111.01231430333257 -51.047483857458076 0 0 0 0 453.03227485120124 14.845184046574531 0 14.845184046574531 -6.6325198818208264 0 0 0 0 451.59685216689604 -8.2244073398860564 0 -8.2244073398860564 -202.19287489044905 0 0 0 0 401.04956649092674 -135.13792567062001 0 -135.13792567062001 94.506645495644989 0 0 0 0 234.80211899369169 -151.25208954535071 0 -151.25208954535071 -62.241496951475142 0 0 0 0 416.5827748807842 -123.01275260260149 0 -123.01275260260149 -79.750514755480026 0 0 0 0 505.0616179607332 19.486892680609344 0 19.486892680609344 11.135442117879848 0 0 0 0 521.10919179447956 -18.383376266823916 0 -18.383376266823916 -63.27101261502844 0 0 0 0 530.59140175245739 -72.072954337183319 0 -72.072954337183319 29.885932337246743 0 0 0 0 570.25929819952853 -1.8954552347451568 0 -1.8954552347451568 134.15186615115044 0 0 0 0 530.47979158573253 -179.2231199110297 0 -179.2231199110297 251.06460833608321 0 0 0 0 468.02347610915331 -123.26656401442858 0 -123.26656401442858 90.535882928277715 0 0 0 0 458.5930029020592 -121.0448452619612 0 -121.0448452619612 234.17963238352877 0 0 0 0 557.42490912847097 -155.45881588703742 0 -155.45881588703742 249.85622139817605 0 0 0 0 546.52575720766436 -180.47545076373922 0 -180.47545076373922 197.64402039178231 0 0 0 0 232.88642272918696 -104.05286463617404 0 -104.05286463617404 91.877382633012076 0 0 0 0 348.07336498228142 -191.96539839812203 0 -191.96539839812203 215.71298339959526 0 0 0 0 337.2592957336708 -133.79032794013511 0 -133.79032794013511 260.00639297072576 0 0 0 0 374.50493756789183 -183.46313659890393 0 -183.46313659890393 84.546951383605574 0 0 0 0 250.34313797762661 -211.65672551565626 0 -211.65672551565626 342.95406764591303 0 0 0 0 251.16799379583972 -158.37633141573315 0 -158.37633141573315 -65.262154529832969 0 0 0 0 188.66410861852637 38.203593561441494 0 38.203593561441494 -19.131338214915786 0 0 0 0 43.382865067331295 -16.70334535247639 0 -16.70334535247639 66.299206517693165 0 0 0 0 3.0847708824805977 -1.9443237908682658 0 -1.9443237908682658 1.3944612421384264 0 0 0 0 393.83246419606803 -46.203782617750448 0 -46.203782617750448 16.699159846167277 0 0 0 0 107.79554909855869 -128.32499316879239 0 -128.32499316879239 88.318789782804743 0 0 0 0 -223.13904380463282 238.58956234840707 0 238.58956234840707 592.64316948043052 0 0 0 0 0.62545155614779091 -1.3817410719985475 0 -1.3817410719985475 1.3229046560962061 0 0 0 0 142.18627783577358 -56.272151432254759 0 -56.272151432254759 58.117001266140505 0 0 0 0 -26.272872901972733 141.1679227574341 0 141.1679227574341 612.45476241962206 0 0 0 0 -0.83687524835295335 32.227004231853471 0 32.227004231853471 15.032632107617246 0 0 0 0 61.337821612808966 45.771720479252252 0 45.771720479252252 35.842606826983229 0 0 0 0 31.239666951816616 -109.97905579304688 0 -109.97905579304688 86.520323777421368 0 0 0 0 6.1745128954999942 -4.8374565706468609 0 -4.8374565706468609 3.7741153409946726 0 0 0 0 1.7521948417052045 -2.5132486662021165 0 -2.5132486662021165 32.655293480559749 0 0 0 0 46.035080957928585 -31.357456580967323 0 -31.357456580967323 -89.472513172780964 0 0 0 0 48.299506074114106 24.391417777616084 0 24.391417777616084 -116.15149263270496 0 0 0 0 6.7803155555975607 -6.8174959880689698 0 -6.8174959880689698 4.9285011622899875 0 0 0 0 17.729438534001019 -2.2049842230762806 0 -2.2049842230762806 -47.397512711172567 0 0 0 0 40.74336955116496 39.543964990441772 0 39.543964990441772 -8.2509319963910457 0 0 0 0 14.24229036946781 -67.63559761037331 0 -67.63559761037331 -108.56485153441304 0 0 0 0 -30.069997698621592 -80.456103774084681 0 -80.456103774084681 -14.496657132515793 0 0 0 0 18.067370994682733 -108.40626100362813 0 -108.40626100362813 -227.55789937259578 0 0 0 0 28.281831968757615 -35.949860890980659 0 -35.949860890980659 -79.438620774261295 0 0 0 0 18.797929107702657 -109.69453765208033 0 -109.69453765208033 -208.67132687683738 0 0 0 0 -56.356450160350505 -94.536048577679537 0 -94.536048577679537 -202.40874958682548 0 0 0 0 -171.37923696815051 -402.59581362461387 0 -402.59581362461387 -474.94904412701715 0 0 0 0 167.48934894686863 14.786909907287964 0 14.786909907287964 -110.16813839872339 0 0 0 0 234.45918940343108 -24.445998002746023 0 -24.445998002746023 -341.14908736635994 0 0 0 0 -28.081512028711586 -73.272783727911701 0 -73.272783727911701 -70.609024238850566 0 0 0 0 513.31680624103319 451.85439478068247 0 451.85439478068247 678.49394969887362 0 0 0 0 161.61481152993656 649.40648176686227 0 649.40648176686227 1385.6458791786026 0 0 0 0 359.23231265763752 457.86970119301168 0 457.86970119301168 -292.11045731347804 0 0 0 0 72.061353148291346 -820.07695015383081 0 -820.07695015383081 -42.299736554946321 0 0 0 0 13.43483493569066 -0.079430844915790999 0 -0.079430844915790999 -1.9340994969405667 0 0 0 0 807.55218376632183 -163.87346255954435 0 -163.87346255954435 104.16849176268624 0 0 0 0 493.96568572644173 487.10557584460093 0 487.10557584460093 1110.0061528816923 0 0 0 0 1775.6050290860585 793.73018080130032 0 793.73018080130032 588.80342278216813 0 0 0 0 1046.3845563997893 1232.5266674313089 0 1232.5266674313089 1618.1185961662541 0 0 0 0 815.18398685359716 212.91296885430984 0 212.91296885430984 602.46191529148064 0 0 0 0 1511.7848957007263 -29.747659879528783 0 -29.747659879528783 384.77954621138451 0 0 0 0 747.71449329541792 -179.22756632537403 0 -179.22756632537403 197.32820511726459 0 0 0 0 680.4050606934361 196.61828886666899 0 196.61828886666899 466.85476222757734 0 0 0 0 666.79155469355101 -39.89964606356898 0 -39.89964606356898 916.88316862390093 0 0 0 0 434.98171479961093 482.20379840604119 0 482.20379840604119 869.88132637995841 0 0 0 0 315.4339635673241 366.35453128036397 0 366.35453128036397 504.49997291428917 0 0 0 0 159.64694884203345 164.316223189433 0 164.316223189433 548.74199632344335 0 0 0 0 110.10154187308945 446.01860118643071 0 446.01860118643071 646.42789280416218 0 0 0 0 53.935612061701249 409.44824936774967 0 409.44824936774967 61.312979060450743 0 0 0 0 420.36567654633836 -164.53468945849181 0 -164.53468945849181 389.67779712496099 0 0 0 0 228.45451089724156 26.017226476082669 0 26.017226476082669 239.83659247036485 0 0 0 0 124.44358141331759 -291.09781912764265 0 -291.09781912764265 -243.37609099228712 0 0 0 0 2.8239085067514118 -3.4606555309705236 0 -3.4606555309705236 -1.5368119536443388 0 0 0 0 -357.21217727910698 -357.1373082532823 0 -357.1373082532823 179.23425766851733 0 0 0 0 -228.40424926118067 2.142447122020485 0 2.142447122020485 112.8816278385857 0 0 0 0 459.37056860664597 -68.885570272667792 0 -68.885570272667792 -122.269255839773 0 0 0 0 49.955532301930361 -308.2727374969827 0 -308.2727374969827 150.00379282442009 0 0 0 0 49.863705326730269 95.327251880272797 0 95.327251880272797 -127.5979065866577 0 0 0 0 6.5391205563973926 -58.503888486366662 0 -58.503888486366662 -100.71215364111276 0 0 0 0 371.66783253054746 -176.7754337321432 0 -176.7754337321432 78.738659425252308 0 0 0 0 5.9787445082130795 -8.0435014709185921 0 -8.0435014709185921 0.55574345518875523 0 0 0 0 478.47441292868461 -210.72478191277742 0 -210.72478191277742 -297.00472940996042 0 0 0 0 1.3876268848106434 -1.0994698627062149 0 -1.0994698627062149 -2.0049356794542685 0 0 0 0 469.73083729688369 -218.34009318700419 0 -218.34009318700419 -38.445327434083993 0 0 0 0 498.188105166897 -165.01505639565144 0 -165.01505639565144 11.828596794759072 0 0 0 0 491.38128976947064 -125.78122170848364 0 -125.78122170848364 -123.82951522920757 0 0 0 0 431.66492265379929 -133.92017451433105 0 -133.92017451433105 -97.688512364690268 0 0 0 0 600.08525673292752 -190.93880529250691 0 -190.93880529250691 -86.889595309004108 0 0 0 0 702.9643029611907 -122.74570961807603 0 -122.74570961807603 -136.14344581452178 0 0 0 0 520.68705845251679 -246.62429987012229 0 -246.62429987012229 -83.515306204958506 0 0 0 0 458.62302668732355 -76.624509487712942 0 -76.624509487712942 190.70208137706868 0 0 0 0 1010.045038182463 137.76078985846084 0 137.76078985846084 157.13933517600162 0 0 0 0 622.29439954904228 -53.654996489478435 0 -53.654996489478435 190.02957246220831 0 0 0 0 1012.2304841194818 391.47563289450386 0 391.47563289450386 372.39564124887511 0 0 0 0 531.05642275508944 165.16676913523474 0 165.16676913523474 350.47117299486854 0 0 0 0 569.25935477290477 114.53753480410978 0 114.53753480410978 43.90752628552633 0 0 0 0 762.8556413173319 -56.752437123641812 0 -56.752437123641812 -50.970407432786942 0 0 0 0 511.95026443178358 -14.098009462923642 0 -14.098009462923642 -51.51629167324154 0 0 0 0 418.16425855924899 -86.245721327303613 0 -86.245721327303613 -107.01500500204895 0 0 0 0 425.66441973045585 8.7858958944005963 0 8.7858958944005963 -277.65641197960304 0 0 0 0 420.63919413164695 179.78976827089099 0 179.78976827089099 -204.22844146331533 0 0 0 0 440.72346239977924 100.34100163667068 0 100.34100163667068 -407.5770082500427 0 0 0 0 298.40341781452298 139.92943639013038 0 139.92943639013038 42.034329748559685 0 0 0 0 301.65941275433784 371.37533722762896 0 371.37533722762896 -585.16761720376928 0 0 0 0 158.79815861490351 -49.454754977622642 0 -49.454754977622642 -117.99425479742882 0 0 0 0 311.83588212323957 46.066536165656657 0 46.066536165656657 -168.01535081655629 0 0 0 0 234.59096848838453 386.21760225946218 0 386.21760225946218 747.91426053037685 0 0 0 0 15.621427115038387 518.07595815288869 0 518.07595815288869 -682.1251618697861 0 0 0 0 73.386669012143102 -107.15724582325174 0 -107.15724582325174 11.744000392394128 0 0 0 0 3.2258799618715983 -4.0033070687258174 0 -4.0033070687258174 0.51152974596470457 0 0 0 0 72.811177837479534 -3.4441699710610436 0 -3.4441699710610436 -4.4825766823866271 0 0 0 0 -146.0572971802103 502.10621403629875 0 502.10621403629875 -466.88267454831396 0 0 0 0 188.29772635486734 350.50811071436533 0 350.50811071436533 -632.71719197105858 0 0 0 0 276.4796376145714 213.87420532419287 0 213.87420532419287 -525.11327912817706 0 0 0 0 65.901320104858314 303.2532736987614 0 303.2532736987614 -385.54228189304388 0 0 0 0 131.03051281693843 121.01898562900254 0 121.01898562900254 -212.601213724437 0 0 0 0 -147.48385495996627 238.88683029217145 0 238.88683029217145 -506.28837976633167 0 0 0 0 166.48313181454068 223.90706857799887 0 223.90706857799887 -1174.10157536321 0 0 0 0 0.7044646075776626 14.145972651235519 0 14.145972651235519 -4.8667380014064028 0 0 0 0 -129.48126953520114 283.69309407023138 0 283.69309407023138 -55.358367817547105 0 0 0 0 1051.94956051591 -130.57806950538748 0 -130.57806950538748 -657.46442875257526 0 0 0 0 244.82608419712051 195.94454852657054 0 195.94454852657054 -648.23270402984986 0 0 0 0 471.81592649666709 -381.53565206699113 0 -381.53565206699113 -536.79248965145348 0 0 0 0 -76.523787393300154 168.65698316373982 0 168.65698316373982 -367.30373158830844 0 0 0 0 276.62115798312152 -99.214191257622588 0 -99.214191257622588 -220.70108318735174 0 0 0 0 504.89013720651565 64.695599694015527 0 64.695599694015527 -461.20927224933848 0 0 0 0 456.51379269444988 -8.6134326899393159 0 -8.6134326899393159 -257.76064732582017 0 0 0 0 492.9495774572697 -115.06602512190352 0 -115.06602512190352 -61.646128154441612 0 0 0 0 559.69013216133317 -60.647933275719197 0 -60.647933275719197 -119.78885639083387 0 0 0 0 533.8353399525804 166.54713132570629 0 166.54713132570629 -196.20703749774566 0 0 0 0 -404.97743972447097 -425.11974771445034 0 -425.11974771445034 -300.62678886538561 0 0 0 0 2.9104064511493029 -3.8278224161412169 0 -3.8278224161412169 -1.235654820742794 0 0 0 0 1174.1823123698387 331.56583146088684 0 331.56583146088684 -333.58092806378954 0 0 0 0 496.28844562751328 -15.392875393303541 0 -15.392875393303541 142.08846667877424 0 0 0 0 -72.407004745975428 -58.702707415646273 0 -58.702707415646273 -65.939984596822342 0 0 0 0 -216.24678073258838 -162.93553071603901 0 -162.93553071603901 -116.28179196547762 0 0 0 0 15.512692973473349 -108.52225164452551 0 -108.52225164452551 -339.82214333031789 0 0 0 0 68.304983501278912 -326.69810464755892 0 -326.69810464755892 -660.77225900715894 0 0 0 0 387.95079507906485 3.74185781869528 0 3.74185781869528 -392.21510230273543 0 0 0 0 49.408925082598216 -32.033615666251308 0 -32.033615666251308 -65.211209899276582 0 0 0 0 142.34121931370464 94.726256564728828 0 94.726256564728828 -171.68977428508879 0 0 0 0 -66.977135285458644 170.69087445327023 0 170.69087445327023 -198.79292360836007 0 0 0 0 94.614927155264013 -98.057031692801502 0 -98.057031692801502 -74.008126550711268 0 0 0 0 76.399699883614687 13.606234498924035 0 13.606234498924035 -12.709732106484793 0 0 0 0 69.998984330686653 21.483729917775463 0 21.483729917775463 -77.559677073573766 0 0 0 0 74.345610059469038 5.6916106148226397 0 5.6916106148226397 -8.9656644887754968 0 0 0 0 -113.11959253317036 101.8125368980418 0 101.8125368980418 -273.26437809196068 0 0 0 0 111.51768002622703 50.366534019676692 0 50.366534019676692 -167.49687982294563 0 0 0 0 63.854050982510671 8.8802709242372657 0 8.8802709242372657 3.5506837230932433 0 0 0 0 153.01331852411386 99.13840884933461 0 99.13840884933461 -413.35708231519857 0 0 0 0 81.906404573033029 1.6782138238500544 0 1.6782138238500544 -6.7997091987130371 0 0 0 0 68.692281165586266 12.038049513729238 0 12.038049513729238 -8.3542512589835489 0 0 0 0 103.51160374856408 0.83456096102418087 0 0.83456096102418087 -55.659226757852593 0 0 0 0 160.0099825066136 203.58876998248707 0 203.58876998248707 -276.42854675205581 0 0 0 0 296.78525012035971 121.52984615944024 0 121.52984615944024 -433.94756682850857 0 0 0 0 381.86725340770499 111.98820631926537 0 111.98820631926537 -242.6562899075916 0 0 0 0 46.779025408584857 -47.230462948322383 0 -47.230462948322383 -162.9472309983521 0 0 0 0 300.60175484528008 -40.849709036005152 0 -40.849709036005152 -163.92067375295619 0 0 0 0 81.797330190820503 18.080797758778317 0 18.080797758778317 -59.466924884271066 0 0 0 0 54.853991536307149 37.241191990009611 0 37.241191990009611 8.8038486799214297 0 0 0 0 80.885832262493182 -5.7085387630769286 0 -5.7085387630769286 -4.2121357274164879 0 0 0 0 153.59092469340248 -87.763814947324136 0 -87.763814947324136 -222.37017710783766 0 0 0 0 302.25537979307137 115.09987630400623 0 115.09987630400623 5.635688017650466 0 0 0 0 264.03975899542093 232.68471922487012 0 232.68471922487012 159.32143082685889 0 0 0 0 -0.71979008152911206 2.1710263239284444 0 2.1710263239284444 -9.5020438026385445 0 0 0 0 284.25839446911596 116.72404700663022 0 116.72404700663022 81.040488347370768 0 0 0 0 3.3963082181284534 0.60972204142196418 0 0.60972204142196418 -5.6017798034864441 0 0 0 0 514.56255454878465 296.54988037399437 0 296.54988037399437 144.77160090604377 0 0 0 0 11.869289122339978 -122.07414822686069 0 -122.07414822686069 -195.44567323181639 0 0 0 0 13.446413630957977 -115.53893196748061 0 -115.53893196748061 -292.96856908123937 0 0 0 0 18.588766696724633 -146.20375734309368 0 -146.20375734309368 -285.51867935699283 0 0 0 0 13.379565518629533 -146.26487364135937 0 -146.26487364135937 -223.34312226983138 0 0 0 0 -38.151908369127341 -157.88267880972273 0 -157.88267880972273 -198.36280741566361 0 0 0 0 -46.693081944180449 -245.18128131215281 0 -245.18128131215281 -384.3136221760351 0 0 0 0 42.45617976021822 -146.2362793910529 0 -146.2362793910529 -292.92419159632482 0 0 0 0 62.167247088633303 -99.148891412307876 0 -99.148891412307876 -307.27072395104528 0 0 0 0 -31.054850615470059 -170.01596239284709 0 -170.01596239284709 -277.34278839478486 0 0 0 0 -4.3194216774973029 -96.851898840694389 0 -96.851898840694389 -134.12787108823613 0 0 0 0 154.47022349057079 34.153980847535443 0 34.153980847535443 42.864806163911794 0 0 0 0 25.017931875988566 9.601701280814158 0 9.601701280814158 -21.513591036423573 0 0 0 0 115.62884637383831 7.4803264886008947 0 7.4803264886008947 -235.94452637169798 0 0 0 0 103.5746126785798 57.367501355808145 0 57.367501355808145 -99.815633076482413 0 0 0 0 136.01959569353858 -53.87256872543594 0 -53.87256872543594 -128.73324421462348 0 0 0 0 90.841736108613716 -3.6461977731900763 0 -3.6461977731900763 -15.421857652528029 0 0 0 0 161.39412614317553 32.5449203430544 0 32.5449203430544 134.3699164398131 0 0 0 0 50.369569549307926 129.89662686546581 0 129.89662686546581 -21.692753864797851 0 0 0 0 65.111843080788944 6.8199060539796363 0 6.8199060539796363 -32.567723092038889 0 0 0 0 115.76571954968725 49.800995119061447 0 49.800995119061447 -38.266206625505887 0 0 0 0 164.20119900010468 -20.733981392902479 0 -20.733981392902479 -62.432944655252186 0 0 0 0 202.12034501360358 205.74348928256734 0 205.74348928256734 -105.46250086815621 0 0 0 0 48.447061361954582 -10.304493782334639 0 -10.304493782334639 -8.4081599500842223 0 0 0 0 56.625779727182817 143.94802223308716 0 143.94802223308716 -224.82967030492023 0 0 0 0 240.40760557157046 77.942166978642319 0 77.942166978642319 -240.1936095361082 0 0 0 0 212.20885447469391 71.367984263649618 0 71.367984263649618 19.056951098055606 0 0 0 0 287.93162204982218 52.32350452465289 0 52.32350452465289 -155.48648992065176 0 0 0 0 134.46415658491969 93.643990337554214 0 93.643990337554214 -162.45377427580365 0 0 0 0 1.1334552968037315 -106.42673146544985 0 -106.42673146544985 -60.796463857632034 0 0 0 0 41.614987649336399 -107.03682865193764 0 -107.03682865193764 -60.893330773578782 0 0 0 0 141.6147934270266 -70.596711366567206 0 -70.596711366567206 -93.404505293612601 0 0 0 0 90.774158960412024 -123.92172622580483 0 -123.92172622580483 -104.67495164955471 0 0 0 0 145.7270294183545 -47.316091185534788 0 -47.316091185534788 -74.005439072738227 0 0 0 0 246.34803748401464 -72.867321901364448 0 -72.867321901364448 -127.29715438384756 0 0 0 0 200.29332769164466 -31.095343094876625 0 -31.095343094876625 -146.81087687203581 0 0 0 0 190.83559514809073 13.094688914369963 0 13.094688914369963 -10.653972580668075 0 0 0 0 219.94580963244334 141.27529177469341 0 141.27529177469341 -239.35334459925957 0 0 0 0 57.809996392868925 -16.704757305518797 0 -16.704757305518797 5.7686159355544078 0 0 0 0 151.28867339520366 -130.75813129053313 0 -130.75813129053313 10.465391276949958 0 0 0 0 122.94268295205256 21.794528046857522 0 21.794528046857522 -60.536714787847814 0 0 0 0 122.59191974065969 -37.028492981584549 0 -37.028492981584549 -5.671670033623748 0 0 0 0 294.78104474097199 93.964075688923913 0 93.964075688923913 -6.8278672296200966 0 0 0 0 262.4086283754441 72.575303693260139 0 72.575303693260139 5.6272269860783126 0 0 0 0 21.463801738926577 -11.157993550212076 0 -11.157993550212076 -18.049045448246627 0 0 0 0 77.548910526098496 -9.0689130123868154 0 -9.0689130123868154 -14.269544958521649 0 0 0 0 134.78580085927388 -16.990207976163219 0 -16.990207976163219 -45.71492915017734 0 0 0 0 165.68804457853912 17.660644338673819 0 17.660644338673819 -136.08299724341487 0 0 0 0 162.70368939172386 -10.650435323846978 0 -10.650435323846978 -85.741791564636515 0 0 0 0 115.72415264684241 31.883054177465965 0 31.883054177465965 -70.958238641629578 0 0 0 0 129.22887995182828 39.176957450261398 0 39.176957450261398 -90.913416381496063 0 0 0 0 116.15729401835415 47.586435381492265 0 47.586435381492265 -92.063284111092798 0 0 0 0 126.33838006756559 26.541337518715409 0 26.541337518715409 -79.798855792800168 0 0 0 0 65.013980590549181 53.304810665693367 0 53.304810665693367 -58.041320545853523 0 0 0 0 98.642463500116719 56.62767764839009 0 56.62767764839009 -88.07456631140758 0 0 0 0 107.98286151533102 22.642198656170876 0 22.642198656170876 -58.094257284996274 0 0 0 0 79.585760841568117 37.268341918355873 0 37.268341918355873 -47.682097196697214 0 0 0 0 70.35413890662312 56.576081240606072 0 56.576081240606072 -58.621512434008764 0 0 0 0 16.185679741547879 1.2008196607630452 0 1.2008196607630452 -50.371257757112673 0 0 0 0 253.37140252642712 24.185540582074282 0 24.185540582074282 -90.357602242034773 0 0 0 0 134.18232409095799 16.940279009296546 0 16.940279009296546 -39.647430729878579 0 0 0 0 12.208987697519774 8.4041109959837144 0 8.4041109959837144 -71.236220810760685 0 0 0 0 116.17231557152991 -19.307575002796199 0 -19.307575002796199 -96.503542049644693 0 0 0 0 95.288104150997242 -9.3231543630353997 0 -9.3231543630353997 -100.33592613819465 0 0 0 0 71.326694986499206 32.009540359871608 0 32.009540359871608 -64.401473533947865 0 0 0 0 89.962206006486667 47.636027049347831 0 47.636027049347831 -63.11805386704691 0 0 0 0 41.994844799929211 15.115816081200046 0 15.115816081200046 -14.422415595763376 0 0 0 0 45.462823933514301 16.959652162031489 0 16.959652162031489 -53.825812025217601 0 0 0 0 34.156376976796309 4.2727048560063849 0 4.2727048560063849 -14.627184439244957 0 0 0 0 25.059759964723426 3.1398808492893977 0 3.1398808492893977 -24.235218507268442 0 0 0 0 47.944807965526707 4.3197568149480503 0 4.3197568149480503 -38.954941276781028 0 0 0 0 0.10783614976389799 -81.445000632422307 0 -81.445000632422307 -117.67179659082467 0 0 0 0 38.012274308651968 -19.779382961287446 0 -19.779382961287446 -14.405115881709985 0 0 0 0 27.296897712401858 -3.598039020675202 0 -3.598039020675202 -8.6250240273519427 0 0 0 0 31.142228851138498 -7.6443457010891507 0 -7.6443457010891507 -29.88364798625048 0 0 0 0 0.58172015749659067 -7.282997202496845 0 -7.282997202496845 2.6116122411248002 0 0 0 0 50.86734121099289 -94.631899716371663 0 -94.631899716371663 -339.20653190140547 0 0 0 0 -0.46957802909309976 -70.975706624587019 0 -70.975706624587019 -181.14622279553623 0 0 0 0 -73.699052626339835 -122.32349163120398 0 -122.32349163120398 -7.3057850243283156 0 0 0 0 1.9341654239105992 -159.24927730091167 0 -159.24927730091167 -213.80787597484959 0 0 0 0 -65.598987208213657 -56.863448693598684 0 -56.863448693598684 -3.1348938180562982 0 0 0 0 217.7308889557753 -114.27591852973637 0 -114.27591852973637 -220.09440618777535 0 0 0 0 -50.903187217219966 -160.65276756849471 0 -160.65276756849471 -138.64144226965709 0 0 0 0 37.909194617619505 -19.871143063610376 0 -19.871143063610376 6.1808270608459717 0 0 0 0 51.458721356379101 -88.288989683959244 0 -88.288989683959244 -83.325413610984924 0 0 0 0 73.44397789008508 -85.416678119259814 0 -85.416678119259814 -82.97992130296916 0 0 0 0 68.746257575257914 -52.922125394278282 0 -52.922125394278282 -71.341531903146461 0 0 0 0 27.361594690446509 -58.466759072533023 0 -58.466759072533023 -72.025052588672224 0 0 0 0 321.8261774374696 -43.595127461914672 0 -43.595127461914672 -66.826417641746957 0 0 0 0 1124.2258191121655 -99.466574439877149 0 -99.466574439877149 -65.694236178999688 0 0 0 0 423.93818432647822 -110.41112357061957 0 -110.41112357061957 -95.075096399883478 0 0 0 0 158.73250680159981 -127.66400335830258 0 -127.66400335830258 -94.355121700817108 0 0 0 0 421.49515294484445 28.375875017674844 0 28.375875017674844 -88.262223327079028 0 0 0 0 356.78192137187216 126.36014390697119 0 126.36014390697119 22.254636767433112 0 0 0 0 216.42531999341736 10.581146090882612 0 10.581146090882612 -83.650545519765728 0 0 0 0 98.996444761563907 8.1261421179224271 0 8.1261421179224271 103.41622180845752 0 0 0 0 6.3830506954436146 1.348243951045319 0 1.348243951045319 0.67073086380216296 0 0 0 0 -21.964685594859475 54.472080501887831 0 54.472080501887831 -26.268778984967867 0 0 0 0 -1.006983563598169 -0.55595426369757206 0 -0.55595426369757206 0.90164100548503257 0 0 0 0 -251.84014081739588 165.25368102090442 0 165.25368102090442 -83.455189930537017 0 0 0 0 409.59476889066718 49.628718463712175 0 49.628718463712175 -112.38143111311001 0 0 0 0 -169.13143037290138 71.973306686530123 0 71.973306686530123 -28.774762392298726 0 0 0 0 -42.392827228970418 184.42090269228993 0 184.42090269228993 -130.53953674797594 0 0 0 0 127.96274187901872 95.414072836603737 0 95.414072836603737 -99.711936732257527 0 0 0 0 -28.44779445246968 118.50953623576788 0 118.50953623576788 -74.013465542731865 0 0 0 0 60.564187793293968 70.487797001151193 0 70.487797001151193 -53.935268010529398 0 0 0 0 -26.889114381163381 49.126482664734795 0 49.126482664734795 -30.707394000999557 0 0 0 0 22.370185943160322 76.423392310607596 0 76.423392310607596 -51.244462678297168 0 0 0 0 -15.956989190424792 46.792715812825918 0 46.792715812825918 -24.168910169970331 0 0 0 0 33.725331195604838 15.211073382362777 0 15.211073382362777 -0.23075393006780232 0 0 0 0 40.600746058858931 17.652558998539462 0 17.652558998539462 -49.072127026803173 0 0 0 0 18.859765325469198 32.597797300772982 0 32.597797300772982 -20.304178308706469 0 0 0 0 49.434342654145439 48.548729557242041 0 48.548729557242041 -48.310004352431861 0 0 0 0 31.701212172134547 48.705130739621382 0 48.705130739621382 -48.286568804261833 0 0 0 0 26.99087575203157 9.7441819174855482 0 9.7441819174855482 -28.565401998552261 0 0 0 0 50.234494162679766 1.5768678708209336 0 1.5768678708209336 -22.335972789944208 0 0 0 0 8.3459100057407483 11.414990489875066 0 11.414990489875066 -7.9620190799438362 0 0 0 0 41.195786012380267 10.200418535603603 0 10.200418535603603 -29.520788616097889 0 0 0 0 45.283774983363401 -2.5264630254423537 0 -2.5264630254423537 -19.728911311874981 0 0 0 0 38.054847775070812 3.2672294740204961 0 3.2672294740204961 -20.308069785998669 0 0 0 0 43.38522180433938 6.3330403127069985 0 6.3330403127069985 -20.97205729396228 0 0 0 0 45.624907826524577 13.192300249886102 0 13.192300249886102 -48.195720701602113 0 0 0 0 37.65569826005958 0.027902875153813511 0 0.027902875153813511 -6.5175979287741939 0 0 0 0 39.84334031434264 30.034032630333968 0 30.034032630333968 -29.380082820829102 0 0 0 0 42.062508745162631 1.5038820884146844 0 1.5038820884146844 -27.685898122304934 0 0 0 0 -221.0877975471667 249.90672558180449 0 249.90672558180449 -172.33570275584134 0 0 0 0 6.9114187021791196 -6.7450288191404866 0 -6.7450288191404866 -7.7756996607326556 0 0 0 0 3.2142521483029611 -3.3318581690902533 0 -3.3318581690902533 -1.4814603856296173 0 0 0 0 30.472820715047419 37.841069898240676 0 37.841069898240676 9.4203565022216935 0 0 0 0 204.23184630159813 -174.26838537831645 0 -174.26838537831645 244.17661918904196 0 0 0 0 57.833316570555326 168.94339204707649 0 168.94339204707649 -280.13796968447423 0 0 0 0 229.1989305735915 50.796062327557593 0 50.796062327557593 -225.79160702529771 0 0 0 0 369.75604598083009 -2.8832506971466501 0 -2.8832506971466501 144.15612776615308 0 0 0 0 338.76206195459235 -125.71464847726747 0 -125.71464847726747 -196.01727206115902 0 0 0 0 168.21985903550376 -88.466543076186099 0 -88.466543076186099 -118.16216720472585 0 0 0 0 26.220381145152714 3.5148755185990623 0 3.5148755185990623 -1.8232008519718086 0 0 0 0 104.89932095088443 28.303876453413523 0 28.303876453413523 2.9716587891016388 0 0 0 0 264.4040289157565 -59.670380605562968 0 -59.670380605562968 -91.946817089774413 0 0 0 0 -38.375805132905953 55.657858491700608 0 55.657858491700608 -122.78892867704371 0 0 0 0 28.642146859789534 7.0419911086638365 0 7.0419911086638365 -20.749827995388451 0 0 0 0 32.766135496465722 8.2737120168894762 0 8.2737120168894762 -57.536361501697684 0 0 0 0 9.9163131288228783 -0.06381047471894874 0 -0.06381047471894874 0.31070409453599268 0 0 0 0 405.00338140742679 -628.08855114108519 0 -628.08855114108519 682.59130048556472 0 0 0 0 362.67023956246703 389.09820189566562 0 389.09820189566562 238.35188061467852 0 0 0 0 76.228285506105749 -129.03844853343071 0 -129.03844853343071 -31.616813382606779 0 0 0 0 511.64111401520131 -287.30629529381713 0 -287.30629529381713 14.815976743357169 0 0 0 0 731.19045702791482 -323.05047306793858 0 -323.05047306793858 -283.19599202118115 0 0 0 0 778.73994883488922 -145.1300037649853 0 -145.1300037649853 -517.8917635404614 0 0 0 0 347.74847564720403 -174.92603795094146 0 -174.92603795094146 -165.3248972365036 0 0 0 0 426.20036944495223 269.12954164338043 0 269.12954164338043 586.35480457767699 0 0 0 0 1473.7874648561701 -403.2010375278569 0 -403.2010375278569 -191.86761138710062 0 0 0 0 -261.20252345503832 -412.11572397957571 0 -412.11572397957571 -62.477364341703833 0 0 0 0 91.466915840079309 104.02148058776129 0 104.02148058776129 376.47404934687074 0 0 0 0 289.40376326831756 6.1913095509553386 0 6.1913095509553386 -379.15235425815627 0 0 0 0 1.1734674973404537 -0.28894925439834651 0 -0.28894925439834651 0.53988151232893244 0 0 0 0 503.85592531543261 628.19354647172599 0 628.19354647172599 -43.964845866448741 0 0 0 0 -707.39130974009458 -373.22908264376201 0 -373.22908264376201 34.177500148904073 0 0 0 0 3.4812002931179222 -3.012151266146077 0 -3.012151266146077 1.4080584596437546 0 0 0 0 575.64792935582227 -522.5952132603943 0 -522.5952132603943 -313.11968070899798 0 0 0 0 1580.820120281147 581.66370387761708 0 581.66370387761708 26.623655252336903 0 0 0 0 860.16262680129148 244.80474755800788 0 244.80474755800788 110.63871987465791 0 0 0 0 30.536893801159749 -25.556722807548795 0 -25.556722807548795 -5.8567810803906468 0 0 0 0 49.297335807816125 -33.234076446204199 0 -33.234076446204199 -14.759906692761433 0 0 0 0 3.1751653523017183 -6.655559613041703 0 -6.655559613041703 -2.1925799069362313 0 0 0 0 737.90931436126994 64.552514847824568 0 64.552514847824568 267.22246239075321 0 0 0 0 179.1616769941611 -244.48287599402829 0 -244.48287599402829 559.6469566894848 0 0 0 0 1478.940401279564 -59.180189992681562 0 -59.180189992681562 -541.38095425041683 0 0 0 0 72.100504691945389 3.8391254111520539 0 3.8391254111520539 -9.09100092065637 0 0 0 0 44.168672986321326 -5.8352643898415408 0 -5.8352643898415408 -10.189148918274441 0 0 0 0 35.263625346247125 -0.89754367424760062 0 -0.89754367424760062 -14.945158139325162 0 0 0 0 40.712578940510866 8.8749623831531608 0 8.8749623831531608 -14.017714548739605 0 0 0 0 6.1557849873497616 -49.747267436121547 0 -49.747267436121547 -52.079556392977793 0 0 0 0 38.638697929600312 4.9619467649131366 0 4.9619467649131366 12.142303440370597 0 0 0 0 52.576282078982331 -13.288995908966172 0 -13.288995908966172 -20.826307200710289 0 0 0 0 16.427620216238509 17.68382992879009 0 17.68382992879009 -13.986295276491838 0 0 0 0 49.566308636083704 6.7324632517716054 0 6.7324632517716054 -21.551811570840073 0 0 0 0 28.929461789884954 -36.408644713348849 0 -36.408644713348849 -44.411204102474585 0 0 0 0 2.3784094325438474 -15.398522315544824 0 -15.398522315544824 -29.12262718370242 0 0 0 0 66.611562747202697 -25.159369516127299 0 -25.159369516127299 -20.229093508078222 0 0 0 0 -2.1761747523560189 -23.920412871978442 0 -23.920412871978442 -16.077055088198904 0 0 0 0 -7.6250689367698214 -24.491827810661334 0 -24.491827810661334 -16.133437300413789 0 0 0 0 -4.1396212576532605 -14.737006622324884 0 -14.737006622324884 -24.289934420509148 0 0 0 0 74.513506128434528 -35.829047156700199 0 -35.829047156700199 -78.495068452702981 0 0 0 0 3.465942740647165 -8.0521426603733488 0 -8.0521426603733488 -4.6899805568247999 0 0 0 0 67.228667630028212 38.986309640729814 0 38.986309640729814 13.601087906094108 0 0 0 0 68.001722912464174 2.6962591118408454 0 2.6962591118408454 -166.64937828643815 0 0 0 0 21.443367376574315 -9.2743989746277293 0 -9.2743989746277293 -11.662759613693197 0 0 0 0 3.1115256930109751 -5.179837415414994 0 -5.179837415414994 -1.1435707677155307 0 0 0 0 -47.07969051793043 -83.917991572474421 0 -83.917991572474421 -64.836884570950133 0 0 0 0 820.06375418503376 116.61590486696105 0 116.61590486696105 3.5832140693382826 0 0 0 0 994.25300944094124 110.95393030963896 0 110.95393030963896 -41.608713060471928 0 0 0 0 833.0755434530729 147.01933118905254 0 147.01933118905254 -6.8235056406847434 0 0 0 0 727.47806025268073 180.21653294891439 0 180.21653294891439 -10.986110288329655 0 0 0 0 846.34690012932697 13.054249780787359 0 13.054249780787359 42.368563017349516 0 0 0 0 851.23965340490395 246.8595241922194 0 246.8595241922194 125.86973170573037 0 0 0 0 818.77671375377395 89.746161147364546 0 89.746161147364546 -21.069576876301653 0 0 0 0 233.25607427579234 37.803863300869125 0 37.803863300869125 87.983025717061537 0 0 0 0 12.627652358941788 -9.0883408228020528 0 -9.0883408228020528 -0.60735413965414864 0 0 0 0 222.6513452239933 -42.523495650010545 0 -42.523495650010545 11.15236335562804 0 0 0 0 357.4298631313759 34.788174794541192 0 34.788174794541192 143.36289520086939 0 0 0 0 -2.7569547205102651 -0.8999685002014246 0 -0.8999685002014246 0.46254036125139919 0 0 0 0 8.6550884502818235 -8.9089687047354005 0 -8.9089687047354005 1.2816596176152331 0 0 0 0 -127.18717551479131 40.566393987805441 0 40.566393987805441 8.8699260973880882 0 0 0 0 11.799550719137187 -8.3969291541552593 0 -8.3969291541552593 8.1693606688622822 0 0 0 0 -19.443420773910475 16.71364895872648 0 16.71364895872648 174.3971926847903 0 0 0 0 -28.100054285117949 -84.673843315524664 0 -84.673843315524664 52.172022715229105 0 0 0 0 0.85596474514011334 0.37699869462116453 0 0.37699869462116453 -0.83250254481394848 0 0 0 0 -2.1516764841653639 -112.53184151320875 0 -112.53184151320875 129.89949381638394 0 0 0 0 105.47554672464321 -42.943889252726649 0 -42.943889252726649 -52.095965059283117 0 0 0 0 -42.838366605370538 -117.84215828474316 0 -117.84215828474316 -25.066306407197771 0 0 0 0 10.492620938442997 -71.374594399050693 0 -71.374594399050693 -36.163646827570119 0 0 0 0 2.939142533247832 -100.5901698627921 0 -100.5901698627921 -73.08666276139229 0 0 0 0 -13.967556006726227 -45.475133697992533 0 -45.475133697992533 -79.188777453076113 0 0 0 0 40.50990805082256 0.17485401550220558 0 0.17485401550220558 -70.931372175755314 0 0 0 0 -65.143146100774175 -88.129719462223875 0 -88.129719462223875 -95.243133885915086 0 0 0 0 7.6730852219574359 4.2854307879748887 0 4.2854307879748887 1.4189928214004723 0 0 0 0 -11.410055827291217 -34.29266060824375 0 -34.29266060824375 -103.298387777171 0 0 0 0 -25.72174175256805 -24.757949861122142 0 -24.757949861122142 0.40259700504702778 0 0 0 0 -17.931563622434624 -42.161412429486518 0 -42.161412429486518 -25.49947668736786 0 0 0 0 -14.416025689439266 -39.525394711459739 0 -39.525394711459739 -26.436393912018957 0 0 0 0 -18.661937275450327 -61.797063128902664 0 -61.797063128902664 -31.483399105156423 0 0 0 0 0.13313382617587877 0.45774797534826916 0 0.45774797534826916 -0.030034323616959568 0 0 0 0 -22.349634859579965 -117.25216502573312 0 -117.25216502573312 -114.40499160466334 0 0 0 0 -23.84882489307347 -7.6866559380141553 0 -7.6866559380141553 23.028430410964575 0 0 0 0 -10.859243529004743 -21.363102971921762 0 -21.363102971921762 -14.567472364615242 0 0 0 0 -13.668294985916873 -20.31227952133122 0 -20.31227952133122 -9.68544778706746 0 0 0 0 -3.0862599356319151 -2.1591159183055026 0 -2.1591159183055026 -4.9466477898447963 0 0 0 0 -57.204046687620576 -61.678229462583658 0 -61.678229462583658 -47.520286374821808 0 0 0 0 -54.883377832709812 -45.06638927505719 0 -45.06638927505719 -48.098908322790521 0 0 0 0 63.737840272253379 25.12639803035654 0 25.12639803035654 -31.105858129281273 0 0 0 0 -40.839763463345662 7.1689173871849334 0 7.1689173871849334 -76.732011423337099 0 0 0 0 119.02398545500182 67.794349037375355 0 67.794349037375355 -1.0171996693952678 0 0 0 0 87.020623416290618 -113.56145831961294 0 -113.56145831961294 -152.96522174261736 0 0 0 0 53.72752166823193 -75.928296865496577 0 -75.928296865496577 -23.026694176223828 0 0 0 0 84.026443797411048 -66.244893615354158 0 -66.244893615354158 -43.529157030518036 0 0 0 0 231.39516364042356 15.696313031081445 0 15.696313031081445 -16.910775964153345 0 0 0 0 468.68578117095603 70.641639739394577 0 70.641639739394577 -14.499140373194678 0 0 0 0 1.3952963727597307 -0.83502966633415099 0 -0.83502966633415099 -1.0263802501679038 0 0 0 0 262.73611994118255 -16.824951797555514 0 -16.824951797555514 11.776369413663474 0 0 0 0 297.93573651942643 81.428381959540502 0 81.428381959540502 0.49353782056823547 0 0 0 0 201.25321229678229 -61.383772862460319 0 -61.383772862460319 43.628536741798598 0 0 0 0 173.86767363573017 46.809106105225965 0 46.809106105225965 80.311733697590171 0 0 0 0 359.13334489392582 85.393724811404724 0 85.393724811404724 298.91271087283894 0 0 0 0 358.61183769961644 67.529215509962341 0 67.529215509962341 85.353872059091373 0 0 0 0 200.25434902122652 -56.39650380292187 0 -56.39650380292187 300.68131743915274 0 0 0 0 351.63958026532782 -342.19157810347497 0 -342.19157810347497 272.65555672355958 0 0 0 0 265.12338715040096 -158.66711873047416 0 -158.66711873047416 153.08718355109158 0 0 0 0 134.55390802392503 -117.72414880794622 0 -117.72414880794622 136.95512299486199 0 0 0 0 299.10063588886987 -190.97821635002356 0 -190.97821635002356 -156.68494272429325 0 0 0 0 945.84618956188933 -324.07658471787408 0 -324.07658471787408 -177.87441707371363 0 0 0 0 1628.0649338045623 -214.43574334345249 0 -214.43574334345249 405.01184441015653 0 0 0 0 370.48506935866317 -48.737979759132941 0 -48.737979759132941 384.4581625495548 0 0 0 0 390.8605618076981 -647.45448305990067 0 -647.45448305990067 560.30560110151509 0 0 0 0 236.57718499046314 -204.90086585286485 0 -204.90086585286485 886.86661231804464 0 0 0 0 683.65496808978787 207.93964237017553 0 207.93964237017553 214.97469717657441 0 0 0 0 1.1440001830356685 -1.5669428056120012 0 -1.5669428056120012 4.5309978506808903 0 0 0 0 488.98309838265413 261.60017124199294 0 261.60017124199294 512.88250445454469 0 0 0 0 452.11417469084699 -128.52285738151477 0 -128.52285738151477 1742.3004630928353 0 0 0 0 1812.3715966877207 107.59837549852 0 107.59837549852 -489.11991615438092 0 0 0 0 906.70900927283219 112.84517914596108 0 112.84517914596108 -483.59295493521495 0 0 0 0 458.33498211165715 53.061405508846292 0 53.061405508846292 -39.920612594481213 0 0 0 0 597.903870408074 59.039743947157149 0 59.039743947157149 -39.665149600628865 0 0 0 0 443.97896389789821 63.036945624829968 0 63.036945624829968 4.8839456110026731 0 0 0 0 1.2698350016361246 -0.98425960156450287 0 -0.98425960156450287 7.5006238593227295 0 0 0 0 435.93153045626968 52.943369670529137 0 52.943369670529137 -6.8525728949789482 0 0 0 0 698.81430581489258 27.857042225616169 0 27.857042225616169 -191.93695216330707 0 0 0 0 1149.0597375271609 -216.92078905240032 0 -216.92078905240032 -230.86938962548516 0 0 0 0 574.33655757410452 -209.72486829164518 0 -209.72486829164518 -107.95730358034234 0 0 0 0 213.33930345145927 62.845458585150482 0 62.845458585150482 -242.65327447683148 0 0 0 0 736.90200684490264 -567.29637019049551 0 -567.29637019049551 -250.16596829334048 0 0 0 0 266.76251614253852 424.36120889371432 0 424.36120889371432 -41.813313583003037 0 0 0 0 405.52552166800888 188.18348336331655 0 188.18348336331655 -153.81682472941827 0 0 0 0 278.40246572893739 236.02591451997114 0 236.02591451997114 82.094100216290826 0 0 0 0 383.42734453896264 13.183585215989297 0 13.183585215989297 -885.08879514681848 0 0 0 0 -180.42812157380104 57.030328433749673 0 57.030328433749673 -152.71802358139604 0 0 0 0 7.5003341959854879 541.54206408228015 0 541.54206408228015 -155.69688653749472 0 0 0 0 158.08923193282681 115.41398543929608 0 115.41398543929608 883.79902040449269 0 0 0 0 180.80657928306755 -970.25356770140479 0 -970.25356770140479 -19.619356298262574 0 0 0 0 -808.82386338632932 -315.5235435683685 0 -315.5235435683685 698.58253000105651 0 0 0 0 1263.1576612228528 471.77052292810185 0 471.77052292810185 -1656.7054626974805 0 0 0 0 40.451733332961936 7.1440680808576218 0 7.1440680808576218 -0.94357859987542625 0 0 0 0 1995.6063081849716 -840.11559169681868 0 -840.11559169681868 -490.14805381549377 0 0 0 0 509.97645931407897 -1430.5140652616101 0 -1430.5140652616101 1735.1143518054159 0 0 0 0 211.42616807058221 393.11391851508597 0 393.11391851508597 1119.1620900910957 0 0 0 0 3071.5698280707584 1769.3867344342943 0 1769.3867344342943 1616.9278240095846 0 0 0 0 35.402400253131134 17.866124689698768 0 17.866124689698768 11.410878495660668 0 0 0 0 829.73719675007487 1846.1056593524866 0 1846.1056593524866 -962.95911412188798 0 0 0 0 19.812725275374476 6.0865875222244163 0 6.0865875222244163 1.1974302444045453 0 0 0 0 488.95738123529009 1454.4724427442179 0 1454.4724427442179 471.12356221167147 0 0 0 0 1399.1058505159617 -698.51646994894031 0 -698.51646994894031 -300.81595890963581 0 0 0 0 93.309612136712531 1480.2882245744004 0 1480.2882245744004 914.46807143771366 0 0 0 0 160.03235215898894 1707.840338461931 0 1707.840338461931 1654.963087555876 0 0 0 0 45.671505310296197 1066.8514466714787 0 1066.8514466714787 1638.6901711927112 0 0 0 0 865.75606843396963 398.73283895855866 0 398.73283895855866 214.87481302153083 0 0 0 0 1284.3462253156267 1034.2172179995041 0 1034.2172179995041 688.825589866683 0 0 0 0 -83.079214003388188 616.74171862221192 0 616.74171862221192 581.37393586079634 0 0 0 0 -52.766259143606476 -134.25712898284695 0 -134.25712898284695 43.677226812509616 0 0 0 0 1.7197952422420713 471.0547063418993 0 471.0547063418993 -42.794961203770072 0 0 0 0 -374.53206047526328 114.02487982494085 0 114.02487982494085 624.28015894081273 0 0 0 0 -441.51080958970124 386.5032102960231 0 386.5032102960231 2859.3556139694315 0 0 0 0 152.0790300556144 26.61803960068703 0 26.61803960068703 -0.23909767400674087 0 0 0 0 90.245286979938101 -774.59753870727218 0 -774.59753870727218 915.66765232807552 0 0 0 0 946.1066253220888 1157.6366085950738 0 1157.6366085950738 -3053.7269578004707 0 0 0 0 9.9755830673311721 -528.16084261832566 0 -528.16084261832566 -1257.6187158764305 0 0 0 0 207.85725553093297 33.960738752399237 0 33.960738752399237 -1.5962452514311167 0 0 0 0 -608.15207466542779 -93.001817789644065 0 -93.001817789644065 -345.11844417613349 0 0 0 0 2100.962577910168 846.86779224841359 0 846.86779224841359 299.51579874052504 0 0 0 0 51.66671733261883 15.089694706557939 0 15.089694706557939 5.087223267533175 0 0 0 0 325.98628902729615 2322.9196457324811 0 2322.9196457324811 -909.19681967788711 0 0 0 0 -1296.4205864136748 1427.9418909462438 0 1427.9418909462438 682.40281666841156 0 0 0 0 2030.7852854418306 -1193.851548314294 0 -1193.851548314294 -1458.5296538499333 0 0 0 0 927.2042582729373 -683.02309186274852 0 -683.02309186274852 -433.28663906971997 0 0 0 0 77.873346258573292 -1881.1148345736065 0 -1881.1148345736065 2418.7478544225205 0 0 0 0 143.06499408257878 440.27077602394775 0 440.27077602394775 474.57841235295427 0 0 0 0 61.364076462059018 -7.576835172874385 0 -7.576835172874385 -1.7369826081559001 0 0 0 0 8.3760953492255794 -59.986183111993967 0 -59.986183111993967 -34.682630882816113 0 0 0 0 435.5851052147882 13.532819609050648 0 13.532819609050648 -790.44974392780932 0 0 0 0 42.03033359989054 -9.6986408537647577 0 -9.6986408537647577 1.4029270709482291 0 0 0 0 141.73042249177342 -56.744165650879609 0 -56.744165650879609 -163.87927750661447 0 0 0 0 25.924386212899662 -78.942715278138508 0 -78.942715278138508 -22.561055300335909 0 0 0 0 1411.7329960580882 -65.258372341402662 0 -65.258372341402662 -275.06592180134544 0 0 0 0 14.83076110508047 -4.5940188928405803 0 -4.5940188928405803 1.789932098464591 0 0 0 0 -1364.9994445654447 -1012.5759519364553 0 -1012.5759519364553 1888.388960332295 0 0 0 0 20.081935575526586 66.364362270095626 0 66.364362270095626 49.049559772030761 0 0 0 0 671.78730783366882 394.48518046535094 0 394.48518046535094 77.136872111245793 0 0 0 0 610.64095233835906 96.598394365307399 0 96.598394365307399 -92.690246003090351 0 0 0 0 613.54483888464063 -128.51072768301458 0 -128.51072768301458 -259.22978503088984 0 0 0 0 535.64472740380006 -134.42302981805108 0 -134.42302981805108 -223.20124120346759 0 0 0 0 264.84644406134612 -221.03520117716209 0 -221.03520117716209 8.4765562964259971 0 0 0 0 -108.82316823226211 -118.44966332896411 0 -118.44966332896411 -5.5370006402142735 0 0 0 0 563.0450511329218 -639.53829870375137 0 -639.53829870375137 128.35054217176435 0 0 0 0 225.02100169572904 33.473122997895068 0 33.473122997895068 -3.2067043703107934 0 0 0 0 243.88729487422097 736.27651338996202 0 736.27651338996202 -1433.7963649049145 0 0 0 0 157.51678432913104 65.727985542125111 0 65.727985542125111 -154.54473209872299 0 0 0 0 168.82687865313164 7.77536204602157 0 7.77536204602157 -123.47983168096653 0 0 0 0 236.46772386740849 16.058792891317808 0 16.058792891317808 -130.89818489546838 0 0 0 0 280.29995061166119 17.082713778441303 0 17.082713778441303 -168.05589401769339 0 0 0 0 189.17392803007169 68.583204433215542 0 68.583204433215542 -156.89296546744464 0 0 0 0 250.1438232934288 20.326129884888701 0 20.326129884888701 -226.12636539333039 0 0 0 0 257.06422289166949 93.867951541573348 0 93.867951541573348 -263.15499729822818 0 0 0 0 216.63227947141812 25.678874710222644 0 25.678874710222644 -6.635881316874233 0 0 0 0 1386.6151622569596 -1070.360269962845 0 -1070.360269962845 -463.84685252166719 0 0 0 0 525.16177396122657 43.059747208880935 0 43.059747208880935 -1054.2115757148413 0 0 0 0 -704.28068155142682 629.25024565631861 0 629.25024565631861 797.1118585554741 0 0 0 0 739.34733060412691 -707.09333298022557 0 -707.09333298022557 -56.067870427657908 0 0 0 0 606.77467892998538 -569.13571392378708 0 -569.13571392378708 -325.75782275290021 0 0 0 0 165.60366073119803 -398.98218116896714 0 -398.98218116896714 -177.87435189250937 0 0 0 0 -52.041855276103888 -103.2462748408974 0 -103.2462748408974 296.12145381337541 0 0 0 0 12.224892622280947 -7.1285978728063668 0 -7.1285978728063668 4.6629335579631874 0 0 0 0 824.84527040351531 122.44254190162792 0 122.44254190162792 -110.2841483615839 0 0 0 0 95.393753553988063 -36.165116623962604 0 -36.165116623962604 -127.28984848668006 0 0 0 0 1124.0535197017598 -386.15796664532036 0 -386.15796664532036 -393.25674656153569 0 0 0 0 552.95866077225219 -271.74247869650935 0 -271.74247869650935 -131.40538379779537 0 0 0 0 300.0018156876904 29.1567318194775 0 29.1567318194775 -196.88225734096159 0 0 0 0 303.30600263445376 -455.844237216083 0 -455.844237216083 -92.862640776986154 0 0 0 0 448.17031772737391 -437.58061273477779 0 -437.58061273477779 -90.663204226084417 0 0 0 0 634.60538608231582 -344.79390336231791 0 -344.79390336231791 -309.94748494099258 0 0 0 0 203.61060912589892 -174.65345373077798 0 -174.65345373077798 -110.14822125455521 0 0 0 0 446.02816698080278 -524.21591608450944 0 -524.21591608450944 -524.02057932872231 0 0 0 0 505.12604552913399 -274.3437356802466 0 -274.3437356802466 -940.25748670342455 0 0 0 0 249.87251310427382 308.44840777255877 0 308.44840777255877 -654.3115083904222 0 0 0 0 390.28533409636293 407.09938526257883 0 407.09938526257883 -2144.3382774209881 0 0 0 0 -284.04643527364533 288.4864640558435 0 288.4864640558435 -719.22856498005603 0 0 0 0 133.74530424423574 -229.19327359328236 0 -229.19327359328236 -866.09691355911218 0 0 0 0 183.19061437190658 -24.57919334977575 0 -24.57919334977575 -640.13135079069161 0 0 0 0 3679.7546750385864 210.34622490039115 0 210.34622490039115 -728.24955082194731 0 0 0 0 3357.4975787262192 -385.29814148923481 0 -385.29814148923481 48.89958108597915 0 0 0 0 3370.1603513526461 -416.2797344655018 0 -416.2797344655018 -738.3358350176336 0 0 0 0 4499.3242137675807 -187.80742598421068 0 -187.80742598421068 -745.14240960853158 0 0 0 0 2890.1148126214466 -45.566891829349515 0 -45.566891829349515 -130.35272973999798 0 0 0 0 2899.9977427272224 -5.2009371841922416 0 -5.2009371841922416 -361.17896168689117 0 0 0 0 1662.8395832324823 254.29744502450552 0 254.29744502450552 -277.94270285314826 0 0 0 0 1577.4237062534576 -847.13142553273883 0 -847.13142553273883 319.94586085178162 0 0 0 0 15.106393268766865 -10.526167317996091 0 -10.526167317996091 -3.7372763895580356 0 0 0 0 767.25954394490691 446.7021809803893 0 446.7021809803893 151.1721479486946 0 0 0 0 2935.0782487567412 -557.6959980207306 0 -557.6959980207306 -315.35390984585672 0 0 0 0 2623.2207849674082 -793.12615118715382 0 -793.12615118715382 -174.16522209884874 0 0 0 0 2779.6432778109424 -147.97927442718282 0 -147.97927442718282 -371.72537075444438 0 0 0 0 1018.3905502457783 -50.256538550022924 0 -50.256538550022924 -148.52596699887579 0 0 0 0 2124.4843601379052 -358.12007274191058 0 -358.12007274191058 -324.42264444473176 0 0 0 0 2751.1027661482076 -1115.6007340077629 0 -1115.6007340077629 -171.11052119509958 0 0 0 0 2040.6536773657717 -654.03366805577912 0 -654.03366805577912 -17.568372725762572 0 0 0 0 3577.0568622861974 -945.63001924999026 0 -945.63001924999026 -518.93375141947729 0 0 0 0 4498.8834808390002 -717.86704172559234 0 -717.86704172559234 -729.21639441196476 0 0 0 0 3565.7755985974691 -994.4453512591358 0 -994.4453512591358 -598.70987611144074 0 0 0 0 4500.9369253018585 -1267.7053170940706 0 -1267.7053170940706 -531.29057890259014 0 0 0 0 3031.517612409606 -973.60608339010344 0 -973.60608339010344 -194.68505215937705 0 0 0 0 3337.9825651794795 -1544.8046245205614 0 -1544.8046245205614 274.34974680019502 0 0 0 0 5677.6916507550304 -1050.7887703137376 0 -1050.7887703137376 305.82094473162999 0 0 0 0 4499.0436727385622 -967.7019102817336 0 -967.7019102817336 2816.2114413606801 0 0 0 0 984.91979124539671 1003.6001394379864 0 1003.6001394379864 720.08689660531854 0 0 0 0 34.114124180117408 -5.7007326558058873 0 -5.7007326558058873 1.2882569714283174 0 0 0 0 2201.2815839033647 -2326.9007061284919 0 -2326.9007061284919 2077.447016921994 0 0 0 0 3792.1813750227511 553.25184991258413 0 553.25184991258413 36.348528687327871 0 0 0 0 5398.8155296711529 -1474.3446121217264 0 -1474.3446121217264 355.8209211478644 0 0 0 0 213.01223030655092 319.17089446237696 0 319.17089446237696 -456.067718166345 0 0 0 0 72.913443317364255 36.801204702696481 0 36.801204702696481 28.174206894413178 0 0 0 0 -6.3675856906664876 -421.56291652423147 0 -421.56291652423147 534.73030812159334 0 0 0 0 687.16884033218957 105.89654062559612 0 105.89654062559612 -190.0820975070169 0 0 0 0 446.54187921855191 18.9440480160888 0 18.9440480160888 -208.89409049025608 0 0 0 0 -7.3216319685634517 18.273875357914221 0 18.273875357914221 32.146915357265698 0 0 0 0 -165.9092767728996 -120.57591872991327 0 -120.57591872991327 -29.100660214830441 0 0 0 0 84.282378498829672 4.6761776626858813 0 4.6761776626858813 5.0578570956789282 0 0 0 0 19.713677419546002 28.66151959924224 0 28.66151959924224 155.32017289965779 0 0 0 0 321.610075536355 230.56020594107451 0 230.56020594107451 142.05857281596332 0 0 0 0 121.8498376425905 -293.77056974003517 0 -293.77056974003517 802.26999170617307 0 0 0 0 1543.8994098886433 -1415.2039093985991 0 -1415.2039093985991 850.22065110983897 0 0 0 0 2.5162171990839113 -0.37727073666252053 0 -0.37727073666252053 -2.3963343614994681 0 0 0 0 1181.4499832466699 -266.25625020493362 0 -266.25625020493362 50.492853496768589 0 0 0 0 761.02884289328722 -630.42040316409975 0 -630.42040316409975 236.79082862220267 0 0 0 0 6.3318897978503799 -5.0504166343293129 0 -5.0504166343293129 -6.1860383549868576 0 0 0 0 26.216278188407159 -10.405029792165806 0 -10.405029792165806 -10.738772552014098 0 0 0 0 13.153921915385581 -19.231352096106093 0 -19.231352096106093 -4.458206761855763 0 0 0 0 13.491590739925552 7.9457431160868524 0 7.9457431160868524 -3.0039607190986635 0 0 0 0 15.923206967248536 -8.9755559099388904 0 -8.9755559099388904 -8.7232233609577783 0 0 0 0 99.59980878020724 -18.285015362501781 0 -18.285015362501781 4.8559784789681544 0 0 0 0 51.463186598783068 -11.237805542846672 0 -11.237805542846672 -19.703443117443385 0 0 0 0 53.7851740477372 -2.0932479789524905 0 -2.0932479789524905 -23.471299688600993 0 0 0 0 119.82013229766017 -67.664371612037939 0 -67.664371612037939 7.8437069254168819 0 0 0 0 16.401211393315606 -4.6686043480635462 0 -4.6686043480635462 -4.5654760940628503 0 0 0 0 115.64294281221737 -5.4554850408596849 0 -5.4554850408596849 -17.987550897569577 0 0 0 0 108.18620529464533 -50.299187255336619 0 -50.299187255336619 -0.32770864451003945 0 0 0 0 102.71976271864514 -8.83359908402781 0 -8.83359908402781 -3.1391163925213732 0 0 0 0 43.18484121632612 -28.225324493345134 0 -28.225324493345134 -1.0365155864827305 0 0 0 0 105.53649029880035 -56.909444221423655 0 -56.909444221423655 11.5597460173135 0 0 0 0 54.945280717611702 15.046348494505844 0 15.046348494505844 -11.608043632246945 0 0 0 0 -30.917353604778327 22.05662482963362 0 22.05662482963362 83.877390197229488 0 0 0 0 25.668702561160146 7.4973348824988264 0 7.4973348824988264 -4.1061231483443041 0 0 0 0 -43.998183358187816 128.4980838439169 0 128.4980838439169 -40.578296159636466 0 0 0 0 85.233885151786041 30.879633967521762 0 30.879633967521762 -4.3580974184860537 0 0 0 0 71.254385230823345 27.74796744608102 0 27.74796744608102 -10.341949355915858 0 0 0 0 165.35248016681726 -36.55295714472777 0 -36.55295714472777 -71.642153107203939 0 0 0 0 94.274565162741666 35.000922002488565 0 35.000922002488565 9.2695273653579253 0 0 0 0 32.028748014959 4.3665635895385932 0 4.3665635895385932 -3.044254563629579 0 0 0 0 153.68636114538094 98.278282582168686 0 98.278282582168686 -176.94465377753477 0 0 0 0 85.049569428665691 3.169520727985486 0 3.169520727985486 -14.641916522985067 0 0 0 0 105.86025735786211 -0.60756855638470597 0 -0.60756855638470597 -14.085985080339015 0 0 0 0 122.96749351667826 -4.1240810160690664 0 -4.1240810160690664 -9.9803145055998641 0 0 0 0 140.47403173759812 -20.537281083923517 0 -20.537281083923517 -5.7082937820441657 0 0 0 0 174.54770678189379 -132.80715779318962 0 -132.80715779318962 -141.89013230994169 0 0 0 0 240.89843390400347 -94.024714581420994 0 -94.024714581420994 -168.50738435926178 0 0 0 0 239.36020785184883 -75.427220801577278 0 -75.427220801577278 -238.11019652687537 0 0 0 0 35.704586153408336 -69.313392358166922 0 -69.313392358166922 -23.655320754368105 0 0 0 0 187.12119693519344 -93.423815515006936 0 -93.423815515006936 -117.24964460722731 0 0 0 0 204.88740866721491 -154.89239784753954 0 -154.89239784753954 -144.17828859925066 0 0 0 0 203.25484444128142 -128.11859774380332 0 -128.11859774380332 -189.78077494238096 0 0 0 0 265.99023655362544 -136.63568177798152 0 -136.63568177798152 -208.84240303383285 0 0 0 0 248.33030156639143 -109.79496239685523 0 -109.79496239685523 -245.41496095727416 0 0 0 0 230.76038672657887 -156.43290951723793 0 -156.43290951723793 -174.93075437755761 0 0 0 0 259.99707291441155 -108.39151492759629 0 -108.39151492759629 -271.12603181713712 0 0 0 0 219.24350429176582 -14.497075159142042 0 -14.497075159142042 -333.72080318276858 0 0 0 0 172.88240259389568 -29.789470704583437 0 -29.789470704583437 -255.88409497937027 0 0 0 0 258.77210018564801 -64.810908492776434 0 -64.810908492776434 -304.24151745729614 0 0 0 0 395.8449810561724 -311.27714998652709 0 -311.27714998652709 -25.293559861942413 0 0 0 0 652.77189749851823 -300.75115170745738 0 -300.75115170745738 -63.98110011513748 0 0 0 0 410.68857013966772 -209.66669546427397 0 -209.66669546427397 63.80159638952432 0 0 0 0 495.78153214682243 -147.23822702354937 0 -147.23822702354937 -7.2339643650590233 0 0 0 0 380.66186290331825 -5.0484366309062807 0 -5.0484366309062807 -74.485300871127151 0 0 0 0 128.97475715771725 -152.2694773321889 0 -152.2694773321889 129.71201642128881 0 0 0 0 185.95232108591881 -50.248424790501304 0 -50.248424790501304 312.30840904599927 0 0 0 0 234.26169148518238 -351.99735098132635 0 -351.99735098132635 282.41676080439083 0 0 0 0 476.27251060599519 -395.30487598483114 0 -395.30487598483114 47.015059636415572 0 0 0 0 88.769847576490065 -24.570243962045112 0 -24.570243962045112 -12.363425311606079 0 0 0 0 621.05439333678805 -454.10696910451713 0 -454.10696910451713 -131.17546032155576 0 0 0 0 13.682630982742943 -51.883024838897256 0 -51.883024838897256 -12.76925958257989 0 0 0 0 76.791042839265174 -52.373128202601578 0 -52.373128202601578 -14.233256401705603 0 0 0 0 453.42108658286816 847.10281513712664 0 847.10281513712664 1565.0427714078189 0 0 0 0 495.50907375132374 -486.77054909664616 0 -486.77054909664616 210.14906755153424 0 0 0 0 645.94256646814756 -372.53994944739486 0 -372.53994944739486 -459.8667146032318 0 0 0 0 -0.089238628714525703 -16.781012925887882 0 -16.781012925887882 0.05072850627415075 0 0 0 0 665.93489407014567 -155.49873663122779 0 -155.49873663122779 -216.13224281524492 0 0 0 0 1165.3116948686074 34.649758766761494 0 34.649758766761494 -1231.6227047533484 0 0 0 0 59.857919244610251 -49.982517402651176 0 -49.982517402651176 -13.640547357521237 0 0 0 0 104.19801872956305 -58.23759252774903 0 -58.23759252774903 -14.039645121904083 0 0 0 0 785.499260824261 130.21098214589847 0 130.21098214589847 263.04752673633857 0 0 0 0 738.51603285360761 -90.855417763682254 0 -90.855417763682254 -209.86405093621079 0 0 0 0 725.28634597305791 -131.12682028585732 0 -131.12682028585732 -214.68257744413313 0 0 0 0 694.1845696786113 -104.7363383521888 0 -104.7363383521888 -196.48670254988406 0 0 0 0 515.77905964026286 -154.416246145635 0 -154.416246145635 -207.81827154997268 0 0 0 0 450.36049005582754 -25.191789178394117 0 -25.191789178394117 -70.874758423607886 0 0 0 0 576.41421994530538 35.041992930828542 0 35.041992930828542 -127.3655058732561 0 0 0 0 825.7221853978117 124.47424708187555 0 124.47424708187555 -96.821178345894168 0 0 0 0 515.71714616225654 -55.513937653594894 0 -55.513937653594894 -123.50317705868156 0 0 0 0 93.790166769731513 -48.291338611913147 0 -48.291338611913147 3.420134274148495 0 0 0 0 -1.5431875571935052 -22.330938748289924 0 -22.330938748289924 -8.0621753503625939 0 0 0 0 977.81607607270416 -114.60837741479145 0 -114.60837741479145 -200.94941255876529 0 0 0 0 105.38010414649364 -43.541854222304124 0 -43.541854222304124 -0.29949748113631358 0 0 0 0 175.96033902537965 -114.65514473230678 0 -114.65514473230678 58.306884294898737 0 0 0 0 -7.560918960851275 -23.096880763059247 0 -23.096880763059247 -2.8883526298478515 0 0 0 0 120.17623715135414 -54.405325273782637 0 -54.405325273782637 -3.9368541874932816 0 0 0 0 471.17823337502341 -114.85593311641151 0 -114.85593311641151 124.09974884426583 0 0 0 0 1180.5246787403958 -224.1264632023823 0 -224.1264632023823 -190.42902322633836 0 0 0 0 286.40158200256701 -344.29777885040403 0 -344.29777885040403 188.75225421842606 0 0 0 0 509.66465643949778 70.678450162001354 0 70.678450162001354 12.183278257133225 0 0 0 0 -5.3923419017505552 -25.55898860318328 0 -25.55898860318328 10.763425539524974 0 0 0 0 1059.2564014040927 -409.99939669457478 0 -409.99939669457478 -266.05332872847248 0 0 0 0 104.56561981355117 -37.158244201822981 0 -37.158244201822981 1.5220071513695075 0 0 0 0 67.434699787558202 1.2861519724688151 0 1.2861519724688151 -42.896369456091634 0 0 0 0 112.13501223318599 -59.664594553206371 0 -59.664594553206371 32.568873248794262 0 0 0 0 179.10114289880585 -36.586658511976111 0 -36.586658511976111 -19.909960025543114 0 0 0 0 1.9705902635562609 0.071584190007719428 0 0.071584190007719428 -1.6362813979069522 0 0 0 0 15.319367263626191 30.267522986589029 0 30.267522986589029 -40.211894209720413 0 0 0 0 53.017631220454859 -23.840561757673186 0 -23.840561757673186 -16.631462099376222 0 0 0 0 44.397499757171317 0.053410441581036139 0 0.053410441581036139 -19.098938065855691 0 0 0 0 29.965944194480471 -6.642272405111953 0 -6.642272405111953 -17.56794485752107 0 0 0 0 32.004116544510239 1.076499988480542 0 1.076499988480542 -20.062625431298891 0 0 0 0 278.08372030340797 171.55047310807038 0 171.55047310807038 121.43256806408135 0 0 0 0 -420.15384991970132 -139.90672318620875 0 -139.90672318620875 209.42659615647563 0 0 0 0 11.488667004973827 -20.246631743374017 0 -20.246631743374017 -2.2387078445531516 0 0 0 0 273.10404214967275 126.69573708154815 0 126.69573708154815 -126.46639033024394 0 0 0 0 915.04354463678283 -203.73636695045434 0 -203.73636695045434 -61.153303566846716 0 0 0 0 -217.02683450073164 -309.05335746465732 0 -309.05335746465732 112.50302218830265 0 0 0 0 19.303476859640796 -22.616184463334776 0 -22.616184463334776 37.806872494653362 0 0 0 0 240.21197141434823 331.08576335207101 0 331.08576335207101 87.842322264309132 0 0 0 0 72.063381964115251 -21.450824679493508 0 -21.450824679493508 5.7590842323688776 0 0 0 0 134.45573060112292 -27.796363265787704 0 -27.796363265787704 -32.620380607257175 0 0 0 0 14.862259961157104 -0.099950128213407652 0 -0.099950128213407652 0.13273034925338756 0 0 0 0 48.826286913921649 -16.012920528237373 0 -16.012920528237373 4.9425151716745859 0 0 0 0 139.44736063788878 -78.964377152181896 0 -78.964377152181896 -176.42047598135832 0 0 0 0 79.523630938369138 -7.0624638791032623 0 -7.0624638791032623 -8.8199049093086579 0 0 0 0 99.0401883458253 -11.163057220577684 0 -11.163057220577684 -57.968317985436443 0 0 0 0 27.064514461574969 -16.154129188407758 0 -16.154129188407758 -16.675867175882964 0 0 0 0 584.36932875338607 -555.0572063090392 0 -555.0572063090392 462.13984822956536 0 0 0 0 44.344002888563409 -119.96151689592045 0 -119.96151689592045 -76.187054219679339 0 0 0 0 35.231812990443757 -51.943126760388566 0 -51.943126760388566 -9.7312637533776893 0 0 0 0 76.211356777599576 -66.340975134912469 0 -66.340975134912469 -115.29922040510974 0 0 0 0 -155.36961554443769 -22.683508884837252 0 -22.683508884837252 54.868773364489073 0 0 0 0 328.97283669922035 -182.86115819601582 0 -182.86115819601582 -119.51881355940066 0 0 0 0 24.63658951013349 -107.06621772385915 0 -107.06621772385915 -124.93452860636643 0 0 0 0 32.421012287784833 -64.266682868519638 0 -64.266682868519638 -86.764152875619402 0 0 0 0 153.31808273789648 -15.11696616606423 0 -15.11696616606423 -66.846853735171635 0 0 0 0 160.96206458451343 -149.93994909984031 0 -149.93994909984031 58.158368497650144 0 0 0 0 -146.59601908928016 79.082195779982612 0 79.082195779982612 195.64785044251948 0 0 0 0 216.42988443966897 62.270607382504522 0 62.270607382504522 -91.564986254792075 0 0 0 0 -183.74724906408301 128.62354781413811 0 128.62354781413811 -13.132360922583821 0 0 0 0 435.49262412390817 -178.16328604876873 0 -178.16328604876873 -578.5572300272006 0 0 0 0 -34.754682321588916 -9.8581648047565977 0 -9.8581648047565977 -71.191576500879819 0 0 0 0 5.0666236351144462 -4.3085527731997786 0 -4.3085527731997786 0.4462667415425603 0 0 0 0 42.190486169397445 -5.3581574824080462 0 -5.3581574824080462 -9.5691203124006279 0 0 0 0 25.846715118647325 -14.843027292013971 0 -14.843027292013971 8.7766576000726211 0 0 0 0 768.23435075390444 -797.37467889338859 0 -797.37467889338859 392.09167350908319 0 0 0 0 623.81598079633841 -782.49007119854105 0 -782.49007119854105 474.87710781644819 0 0 0 0 331.61861383392534 -606.88175172193496 0 -606.88175172193496 858.82647430902944 0 0 0 0 4.1384832797243973 -3.0477069800941017 0 -3.0477069800941017 1.4731837923544422 0 0 0 0 90.16875838447595 -6.9079466674488685 0 -6.9079466674488685 33.494844225937413 0 0 0 0 11.50289167136566 -5.8997939348363673 0 -5.8997939348363673 -1.8193344568371206 0 0 0 0 467.79654854699038 -213.22340634495413 0 -213.22340634495413 117.13572231547141 0 0 0 0 42.800133992557164 -0.70792690140454795 0 -0.70792690140454795 -0.22564680368705847 0 0 0 0 92.06952846016793 91.985611376596353 0 91.985611376596353 -158.14602485626619 0 0 0 0 50.382345367142989 -19.796906457100704 0 -19.796906457100704 -5.5080192404484478 0 0 0 0 35.962252875720509 2.1161667987329906 0 2.1161667987329906 -14.788510681160435 0 0 0 0 259.53559915676306 506.01673704158748 0 506.01673704158748 1103.2216432990535 0 0 0 0 571.13349726384331 881.03260943020177 0 881.03260943020177 1501.5400026385287 0 0 0 0 528.37763870166964 -482.79522250226273 0 -482.79522250226273 -325.9899917111718 0 0 0 0 445.11729266789916 38.844343911042415 0 38.844343911042415 -466.44464942554532 0 0 0 0 -725.9411876834929 -800.63801941781253 0 -800.63801941781253 789.62208219594913 0 0 0 0 49.099974240623752 -70.922632892568785 0 -70.922632892568785 74.285569540563827 0 0 0 0 318.80465787113644 260.7406843026929 0 260.7406843026929 233.27950021442666 0 0 0 0 415.57703236069938 297.70505943191893 0 297.70505943191893 339.09708503410582 0 0 0 0 592.46821329136583 1198.1735234925873 0 1198.1735234925873 605.61984959291294 0 0 0 0 2090.3299679459888 1631.2274652982378 0 1631.2274652982378 -938.34435055774884 0 0 0 0 462.28396552156482 1362.0263694008372 0 1362.0263694008372 707.36210495010164 0 0 0 0 523.5357657429704 944.73852141808675 0 944.73852141808675 299.44987840444446 0 0 0 0 872.47005780263862 858.47476564953831 0 858.47476564953831 162.90012960826061 0 0 0 0 983.80107932921965 633.71240971726456 0 633.71240971726456 317.10155528678297 0 0 0 0 742.21797698267619 794.53802929293306 0 794.53802929293306 255.34495500377852 0 0 0 0 2764.1118331787293 185.82745050833364 0 185.82745050833364 -126.8876983054131 0 0 0 0 1130.1183400184527 -60.029570084558145 0 -60.029570084558145 -147.5336642976556 0 0 0 0 1673.9627210967301 1300.8001818952362 0 1300.8001818952362 888.53671613764527 0 0 0 0 113.92612511236075 17.241534143434365 0 17.241534143434365 142.79995182371567 0 0 0 0 24.612116148160396 2.4235697055587266 0 2.4235697055587266 0.21243817889204308 0 0 0 0 1189.1375918362901 -957.82460458117293 0 -957.82460458117293 448.11947289912132 0 0 0 0 998.93614527065074 1219.9363381337935 0 1219.9363381337935 1713.7895712803675 0 0 0 0 2468.7039384881355 -625.26212838588617 0 -625.26212838588617 254.68897522363295 0 0 0 0 2698.3106966370124 764.86594032251344 0 764.86594032251344 167.27156698707404 0 0 0 0 2145.514463777683 82.258361839234112 0 82.258361839234112 -329.73142494365129 0 0 0 0 1424.5765347190754 454.40901146804299 0 454.40901146804299 193.65600489144526 0 0 0 0 177.00874498966732 262.3887425328403 0 262.3887425328403 673.79424526741332 0 0 0 0 629.81255801766747 637.36799189687963 0 637.36799189687963 208.45377494316926 0 0 0 0 1109.3846401728224 59.33331633455191 0 59.33331633455191 -139.06050242897982 0 0 0 0 91.741065066179999 419.69882412738491 0 419.69882412738491 143.76746232357436 0 0 0 0 1209.4820294296587 -621.60411392968467 0 -621.60411392968467 -1244.1253435849185 0 0 0 0 9.0570722469265377 4.3600664821198762 0 4.3600664821198762 -7.2157869473484784 0 0 0 0 140.14013152601547 -125.28189635420858 0 -125.28189635420858 -102.32112301569649 0 0 0 0 2809.5956614417082 987.92350429735143 0 987.92350429735143 -118.10200536042333 0 0 0 0 1822.7163385949389 615.97136889470221 0 615.97136889470221 201.03199023234265 0 0 0 0 2217.2404543666635 297.34369430688093 0 297.34369430688093 -454.39794801128346 0 0 0 0 -693.54411697921751 -172.43991065467026 0 -172.43991065467026 -28.442936957412712 0 0 0 0 -352.16130623639219 -292.42664506279436 0 -292.42664506279436 -318.26732226759123 0 0 0 0 1470.0994030435395 -452.42448129185686 0 -452.42448129185686 268.52609382054015 0 0 0 0 909.63379994079878 -196.7427883420778 0 -196.7427883420778 328.3118871467359 0 0 0 0 -800.17303647038352 -563.71205508646949 0 -563.71205508646949 -20.405130929175357 0 0 0 0 42.21709710945639 -60.168161879704087 0 -60.168161879704087 60.227200528392515 0 0 0 0 -673.40861054170091 -0.989316228293319 0 -0.989316228293319 32.566957997207282 0 0 0 0 225.0757981412462 -168.38986271084741 0 -168.38986271084741 -233.28666656826408 0 0 0 0 201.67450743588415 -265.81316960111963 0 -265.81316960111963 -173.17296213962709 0 0 0 0 -366.62504716469266 -260.85105002894147 0 -260.85105002894147 44.848649464262053 0 0 0 0 -70.303176277069724 -83.115332161638435 0 -83.115332161638435 4.9777942804539634 0 0 0 0 480.92738468083644 -87.034446075741187 0 -87.034446075741187 -240.75540585472663 0 0 0 0 -396.85311807610651 -442.0091740159931 0 -442.0091740159931 -494.23055618132366 0 0 0 0 -183.38180276065759 -335.49462149484202 0 -335.49462149484202 -286.40646773295703 0 0 0 0 -350.65412480152736 -200.73147025841581 0 -200.73147025841581 -107.19498382138636 0 0 0 0 97.874145475580008 -145.36454995030226 0 -145.36454995030226 -296.14025124463751 0 0 0 0 -48.056439589563524 -36.392382126839948 0 -36.392382126839948 -132.64397917378301 0 0 0 0 -212.27694206556771 -312.40972096135658 0 -312.40972096135658 -312.61080194221813 0 0 0 0 138.39826522507065 -26.766028601233756 0 -26.766028601233756 -60.152864261911873 0 0 0 0 246.2622072604363 -67.278419975488816 0 -67.278419975488816 -250.13397917727161 0 0 0 0 506.82146823219955 47.581467687898339 0 47.581467687898339 -193.02032950844773 0 0 0 0 257.51661971032445 7.7322758225000143 0 7.7322758225000143 -112.24435806858219 0 0 0 0 393.19413910900766 64.411187530602547 0 64.411187530602547 -142.22807563696824 0 0 0 0 262.58213033805077 -1.4886485517082519 0 -1.4886485517082519 -71.383409861129621 0 0 0 0 218.318534978549 57.618544154334472 0 57.618544154334472 -150.17348491007533 0 0 0 0 92.602459967980394 -117.91306537500543 0 -117.91306537500543 -168.61994360580445 0 0 0 0 -35.433953325176844 -53.365419331325143 0 -53.365419331325143 -149.35708735753633 0 0 0 0 356.87044650287135 -3.6500356564463345 0 -3.6500356564463345 -134.34713332467919 0 0 0 0 144.72663335478137 -259.28710324178843 0 -259.28710324178843 -125.60006951417745 0 0 0 0 641.09319442544802 -224.44801718039815 0 -224.44801718039815 -127.40402363691703 0 0 0 0 238.96242654869275 40.187457899445235 0 40.187457899445235 -60.33368558165489 0 0 0 0 340.2534021804895 12.430456236552345 0 12.430456236552345 -95.736248748131402 0 0 0 0 443.63502489602979 124.02909667141449 0 124.02909667141449 -47.216236597996385 0 0 0 0 231.44904851757747 220.55504372365147 0 220.55504372365147 83.149716126078829 0 0 0 0 105.81995619031659 84.658743812819466 0 84.658743812819466 89.260011231368253 0 0 0 0 319.21306769803778 4.9307062614156507 0 4.9307062614156507 89.759376695493984 0 0 0 0 281.81545764773909 83.396372545423787 0 83.396372545423787 -59.572314646286969 0 0 0 0 1832.5182236917899 -351.80500099815526 0 -351.80500099815526 -436.31866335505964 0 0 0 0 36.27277646893171 24.169526666952791 0 24.169526666952791 -15.742068690771942 0 0 0 0 720.17135230989152 606.7106354059008 0 606.7106354059008 -772.95103619741178 0 0 0 0 264.61292074550693 -219.81398347474627 0 -219.81398347474627 -388.80291895327719 0 0 0 0 450.62503556973388 -84.076810968613898 0 -84.076810968613898 -768.87541107300319 0 0 0 0 637.36317674361635 -227.01354305875009 0 -227.01354305875009 -129.14412495819818 0 0 0 0 261.07252372429866 -1036.0312287274835 0 -1036.0312287274835 -263.39960927626043 0 0 0 0 158.60260937145358 -251.86810105628274 0 -251.86810105628274 -156.42413033971388 0 0 0 0 -131.82390930180736 -454.53291729207285 0 -454.53291729207285 -291.7135597184274 0 0 0 0 1168.157872431344 -848.54068560881558 0 -848.54068560881558 401.39933638267939 0 0 0 0 -143.01245611299237 121.83796106274679 0 121.83796106274679 1104.2387469995265 0 0 0 0 923.87013139441842 680.41902487861523 0 680.41902487861523 459.45098545225892 0 0 0 0 3584.849738640376 1292.8321965393754 0 1292.8321965393754 40.696140933739358 0 0 0 0 10.485087256760096 -11.260110380532893 0 -11.260110380532893 9.5266259501222681 0 0 0 0 -840.11797322509665 -277.6293695703971 0 -277.6293695703971 -129.31817863074957 0 0 0 0 -381.28827844862462 -112.62045250274423 0 -112.62045250274423 -369.55223842276246 0 0 0 0 -1080.1601779187768 -1066.4448568796815 0 -1066.4448568796815 -128.23451062235972 0 0 0 0 2845.8905193294868 777.21764594528804 0 777.21764594528804 -165.87091993480863 0 0 0 0 29.77896358400352 -37.48007500858462 0 -37.48007500858462 31.814515628855506 0 0 0 0 -889.01845596096246 -595.5584210532096 0 -595.5584210532096 -168.83961330791863 0 0 0 0 327.43449501043506 484.59454920711505 0 484.59454920711505 834.31003613023699 0 0 0 0 2.0671985958094012 7.5151277106936334 0 7.5151277106936334 -9.5366848953419563 0 0 0 0 869.73867753868399 -373.90647798842031 0 -373.90647798842031 -502.07669145487694 0 0 0 0 171.5639750979899 133.36135063380334 0 133.36135063380334 -303.79808362427912 0 0 0 0 243.69662452346529 340.3758531650119 0 340.3758531650119 313.31190789011964 0 0 0 0 461.27437857482437 503.60098213647279 0 503.60098213647279 116.79010132929716 0 0 0 0 421.61667626695089 380.93543570687842 0 380.93543570687842 -28.668937909219039 0 0 0 0 202.37517788847617 362.07517794473006 0 362.07517794473006 313.41957625189787 0 0 0 0 705.23516682903573 846.03206733975344 0 846.03206733975344 373.92355403508691 0 0 0 0 -350.16925913196974 -186.01934325405134 0 -186.01934325405134 -100.97458105981333 0 0 0 0 -9.4580712719908888 25.934820492269409 0 25.934820492269409 -13.815409815075036 0 0 0 0 -94.247293309192173 288.07520172541808 0 288.07520172541808 1175.7985501842904 0 0 0 0 -504.99898281199239 222.93007607468061 0 222.93007607468061 57.115644409025649 0 0 0 0 63.404287396692553 31.997476915817309 0 31.997476915817309 -13.307905627301707 0 0 0 0 508.57513956277398 344.76778539278803 0 344.76778539278803 225.48805354401492 0 0 0 0 -398.12989673878474 -143.48052238279092 0 -143.48052238279092 446.4269414948082 0 0 0 0 -366.13428202582145 -215.68909447067125 0 -215.68909447067125 593.8684796135243 0 0 0 0 65.732060819543406 28.111973730096523 0 28.111973730096523 -19.093345537507386 0 0 0 0 -586.60506767293555 956.31716254703861 0 956.31716254703861 -51.976784066879105 0 0 0 0 -358.28649578904151 -141.20319100122936 0 -141.20319100122936 61.28681673164283 0 0 0 0 71.746087148372226 47.797556755994549 0 47.797556755994549 -45.111330912326594 0 0 0 0 81.064348718249676 8.4891527586009943 0 8.4891527586009943 -12.702620587349202 0 0 0 0 31.236272871879919 43.470347426118224 0 43.470347426118224 -28.532184846889322 0 0 0 0 75.833309851785543 23.399992069607151 0 23.399992069607151 -29.50309091392046 0 0 0 0 70.778533136650367 42.529518532877773 0 42.529518532877773 -36.145878548368273 0 0 0 0 -2.872676640174177 352.48924454417465 0 352.48924454417465 108.04680370374899 0 0 0 0 35.045363925884885 67.125998280082513 0 67.125998280082513 -31.611704992303657 0 0 0 0 18.775673452772025 77.964900740853409 0 77.964900740853409 -38.794899607242769 0 0 0 0 73.704439298493526 45.289516918360732 0 45.289516918360732 -94.551301100989804 0 0 0 0 17.527405408811319 64.56948757646569 0 64.56948757646569 -182.48143168136403 0 0 0 0 224.33508724163767 23.549451399583177 0 23.549451399583177 -683.14934756395451 0 0 0 0 31.192236520883782 -2.9437348246045127 0 -2.9437348246045127 -3.8534389187164741 0 0 0 0 444.28902437111537 323.15790281814043 0 323.15790281814043 615.62087760644727 0 0 0 0 188.85414796866098 1024.1803759127879 0 1024.1803759127879 750.88216679798825 0 0 0 0 52.591351231836555 -2.1858362352145164 0 -2.1858362352145164 -9.5527064246846933 0 0 0 0 705.16282850850257 753.29770245053078 0 753.29770245053078 826.97960558980776 0 0 0 0 7.5462838440341216 1.6959142880513127 0 1.6959142880513127 -5.4132415232539373 0 0 0 0 852.17687712123734 616.9487508926594 0 616.9487508926594 -28.527328308724464 0 0 0 0 468.67431924096309 272.5367858932558 0 272.5367858932558 673.57801945966548 0 0 0 0 706.40367649561085 331.15202347356262 0 331.15202347356262 -326.03430506225322 0 0 0 0 -466.39545028794237 465.35194944655973 0 465.35194944655973 675.1229437067966 0 0 0 0 189.73537802796272 900.0778923080843 0 900.0778923080843 -573.82073080813007 0 0 0 0 -0.30811510062848413 0.3060290165721824 0 0.3060290165721824 -10.548514858958997 0 0 0 0 230.59493685918278 -162.23372032858606 0 -162.23372032858606 -441.76727802111714 0 0 0 0 -270.78140454621098 384.42907891643245 0 384.42907891643245 -60.898067351558893 0 0 0 0 143.87478196386655 -1.8655009836629688 0 -1.8655009836629688 -103.44766661247922 0 0 0 0 224.58227356564021 -45.058802176386052 0 -45.058802176386052 -120.59076330941207 0 0 0 0 67.670037580481107 8.4181183636013905 0 8.4181183636013905 -5.4357868136296883 0 0 0 0 203.90936228330247 -17.924270515112767 0 -17.924270515112767 -155.47478052623046 0 0 0 0 172.92518409954209 -39.733712569985983 0 -39.733712569985983 -54.725535887916337 0 0 0 0 34.315227903639837 6.5973146624216099 0 6.5973146624216099 -30.07224325275228 0 0 0 0 253.07586925242595 102.72415301994079 0 102.72415301994079 -89.361027734856179 0 0 0 0 194.18587701069919 63.242458943497695 0 63.242458943497695 16.88872187330162 0 0 0 0 347.67752508580452 176.79124365248481 0 176.79124365248481 -65.140196173078948 0 0 0 0 298.60046703833359 231.98224026340927 0 231.98224026340927 -79.012535902667878 0 0 0 0 432.05526648936939 160.94721009460818 0 160.94721009460818 -110.5565068439646 0 0 0 0 397.6525217224771 218.03610350647318 0 218.03610350647318 -123.95627863386926 0 0 0 0 261.32616626923846 452.00509608403263 0 452.00509608403263 6.2722702864430175 0 0 0 0 333.02569315008805 328.19875952953703 0 328.19875952953703 152.8323350668652 0 0 0 0 293.22122933083301 433.2899365305575 0 433.2899365305575 -214.29532990795292 0 0 0 0 174.30929439154352 304.21152787915616 0 304.21152787915616 514.33401354290254 0 0 0 0 241.01481558564774 141.36078004993033 0 141.36078004993033 147.19515333658273 0 0 0 0 169.11488869873574 196.1673221510755 0 196.1673221510755 132.00408670181992 0 0 0 0 98.441784930199447 -4.3703204278573295 0 -4.3703204278573295 -4.2101127996113235 0 0 0 0 138.97155135002686 65.539394518255904 0 65.539394518255904 -64.320590232908216 0 0 0 0 245.3865048437292 -72.174648356380203 0 -72.174648356380203 -188.72949485197023 0 0 0 0 65.543318355020801 0.31918864263057856 0 0.31918864263057856 -0.51257250963699796 0 0 0 0 410.1131272791099 -304.13690000619681 0 -304.13690000619681 278.20836799971403 0 0 0 0 169.22753609473875 28.534158470207331 0 28.534158470207331 48.734099963042354 0 0 0 0 75.437201153898059 25.49282141992353 0 25.49282141992353 59.634453108208618 0 0 0 0 27.720776075540925 -121.49090231429363 0 -121.49090231429363 -97.898501047087848 0 0 0 0 113.2232517153243 -165.41450987265125 0 -165.41450987265125 -75.708615684154211 0 0 0 0 151.46200164062611 -103.02030219792869 0 -103.02030219792869 -143.71324439331329 0 0 0 0 131.05243007466197 -107.86048664030386 0 -107.86048664030386 -143.44427968037417 0 0 0 0 145.83980257461371 -48.593027777962561 0 -48.593027777962561 -240.01284816203406 0 0 0 0 100.00299190488295 -53.257678863772526 0 -53.257678863772526 -184.64140056638462 0 0 0 0 99.636482856055181 -40.264487108215576 0 -40.264487108215576 -32.201170669068233 0 0 0 0 23.777789806461413 -0.69527986053523705 0 -0.69527986053523705 -1.2959501221979366 0 0 0 0 134.6478238665708 -23.952254997881465 0 -23.952254997881465 -11.63870402291383 0 0 0 0 -123.63787080149632 -287.65981964921139 0 -287.65981964921139 281.15469221288367 0 0 0 0 -271.18818111719156 -112.25400720131438 0 -112.25400720131438 197.80240342882098 0 0 0 0 -4.8804372877493734 -217.3310825281369 0 -217.3310825281369 192.36893529025201 0 0 0 0 146.95379809904261 -322.43501090774407 0 -322.43501090774407 178.20113708460576 0 0 0 0 -74.356491365091642 -93.922339437603114 0 -93.922339437603114 -13.283444546705141 0 0 0 0 -2.6314122550673886 -1.2625915861036674 0 -1.2625915861036674 1.0541348954814254 0 0 0 0 -201.45453462097066 -147.90744354144772 0 -147.90744354144772 205.20759248999275 0 0 0 0 359.70446053425258 -128.82718623522487 0 -128.82718623522487 137.96327207633021 0 0 0 0 446.5504354989389 -31.836050131105367 0 -31.836050131105367 19.483440470528876 0 0 0 0 522.85355846977473 -100.77282068751811 0 -100.77282068751811 20.597477658186108 0 0 0 0 145.18114430636069 -69.815722017480084 0 -69.815722017480084 9.7871425066732627 0 0 0 0 183.67452214792866 148.89226359898612 0 148.89226359898612 -65.903621727971768 0 0 0 0 380.74158239932876 -41.932134526548907 0 -41.932134526548907 -245.60225505782728 0 0 0 0 391.42314875005559 95.07191298076998 0 95.07191298076998 -4.7809428039981867 0 0 0 0 28.489046799018979 -205.40297526302493 0 -205.40297526302493 -540.43334969424086 0 0 0 0 72.819245537713869 14.64667062485205 0 14.64667062485205 -72.340071437305596 0 0 0 0 -302.8317950941273 290.67285912821899 0 290.67285912821899 -279.96535844074333 0 0 0 0 -663.06386710394145 -118.23711724698751 0 -118.23711724698751 308.73142932380506 0 0 0 0 409.49321897440677 -646.77774616092483 0 -646.77774616092483 495.86143375962274 0 0 0 0 67.503202987485565 -310.47422461078713 0 -310.47422461078713 -304.90371157708933 0 0 0 0 163.13204191361729 295.95299854167024 0 295.95299854167024 -364.64029318483972 0 0 0 0 8.8582091379066696 39.480258555126056 0 39.480258555126056 -29.938302896483947 0 0 0 0 -33.914007346596918 -215.66390122799021 0 -215.66390122799021 -483.16141460978406 0 0 0 0 -155.23525895352213 238.56914630926258 0 238.56914630926258 -252.23486320224765 0 0 0 0 -0.88971835946438382 -1.081444704241477 0 -1.081444704241477 -8.9148164010999409 0 0 0 0 -106.28719244383683 -108.56380574829745 0 -108.56380574829745 -72.508966478959337 0 0 0 0 -527.69127559312051 -192.1063995758372 0 -192.1063995758372 -55.419310672852589 0 0 0 0 3.9677132627105376 0.56869635553348985 0 0.56869635553348985 -25.892777882382177 0 0 0 0 -186.04020235667053 -97.168104772714628 0 -97.168104772714628 -16.772390262136469 0 0 0 0 37.20630166043702 -28.200417194446345 0 -28.200417194446345 -69.422731324200868 0 0 0 0 361.39368267427926 238.38746952351096 0 238.38746952351096 5.3190563810421736 0 0 0 0 319.88900808770268 -114.09758944122768 0 -114.09758944122768 -73.414597028162461 0 0 0 0 7.0819395345135376 -4.9853813630467414 0 -4.9853813630467414 -2.1081534556187975 0 0 0 0 148.70337549004762 -4.5758010383196961 0 -4.5758010383196961 -198.55739776047812 0 0 0 0 105.672007551766 25.783328673369397 0 25.783328673369397 86.590969710250647 0 0 0 0 13.014818000011275 2.8712374818635453 0 2.8712374818635453 -32.046483072551908 0 0 0 0 3.5713551505091203 1.5562861502743317 0 1.5562861502743317 1.5177671542331126 0 0 0 0 319.78681628389313 -5.4044005350860971 0 -5.4044005350860971 -116.89956684765093 0 0 0 0 -7.3648807086647139 35.248462718518567 0 35.248462718518567 21.360001648146863 0 0 0 0 68.12531977782055 103.58948471338226 0 103.58948471338226 -31.612302120789536 0 0 0 0 -109.49959253624547 -168.55613046197323 0 -168.55613046197323 -65.291840345115816 0 0 0 0 83.086423165856104 14.260918542571744 0 14.260918542571744 -94.125925358352106 0 0 0 0 66.177664716495201 -7.1357115153514314 0 -7.1357115153514314 -105.64477079939115 0 0 0 0 43.959081529581454 -35.929263521022222 0 -35.929263521022222 -109.27857803948768 0 0 0 0 11.526126161021182 5.9055199823110343 0 5.9055199823110343 -31.323051536046108 0 0 0 0 -93.060190470408997 -59.807420681761869 0 -59.807420681761869 -78.875109429988242 0 0 0 0 -16.796263196301879 -84.901262550818501 0 -84.901262550818501 -82.348286745109363 0 0 0 0 111.41277562636969 -63.08198253138471 0 -63.08198253138471 -159.73392113054433 0 0 0 0 207.31550763067207 -100.06411928637863 0 -100.06411928637863 -153.67010116290476 0 0 0 0 42.737127182481345 -126.40988713579463 0 -126.40988713579463 -71.382982927960256 0 0 0 0 205.9512488268374 -105.07414445231916 0 -105.07414445231916 -93.452700720014036 0 0 0 0 206.37196333880274 -124.68544385904625 0 -124.68544385904625 4.277275556276436 0 0 0 0 -96.468859321525088 -88.787912717158179 0 -88.787912717158179 -45.861943680725744 0 0 0 0 42.685985739386524 -129.88632371804124 0 -129.88632371804124 -74.451628584836726 0 0 0 0 -10.745478404598543 -190.22949697556487 0 -190.22949697556487 -58.556480192120944 0 0 0 0 244.64685258227109 -138.42858964509651 0 -138.42858964509651 -169.98587627879351 0 0 0 0 338.34362164669801 33.813392697212294 0 33.813392697212294 -51.820537996783969 0 0 0 0 755.40890477198991 22.841114974342418 0 22.841114974342418 -71.211225553015538 0 0 0 0 412.33703224587953 -58.316307171849985 0 -58.316307171849985 55.2158075530715 0 0 0 0 1767.1844915447509 -140.19082109553256 0 -140.19082109553256 -159.52654396927028 0 0 0 0 860.87916174097336 547.05509705436816 0 547.05509705436816 303.25635619743116 0 0 0 0 272.48063458589604 -31.118102353902941 0 -31.118102353902941 155.25178594082536 0 0 0 0 350.20785632684419 163.14779901701331 0 163.14779901701331 -205.88239041744237 0 0 0 0 -84.235889364674222 552.05643309375591 0 552.05643309375591 -435.26899394018983 0 0 0 0 578.36085445397475 151.32932707696455 0 151.32932707696455 -242.46005088275706 0 0 0 0 353.05329172972415 -98.959930687962697 0 -98.959930687962697 -114.59451299536158 0 0 0 0 302.50192850096209 11.289234726405994 0 11.289234726405994 82.222114561722265 0 0 0 0 345.98168210969015 -128.46217932120271 0 -128.46217932120271 -131.11722717187149 0 0 0 0 201.6096416956716 -105.59810655913316 0 -105.59810655913316 -99.41972849000922 0 0 0 0 202.78325886408129 5.6456217463855864 0 5.6456217463855864 -215.93440384205678 0 0 0 0 154.83775564657117 45.514405079520657 0 45.514405079520657 -245.28228722097629 0 0 0 0 328.79440740600694 -21.583236896050948 0 -21.583236896050948 -289.47561456248513 0 0 0 0 162.51842289752676 14.507718380620645 0 14.507718380620645 -314.97882022005797 0 0 0 0 24.967046057427069 252.83740153278632 0 252.83740153278632 -387.79857821058977 0 0 0 0 -662.40962911173119 110.31443370584748 0 110.31443370584748 -201.5265631364382 0 0 0 0 -152.80088405740389 78.116085217197906 0 78.116085217197906 -399.64734122491063 0 0 0 0 195.89161473826971 116.04962379473545 0 116.04962379473545 -385.96417034075421 0 0 0 0 -107.49422928866261 180.55654533322013 0 180.55654533322013 -161.47619259561907 0 0 0 0 13.019844454651178 -0.95225974616526798 0 -0.95225974616526798 -18.488475247148088 0 0 0 0 -145.3034116526178 268.29103642237169 0 268.29103642237169 -305.20118416443438 0 0 0 0 28.658474514508271 84.736373781273869 0 84.736373781273869 -94.153458118884828 0 0 0 0 58.978426153495093 87.607871464180789 0 87.607871464180789 -191.5123501680755 0 0 0 0 2898.3622396204591 -181.24761678572213 0 -181.24761678572213 -211.00591501717281 0 0 0 0 1470.450767257862 -122.10850489902077 0 -122.10850489902077 -213.34364065343584 0 0 0 0 922.34234685577394 -653.38177510821879 0 -653.38177510821879 718.94845734980845 0 0 0 0 904.94458295046934 -299.26891454083307 0 -299.26891454083307 -45.830051723169163 0 0 0 0 172.42179444622889 12.665384348321822 0 12.665384348321822 -367.21938438145298 0 0 0 0 39.006017405377122 36.42890353274106 0 36.42890353274106 23.617657254831954 0 0 0 0 -3.4953712599011908 -3.8019156713144895 0 -3.8019156713144895 -2.3521314401713482 0 0 0 0 813.72005182728753 311.30129710904293 0 311.30129710904293 449.42597167297936 0 0 0 0 -89.635308229422662 -283.87926734792563 0 -283.87926734792563 63.464963251823065 0 0 0 0 131.6434171660203 698.30289841794638 0 698.30289841794638 623.71831990143983 0 0 0 0 16.217979674171829 10.704392176346403 0 10.704392176346403 9.6593476652454768 0 0 0 0 3384.2037593119603 -1355.9072977438409 0 -1355.9072977438409 561.2276192658187 0 0 0 0 3343.870224418743 656.92072532002339 0 656.92072532002339 394.63231267499941 0 0 0 0 1549.7590066478951 -1184.5752469311246 0 -1184.5752469311246 670.11550532009278 0 0 0 0 1331.1633403802407 1391.7777243384662 0 1391.7777243384662 803.18998914572785 0 0 0 0 3017.2741215921124 337.31322530510442 0 337.31322530510442 -734.03829175486317 0 0 0 0 1174.329149014724 157.43552709861251 0 157.43552709861251 -634.48552469992865 0 0 0 0 -1136.4038479942901 1019.4745512228874 0 1019.4745512228874 17.47180433505855 0 0 0 0 -9.7126411950885085 776.04144136813193 0 776.04144136813193 -297.53128760740674 0 0 0 0 108.6093474634763 1206.8254513381244 0 1206.8254513381244 -463.73723306857573 0 0 0 0 712.65333989200008 571.67507545163062 0 571.67507545163062 -175.79685718253313 0 0 0 0 327.60333941120189 1233.5787985644492 0 1233.5787985644492 -64.303676312863445 0 0 0 0 2.2133604363430806 3.5188500416251998 0 3.5188500416251998 6.5112976617319873 0 0 0 0 -628.64161893738492 846.56763827540453 0 846.56763827540453 -13.150508406171866 0 0 0 0 84.789715560982586 -42.696605193374126 0 -42.696605193374126 -363.34625385371692 0 0 0 0 1127.7704317835451 191.97755640726245 0 191.97755640726245 -653.89348317369877 0 0 0 0 1449.2397756730206 461.19900856856111 0 461.19900856856111 -656.67001171223819 0 0 0 0 837.90913350612391 415.83295329599787 0 415.83295329599787 -658.91642637111681 0 0 0 0 979.35287678152963 105.38787765271081 0 105.38787765271081 -689.59185147955941 0 0 0 0 744.20842746384733 407.34283843514095 0 407.34283843514095 416.94393282051897 0 0 0 0 788.05243396750666 41.561065547106296 0 41.561065547106296 -508.25332800106116 0 0 0 0 1821.1941495148385 -1942.8949908557192 0 -1942.8949908557192 -1139.6055663047737 0 0 0 0 7.061449267148447 -5.4186674035250917 0 -5.4186674035250917 0.41839490628584741 0 0 0 0 -426.46930227285338 -228.00080685177272 0 -228.00080685177272 160.98166545575805 0 0 0 0 -20.554822640166094 -1110.2474745733452 0 -1110.2474745733452 -226.69145890412619 0 0 0 0 1682.7715520760685 794.64628892731525 0 794.64628892731525 -41.540269868750329 0 0 0 0 1203.1208050783171 -76.102494593897973 0 -76.102494593897973 -236.31320834485086 0 0 0 0 671.3750353989235 86.563046452445178 0 86.563046452445178 -227.29508834780063 0 0 0 0 7.0993271879425919 11.218869041456969 0 11.218869041456969 15.104342869608104 0 0 0 0 821.24901752454753 419.80930519289723 0 419.80930519289723 157.01422869670932 0 0 0 0 626.12818791726022 -33.225017101936828 0 -33.225017101936828 -388.59825059366267 0 0 0 0 698.06027243282006 139.77846864672392 0 139.77846864672392 -302.04389182451996 0 0 0 0 895.08600167451368 80.90260810568725 0 80.90260810568725 -521.01461073394967 0 0 0 0 652.23398893088233 115.15363265601354 0 115.15363265601354 -14.114503102002345 0 0 0 0 816.67900503610144 -116.77325424019728 0 -116.77325424019728 154.47628151660683 0 0 0 0 918.49685636610593 57.979471181512054 0 57.979471181512054 -147.51199133123737 0 0 0 0 656.58695003324829 207.55066394219284 0 207.55066394219284 -17.234143089925965 0 0 0 0 696.6743129172246 66.864199067498703 0 66.864199067498703 -207.3945104769009 0 0 0 0 534.91085379866126 87.630955485890809 0 87.630955485890809 -182.42237173446301 0 0 0 0 757.93137712155294 145.524347184215 0 145.524347184215 -120.37164738356978 0 0 0 0 807.02349188691005 69.794524415992782 0 69.794524415992782 -238.75647972448132 0 0 0 0 709.01053223514464 117.15848778471263 0 117.15848778471263 -258.21594426358934 0 0 0 0 829.54564720888447 55.63730700796259 0 55.63730700796259 -302.49035781796738 0 0 0 0 603.80787229705311 167.72442736537778 0 167.72442736537778 -148.45451169790613 0 0 0 0 755.29961921324139 100.47536364524603 0 100.47536364524603 -292.93278923080652 0 0 0 0 817.4605587789265 -9.70833477711858 0 -9.70833477711858 -213.72908002245094 0 0 0 0 831.9506114605349 -51.344933830087285 0 -51.344933830087285 -122.54362095061515 0 0 0 0 1044.5485095527547 -312.83635393339864 0 -312.83635393339864 -4.9297904303566611 0 0 0 0 524.03654983773595 -88.007313912185055 0 -88.007313912185055 -101.00440181916201 0 0 0 0 923.59060412409599 10.258392054200613 0 10.258392054200613 -105.53076922654145 0 0 0 0 975.09144347574329 -12.616154404517147 0 -12.616154404517147 -218.96020923326432 0 0 0 0 912.80018150518299 184.51011970128729 0 184.51011970128729 -149.33879717268428 0 0 0 0 1385.1897496453967 481.46103265675811 0 481.46103265675811 -25.734924077602045 0 0 0 0 577.32597755824099 277.37209880173032 0 277.37209880173032 -69.230622112087985 0 0 0 0 626.12931879343523 374.62060876580836 0 374.62060876580836 56.419713499213685 0 0 0 0 148.0691667337087 615.66072548138618 0 615.66072548138618 362.10902015586908 0 0 0 0 169.68390612227813 683.67037872511173 0 683.67037872511173 386.16414031891327 0 0 0 0 224.93526650615968 641.5512373998572 0 641.5512373998572 329.15617428730548 0 0 0 0 735.98124754772289 795.97303621691117 0 795.97303621691117 373.69365520415886 0 0 0 0 267.08795225033828 706.28229852069671 0 706.28229852069671 350.34126374659536 0 0 0 0 2246.4421101376429 765.18488722242409 0 765.18488722242409 353.5729847321345 0 0 0 0 2353.916201882399 470.10852107052233 0 470.10852107052233 245.80497350850783 0 0 0 0 232.91777949404786 1211.3986268477602 0 1211.3986268477602 661.51450574665068 0 0 0 0 52.384989621005516 -68.327508493491777 0 -68.327508493491777 60.072994059733887 0 0 0 0 1757.7946968739052 847.64483316161045 0 847.64483316161045 1515.3907938610282 0 0 0 0 -389.22354945448751 809.34825581778932 0 809.34825581778932 497.77254756239927 0 0 0 0 4.6592173664455458 6.8043947451367188 0 6.8043947451367188 9.2384963854361644 0 0 0 0 80.848246046167333 949.61092465275215 0 949.61092465275215 504.15861539019534 0 0 0 0 2276.1678119295175 120.78731590472853 0 120.78731590472853 106.09586081071029 0 0 0 0 1880.4303596647223 -303.24934632214718 0 -303.24934632214718 -557.14661312544195 0 0 0 0 1707.5406904384254 759.48718644320479 0 759.48718644320479 583.02099054554856 0 0 0 0 1871.8887205665524 153.69082942452587 0 153.69082942452587 38.3012686407601 0 0 0 0 1660.2276006569737 151.97669068348114 0 151.97669068348114 95.4814637786003 0 0 0 0 1210.5916361669297 281.75348401044539 0 281.75348401044539 606.98658648030687 0 0 0 0 1571.3469874584989 -201.71525047051546 0 -201.71525047051546 -378.39886477794062 0 0 0 0 894.5003774179786 -436.66731297803744 0 -436.66731297803744 -81.652533395652426 0 0 0 0 1514.3144607467111 -886.68112823446063 0 -886.68112823446063 -1122.7480890498045 0 0 0 0 1997.3407699313248 42.769134332073008 0 42.769134332073008 353.53142060735263 0 0 0 0 2207.9029458287405 1446.3753274027549 0 1446.3753274027549 2552.3330019565183 0 0 0 0 1878.5202320531826 -38.452784602774045 0 -38.452784602774045 -611.71612552362785 0 0 0 0 297.2283320632414 -193.46058608394742 0 -193.46058608394742 -385.67361417426196 0 0 0 0 -456.95669198532414 363.27272392867235 0 363.27272392867235 307.91180158831412 0 0 0 0 716.29167616185441 30.474301256312174 0 30.474301256312174 -382.56015321127052 0 0 0 0 546.5369681497541 119.67552036973939 0 119.67552036973939 -278.05656400639418 0 0 0 0 515.58408467218396 24.264665399874502 0 24.264665399874502 -302.07965734475147 0 0 0 0 170.75167294024141 267.31831596136908 0 267.31831596136908 41.230292126572749 0 0 0 0 -243.72855429860647 -127.869988743666 0 -127.869988743666 -46.422060015152965 0 0 0 0 -3.7500984464238734 -5.1317178473717036 0 -5.1317178473717036 8.768861235929446 0 0 0 0 394.79008893333958 -109.30295649502295 0 -109.30295649502295 -42.117394789529499 0 0 0 0 181.02359797136705 -176.39178496521149 0 -176.39178496521149 74.014423847563194 0 0 0 0 1123.4564164033218 -106.33261548212067 0 -106.33261548212067 98.049775077997765 0 0 0 0 141.90542351813929 -65.277475865224915 0 -65.277475865224915 -21.018634289707393 0 0 0 0 129.80468100005237 103.61718646861516 0 103.61718646861516 -282.38537849280181 0 0 0 0 -65.019638798316009 -67.337278746068677 0 -67.337278746068677 36.36795118837238 0 0 0 0 -24.356411223385294 -192.49915808535053 0 -192.49915808535053 -116.01216687848591 0 0 0 0 -10.472308033888112 183.2509559536835 0 183.2509559536835 -177.49775917109628 0 0 0 0 519.54555699061893 -39.512412469919184 0 -39.512412469919184 -159.24738301128923 0 0 0 0 201.25975944598031 -12.675099809625294 0 -12.675099809625294 -180.63226223917786 0 0 0 0 -1.5709924577449783 54.692629196838027 0 54.692629196838027 -26.440116815917463 0 0 0 0 248.77953918922867 93.775032828192877 0 93.775032828192877 40.485707585361752 0 0 0 0 0.14828020780581141 -4.2346644738716037 0 -4.2346644738716037 3.1986913391484801 0 0 0 0 -57.169511018801131 89.102608109974753 0 89.102608109974753 66.195571508733735 0 0 0 0 141.013209949866 -17.830621857147889 0 -17.830621857147889 28.786255140294998 0 0 0 0 -40.553067440807354 -18.716515101354929 0 -18.716515101354929 67.25040944526063 0 0 0 0 27.575838305529032 97.395089359219071 0 97.395089359219071 -0.47617037308629051 0 0 0 0 603.71460728283273 -110.76073888364363 0 -110.76073888364363 -156.64529258691982 0 0 0 0 137.53273886159877 -171.74795494838418 0 -171.74795494838418 -84.64440135948189 0 0 0 0 99.445229473734798 -15.86526464953954 0 -15.86526464953954 297.64132246376903 0 0 0 0 252.57391184735752 -232.41899024219686 0 -232.41899024219686 104.19670106802243 0 0 0 0 -228.5992723167592 -64.172110011258638 0 -64.172110011258638 -2.9587615790649124 0 0 0 0 -309.64983542999107 -13.96584314115853 0 -13.96584314115853 132.18527982457294 0 0 0 0 24.403530074106428 -54.059274583813718 0 -54.059274583813718 3.8623404292840413 0 0 0 0 0.64836205480156828 -3.7572237481744537 0 -3.7572237481744537 4.3398199162064053 0 0 0 0 507.51822276139137 -97.141215368728808 0 -97.141215368728808 -70.72349976944588 0 0 0 0 -16.519863600489771 -31.158071824223725 0 -31.158071824223725 92.171059562754635 0 0 0 0 122.60278497208492 -150.03715002937315 0 -150.03715002937315 13.345105744823741 0 0 0 0 235.7442356137326 -73.727864273395312 0 -73.727864273395312 -90.429030247001492 0 0 0 0 274.86302262351819 40.580067695381899 0 40.580067695381899 37.865593834195352 0 0 0 0 165.99316003252807 -37.795040408917117 0 -37.795040408917117 83.619458215091072 0 0 0 0 159.9314550662275 1.0316698491711236 0 1.0316698491711236 -38.621222906302137 0 0 0 0 228.05283291205706 -72.178175295161964 0 -72.178175295161964 -2.6949488104528427 0 0 0 0 -54.285128248695401 -28.734660709670948 0 -28.734660709670948 2.8242412733727633 0 0 0 0 -0.71684675412392984 -5.5111581135086567 0 -5.5111581135086567 14.523220895356463 0 0 0 0 263.51407024739456 -32.472947720378329 0 -32.472947720378329 -11.17333610095011 0 0 0 0 -46.754396564196213 -36.980693191872433 0 -36.980693191872433 8.0866648650808202 0 0 0 0 183.67368347480078 -6.6169956356698094 0 -6.6169956356698094 33.844566422265416 0 0 0 0 112.98761135983295 -62.698771912937445 0 -62.698771912937445 36.263660732482094 0 0 0 0 156.55974880703798 -78.457342868427531 0 -78.457342868427531 -19.302670379494884 0 0 0 0 173.78792316265753 -40.908954471076868 0 -40.908954471076868 27.657186693033509 0 0 0 0 166.92123445251491 -55.707706669456456 0 -55.707706669456456 15.265494701119678 0 0 0 0 22.911880317917557 -11.582105432442518 0 -11.582105432442518 15.614842532593759 0 0 0 0 53.139946541577956 -62.675581455179966 0 -62.675581455179966 20.92394127872771 0 0 0 0 233.41653529454197 -91.531533476570985 0 -91.531533476570985 -7.8833662369461308 0 0 0 0 134.8709002170508 53.143318203522995 0 53.143318203522995 75.18777747254353 0 0 0 0 53.49895569797809 -148.00235970929953 0 -148.00235970929953 60.78227523125679 0 0 0 0 1420.5417493787972 755.58188089049327 0 755.58188089049327 -254.61490392554697 0 0 0 0 176.63104217697401 931.03225334680428 0 931.03225334680428 305.5256275950519 0 0 0 0 53.333808912367502 -63.648061943409076 0 -63.648061943409076 34.88932605521952 0 0 0 0 689.39896473460249 -321.84535936435168 0 -321.84535936435168 -5.1579841354796372 0 0 0 0 14.361897828348617 -12.267755828381809 0 -12.267755828381809 1.6560645600907833 0 0 0 0 770.40214642461342 -177.23422612310878 0 -177.23422612310878 -659.90392716590941 0 0 0 0 1155.6209264118252 -89.38422802695095 0 -89.38422802695095 -770.68175252961373 0 0 0 0 960.08912545829298 442.72075696932143 0 442.72075696932143 -25.473265522952715 0 0 0 0 1588.1973602004873 275.86241063565649 0 275.86241063565649 -14.159799268715119 0 0 0 0 28.782427762207739 -11.735890148061429 0 -11.735890148061429 -7.8336228409570339 0 0 0 0 1242.5060726463853 -994.40585076710704 0 -994.40585076710704 1160.6535307245795 0 0 0 0 410.54774265104788 -154.10683373145457 0 -154.10683373145457 -132.63554990102421 0 0 0 0 7.972889459203941 -7.1140913868949838 0 -7.1140913868949838 0.70153157408246614 0 0 0 0 -507.41491257722373 -1459.1327264046595 0 -1459.1327264046595 293.72810621709505 0 0 0 0 352.86639282091346 -33.453088079289955 0 -33.453088079289955 70.761544048626092 0 0 0 0 56.967171354618301 -65.101142418346882 0 -65.101142418346882 46.477175436503586 0 0 0 0 168.20273466652725 -1089.9554507766916 0 -1089.9554507766916 -417.04091072874144 0 0 0 0 253.17632577002587 -263.479639024074 0 -263.479639024074 -8.778415663386113 0 0 0 0 -113.70464586645539 29.519812543690932 0 29.519812543690932 -104.67792438283504 0 0 0 0 -629.78295744780917 -1205.1436561658638 0 -1205.1436561658638 479.45280628853652 0 0 0 0 -10.480348132376093 -647.86906565816025 0 -647.86906565816025 637.88875474386441 0 0 0 0 779.42281652346719 45.832607713182369 0 45.832607713182369 1639.4538856059444 0 0 0 0 1274.4629599545442 205.97986263224448 0 205.97986263224448 394.36826808193291 0 0 0 0 1331.4423697287421 280.62746577381404 0 280.62746577381404 43.205100884541025 0 0 0 0 238.9247286398604 94.003404123235669 0 94.003404123235669 641.29010069014839 0 0 0 0 606.78106829569879 -655.71272296779443 0 -655.71272296779443 70.084138843551045 0 0 0 0 -372.56222981528845 344.12895356775152 0 344.12895356775152 294.8273084214743 0 0 0 0 737.65163525985008 -170.23135342408978 0 -170.23135342408978 -191.8036874538011 0 0 0 0 -2.2717782683738577 0.11498202189790163 0 0.11498202189790163 0.19661481359914035 0 0 0 0 1825.7888380056247 -1493.8411704390892 0 -1493.8411704390892 -1303.215908193728 0 0 0 0 310.0753616801303 95.619314453597326 0 95.619314453597326 -816.65786545686569 0 0 0 0 -22.670049922948238 28.825234965639538 0 28.825234965639538 379.98997302968201 0 0 0 0 -25.210991520434618 -152.86750480627234 0 -152.86750480627234 370.1589234257408 0 0 0 0 409.32264748524176 64.169680194718239 0 64.169680194718239 66.423564278004051 0 0 0 0 384.28413152898429 -339.07749359677109 0 -339.07749359677109 16.377449910414725 0 0 0 0 299.49221508061601 -136.97671706429628 0 -136.97671706429628 26.176756902321358 0 0 0 0 1228.5300351928017 232.11492228918905 0 232.11492228918905 -184.53245767173212 0 0 0 0 64.049068105006882 -9.9983392201474999 0 -9.9983392201474999 53.135322775072382 0 0 0 0 272.45971749494493 -58.332150772165733 0 -58.332150772165733 7.7316105691616031 0 0 0 0 12.243474286441966 -25.746276809174731 0 -25.746276809174731 44.830772499335872 0 0 0 0 -471.58211762114661 -350.16925852926033 0 -350.16925852926033 60.959127257279761 0 0 0 0 -0.9296673027691007 1.6624645837912908 0 1.6624645837912908 4.8552573327785638 0 0 0 0 109.45083957683528 -38.83086354806801 0 -38.83086354806801 184.69544577673332 0 0 0 0 106.37744646670762 -140.59307995426934 0 -140.59307995426934 -22.937997865683428 0 0 0 0 121.95992857738747 1.2393063076451654 0 1.2393063076451654 -263.67855469293136 0 0 0 0 -422.83615491773526 -35.425306158744206 0 -35.425306158744206 70.184737048679381 0 0 0 0 26.462576947241203 -24.836047010304753 0 -24.836047010304753 37.506879886492271 0 0 0 0 48.446628087236604 -10.953370913142408 0 -10.953370913142408 35.238775279995025 0 0 0 0 -187.56713950034464 -261.12653630205386 0 -261.12653630205386 165.37535228297202 0 0 0 0 246.61966141685843 -257.49557599407854 0 -257.49557599407854 -207.77533597936417 0 0 0 0 72.558045860263519 -337.78258610765624 0 -337.78258610765624 -22.430623775690037 0 0 0 0 13.355426980467453 -1.1071447749666277 0 -1.1071447749666277 14.379927117124758 0 0 0 0 53.042116871016333 -5.7100681013916983 0 -5.7100681013916983 37.488653525746486 0 0 0 0 123.23305168395382 -31.679788718142959 0 -31.679788718142959 9.3480633569997735 0 0 0 0 48.550050594727509 -8.2160307841331814 0 -8.2160307841331814 52.930366791563301 0 0 0 0 63.012280308913319 -13.039336431301123 0 -13.039336431301123 14.277672770323143 0 0 0 0 53.812532423486118 -8.9902604073349721 0 -8.9902604073349721 27.407895776974328 0 0 0 0 125.40319654984341 -28.608289122308634 0 -28.608289122308634 35.468836114910346 0 0 0 0 -90.096795095945708 19.708015596435871 0 19.708015596435871 -55.652023336806451 0 0 0 0 228.2609644065742 -93.919676603974949 0 -93.919676603974949 -766.00231871104916 0 0 0 0 -4.2640734710008132 -27.075981897551259 0 -27.075981897551259 12.417868589285053 0 0 0 0 109.79772162811423 -37.534536498647412 0 -37.534536498647412 40.895339205224445 0 0 0 0 134.54605170203286 -46.416047143927244 0 -46.416047143927244 39.536452427970289 0 0 0 0 130.54897281849117 -43.785203467274187 0 -43.785203467274187 42.55185833199539 0 0 0 0 11.322277380058413 -7.8306330947643374 0 -7.8306330947643374 25.965732752764552 0 0 0 0 120.59764320667227 -26.141699139238312 0 -26.141699139238312 36.031656813938753 0 0 0 0 27.720253243984189 -29.588592777044681 0 -29.588592777044681 18.870185708175995 0 0 0 0 135.49401484447299 -20.533412067974496 0 -20.533412067974496 30.140686465536419 0 0 0 0 35.76643832036865 -45.383295683944255 0 -45.383295683944255 11.154431680496266 0 0 0 0 22.627498690882931 -25.11681085832106 0 -25.11681085832106 16.942068447210659 0 0 0 0 13.510980839215335 -29.847346380153567 0 -29.847346380153567 25.459021064139051 0 0 0 0 1008.1185300995603 415.72982620872875 0 415.72982620872875 239.7759337101312 0 0 0 0 78.64851708578135 -9.4441356516020658 0 -9.4441356516020658 4.9005186399508993 0 0 0 0 1813.4987626905568 1073.5910411708369 0 1073.5910411708369 621.1630039308676 0 0 0 0 19.757025996179436 -33.939133525622992 0 -33.939133525622992 27.199904336061991 0 0 0 0 50.061179196439696 -17.395998945635021 0 -17.395998945635021 12.985898463794626 0 0 0 0 53.309247900055198 -64.717148621872639 0 -64.717148621872639 31.142883699270897 0 0 0 0 101.11241451730893 -23.259780308367226 0 -23.259780308367226 22.326997519655151 0 0 0 0 21.570864153598791 -21.481148900375942 0 -21.481148900375942 37.248084855023869 0 0 0 0 206.97043194098296 -96.08822556584164 0 -96.08822556584164 88.832326376140372 0 0 0 0 133.01926033425843 -76.657122720667758 0 -76.657122720667758 -2.8519259117838374 0 0 0 0 141.50014093756909 -9.3624760484071885 0 -9.3624760484071885 24.018861831599679 0 0 0 0 2353.5452533068892 -854.44796524339552 0 -854.44796524339552 -539.73362359508394 0 0 0 0 2405.0933004878971 -592.96517863871463 0 -592.96517863871463 -122.41077864016796 0 0 0 0 273.74826600696542 79.964630718250191 0 79.964630718250191 470.5884071680785 0 0 0 0 1692.0237449509732 -2125.2500629791625 0 -2125.2500629791625 1909.0763320278249 0 0 0 0 4491.4424398044503 -1709.2019413032754 0 -1709.2019413032754 -236.7594040509388 0 0 0 0 4489.0061525096826 3655.5747844272391 0 3655.5747844272391 2288.4660384011318 0 0 0 0 32.642896489842656 1.3430598966361256 0 1.3430598966361256 3.4885952136442397 0 0 0 0 1783.6236931936673 1184.0911929414817 0 1184.0911929414817 271.10408423700528 0 0 0 0 4501.5795304472786 1272.2837679468676 0 1272.2837679468676 -500.22282639447923 0 0 0 0 3281.9464579494816 897.71811542261048 0 897.71811542261048 -613.41636001825566 0 0 0 0 2374.1383398407197 1493.852706768706 0 1493.852706768706 335.95007541030736 0 0 0 0 2469.5716413989458 734.17922222176264 0 734.17922222176264 44.795781083022575 0 0 0 0 -60.749589136270515 -38.189488600882555 0 -38.189488600882555 14.726706972437341 0 0 0 0 -54.585353996244521 -43.225021489089045 0 -43.225021489089045 17.37946374403964 0 0 0 0 22.173010898037802 -50.071102791953024 0 -50.071102791953024 9.8618079527200582 0 0 0 0 1672.2710222596907 440.62751466484417 0 440.62751466484417 134.89708633775263 0 0 0 0 2521.7153060609635 567.15350432395553 0 567.15350432395553 2.2522281621040747 0 0 0 0 1474.7241783341051 187.98838634053035 0 187.98838634053035 -49.382880028430009 0 0 0 0 2567.5100918465105 53.250067262076413 0 53.250067262076413 -363.38772092340866 0 0 0 0 2837.6971734244426 545.6081990515753 0 545.6081990515753 -376.44413948096042 0 0 0 0 3435.7577314973641 303.6672961142541 0 303.6672961142541 -743.18513122794866 0 0 0 0 4499.1945656392663 717.40306015822489 0 717.40306015822489 -880.44318182903407 0 0 0 0 2770.7605718522573 464.62084283487474 0 464.62084283487474 -379.43899445116563 0 0 0 0 195.63554840577126 -207.38044765350287 0 -207.38044765350287 -89.729921571945511 0 0 0 0 11.498129605211318 6.8001824794554864 0 6.8001824794554864 4.7289437817576507 0 0 0 0 176.71238117013127 616.20734291614224 0 616.20734291614224 554.25691491203077 0 0 0 0 4499.3097068686966 -1340.5749043793082 0 -1340.5749043793082 -297.8621235974706 0 0 0 0 -7.1538020447624149 -59.449996400683631 0 -59.449996400683631 -55.565914475369937 0 0 0 0 -8.0247724834830478 -32.324083517761068 0 -32.324083517761068 -0.31284729490471364 0 0 0 0 161.66340883594239 57.58675516068206 0 57.58675516068206 8.0826895798733744 0 0 0 0 7.028918514944138 -0.76111704832999294 0 -0.76111704832999294 0.28705785998857891 0 0 0 0 256.52199503683369 -22.284908172073287 0 -22.284908172073287 16.820498977003417 0 0 0 0 161.42117542565393 67.051279399342093 0 67.051279399342093 -21.866916288241782 0 0 0 0 7.8220188824925572 5.3678307991003749 0 5.3678307991003749 3.9756358680538142 0 0 0 0 189.89025124258478 71.402426366170758 0 71.402426366170758 3.8468212711008221 0 0 0 0 76.724847888021031 0.22847247166419038 0 0.22847247166419038 -15.524481576136168 0 0 0 0 17.732829650968995 6.9164244170465707 0 6.9164244170465707 -9.3873364172082852 0 0 0 0 373.52309759873606 -235.28912255144678 0 -235.28912255144678 -352.49466764626391 0 0 0 0 6.9306679376962848 -12.012559506083548 0 -12.012559506083548 19.912873038006207 0 0 0 0 22.607708165720396 -74.730861475319671 0 -74.730861475319671 -379.4659331133368 0 0 0 0 603.2321900146344 25.100210614500156 0 25.100210614500156 -146.92116604813828 0 0 0 0 -371.06667932122946 -580.80160285568263 0 -580.80160285568263 536.53647673469231 0 0 0 0 1.5785281903739019 -7.404032631443215 0 -7.404032631443215 19.06339079875001 0 0 0 0 -404.88163386585438 301.80594487469102 0 301.80594487469102 591.97910215124239 0 0 0 0 175.48597315624647 -600.50936723456289 0 -600.50936723456289 1251.8956544216703 0 0 0 0 577.61070050256603 99.205716305027863 0 99.205716305027863 186.12520618858798 0 0 0 0 0.053690879454066476 -2.5295522006509259 0 -2.5295522006509259 12.779732407154142 0 0 0 0 1446.4109041919583 223.04369760907397 0 223.04369760907397 1503.2191391554627 0 0 0 0 -727.63896212897089 -1411.7549607897204 0 -1411.7549607897204 1460.1600317718357 0 0 0 0 1948.614926433278 18.55815698311244 0 18.55815698311244 -1208.3449471194363 0 0 0 0 1187.4920913520473 471.99929643228745 0 471.99929643228745 268.56758251157783 0 0 0 0 21.552422964358243 17.982750238653509 0 17.982750238653509 5.8656529117499003 0 0 0 0 -64.091148401552346 -67.23462321423176 0 -67.23462321423176 1213.4292748197356 0 0 0 0 -460.81061367106304 1044.7457980860697 0 1044.7457980860697 -374.01144986884492 0 0 0 0 4492.8390451152445 -812.14708195404376 0 -812.14708195404376 -532.18550751282157 0 0 0 0 1180.5697626920592 992.32535398008281 0 992.32535398008281 291.8299683981071 0 0 0 0 -540.14967583171301 1210.7617659752566 0 1210.7617659752566 1759.9859072735337 0 0 0 0 4498.449232333136 -805.95749828037742 0 -805.95749828037742 -526.40757779359308 0 0 0 0 11.104457108979773 9.253341550954616 0 9.253341550954616 8.6931402703802299 0 0 0 0 2325.3655154921216 676.38215585807347 0 676.38215585807347 -178.89053759253088 0 0 0 0 4487.5902270187944 2844.8733208936537 0 2844.8733208936537 1774.4803699578583 0 0 0 0 3.0239829917394871 -6.1445052447799071 0 -6.1445052447799071 15.693633366054083 0 0 0 0 -392.35857465552181 -68.175080249171515 0 -68.175080249171515 758.05769216672525 0 0 0 0 1866.4563233492299 240.51686483004627 0 240.51686483004627 -99.889504933054241 0 0 0 0 7.4462819429089393 -16.27325182182976 0 -16.27325182182976 35.949027487739833 0 0 0 0 4500.8018515014919 511.44278530864358 0 511.44278530864358 -809.72716551767735 0 0 0 0 2845.6271564519047 1133.4566230223409 0 1133.4566230223409 -112.73539092308837 0 0 0 0 2865.4509293267402 115.58086540337968 0 115.58086540337968 -838.45933198503155 0 0 0 0 2825.5733660404103 294.42174535193448 0 294.42174535193448 -299.86269357081687 0 0 0 0 1053.5835422710952 -366.62375820620872 0 -366.62375820620872 79.537684474583443 0 0 0 0 4499.9591524420366 -500.37560141184662 0 -500.37560141184662 -885.89351219387186 0 0 0 0 108.00012673336096 -69.302256271680108 0 -69.302256271680108 157.45807663971755 0 0 0 0 62.841281204266124 16.624579437147986 0 16.624579437147986 46.540375694031809 0 0 0 0 6.4972872894354623 -21.205980502779994 0 -21.205980502779994 42.050263969506048 0 0 0 0 -46.20804380786285 -82.306193255689323 0 -82.306193255689323 98.642706424303469 0 0 0 0 52.515592991723679 57.012975532266864 0 57.012975532266864 -36.802484283587546 0 0 0 0 218.47052855201036 76.963852714389304 0 76.963852714389304 56.137153082425357 0 0 0 0 101.7988113132451 -26.731605504858635 0 -26.731605504858635 75.990622332500607 0 0 0 0 419.38068283490429 143.83886713644551 0 143.83886713644551 -96.85095864362529 0 0 0 0 5.6364910779213488 -13.183179516539184 0 -13.183179516539184 29.225873297921517 0 0 0 0 -530.68503224657979 -520.43124025170141 0 -520.43124025170141 416.48191207148193 0 0 0 0 177.89291910580505 -136.74433586460555 0 -136.74433586460555 -222.25027351362951 0 0 0 0 -149.04545901955862 -154.14717547645932 0 -154.14717547645932 50.022093730360211 0 0 0 0 292.1443711326865 351.41334856118056 0 351.41334856118056 -23.897707710811119 0 0 0 0 193.92497753963107 -62.09339812692042 0 -62.09339812692042 809.43877583687117 0 0 0 0 -260.01612920001207 425.58724084889309 0 425.58724084889309 621.68163662990025 0 0 0 0 239.73616788278741 150.74554381075814 0 150.74554381075814 406.7274771230459 0 0 0 0 329.30895218447404 -69.413622659813882 0 -69.413622659813882 -189.77082219791555 0 0 0 0 -264.11609900325129 -452.19753421491623 0 -452.19753421491623 -162.97386282486696 0 0 0 0 11.439956285593965 -22.352693666437091 0 -22.352693666437091 40.209740067293687 0 0 0 0 -617.63482329751423 -443.95820989307867 0 -443.95820989307867 10.080697799276095 0 0 0 0 189.17548308785808 18.319518245651011 0 18.319518245651011 49.707313874099782 0 0 0 0 497.31697899227584 147.01115538848626 0 147.01115538848626 -118.44272809327049 0 0 0 0 224.13736881989462 -193.46964700940953 0 -193.46964700940953 -225.38066261465428 0 0 0 0 334.64871187127574 -214.39256965232107 0 -214.39256965232107 -76.454635049687568 0 0 0 0 -213.76012100523803 -216.6722467732543 0 -216.6722467732543 52.977755231942865 0 0 0 0 30.326099582831375 16.214426128997729 0 16.214426128997729 -36.315797947827377 0 0 0 0 139.59277781264245 582.91208674951622 0 582.91208674951622 -468.00748784493771 0 0 0 0 541.75238738016924 -419.86033979814601 0 -419.86033979814601 451.49179310034378 0 0 0 0 -175.59748658455283 -350.90429292105819 0 -350.90429292105819 -184.74973071422573 0 0 0 0 -23.398984974657651 -156.3265621162459 0 -156.3265621162459 -301.27576252186554 0 0 0 0 -430.97039632235828 -76.740781500810044 0 -76.740781500810044 -84.146825623854966 0 0 0 0 1.3662495965759973 1.7591449112020143 0 1.7591449112020143 -0.11058172236525365 0 0 0 0 360.31539522936509 102.33490058137431 0 102.33490058137431 21.174317141500069 0 0 0 0 810.25733946889522 20.43550911276543 0 20.43550911276543 -160.29115023887789 0 0 0 0 1103.0733742052398 -6.3315666074222463 0 -6.3315666074222463 -106.04828133530282 0 0 0 0 196.22730297046655 -96.516085407931314 0 -96.516085407931314 378.46794066589655 0 0 0 0 613.40520405135612 -76.495977726768615 0 -76.495977726768615 311.53799376033567 0 0 0 0 1032.6981616535195 -172.83072804614494 0 -172.83072804614494 157.09112023006355 0 0 0 0 656.16010783591082 56.730371042195657 0 56.730371042195657 96.415077521163767 0 0 0 0 688.13364132969582 -138.7865237207975 0 -138.7865237207975 165.75766661159287 0 0 0 0 321.83592727075666 -672.14287028855824 0 -672.14287028855824 494.2538125982901 0 0 0 0 -1.1409941528108902 -57.951162119321907 0 -57.951162119321907 383.3247528600586 0 0 0 0 543.3507098122318 -350.74388602456656 0 -350.74388602456656 451.24998464493729 0 0 0 0 -1.7363682432998644 -1.4001379779111573 0 -1.4001379779111573 10.226340660204322 0 0 0 0 363.33114837476751 -163.30870684880711 0 -163.30870684880711 180.10762907770913 0 0 0 0 71.419579287728993 83.185063183732836 0 83.185063183732836 154.55530618786963 0 0 0 0 120.07121449742408 99.154753534716747 0 99.154753534716747 63.079639017711997 0 0 0 0 133.56815655207902 98.178652835849107 0 98.178652835849107 42.560409690574488 0 0 0 0 181.32919759296965 -52.438932180761583 0 -52.438932180761583 -153.52510559511938 0 0 0 0 6.8788084427687863 -186.17341927955169 0 -186.17341927955169 -146.48452615114729 0 0 0 0 60.53336168610258 88.450782016540415 0 88.450782016540415 68.128317447272366 0 0 0 0 99.006413397859433 7.5125240177453634 0 7.5125240177453634 -80.645443466465622 0 0 0 0 54.14251643505122 -46.107529970375936 0 -46.107529970375936 -133.55399904908086 0 0 0 0 58.473727677817806 46.752497526289858 0 46.752497526289858 -91.332099923206442 0 0 0 0 18.778000273291241 -12.505659932184344 0 -12.505659932184344 8.1118277745586695 0 0 0 0 -84.282175796543015 -32.073106838687295 0 -32.073106838687295 -59.009621439943373 0 0 0 0 214.71158464660402 50.460390408295552 0 50.460390408295552 211.1934070860533 0 0 0 0 196.29072614616598 97.578480230908553 0 97.578480230908553 91.896131743003707 0 0 0 0 351.58302679117332 199.78888733594113 0 199.78888733594113 200.7930809780355 0 0 0 0 1479.7715815308038 292.66077586388337 0 292.66077586388337 145.2320939357719 0 0 0 0 6.534363487898645 -5.6183203375613857 0 -5.6183203375613857 5.3517241675266405 0 0 0 0 1082.7283859693998 -535.32045726017873 0 -535.32045726017873 440.57550836008522 0 0 0 0 1262.6490239080886 -380.16918836853984 0 -380.16918836853984 113.24741363298313 0 0 0 0 1344.1518379596673 -591.83558931731386 0 -591.83558931731386 562.87816651522917 0 0 0 0 870.36612794814573 132.39222530150016 0 132.39222530150016 54.876008304622474 0 0 0 0 1046.8734679349291 -339.26626136980781 0 -339.26626136980781 108.57746281102331 0 0 0 0 1063.1919072288292 -395.86089697160196 0 -395.86089697160196 123.53820607782143 0 0 0 0 1068.6503726292867 -518.89069040348249 0 -518.89069040348249 -118.28875597803108 0 0 0 0 1056.1591348780057 -334.99919504431136 0 -334.99919504431136 -96.109456334775587 0 0 0 0 1091.5857938516856 -307.14008842529188 0 -307.14008842529188 183.30300885852193 0 0 0 0 710.64681084988115 -430.06668487110619 0 -430.06668487110619 175.19691344007424 0 0 0 0 6.1784929630054251 5.0623575072770279 0 5.0623575072770279 3.4100106652042363 0 0 0 0 1050.4404861384537 -437.89402657327901 0 -437.89402657327901 151.68995900951677 0 0 0 0 876.09146794225671 -294.17654094047612 0 -294.17654094047612 422.44361201277025 0 0 0 0 915.69348979834467 -428.02467400955902 0 -428.02467400955902 608.3475496901483 0 0 0 0 979.33487015071296 -120.32842826599199 0 -120.32842826599199 588.83948593505193 0 0 0 0 481.57308762485809 -205.04922826645338 0 -205.04922826645338 765.91779861375107 0 0 0 0 567.87768576078815 -460.24161717142488 0 -460.24161717142488 364.25107191973802 0 0 0 0 920.01736013719346 -888.65184454874725 0 -888.65184454874725 77.741745312319836 0 0 0 0 531.49114112829739 -596.40512119712207 0 -596.40512119712207 553.1280389246167 0 0 0 0 -622.88127275259467 529.54994693914068 0 529.54994693914068 573.03131393951116 0 0 0 0 -197.12158263314632 -37.716184535637694 0 -37.716184535637694 195.53521513140504 0 0 0 0 510.73073157132603 -473.36241957861239 0 -473.36241957861239 367.24747191628558 0 0 0 0 -49.306697058244026 292.13026195530165 0 292.13026195530165 -326.09068633643665 0 0 0 0 11.444642967205596 -0.82569652933446491 0 -0.82569652933446491 -12.927399711122561 0 0 0 0 155.04265453235712 -13.663834632561702 0 -13.663834632561702 -500.48652915195453 0 0 0 0 586.86045381127042 142.12069794565377 0 142.12069794565377 -336.74557913306126 0 0 0 0 789.26939685594698 655.68248371268419 0 655.68248371268419 139.46944609591992 0 0 0 0 3.0643834632592188 -3.4428567633768523 0 -3.4428567633768523 3.693665767705852 0 0 0 0 1451.9331577750854 530.65445045167144 0 530.65445045167144 90.149424758681562 0 0 0 0 285.2193123188481 -951.4277410032355 0 -951.4277410032355 78.735322446700593 0 0 0 0 -36.455465890292544 104.73900709796726 0 104.73900709796726 -209.15485194184839 0 0 0 0 -66.597989637753926 -669.01294473023336 0 -669.01294473023336 302.73701065759815 0 0 0 0 2299.2435858373719 -620.24435663227496 0 -620.24435663227496 -33.856820420591248 0 0 0 0 1548.9700727105665 -335.64294348293288 0 -335.64294348293288 322.73964897003862 0 0 0 0 1197.1540183978359 -92.269312484800594 0 -92.269312484800594 608.55676557463994 0 0 0 0 915.64939430447885 -429.78484144842128 0 -429.78484144842128 546.83025978327714 0 0 0 0 1197.675214140676 -53.999482729104784 0 -53.999482729104784 834.2487781237528 0 0 0 0 1650.9111898168339 -255.12260543249067 0 -255.12260543249067 186.45302939756129 0 0 0 0 973.72467034075817 -353.36258038460892 0 -353.36258038460892 204.70821299167574 0 0 0 0 1300.9117485377428 -189.53427790170963 0 -189.53427790170963 7.7058290769364248 0 0 0 0 1042.9888186129829 78.12086432959768 0 78.12086432959768 133.02265312379632 0 0 0 0 3.1330703270901097 2.3818478252528621 0 2.3818478252528621 -4.8059084397503753 0 0 0 0 1040.3331860513717 -112.36652402371874 0 -112.36652402371874 -13.684049185661024 0 0 0 0 1342.3462428909261 -84.688964599523388 0 -84.688964599523388 -64.460257838112739 0 0 0 0 1075.8451004926937 -71.671548889099085 0 -71.671548889099085 67.478668731884682 0 0 0 0 1243.1772826605156 -184.73461551418313 0 -184.73461551418313 -220.14258297771812 0 0 0 0 4.2021247197529874 3.2266609127958361 0 3.2266609127958361 -9.5108529693479511 0 0 0 0 1017.9299684987782 -220.45843498828253 0 -220.45843498828253 -4.647391594166038 0 0 0 0 3.3966249703926366 2.9352290134332861 0 2.9352290134332861 -5.4867403248690891 0 0 0 0 1487.6723160667752 -271.15002633649055 0 -271.15002633649055 -128.55099180327852 0 0 0 0 1245.9875991778813 -197.82626941978634 0 -197.82626941978634 -119.34286702294048 0 0 0 0 1630.4862124377069 -228.28536785934648 0 -228.28536785934648 -234.21710871560208 0 0 0 0 33.636029998444428 42.048666793092707 0 42.048666793092707 -24.226487427953543 0 0 0 0 11.921920003151172 81.241200340875366 0 81.241200340875366 -94.580026060380987 0 0 0 0 513.5301728938648 57.566909759167174 0 57.566909759167174 75.110646216839086 0 0 0 0 31.570827284506393 30.326222875225909 0 30.326222875225909 7.4970514523248113 0 0 0 0 35.576605002948781 43.714417276452878 0 43.714417276452878 -18.355558878611191 0 0 0 0 23.03026011141074 23.141181321000033 0 23.141181321000033 12.417415650069344 0 0 0 0 717.22200891375542 -282.20448967756238 0 -282.20448967756238 98.784809803965686 0 0 0 0 146.99636232737976 124.29048548478931 0 124.29048548478931 124.20330400496641 0 0 0 0 16.037749628469484 27.746748571715472 0 27.746748571715472 11.522265296629428 0 0 0 0 81.397790898641688 14.158506230029161 0 14.158506230029161 -8.3312975660519442 0 0 0 0 64.279254097724333 45.71053035294608 0 45.71053035294608 -22.183519487361991 0 0 0 0 0.60876197833567858 31.386894801384187 0 31.386894801384187 35.024203251919971 0 0 0 0 22.658840748496004 66.258126697186526 0 66.258126697186526 -3.9544790904110414 0 0 0 0 39.226824867666068 33.848479485625312 0 33.848479485625312 17.392120917761773 0 0 0 0 13.507611148846365 4.150290674982557 0 4.150290674982557 -2.6385890974260349 0 0 0 0 12.210321183432825 51.666912245120329 0 51.666912245120329 -5.8815408816808485 0 0 0 0 72.253411338930164 18.842310160977377 0 18.842310160977377 1.7433711509438581 0 0 0 0 28.036450792210786 27.193686086217468 0 27.193686086217468 7.5909291217386183 0 0 0 0 588.83736244821921 -155.47879129232024 0 -155.47879129232024 -124.1823338974782 0 0 0 0 710.51649403964984 119.16996296501839 0 119.16996296501839 279.52578006447402 0 0 0 0 480.48100649226762 -222.71129065372907 0 -222.71129065372907 -39.662203135474556 0 0 0 0 1626.5023717285512 -224.45082723669111 0 -224.45082723669111 -167.83512226970197 0 0 0 0 0.35160411328251939 162.58896826601631 0 162.58896826601631 204.53614408070462 0 0 0 0 14.662225252184044 -4.3304054706833597 0 -4.3304054706833597 3.1080927269467153 0 0 0 0 149.63863892920199 -35.631559496467617 0 -35.631559496467617 -39.022804830760833 0 0 0 0 140.33964604741777 87.398685120780101 0 87.398685120780101 -118.18456035654344 0 0 0 0 27.18902502511628 38.615833174800173 0 38.615833174800173 2.175094088912374 0 0 0 0 -11.553380975077744 120.02917174573486 0 120.02917174573486 19.857092995363928 0 0 0 0 8.2625244632508839 47.585824793721258 0 47.585824793721258 27.775404857471585 0 0 0 0 81.564443091964648 47.682909183188471 0 47.682909183188471 12.597852956002381 0 0 0 0 41.424814324258477 40.702490052012763 0 40.702490052012763 4.3295267226512806 0 0 0 0 55.152278305877417 2.0483019391362234 0 2.0483019391362234 -14.991632516323396 0 0 0 0 72.875422447235906 25.772829225797977 0 25.772829225797977 -15.911269253469072 0 0 0 0 75.468571284858626 47.002199840431786 0 47.002199840431786 -23.654994999379596 0 0 0 0 53.377495586988516 28.268346976932662 0 28.268346976932662 -17.898916941936477 0 0 0 0 49.851574065049078 21.718595642921997 0 21.718595642921997 -5.3475291354445531 0 0 0 0 73.452379334796206 28.2645526328497 0 28.2645526328497 -54.88844465108923 0 0 0 0 18.475089863804129 13.982394015286829 0 13.982394015286829 -8.3045407042224326 0 0 0 0 54.389852684776997 70.675143300231866 0 70.675143300231866 -51.10867301968392 0 0 0 0 51.119133817401234 74.581737506276454 0 74.581737506276454 7.9138593169118394 0 0 0 0 68.048178766999627 41.981825208380542 0 41.981825208380542 -6.1059350492650992 0 0 0 0 50.723039340173273 71.288078327468611 0 71.288078327468611 -42.182079346406681 0 0 0 0 19.546454455260232 12.813984510294489 0 12.813984510294489 -30.11809848147827 0 0 0 0 22.689142007846385 4.9026980625712895 0 4.9026980625712895 5.2115119059963035 0 0 0 0 10.4306144953527 -3.2897032889541578 0 -3.2897032889541578 -6.749282097239103 0 0 0 0 2.1388920225747938 1.0276462657105867 0 1.0276462657105867 2.8958633127931392 0 0 0 0 68.901788741328346 24.895915573333696 0 24.895915573333696 102.42571347898775 0 0 0 0 16.79106989086722 71.09882330554683 0 71.09882330554683 -2.9377794623924274 0 0 0 0 48.509872739900857 52.561913674333255 0 52.561913674333255 7.8594207506139355 0 0 0 0 75.335160073489533 -127.22201436986325 0 -127.22201436986325 -45.849528095975188 0 0 0 0 6.9412633776082657 42.817150413358831 0 42.817150413358831 158.18634083394863 0 0 0 0 47.514080664579524 5.5160804302495308 0 5.5160804302495308 3.6461956995008222 0 0 0 0 -0.36029715533706508 0.35006768118390141 0 0.35006768118390141 1.3924385520692084 0 0 0 0 143.03484380734881 137.42847486338087 0 137.42847486338087 151.71900224332057 0 0 0 0 161.96028407253471 155.17333700966628 0 155.17333700966628 100.63177674510735 0 0 0 0 117.24821557264659 39.062138084585968 0 39.062138084585968 124.94468424471052 0 0 0 0 153.43957910533936 88.548442972400153 0 88.548442972400153 28.632099667045622 0 0 0 0 159.79906871038111 40.938028882214212 0 40.938028882214212 22.122659596545418 0 0 0 0 111.50093226128956 119.66461760134007 0 119.66461760134007 41.830770141288667 0 0 0 0 22.552481879938568 71.409645745869057 0 71.409645745869057 15.662495068176213 0 0 0 0 87.850397388552665 113.95056143654438 0 113.95056143654438 -61.941646178149313 0 0 0 0 14.338991019991226 154.62162126540352 0 154.62162126540352 -50.544111345429883 0 0 0 0 71.375863450057665 43.805504012920906 0 43.805504012920906 16.853919894065818 0 0 0 0 102.83503471361473 320.71799979061143 0 320.71799979061143 -77.832381897154846 0 0 0 0 123.51773811568049 34.229867897522468 0 34.229867897522468 -12.55788332127122 0 0 0 0 81.019146524482494 50.009716209215867 0 50.009716209215867 8.2603761931859481 0 0 0 0 123.65332917839987 82.933604949996152 0 82.933604949996152 -37.383412712642894 0 0 0 0 36.348869671841385 60.60932632384538 0 60.60932632384538 -38.56195595094141 0 0 0 0 -114.26432314224076 129.64476793749054 0 129.64476793749054 91.010356773794229 0 0 0 0 88.654750701090961 46.208050626969452 0 46.208050626969452 -39.344919609135104 0 0 0 0 0.64011584360076768 12.533371082799906 0 12.533371082799906 6.1058911143964441 0 0 0 0 110.50903947257393 75.028880122821192 0 75.028880122821192 -74.377806332093314 0 0 0 0 66.807331497325322 95.4143789480745 0 95.4143789480745 -66.184093736843352 0 0 0 0 74.185169270450331 34.788391287892026 0 34.788391287892026 10.56368535016718 0 0 0 0 -27.483000762018492 19.827705619234621 0 19.827705619234621 90.283348910674249 0 0 0 0 134.39271842494782 133.79322567779127 0 133.79322567779127 -143.58978766632754 0 0 0 0 -8.0203246106393635 -16.023862948875831 0 -16.023862948875831 150.05168597265583 0 0 0 0 70.437815118231811 -44.983841814544576 0 -44.983841814544576 52.931789262545863 0 0 0 0 -14.155657884199172 18.204357381325281 0 18.204357381325281 224.42470221394478 0 0 0 0 37.773550858633826 38.794557602261193 0 38.794557602261193 190.21376902639986 0 0 0 0 -104.51492410019273 32.217450281150377 0 32.217450281150377 192.72695847278692 0 0 0 0 2.093527977906092 -0.36994440093430825 0 -0.36994440093430825 -0.15002986266451845 0 0 0 0 -53.848973658663454 59.163130108002406 0 59.163130108002406 424.02580199574913 0 0 0 0 130.68399497822247 -54.295435196162543 0 -54.295435196162543 -205.69731043182946 0 0 0 0 49.148623896689969 -73.935996045134743 0 -73.935996045134743 3.1331072848570329 0 0 0 0 172.36783970429678 -6.8174123509725177 0 -6.8174123509725177 155.17211084955852 0 0 0 0 498.14378560183104 191.64068020408558 0 191.64068020408558 50.29245940902365 0 0 0 0 34.730420493346173 -15.615759987254251 0 -15.615759987254251 -13.648766594144035 0 0 0 0 202.69377970570349 -43.054295816697049 0 -43.054295816697049 -48.360779294944223 0 0 0 0 -0.59276870036859464 -0.24684622671202305 0 -0.24684622671202305 -2.5815760267886816 0 0 0 0 56.756295935250819 97.200520977909036 0 97.200520977909036 116.47812862378214 0 0 0 0 192.74439439513662 -51.814367796279384 0 -51.814367796279384 199.90512323031726 0 0 0 0 416.92140734376153 62.660638366833155 0 62.660638366833155 42.572105593144443 0 0 0 0 372.59521925031731 200.15455637170544 0 200.15455637170544 60.367537969850673 0 0 0 0 312.99549466033932 29.065289476143562 0 29.065289476143562 -88.444105497423152 0 0 0 0 -227.86462269449839 55.237277416016695 0 55.237277416016695 3.7550558946677484 0 0 0 0 79.037132720288355 355.11263075948591 0 355.11263075948591 258.88048484311707 0 0 0 0 533.32045984000433 -72.90508814863631 0 -72.90508814863631 -41.827825069352457 0 0 0 0 -70.704925924510462 281.07560644203568 0 281.07560644203568 -5.1650110320535987 0 0 0 0 12.739876821847076 13.40201062013287 0 13.40201062013287 12.048958577200434 0 0 0 0 76.106092719259323 17.447902491807326 0 17.447902491807326 -106.61615822861586 0 0 0 0 -42.779592303611935 32.515886714008957 0 32.515886714008957 -22.515387836281661 0 0 0 0 63.898394503994496 -16.062078871968879 0 -16.062078871968879 14.270103344440031 0 0 0 0 2.7890279521697323 1.4983671617403616 0 1.4983671617403616 4.6049145374397114 0 0 0 0 86.443610993141192 -19.217084609528683 0 -19.217084609528683 -1.6141366746323911 0 0 0 0 23.481206362164812 4.1896763969998574 0 4.1896763969998574 3.9618263627935448 0 0 0 0 13.999309852253646 -1.2372633624581795 0 -1.2372633624581795 13.277541683466552 0 0 0 0 52.499196586548351 -27.495793267566114 0 -27.495793267566114 35.886743929868317 0 0 0 0 17.595612593126134 3.3843010583395881 0 3.3843010583395881 19.203150562685551 0 0 0 0 18.825891925458563 -11.717776624067483 0 -11.717776624067483 30.370142342454983 0 0 0 0 20.887244033764034 2.7594392030949351 0 2.7594392030949351 0.43730629887505756 0 0 0 0 3.1734152611824697 -0.67476930246334632 0 -0.67476930246334632 0.71468980744703714 0 0 0 0 136.81992760382127 -110.21395725077809 0 -110.21395725077809 82.550608000474313 0 0 0 0 4.9010887659092646 1.5295811175566882 0 1.5295811175566882 1.7467075127011569 0 0 0 0 44.776338798459619 65.477702092279287 0 65.477702092279287 -11.423722753565244 0 0 0 0 15.516177153326765 20.534967689357757 0 20.534967689357757 22.793889089531611 0 0 0 0 -370.88613334001275 190.91293654675871 0 190.91293654675871 40.247171453215287 0 0 0 0 5.5438650118217581 5.6316881082693442 0 5.6316881082693442 -4.9004501107011684 0 0 0 0 36.771179278322961 14.981307424684019 0 14.981307424684019 -1.8218863774009151 0 0 0 0 27.248891779279802 13.810402308456787 0 13.810402308456787 1.6862494056622381 0 0 0 0 28.596908955805702 15.881151378323011 0 15.881151378323011 -0.5594525011931637 0 0 0 0 31.973592470429139 11.936277855670141 0 11.936277855670141 -0.48093461817006755 0 0 0 0 25.630540667974856 13.123517337508019 0 13.123517337508019 6.2002312685672223 0 0 0 0 23.245951600853004 9.866616368048085 0 9.866616368048085 1.7589336232431378 0 0 0 0 134.97052556727795 35.334437699759405 0 35.334437699759405 -61.452526786089948 0 0 0 0 -0.72993375253356163 1.5257764611434368 0 1.5257764611434368 -0.88201911009071665 0 0 0 0 24.402150911046192 -10.166555005567716 0 -10.166555005567716 3.5735290271040867 0 0 0 0 -40.572872422242654 115.87647888584434 0 115.87647888584434 -52.990751323583481 0 0 0 0 247.04324274931696 253.67489178253311 0 253.67489178253311 -123.95564437985422 0 0 0 0 16.433628331534038 18.740968300560496 0 18.740968300560496 18.483662321057253 0 0 0 0 240.38011160078895 63.49713935855295 0 63.49713935855295 101.85853685619509 0 0 0 0 893.019493239437 -209.54779196295556 0 -209.54779196295556 -130.56900998619062 0 0 0 0 672.01946151845186 -177.65859989957494 0 -177.65859989957494 -29.581654421301437 0 0 0 0 66.702939660463016 -80.639965445714608 0 -80.639965445714608 -78.908982258440631 0 0 0 0 518.68748728564242 242.7957130557177 0 242.7957130557177 34.835329172846627 0 0 0 0 -310.17233218418551 286.86779976320179 0 286.86779976320179 152.96663448374636 0 0 0 0 551.50035387571552 -243.71866124975509 0 -243.71866124975509 42.943880684632632 0 0 0 0 92.429273679255857 20.736705473288083 0 20.736705473288083 -82.861253221225979 0 0 0 0 40.066561456485942 -20.082120163569812 0 -20.082120163569812 384.80130677705085 0 0 0 0 60.01942215886811 -108.79944880219665 0 -108.79944880219665 -49.93597023869188 0 0 0 0 590.79669431331422 -126.74172061645874 0 -126.74172061645874 324.70698572781089 0 0 0 0 963.84947646244837 -704.33949727520178 0 -704.33949727520178 473.38393254765788 0 0 0 0 1651.9741356645536 -538.56581612287096 0 -538.56581612287096 -7.049123949570685 0 0 0 0 86.44045969752915 -15.785225917833344 0 -15.785225917833344 233.75066703457378 0 0 0 0 512.88884606296779 -288.06159035452538 0 -288.06159035452538 153.2264772398326 0 0 0 0 596.31847576567088 -239.07788557977597 0 -239.07788557977597 36.219367886518285 0 0 0 0 64.981648240223876 168.25548131983186 0 168.25548131983186 -14.739142414675825 0 0 0 0 13.497406169200417 1.0527572351161893 0 1.0527572351161893 2.9652452463809089 0 0 0 0 3.3432371033158006 1.7578550683684853 0 1.7578550683684853 7.8732794829117232 0 0 0 0 3.678914018848559 2.3308067711326999 0 2.3308067711326999 4.829789294246206 0 0 0 0 -310.58751555666095 -49.132740550435301 0 -49.132740550435301 256.14178537817725 0 0 0 0 8.2568942762591178 3.7625957866528665 0 3.7625957866528665 7.0983190221850236 0 0 0 0 11.575030447629018 7.809834630960637 0 7.809834630960637 3.7350924974573312 0 0 0 0 4.7185798925711424 3.7654561306614767 0 3.7654561306614767 5.8671808861322461 0 0 0 0 23.090876078660685 21.269624095892794 0 21.269624095892794 15.519554911530269 0 0 0 0 -397.68731763231335 226.85147877406723 0 226.85147877406723 -1.9290246377632343 0 0 0 0 -132.58272489505543 129.84560691862831 0 129.84560691862831 -195.36001728003225 0 0 0 0 -5.7596425489829244 -0.80100938576384806 0 -0.80100938576384806 3.3314742115752174 0 0 0 0 24.093140988283267 10.343053583453184 0 10.343053583453184 0.34738601763729093 0 0 0 0 28.74216472626722 2.2311191110550226 0 2.2311191110550226 4.6985900726781438 0 0 0 0 29.995407494221581 13.357721776585549 0 13.357721776585549 9.4593554837010743 0 0 0 0 27.590040972136194 7.8522964717635659 0 7.8522964717635659 -2.6833708970893895 0 0 0 0 28.628021019593689 3.4496042487961773 0 3.4496042487961773 -4.8577500947212684 0 0 0 0 13.170102859886327 7.9669307506995608 0 7.9669307506995608 9.851310640673443 0 0 0 0 -6.5349980507453438 3.6427672084150799 0 3.6427672084150799 17.98661402360085 0 0 0 0 43.636469938908704 9.8234655974383145 0 9.8234655974383145 -15.619887781691951 0 0 0 0 13.465807946398854 33.896133302159285 0 33.896133302159285 -11.257241346778983 0 0 0 0 21.111259839744889 5.6031302054035024 0 5.6031302054035024 3.311281681905939 0 0 0 0 59.033714651217451 -27.826949932426601 0 -27.826949932426601 18.708078832365459 0 0 0 0 103.94691567245172 -87.017227981041927 0 -87.017227981041927 105.67323401127406 0 0 0 0 65.112817261426244 -10.829725927130738 0 -10.829725927130738 38.643479593411769 0 0 0 0 33.718526554643176 -32.081269554776583 0 -32.081269554776583 37.326951439145091 0 0 0 0 3.1327162927627796 3.7057518132769225 0 3.7057518132769225 50.122542134525929 0 0 0 0 -455.76037337277376 -195.15951146408557 0 -195.15951146408557 12.589306276573097 0 0 0 0 48.931149744254071 -7.6857106592486275 0 -7.6857106592486275 -15.031477868857166 0 0 0 0 -215.07553848240059 132.36196233001999 0 132.36196233001999 38.920984557807913 0 0 0 0 231.04531629796838 -160.99265775425678 0 -160.99265775425678 72.435424613331577 0 0 0 0 61.283142040367238 -11.783919826724713 0 -11.783919826724713 44.806039774702469 0 0 0 0 74.605815315928339 -110.90781738755425 0 -110.90781738755425 184.8730748359319 0 0 0 0 0.083505720524563287 -0.71732066280418394 0 -0.71732066280418394 1.4427787071899087 0 0 0 0 314.83333067296189 -61.850632746198634 0 -61.850632746198634 -24.485530399148217 0 0 0 0 288.20400185068502 -253.21162679823829 0 -253.21162679823829 300.15927726090626 0 0 0 0 -418.57095560949529 -330.70595866289682 0 -330.70595866289682 467.02658452072183 0 0 0 0 1.9413843238394435 -0.5711548589427764 0 -0.5711548589427764 1.0752221290362232 0 0 0 0 177.23696832935093 -58.432916381856408 0 -58.432916381856408 19.05500052086353 0 0 0 0 166.79191165405791 -64.340760387116745 0 -64.340760387116745 29.849857892138402 0 0 0 0 213.18899818707723 -69.563629067114235 0 -69.563629067114235 15.179508530372217 0 0 0 0 251.9896733791611 14.278531529304509 0 14.278531529304509 -10.312089485490198 0 0 0 0 47.210232401761459 -12.64919374634642 0 -12.64919374634642 41.453197762033568 0 0 0 0 65.673588827659842 -11.901716926956055 0 -11.901716926956055 23.086423166288114 0 0 0 0 96.521885901223868 -48.625694759765196 0 -48.625694759765196 54.218554259737324 0 0 0 0 142.51674362854101 -25.744974015297853 0 -25.744974015297853 21.022308434007954 0 0 0 0 65.079933545261156 -10.25193169268594 0 -10.25193169268594 37.232465632376261 0 0 0 0 125.28369421561365 -17.474424631656689 0 -17.474424631656689 25.429869878982515 0 0 0 0 101.73697787505807 -44.605986056496782 0 -44.605986056496782 38.094826121458937 0 0 0 0 194.97003789982409 -42.889589808773991 0 -42.889589808773991 19.693885137678222 0 0 0 0 81.215589284955058 -10.321731872169476 0 -10.321731872169476 5.9370205209806812 0 0 0 0 65.030878554767696 -37.174642117175601 0 -37.174642117175601 26.594545218115613 0 0 0 0 92.530775887717027 -13.16225574687164 0 -13.16225574687164 19.071351116587369 0 0 0 0 112.99274611577857 -28.273573857471927 0 -28.273573857471927 0.4326932303473825 0 0 0 0 113.59657956074079 -23.348712704707751 0 -23.348712704707751 17.962526189991905 0 0 0 0 123.04798158805352 -41.244613014353114 0 -41.244613014353114 20.129341200907206 0 0 0 0 163.53073286285507 -20.183716495287239 0 -20.183716495287239 6.3743510726711783 0 0 0 0 166.24178294444573 21.651252296691094 0 21.651252296691094 41.102950271596683 0 0 0 0 39.41008133465948 222.33832437550876 0 222.33832437550876 -206.91197370439568 0 0 0 0 131.3038668386871 -11.70916747492536 0 -11.70916747492536 15.978043613838485 0 0 0 0 135.12875061263912 -22.313890152655862 0 -22.313890152655862 1.5641795344948548 0 0 0 0 122.14210005343193 -7.7860163852735544 0 -7.7860163852735544 -0.02314750518991076 0 0 0 0 131.64031139510553 -15.329726120609909 0 -15.329726120609909 -1.1928258026506917 0 0 0 0 1.055704247221982 -1.3439875636317993 0 -1.3439875636317993 1.3733338333249232 0 0 0 0 914.79788870607626 -231.78641960414859 0 -231.78641960414859 -108.72181992949743 0 0 0 0 98.813118567370111 -17.427956033161273 0 -17.427956033161273 4.5111796989078128 0 0 0 0 88.926694861380383 -34.349744965043449 0 -34.349744965043449 9.1728520105749496 0 0 0 0 927.01170911783265 -172.89284627466355 0 -172.89284627466355 -119.90551693070358 0 0 0 0 871.70873550532269 -227.14235008538867 0 -227.14235008538867 0.073520905894935623 0 0 0 0 934.77253720069712 -224.0677652280809 0 -224.0677652280809 -86.832450931531355 0 0 0 0 878.56065653715996 -256.99110599958101 0 -256.99110599958101 -105.14113356105929 0 0 0 0 860.56479498688714 -135.9398440629891 0 -135.9398440629891 -248.2783347785446 0 0 0 0 880.03128958874731 -139.53077846669066 0 -139.53077846669066 -183.50915777315731 0 0 0 0 1076.2053519422843 -162.70350615795348 0 -162.70350615795348 -132.86542236522206 0 0 0 0 1058.7317528973508 -148.51192672386196 0 -148.51192672386196 -10.725052887312813 0 0 0 0 959.2026204210415 -248.4373795610399 0 -248.4373795610399 -34.60496543709894 0 0 0 0 768.42085985888843 -330.05107931233454 0 -330.05107931233454 196.3863706560511 0 0 0 0 560.76875447995553 -505.33795166381373 0 -505.33795166381373 429.91951404723238 0 0 0 0 2.446422157923223 -1.6016111429253215 0 -1.6016111429253215 2.1750496060148299 0 0 0 0 718.56284591459553 -110.78832914567511 0 -110.78832914567511 -194.92540308007392 0 0 0 0 969.49296663072892 -586.91679663202149 0 -586.91679663202149 106.28453074128333 0 0 0 0 1050.2373839595166 -341.95695241011657 0 -341.95695241011657 -68.981434999214343 0 0 0 0 1078.1410354803957 -443.55714088303557 0 -443.55714088303557 295.27059259143141 0 0 0 0 1143.5399221142434 293.44784839473209 0 293.44784839473209 -116.50949025435 0 0 0 0 1176.4376040490024 -152.13941665159763 0 -152.13941665159763 -101.1169613263578 0 0 0 0 977.34079811739502 -53.068682501647118 0 -53.068682501647118 -123.96299034564228 0 0 0 0 1258.9779355260907 -200.79009256884825 0 -200.79009256884825 -98.103980179007863 0 0 0 0 896.36340210282265 22.706573888038086 0 22.706573888038086 -109.57578515385438 0 0 0 0 896.61094582466467 -84.00380580166582 0 -84.00380580166582 -91.811541434006784 0 0 0 0 764.85856188012258 -82.54551226574786 0 -82.54551226574786 -0.076835545847397824 0 0 0 0 900.71402153253439 -134.70691765317773 0 -134.70691765317773 -0.16978856121770203 0 0 0 0 852.90574032382574 -48.744274502976019 0 -48.744274502976019 -103.37868910198084 0 0 0 0 0.46972424150171577 -0.025724705376319434 0 -0.025724705376319434 -0.068394965783952433 0 0 0 0 260.89293388045917 25.661851771794382 0 25.661851771794382 36.148022346118637 0 0 0 0 429.25224740308477 -31.042056628858557 0 -31.042056628858557 -0.003208523229099482 0 0 0 0 590.8162833393435 8.2058447740153326 0 8.2058447740153326 -68.065239092066378 0 0 0 0 593.28415255688014 36.235631819738792 0 36.235631819738792 -38.031951212435132 0 0 0 0 433.06843645303161 -12.684130701313393 0 -12.684130701313393 -14.332403159351266 0 0 0 0 0.45492064511841424 -0.19966557454537792 0 -0.19966557454537792 -0.36889688661082465 0 0 0 0 444.44439164154755 65.958030238858527 0 65.958030238858527 -25.226813583125136 0 0 0 0 233.80074406003268 77.153758112441253 0 77.153758112441253 7.2143749796708221 0 0 0 0 473.04406263126293 60.512558456379793 0 60.512558456379793 -36.967735790842198 0 0 0 0 615.209102100358 152.49006840750019 0 152.49006840750019 -47.308544630324093 0 0 0 0 456.28704525888315 98.164511967462886 0 98.164511967462886 -33.975574692365441 0 0 0 0 206.62137290385726 -140.40446389783745 0 -140.40446389783745 -204.75773973437163 0 0 0 0 208.25482554448939 308.27671883841521 0 308.27671883841521 190.97483001686942 0 0 0 0 130.77559246878081 64.045806943782168 0 64.045806943782168 63.549959151379539 0 0 0 0 201.10913224489195 -99.581302376146851 0 -99.581302376146851 -167.37138372054778 0 0 0 0 0.27481023065816323 -0.55636525145766313 0 -0.55636525145766313 -0.31085120569888502 0 0 0 0 51.858992510917915 -19.711693846558191 0 -19.711693846558191 6.4147853152122458 0 0 0 0 212.64695409515116 -314.84251881736009 0 -314.84251881736009 -681.03758240475281 0 0 0 0 175.96000108192675 -108.11531716270019 0 -108.11531716270019 -231.65398255941864 0 0 0 0 102.32029468484689 -26.288793249108153 0 -26.288793249108153 4.9526867185927586 0 0 0 0 20.627519187692087 -741.46421315285329 0 -741.46421315285329 433.54629255268026 0 0 0 0 244.27468163979938 45.595602229995905 0 45.595602229995905 -463.87185294515575 0 0 0 0 20.115920149154988 -7.9828719871843248 0 -7.9828719871843248 3.702731910382898 0 0 0 0 1652.3289458692016 714.90760752639972 0 714.90760752639972 230.64566675127583 0 0 0 0 2625.2128845905827 -530.35304735776811 0 -530.35304735776811 -93.427752298620817 0 0 0 0 1404.8337147856073 -183.35125833170275 0 -183.35125833170275 -165.30315363574675 0 0 0 0 1022.5993188637731 -703.00950273425917 0 -703.00950273425917 1055.820427984944 0 0 0 0 1507.9273254002801 -961.71714452454808 0 -961.71714452454808 73.713372638838223 0 0 0 0 2023.5091108038687 -351.67009867335122 0 -351.67009867335122 -245.91133754973066 0 0 0 0 1186.4252683256054 330.99136593668811 0 330.99136593668811 371.54367704665526 0 0 0 0 866.08004541236005 -330.64564959171156 0 -330.64564959171156 -66.772624881089541 0 0 0 0 1226.1284490443359 -273.10338593845177 0 -273.10338593845177 -245.60277826542892 0 0 0 0 1362.8181794937736 -580.94174439110543 0 -580.94174439110543 -106.86628550040905 0 0 0 0 497.13081252729171 -297.37226327579515 0 -297.37226327579515 62.377377495815495 0 0 0 0 887.82177139965643 -420.09876221033051 0 -420.09876221033051 98.344969292374344 0 0 0 0 187.60800591428415 -199.49817138291587 0 -199.49817138291587 123.15448383387582 0 0 0 0 580.59725418020389 -235.81301458898776 0 -235.81301458898776 56.960638597619607 0 0 0 0 812.4845546780416 -781.73939997676314 0 -781.73939997676314 67.806301004094735 0 0 0 0 138.46118777415541 106.41365902879056 0 106.41365902879056 160.93484193694007 0 0 0 0 218.85718570966856 120.80863035630387 0 120.80863035630387 55.163260146226321 0 0 0 0 131.03755824951804 65.849302500103477 0 65.849302500103477 31.895500037977968 0 0 0 0 283.70291026162886 20.778726485596508 0 20.778726485596508 102.17308318265941 0 0 0 0 186.13803042736254 -12.721559643298292 0 -12.721559643298292 99.441851781190508 0 0 0 0 220.78620362243964 93.509845088970451 0 93.509845088970451 18.337308202859163 0 0 0 0 401.77743016414752 -14.605610383211229 0 -14.605610383211229 109.51196585952175 0 0 0 0 150.05565290038066 116.37861418266334 0 116.37861418266334 161.12691399536243 0 0 0 0 244.33908630587393 175.97590645036405 0 175.97590645036405 178.48020519391224 0 0 0 0 31.397783273539972 201.71480417151588 0 201.71480417151588 200.33923449176245 0 0 0 0 132.57615599903511 118.9692240688546 0 118.9692240688546 251.42655953748385 0 0 0 0 192.82709211143083 69.525345087023197 0 69.525345087023197 160.95547434476453 0 0 0 0 -27.736740529770032 -151.10632374452302 0 -151.10632374452302 -93.427968406014486 0 0 0 0 24.700504658866237 -13.918655481925583 0 -13.918655481925583 8.7491302348224433 0 0 0 0 -0.61280403201919853 -6.270062775999655 0 -6.270062775999655 4.002436383500048 0 0 0 0 101.39926916661716 -72.096095422962804 0 -72.096095422962804 24.046647070068047 0 0 0 0 115.88767135955277 147.77143406467064 0 147.77143406467064 181.87094824614496 0 0 0 0 203.36347295276937 124.36933579249842 0 124.36933579249842 90.467360537562854 0 0 0 0 161.30445101441001 143.36217104261425 0 143.36217104261425 86.65700174502993 0 0 0 0 161.24769177752023 112.32192938588241 0 112.32192938588241 10.250942862767261 0 0 0 0 163.19819169213952 107.63271300615448 0 107.63271300615448 -1.324635350294102 0 0 0 0 166.36614415120857 108.13764149681403 0 108.13764149681403 74.24689866304999 0 0 0 0 150.21462961987709 126.66057572347201 0 126.66057572347201 117.18656736980905 0 0 0 0 173.04603105354909 105.66466938814487 0 105.66466938814487 57.429006193645463 0 0 0 0 158.69052469328744 142.72400807004374 0 142.72400807004374 9.519392658483639 0 0 0 0 140.42403454330633 106.10911610134235 0 106.10911610134235 74.202528020283069 0 0 0 0 124.11384841881227 148.07844859457714 0 148.07844859457714 14.516613864594547 0 0 0 0 162.94380406702112 122.97068039721648 0 122.97068039721648 -57.041839986014111 0 0 0 0 145.95378591300687 127.47477010648345 0 127.47477010648345 3.4876936001725198 0 0 0 0 178.21228626962693 143.27532868371793 0 143.27532868371793 -62.822070775147949 0 0 0 0 165.92481555209088 143.30885261226967 0 143.30885261226967 -103.16101498213993 0 0 0 0 164.94892865326256 136.63895372187199 0 136.63895372187199 -61.587491072350076 0 0 0 0 97.251814508694224 121.30733668819062 0 121.30733668819062 -52.702598021904578 0 0 0 0 190.06469787302922 95.591026817650487 0 95.591026817650487 -9.7275981665454765 0 0 0 0 177.45529928343603 134.06089339620803 0 134.06089339620803 -3.6469194474882443 0 0 0 0 221.38081493368372 119.08195704068521 0 119.08195704068521 -83.209720092206226 0 0 0 0 186.66614445645246 111.28520016166112 0 111.28520016166112 -76.089753538598416 0 0 0 0 304.33131415143725 125.26594870663666 0 125.26594870663666 -137.49180805614833 0 0 0 0 180.31965521539678 142.33874168280408 0 142.33874168280408 -103.70530934676572 0 0 0 0 206.88983080981416 150.31041126133891 0 150.31041126133891 -106.84087372279464 0 0 0 0 236.10899214961682 171.77974794788861 0 171.77974794788861 -155.11704803859539 0 0 0 0 709.94828096556012 212.87950027271836 0 212.87950027271836 -159.21380432327305 0 0 0 0 68.484213345131138 135.2045258850485 0 135.2045258850485 -81.218950975518965 0 0 0 0 75.870135223925899 59.692438099386351 0 59.692438099386351 -135.28236903755715 0 0 0 0 168.25722759491327 163.93050892870997 0 163.93050892870997 -92.801598603617094 0 0 0 0 -37.699682475620648 72.120116760809651 0 72.120116760809651 30.836092817722601 0 0 0 0 -37.839375091425609 -106.94627267839314 0 -106.94627267839314 -269.12273252976047 0 0 0 0 20.646015777912908 -69.06649110582174 0 -69.06649110582174 -245.21196276980481 0 0 0 0 13.020232376700733 -6.3431815614849256 0 -6.3431815614849256 -152.39028185881398 0 0 0 0 64.879627787071513 -40.598065697152379 0 -40.598065697152379 -329.68040132530405 0 0 0 0 38.799296289682388 -107.1353154802955 0 -107.1353154802955 -371.08368312870971 0 0 0 0 50.125450988707598 69.280717167734792 0 69.280717167734792 -146.13483722491492 0 0 0 0 66.550014324602671 1.4902650000813082 0 1.4902650000813082 -252.53102245095567 0 0 0 0 85.472443163685966 71.494891212383664 0 71.494891212383664 -165.95462871547284 0 0 0 0 112.03411470371066 128.86247079858663 0 128.86247079858663 -98.374958036842827 0 0 0 0 101.56550442666048 35.829866879163774 0 35.829866879163774 -125.43434411505746 0 0 0 0 112.27625329188231 132.43164620516532 0 132.43164620516532 -49.074714874048823 0 0 0 0 152.47762336007145 -22.313872899124306 0 -22.313872899124306 -98.218179226141274 0 0 0 0 24.568014332005987 36.164994808054871 0 36.164994808054871 -122.69911959801539 0 0 0 0 221.55016800013254 -72.54544843365602 0 -72.54544843365602 -422.85223332018995 0 0 0 0 -106.77315626534983 -193.18645302378081 0 -193.18645302378081 -340.41275200892278 0 0 0 0 107.22766336355562 -20.111843068709618 0 -20.111843068709618 -299.75904856401667 0 0 0 0 -27.553430839325301 -32.254371398223157 0 -32.254371398223157 -282.60483097275937 0 0 0 0 -17.730147114139982 -2.0745692009622871 0 -2.0745692009622871 -386.04464039499908 0 0 0 0 41.236644264165079 -42.689477430933948 0 -42.689477430933948 -479.36114586894655 0 0 0 0 29.600850721792085 -198.55463866381336 0 -198.55463866381336 -167.32805690750808 0 0 0 0 -45.421402644868067 -131.89390078976561 0 -131.89390078976561 -39.496364853440809 0 0 0 0 27.530015603231732 74.532441317907114 0 74.532441317907114 -284.26449473784925 0 0 0 0 67.835241046691237 -26.015204858663751 0 -26.015204858663751 8.0815830033264575 0 0 0 0 28.093054264390958 -21.352533114098815 0 -21.352533114098815 -0.34301243373258528 0 0 0 0 55.637956808583112 -158.88307517487192 0 -158.88307517487192 -501.34222185839212 0 0 0 0 38.908299544709735 -135.67886878832843 0 -135.67886878832843 -288.50970353330069 0 0 0 0 28.414891710097436 -78.934903543086648 0 -78.934903543086648 -307.16899468466545 0 0 0 0 -12.884938483126462 -144.88141566171089 0 -144.88141566171089 -355.40210694156167 0 0 0 0 8.7903337665338768 -181.00528905983811 0 -181.00528905983811 -255.3312271808278 0 0 0 0 39.817931355318763 3.8532255258878791 0 3.8532255258878791 -7.3109354959991446 0 0 0 0 67.432972766750026 -83.476514760447429 0 -83.476514760447429 -88.087410783939234 0 0 0 0 12.496201676534838 -100.97368313759395 0 -100.97368313759395 -135.02792409891447 0 0 0 0 -55.085204537492245 -64.004899989161459 0 -64.004899989161459 -154.7681827535568 0 0 0 0 -34.756207197991898 -25.305770256196993 0 -25.305770256196993 -118.72215245263862 0 0 0 0 63.25624317873735 26.765504862002757 0 26.765504862002757 25.766358884485321 0 0 0 0 21.481399654614506 -162.13478017088545 0 -162.13478017088545 -32.902714677076801 0 0 0 0 225.32921857039582 -6.9483847209479244 0 -6.9483847209479244 -39.749069043130163 0 0 0 0 133.07968713559967 -10.338957132592933 0 -10.338957132592933 -10.233299359302691 0 0 0 0 105.4039020659111 25.186320570179575 0 25.186320570179575 11.161113129649351 0 0 0 0 -15.602910658228211 -14.156028765238235 0 -14.156028765238235 -2.3557705007059617 0 0 0 0 71.731942702874221 -41.814608664429123 0 -41.814608664429123 -6.6064625722483683 0 0 0 0 205.01881617607341 34.928171504230562 0 34.928171504230562 -12.872597860691215 0 0 0 0 48.270210919916281 -17.369125433408954 0 -17.369125433408954 -6.1607294345801629 0 0 0 0 -48.721530454480671 -51.541424747446271 0 -51.541424747446271 -17.753959752472618 0 0 0 0 3.7978716715588234 -40.367670564929654 0 -40.367670564929654 -83.793059878987265 0 0 0 0 -94.388361442564928 -77.573611202972785 0 -77.573611202972785 -32.154084379502194 0 0 0 0 -18.640622380684363 31.694904627569965 0 31.694904627569965 -126.51251311954678 0 0 0 0 350.86869409144856 60.474613263834044 0 60.474613263834044 -289.35817972187238 0 0 0 0 76.466760138879749 -14.515631158374735 0 -14.515631158374735 1.9919916302359564 0 0 0 0 -10.847965607594233 39.529075321323035 0 39.529075321323035 -6.3048577245326669 0 0 0 0 19.506162655918217 -4.8333443620606147 0 -4.8333443620606147 0.67692901637238911 0 0 0 0 10.547367254766868 -54.241638573387362 0 -54.241638573387362 -218.82938411433898 0 0 0 0 1.3626765000226442 -120.6668530038624 0 -120.6668530038624 -211.3078289363711 0 0 0 0 -31.151773928082548 -45.56547929778867 0 -45.56547929778867 -76.243560234666887 0 0 0 0 57.975218342707365 -17.369549034101123 0 -17.369549034101123 4.6525865895163427 0 0 0 0 58.543195447011385 -31.725086663822367 0 -31.725086663822367 -1.0467058103868112 0 0 0 0 4.4060574517061468 -213.52117480857123 0 -213.52117480857123 -456.84186408542473 0 0 0 0 -251.59163234882362 -185.00261291629363 0 -185.00261291629363 -149.23727329334361 0 0 0 0 500.45471879112301 -652.8364751692352 0 -652.8364751692352 -592.73250036362037 0 0 0 0 926.15990777795378 263.31037139800674 0 263.31037139800674 -416.10216904460322 0 0 0 0 115.63908725907095 166.55188042423833 0 166.55188042423833 193.02565548372513 0 0 0 0 7.4677550480197397 1.3923154220109097 0 1.3923154220109097 -6.4675485220025539 0 0 0 0 -153.46533035484026 254.55713305323229 0 254.55713305323229 310.43060479868109 0 0 0 0 352.22538578145759 -276.08715563334817 0 -276.08715563334817 60.098630652822976 0 0 0 0 83.853781347250333 -108.8471790513122 0 -108.8471790513122 1484.2755943145676 0 0 0 0 -0.2663502053379716 1.6469632381283077 0 1.6469632381283077 -1.3903603733365415 0 0 0 0 -93.617991936029284 -57.485860443459359 0 -57.485860443459359 -41.946025844104028 0 0 0 0 -59.410855698988598 96.96469425849503 0 96.96469425849503 198.33285624666857 0 0 0 0 171.19414919937481 -645.64620939755468 0 -645.64620939755468 -189.88743134999345 0 0 0 0 424.36619513525511 317.22883394966351 0 317.22883394966351 -417.99453562255957 0 0 0 0 6.3449366543135284 -1.2581024475796738 0 -1.2581024475796738 0.035008357992307573 0 0 0 0 -140.58801484273135 190.34453313100826 0 190.34453313100826 363.49347520951738 0 0 0 0 4.9452930077386554 436.99646323437264 0 436.99646323437264 -138.53188718317415 0 0 0 0 -25.494878576168389 25.837305154205112 0 25.837305154205112 -13.356709916121929 0 0 0 0 81.370395400858285 -14.511368465243095 0 -14.511368465243095 -0.4892065789721336 0 0 0 0 598.77130368601138 14.841152867861334 0 14.841152867861334 1.671729615135116 0 0 0 0 246.13337384565966 -275.97938057911335 0 -275.97938057911335 -45.248230745424202 0 0 0 0 86.83989306424337 -221.62116953722085 0 -221.62116953722085 -23.356523066407849 0 0 0 0 231.44549762395036 -126.3733835201011 0 -126.3733835201011 -50.379479124576704 0 0 0 0 1161.8792727581022 -152.54918341917676 0 -152.54918341917676 -19.125544959667529 0 0 0 0 8.7622914670935756 -3.6815965974461449 0 -3.6815965974461449 0.72723787071382606 0 0 0 0 4472.0703496537753 -2851.3189943648117 0 -2851.3189943648117 71.48321387221263 0 0 0 0 4460.7132725771226 102.09657182873813 0 102.09657182873813 -25.544659074771904 0 0 0 0 4492.3910324867411 766.99606000547669 0 766.99606000547669 -567.60877851616874 0 0 0 0 1982.8818065984233 1712.8695105015634 0 1712.8695105015634 833.0607895143014 0 0 0 0 49.448480393912178 -116.09615249165361 0 -116.09615249165361 7.240314839273756 0 0 0 0 10.846286737155935 1.612057904297771 0 1.612057904297771 0.30243848000854212 0 0 0 0 26.764880825085072 -0.030012695134573164 0 -0.030012695134573164 -3.0887374844193305 0 0 0 0 315.47153242290369 -223.24854576632038 0 -223.24854576632038 -427.00353177205307 0 0 0 0 21.47699803638011 -0.95039378432081634 0 -0.95039378432081634 -3.293991800736233 0 0 0 0 49.448480393795762 87.967679860621175 0 87.967679860621175 -49.422184097477853 0 0 0 0 -21.384883003323921 -126.88134018117303 0 -126.88134018117303 454.38606812453514 0 0 0 0 201.52898396816454 -101.67960028454776 0 -101.67960028454776 289.57561545333829 0 0 0 0 845.37984292893088 501.64826359850247 0 501.64826359850247 356.75596028233065 0 0 0 0 4493.3080872873397 -506.763270369324 0 -506.763270369324 -795.80927783387858 0 0 0 0 2276.1709676906175 411.39041961777554 0 411.39041961777554 -612.01253650399121 0 0 0 0 1811.5328220755327 -271.71550091771087 0 -271.71550091771087 190.98698558640899 0 0 0 0 4423.7412593261643 -1404.8881666509451 0 -1404.8881666509451 99.768126541666589 0 0 0 0 552.96434209658764 -1017.4351174008144 0 -1017.4351174008144 33.162735500935966 0 0 0 0 3.3606550215320681 -2.9322752162476746 0 -2.9322752162476746 1.6820397272053422 0 0 0 0 2265.4683588821499 -1297.6871213587765 0 -1297.6871213587765 9.4703045201383951 0 0 0 0 1026.2115831611445 86.461232910358135 0 86.461232910358135 151.00429422150864 0 0 0 0 8.2892183152123948 -3.1722311656423159 0 -3.1722311656423159 1.9244551903767833 0 0 0 0 -243.45026290707756 285.86893139233462 0 285.86893139233462 -507.8425760580086 0 0 0 0 4482.3545617166092 712.47250580312539 0 712.47250580312539 -564.57097693009803 0 0 0 0 3.0969147537943513 -2.9821646430132773 0 -2.9821646430132773 1.9336096393449549 0 0 0 0 25.038247398152748 -4.6251478352493081 0 -4.6251478352493081 1.4351541590193806 0 0 0 0 -433.76247333723586 -942.36482227014494 0 -942.36482227014494 21.025832777705546 0 0 0 0 -373.66350184612929 -656.19340857175212 0 -656.19340857175212 -209.45259788369117 0 0 0 0 334.15880724097951 270.93083870220084 0 270.93083870220084 -360.99682359854421 0 0 0 0 313.53326027671574 315.37247688252432 0 315.37247688252432 -382.44502330906755 0 0 0 0 334.61503262902261 260.68034969858513 0 260.68034969858513 -329.36472780000395 0 0 0 0 323.29721857540426 277.57130188338732 0 277.57130188338732 -265.28011691530037 0 0 0 0 254.57347663069959 354.05464592167709 0 354.05464592167709 206.07161448242081 0 0 0 0 162.20056693782681 234.06867474809474 0 234.06867474809474 68.83768676070224 0 0 0 0 276.15885430815979 379.93594144182623 0 379.93594144182623 -226.9998205851914 0 0 0 0 -164.8371438400718 251.85442217977203 0 251.85442217977203 96.763265612750274 0 0 0 0 271.47862556160544 403.34892203674588 0 403.34892203674588 -341.87960657996427 0 0 0 0 603.32222510348947 -153.95009774683331 0 -153.95009774683331 271.61534034215259 0 0 0 0 -169.80206723896845 111.84128769128601 0 111.84128769128601 101.31357137368789 0 0 0 0 108.85796613742423 76.127090527365141 0 76.127090527365141 -242.39982814292034 0 0 0 0 24.306024509796629 20.208193094779062 0 20.208193094779062 -18.275640970085345 0 0 0 0 109.03160311649117 5.2218828344695112 0 5.2218828344695112 -12.253751091931008 0 0 0 0 267.23749584412508 -9.2600745135529507 0 -9.2600745135529507 -49.39967004425398 0 0 0 0 100.44799799447355 8.6801841416198613 0 8.6801841416198613 -44.332524237897132 0 0 0 0 34.633765302728904 22.397018332812678 0 22.397018332812678 -10.380386176217582 0 0 0 0 37.298666614398826 61.756898300874468 0 61.756898300874468 17.145312235348456 0 0 0 0 -59.247278337948956 217.66269343413614 0 217.66269343413614 712.56033732472861 0 0 0 0 347.32531070505502 189.108497460546 0 189.108497460546 -203.93730280359546 0 0 0 0 30.644737408205401 0.09630261587460609 0 0.09630261587460609 -0.73045404856338791 0 0 0 0 10.849483638864513 1.5749171223253455 0 1.5749171223253455 1.5593799560312931 0 0 0 0 33.654310974816326 0.20284767985529584 0 0.20284767985529584 -8.2783962398657422 0 0 0 0 56.805435038375435 28.462171155808051 0 28.462171155808051 11.093460845821994 0 0 0 0 50.148442701742169 70.404850784514338 0 70.404850784514338 110.90753825616298 0 0 0 0 25.372645435100253 -8.2400206331205013 0 -8.2400206331205013 3.4051653104095716 0 0 0 0 320.49963025414036 -148.66257180666457 0 -148.66257180666457 -325.40861728723524 0 0 0 0 -108.17086457194455 26.395978147418329 0 26.395978147418329 100.31990508643977 0 0 0 0 8.4818565975796787 7.0986687732840608 0 7.0986687732840608 -10.48669602408979 0 0 0 0 24.218790695736971 77.240892935143975 0 77.240892935143975 -35.957277807140144 0 0 0 0 8.0909385919621855 25.534703771297099 0 25.534703771297099 135.88091951738136 0 0 0 0 43.062974285932455 0.55401233348023027 0 0.55401233348023027 -2.8028037030504329 0 0 0 0 39.335806307019084 42.853936847583327 0 42.853936847583327 -19.49896888259093 0 0 0 0 17.738640530758119 17.473633623445409 0 17.473633623445409 9.9387392451516607 0 0 0 0 67.841645966051146 -6.9143476956141967 0 -6.9143476956141967 -23.645974040807687 0 0 0 0 41.516101141096442 17.719090015606071 0 17.719090015606071 -64.791104395013861 0 0 0 0 -511.11661839322187 -223.28859753696497 0 -223.28859753696497 -120.15739291818318 0 0 0 0 81.435980854739427 6.3727002606170515 0 6.3727002606170515 -14.738691837684181 0 0 0 0 4490.9332896632404 218.81401125420018 0 218.81401125420018 -589.84556444158522 0 0 0 0 2592.7969042843251 1138.5699337325789 0 1138.5699337325789 475.19993710007054 0 0 0 0 1101.3830876532738 1083.4333350905488 0 1083.4333350905488 654.76968934450611 0 0 0 0 2346.9485851709615 -1047.655263217707 0 -1047.655263217707 -333.07191383458252 0 0 0 0 16.794272901253919 1.753868371145515 0 1.753868371145515 0.68959024677133862 0 0 0 0 346.04652900641668 -395.93828731757526 0 -395.93828731757526 632.99786733250983 0 0 0 0 932.91573465647525 -782.13246943275794 0 -782.13246943275794 347.99468284041109 0 0 0 0 564.32399078534218 -210.5845917612159 0 -210.5845917612159 26.095594944496185 0 0 0 0 -253.43872805024148 340.27710411282658 0 340.27710411282658 58.243592929067788 0 0 0 0 31.228059904740206 7.4941151367188183 0 7.4941151367188183 -2.4069765371982177 0 0 0 0 -152.29776792109624 -186.6465198642718 0 -186.6465198642718 165.86536945740409 0 0 0 0 6.7628400316937416 -8.7196368906544421 0 -8.7196368906544421 10.344074365801525 0 0 0 0 250.42857822481164 103.43990983376534 0 103.43990983376534 -187.50007042119159 0 0 0 0 107.59749228114379 -304.39143837564734 0 -304.39143837564734 101.6167545065282 0 0 0 0 348.42000685766834 135.13426496283046 0 135.13426496283046 110.34880846879241 0 0 0 0 308.00424787390511 203.5719792052505 0 203.5719792052505 38.490185713866367 0 0 0 0 339.47298769537156 150.75813467964736 0 150.75813467964736 206.30578428941408 0 0 0 0 3.4050894386260211 -1.3346359089514408 0 -1.3346359089514408 -0.22711001331474989 0 0 0 0 34.767023526968842 14.661530387036692 0 14.661530387036692 154.31012128503244 0 0 0 0 427.1799360710429 282.75742322388396 0 282.75742322388396 40.110867995819717 0 0 0 0 165.76958197519707 -125.03745809466545 0 -125.03745809466545 131.7921854525307 0 0 0 0 285.0872494642681 128.23632073108092 0 128.23632073108092 11.772109743605142 0 0 0 0 445.35868565284181 50.559005152581449 0 50.559005152581449 48.774277523631099 0 0 0 0 287.12938300248788 -113.93612424356797 0 -113.93612424356797 233.68456295468786 0 0 0 0 3.3971374461458481 -3.4414082146253975 0 -3.4414082146253975 3.6830642320461635 0 0 0 0 -603.15593617034028 148.29028078037663 0 148.29028078037663 249.40513493574326 0 0 0 0 -49.97649473034835 125.74244046374588 0 125.74244046374588 170.22692657152948 0 0 0 0 172.43102912956238 4.6938030252022145 0 4.6938030252022145 45.792668472291552 0 0 0 0 2.979504830284327 0.93834039178496198 0 0.93834039178496198 -0.02810500300121177 0 0 0 0 -79.866780417956761 -56.535270551614303 0 -56.535270551614303 32.211077280506288 0 0 0 0 -73.525735274452018 77.53490358946965 0 77.53490358946965 102.700590741837 0 0 0 0 174.57515837890242 -46.777879478621344 0 -46.777879478621344 409.22433809894937 0 0 0 0 1278.3733135558577 -427.18471988621968 0 -427.18471988621968 147.29003527812893 0 0 0 0 819.41421382321278 -156.77582745853033 0 -156.77582745853033 -10.041267592368968 0 0 0 0 1307.475837919832 -27.259964208285965 0 -27.259964208285965 -61.056518226865592 0 0 0 0 697.10190771541966 79.667913531801787 0 79.667913531801787 27.506675082920992 0 0 0 0 765.28406324840034 176.41200479976578 0 176.41200479976578 -11.875862303139002 0 0 0 0 1343.6105630935635 -109.60202929684601 0 -109.60202929684601 -257.01468015960018 0 0 0 0 1115.4672466132324 -90.290638688098625 0 -90.290638688098625 -163.36623250638513 0 0 0 0 1302.1889109994954 -117.91023062219392 0 -117.91023062219392 -237.28108784238975 0 0 0 0 573.8349050834222 -219.12780758491135 0 -219.12780758491135 87.064446235817741 0 0 0 0 1103.3044398806014 -137.04331157902561 0 -137.04331157902561 -167.34193856990896 0 0 0 0 182.00791282799037 -70.409593900400068 0 -70.409593900400068 59.491093822306993 0 0 0 0 1790.2339603891924 -19.081431818181045 0 -19.081431818181045 -217.94071237415483 0 0 0 0 -14.1848378257273 415.00759131333507 0 415.00759131333507 221.29447559284472 0 0 0 0 1225.8027964487919 -716.47985710281455 0 -716.47985710281455 268.61229572569573 0 0 0 0 11.442897771612536 4.0759722965750562 0 4.0759722965750562 2.0039891894276067 0 0 0 0 824.1932761821954 -22.873608626287023 0 -22.873608626287023 20.711916254032076 0 0 0 0 231.04081042961116 90.757162957306718 0 90.757162957306718 222.61380631792417 0 0 0 0 821.32550343124603 61.667667989686379 0 61.667667989686379 34.60698034951929 0 0 0 0 953.12845326689421 -111.48004920489984 0 -111.48004920489984 575.61099984950761 0 0 0 0 1402.215950519465 332.00211926330667 0 332.00211926330667 95.417826654731471 0 0 0 0 955.54494338811492 -53.903244278316379 0 -53.903244278316379 -75.919116117543126 0 0 0 0 226.81890302126703 161.13277029034907 0 161.13277029034907 31.573491758104865 0 0 0 0 1210.3281687918206 -393.57031894257034 0 -393.57031894257034 283.25895731279525 0 0 0 0 1345.145486732119 -242.46171217078245 0 -242.46171217078245 -13.320806698495289 0 0 0 0 5.1423841951419433 -4.8823078619125795 0 -4.8823078619125795 4.4944189937017001 0 0 0 0 912.37955837226764 -68.527722650465876 0 -68.527722650465876 -1.0834411993700996 0 0 0 0 1574.6853834874055 -197.13653430953218 0 -197.13653430953218 20.799535682923306 0 0 0 0 839.02349989041977 465.18899366963524 0 465.18899366963524 85.53922591745868 0 0 0 0 155.29698354004358 278.14109735728653 0 278.14109735728653 286.0932900364387 0 0 0 0 695.05606667335405 199.67955599604295 0 199.67955599604295 104.78913309871859 0 0 0 0 657.33412360023067 248.81894149596337 0 248.81894149596337 173.36110600731809 0 0 0 0 663.96604871496675 137.17982964287876 0 137.17982964287876 176.93179794220669 0 0 0 0 692.20125999306083 26.834358917338577 0 26.834358917338577 263.26622667811534 0 0 0 0 502.09996756337932 69.969342120258261 0 69.969342120258261 161.31628268903842 0 0 0 0 568.01910577210947 301.10375666399068 0 301.10375666399068 5.0076075333963672 0 0 0 0 474.89287261719528 337.07066734238356 0 337.07066734238356 132.63322482446893 0 0 0 0 631.9479107808138 -73.344398453776819 0 -73.344398453776819 446.03457279551913 0 0 0 0 1012.92625706736 51.015502574015045 0 51.015502574015045 46.851650851738668 0 0 0 0 1062.2066350752893 -516.39793387809391 0 -516.39793387809391 233.23272724719936 0 0 0 0 753.32533239424811 -140.51688095609916 0 -140.51688095609916 -224.1505223382544 0 0 0 0 747.08319439099432 -51.907512261795091 0 -51.907512261795091 -98.953261305838168 0 0 0 0 0.81355209244510007 -0.76090528705810812 0 -0.76090528705810812 2.7781187689593807 0 0 0 0 431.75097280278715 -22.328185113773543 0 -22.328185113773543 393.47265479673115 0 0 0 0 415.58431057126472 14.258411695945597 0 14.258411695945597 54.617035342438612 0 0 0 0 44.123499575260212 -192.09819741731098 0 -192.09819741731098 447.28520448979361 0 0 0 0 94.649723592563532 189.92452776134905 0 189.92452776134905 304.08449869552169 0 0 0 0 449.77413008554868 170.73712387742944 0 170.73712387742944 -36.784968652051248 0 0 0 0 42.957951677009987 15.042065398072282 0 15.042065398072282 25.822484823926061 0 0 0 0 8.3966868733448337 -10.176265105935698 0 -10.176265105935698 11.181189218967972 0 0 0 0 388.87260870783939 194.79528174062762 0 194.79528174062762 42.751298903451243 0 0 0 0 379.01703615814768 211.24586348937373 0 211.24586348937373 135.03253776730162 0 0 0 0 267.09707430389244 212.84462579650699 0 212.84462579650699 211.21904251080196 0 0 0 0 269.31394239449764 202.00438275087276 0 202.00438275087276 57.394452128857665 0 0 0 0 235.97760120591556 137.39253336651382 0 137.39253336651382 130.61526248142854 0 0 0 0 387.86976330645848 149.61583990987447 0 149.61583990987447 -9.8279401506733848 0 0 0 0 1.1474713764237947 -0.22872321493210279 0 -0.22872321493210279 -0.90937198696767041 0 0 0 0 297.89328829073929 40.556864381618652 0 40.556864381618652 257.74083728566984 0 0 0 0 276.61455708002904 110.58139910677255 0 110.58139910677255 28.260595049057883 0 0 0 0 286.11434129529516 18.978065552086264 0 18.978065552086264 68.205736356878333 0 0 0 0 342.46498810056073 70.130028186052186 0 70.130028186052186 14.052761687886232 0 0 0 0 209.16256413367228 95.545168197385465 0 95.545168197385465 29.327494490219578 0 0 0 0 1.4547867161955992 -0.71654902761559924 0 -0.71654902761559924 -1.2140638113834328 0 0 0 0 371.47258675741614 97.461652965947451 0 97.461652965947451 -15.719678839486733 0 0 0 0 156.70210377707008 -39.295658235258088 0 -39.295658235258088 -21.022315452786643 0 0 0 0 232.73024830934446 85.462433298544966 0 85.462433298544966 63.008838893405482 0 0 0 0 254.39405305740365 67.180027080444688 0 67.180027080444688 -48.960142250240096 0 0 0 0 193.16928833670681 -58.987057630761228 0 -58.987057630761228 -136.87326100305381 0 0 0 0 165.84047210445715 41.096999512990806 0 41.096999512990806 16.717630531868053 0 0 0 0 -73.677646507989266 -67.068978712598437 0 -67.068978712598437 2.9987675458005469 0 0 0 0 34.778245035997315 -88.854771051113744 0 -88.854771051113744 -35.694442794347196 0 0 0 0 -108.7192174923257 -40.852994771749763 0 -40.852994771749763 -15.19015844500791 0 0 0 0 -70.656801889213966 -55.580026526311485 0 -55.580026526311485 -20.056683720904402 0 0 0 0 -368.662319465162 -61.026076712956637 0 -61.026076712956637 3.6894796231649707 0 0 0 0 -78.851129672781099 -213.2221565925156 0 -213.2221565925156 -153.45056542831844 0 0 0 0 -0.57714910408429176 -1.4556522399572316 0 -1.4556522399572316 -6.470231545347616 0 0 0 0 -125.22941118202289 120.03929225578577 0 120.03929225578577 210.17245180946338 0 0 0 0 -275.30238751955039 -215.02757328866392 0 -215.02757328866392 501.98581603851926 0 0 0 0 379.22913701103244 -11.830924816697006 0 -11.830924816697006 -231.87568560728323 0 0 0 0 266.67296292351966 144.02124120140024 0 144.02124120140024 100.39119606565146 0 0 0 0 252.4941537607956 186.84953777253941 0 186.84953777253941 57.49721897254858 0 0 0 0 306.96060840254358 173.46828769208969 0 173.46828769208969 31.157591029316791 0 0 0 0 0.92497806415420314 -0.14064268686988157 0 -0.14064268686988157 -0.553353888457778 0 0 0 0 283.195945133637 111.67028939577722 0 111.67028939577722 76.271666076077963 0 0 0 0 295.3117629192966 103.96221937197652 0 103.96221937197652 -106.07782337321987 0 0 0 0 212.21011415796238 106.10142056709446 0 106.10142056709446 73.597079571474751 0 0 0 0 304.6805587548879 81.381777082759072 0 81.381777082759072 16.435412533025556 0 0 0 0 400.22420878909179 107.22946742633576 0 107.22946742633576 22.192250467371196 0 0 0 0 331.79927861730539 90.362717974521729 0 90.362717974521729 76.04418799913401 0 0 0 0 292.28312996354362 180.48127313185887 0 180.48127313185887 101.47907113117253 0 0 0 0 286.10715310320666 32.042803557322259 0 32.042803557322259 223.40060507703311 0 0 0 0 205.30771987328626 182.09091670255475 0 182.09091670255475 56.910254056252597 0 0 0 0 374.98466618734528 6.5130316456597939 0 6.5130316456597939 42.241475054586772 0 0 0 0 468.87902306313481 162.30836357694534 0 162.30836357694534 118.05198798131823 0 0 0 0 362.77071029145736 125.36583712773427 0 125.36583712773427 70.114297881058519 0 0 0 0 363.52774578756544 96.901390980509689 0 96.901390980509689 227.73381631186203 0 0 0 0 782.14382721659786 8.7331985183554934 0 8.7331985183554934 130.90112400123508 0 0 0 0 1.3940777481153006 -1.4803688775389787 0 -1.4803688775389787 -0.2012509006519565 0 0 0 0 882.09645450828612 -281.10755984834077 0 -281.10755984834077 253.93343829881633 0 0 0 0 1391.0024729500292 129.23490569476053 0 129.23490569476053 -107.76010850669991 0 0 0 0 -197.64584451886185 -462.83185591831352 0 -462.83185591831352 537.28202579557546 0 0 0 0 336.8266115951119 -427.47960663876438 0 -427.47960663876438 -358.28966284471244 0 0 0 0 560.92323002511694 -81.277895175629965 0 -81.277895175629965 -171.91649918032635 0 0 0 0 311.68252524186391 -119.99265783650844 0 -119.99265783650844 -23.668138124687175 0 0 0 0 500.55911619973995 113.19584123679988 0 113.19584123679988 77.620799232259742 0 0 0 0 491.18475916812895 145.35493529491578 0 145.35493529491578 94.969334813729802 0 0 0 0 503.60115351711283 -57.249299515362509 0 -57.249299515362509 337.56026596741503 0 0 0 0 364.40936627142946 -16.17764916629676 0 -16.17764916629676 48.414485810069891 0 0 0 0 442.40766176259785 12.643356629288064 0 12.643356629288064 -23.297059531418199 0 0 0 0 412.4571368711695 -114.34389047444347 0 -114.34389047444347 -32.600974392022181 0 0 0 0 285.36254776857095 -89.399822192175634 0 -89.399822192175634 -20.442717225812885 0 0 0 0 267.78646463394398 -165.94641793119445 0 -165.94641793119445 -23.548591643437021 0 0 0 0 169.08851836508256 -198.52069755567936 0 -198.52069755567936 8.3685134302068036 0 0 0 0 319.69651263178093 -141.38786468078979 0 -141.38786468078979 -21.088145487489328 0 0 0 0 334.0631847195109 -357.51276073981808 0 -357.51276073981808 83.061915242120449 0 0 0 0 -181.48436939768658 119.08191567277558 0 119.08191567277558 102.04816576537269 0 0 0 0 1.3936086140594171 -1.7168273062676889 0 -1.7168273062676889 1.1087543014801042 0 0 0 0 37.884078177594347 -192.73310747655341 0 -192.73310747655341 294.40262331677332 0 0 0 0 29.083492412493797 -35.275423313918509 0 -35.275423313918509 -12.234519773657667 0 0 0 0 -0.79854993747916581 -5.5680221961934251 0 -5.5680221961934251 -19.166773256275391 0 0 0 0 0.29030571167822927 -15.488016516559583 0 -15.488016516559583 56.386483894333651 0 0 0 0 197.31048470025416 -111.49942306647608 0 -111.49942306647608 -3.5755069497508885 0 0 0 0 159.09702046291204 -101.84937842804175 0 -101.84937842804175 -6.0121037982316921 0 0 0 0 123.12959583154225 -19.5893170561028 0 -19.5893170561028 -116.71287220142403 0 0 0 0 273.19278167943412 -155.64386266661677 0 -155.64386266661677 -219.00094588413685 0 0 0 0 242.79149002801569 -358.43043160044544 0 -358.43043160044544 -97.469897273200331 0 0 0 0 220.42313574071159 -97.324573593396053 0 -97.324573593396053 133.69488817640013 0 0 0 0 32.54187626226269 6.8782110414873543 0 6.8782110414873543 0.36063471575410588 0 0 0 0 182.86373266999726 -343.42548113910925 0 -343.42548113910925 234.74003726395313 0 0 0 0 264.63780652941205 -65.900374096627274 0 -65.900374096627274 -60.724953683336935 0 0 0 0 253.83899211390235 -190.09615276669592 0 -190.09615276669592 -84.223606462699536 0 0 0 0 288.14769645989873 -144.01781221849706 0 -144.01781221849706 -96.02952329146683 0 0 0 0 279.63219439120076 -208.61128173855241 0 -208.61128173855241 -13.949168244496832 0 0 0 0 208.67035848302476 -111.07431009374886 0 -111.07431009374886 -71.081832110408868 0 0 0 0 305.04088539679651 -109.07520784980443 0 -109.07520784980443 -52.437857408742275 0 0 0 0 340.91471018191078 -12.356874808207067 0 -12.356874808207067 -27.742754085785236 0 0 0 0 278.48274945753656 28.95595612399552 0 28.95595612399552 -54.374707625087467 0 0 0 0 267.53100494168757 -0.79790515427339415 0 -0.79790515427339415 -140.84558499798004 0 0 0 0 279.28548460433376 -30.997223975371526 0 -30.997223975371526 -86.264995787285443 0 0 0 0 115.384491675155 -91.276393994750833 0 -91.276393994750833 -48.548503034777241 0 0 0 0 7.8940476212484185 -0.30574489912504532 0 -0.30574489912504532 -1.6896992463517861 0 0 0 0 24.129647812820622 -22.893426122027449 0 -22.893426122027449 -124.56113533154712 0 0 0 0 4.9247227708721084 -4.2313081549140747 0 -4.2313081549140747 -1.8055851953870317 0 0 0 0 169.79604501949507 -137.07226375643222 0 -137.07226375643222 69.780539116734417 0 0 0 0 130.78642199112801 -101.31175336118395 0 -101.31175336118395 63.314217861156521 0 0 0 0 106.60061852214858 -26.24822378353565 0 -26.24822378353565 4.1866241510483633 0 0 0 0 257.44618079214706 -91.886014626308679 0 -91.886014626308679 16.883836969565891 0 0 0 0 211.72837281602551 -3.3910016943664232 0 -3.3910016943664232 -15.059052617103589 0 0 0 0 215.22628778474973 8.1614640760953989 0 8.1614640760953989 -25.036950816549506 0 0 0 0 158.57451732037589 51.039558150492667 0 51.039558150492667 -48.270913018537613 0 0 0 0 135.43793934542919 4.8634583956172719 0 4.8634583956172719 -7.7562999927231431 0 0 0 0 192.30772505368805 56.898875158838564 0 56.898875158838564 -9.2378270493263699 0 0 0 0 279.57500270142918 19.926582873607913 0 19.926582873607913 -17.807124193030177 0 0 0 0 274.3865497599254 41.511000091822098 0 41.511000091822098 -35.583565214757982 0 0 0 0 233.1920690787083 102.48559110184215 0 102.48559110184215 73.708373999248579 0 0 0 0 -16.258279314133688 45.994670218451574 0 45.994670218451574 24.488656477989935 0 0 0 0 55.86709379778614 9.78411800495142 0 9.78411800495142 2.1054619113559436 0 0 0 0 58.481781240465352 -11.31948637068308 0 -11.31948637068308 14.560258536589572 0 0 0 0 110.92184168190579 41.404699302009249 0 41.404699302009249 -76.266812106459838 0 0 0 0 23.889845075166079 14.73755562773394 0 14.73755562773394 15.290671360907041 0 0 0 0 76.179168698741705 40.065023145314854 0 40.065023145314854 -63.303552177585516 0 0 0 0 135.95843657129444 56.659402535293339 0 56.659402535293339 -60.301006971198149 0 0 0 0 174.71769619763654 8.2251927935158164 0 8.2251927935158164 -41.75868058735432 0 0 0 0 114.99655380243348 10.797554652956023 0 10.797554652956023 -36.756549528956384 0 0 0 0 62.213190203008708 -49.174880467024195 0 -49.174880467024195 -9.4589810104989738 0 0 0 0 60.636382041702745 -40.042892797833701 0 -40.042892797833701 9.9267368174569128 0 0 0 0 74.710982539661927 38.596526427626486 0 38.596526427626486 -54.123444972195102 0 0 0 0 69.114446534193121 -41.868350464277682 0 -41.868350464277682 -34.169563284202013 0 0 0 0 43.068565085079172 9.868264853994333 0 9.868264853994333 43.348678815895255 0 0 0 0 51.275352207449032 0.84957641320215771 0 0.84957641320215771 0.14259044687787537 0 0 0 0 68.299979295348749 -27.688858432440611 0 -27.688858432440611 -43.030105283904959 0 0 0 0 52.544086022535339 -19.96756569608624 0 -19.96756569608624 -24.988126632051717 0 0 0 0 42.953788407303193 -2.4813792507330885 0 -2.4813792507330885 -1.7641884728088151 0 0 0 0 54.305794681189582 -3.7933297227882576 0 -3.7933297227882576 -7.1875518284723512 0 0 0 0 178.67142365335894 -97.466833214977669 0 -97.466833214977669 -37.370818174887972 0 0 0 0 -10.20842404885866 -15.430535185658215 0 -15.430535185658215 6.8487754915266379 0 0 0 0 -9.3022736905407584 -18.50015435190565 0 -18.50015435190565 -2.5945975072145018 0 0 0 0 54.097794590386911 -29.168062057384304 0 -29.168062057384304 -1.5252130389380909 0 0 0 0 65.067441498063999 -51.663432301260855 0 -51.663432301260855 12.64736872033609 0 0 0 0 104.54871941988677 7.3464287935707944 0 7.3464287935707944 -81.599614322360139 0 0 0 0 76.255151899837074 -101.51805021241125 0 -101.51805021241125 -3.1608294575780747 0 0 0 0 9.3406632466067094 -54.071473297492048 0 -54.071473297492048 17.879835280567931 0 0 0 0 -0.41171614566701464 36.54698169932874 0 36.54698169932874 -40.935820311868156 0 0 0 0 138.06222941365559 -16.24141638663059 0 -16.24141638663059 -24.733783051327919 0 0 0 0 138.06222941415035 -16.241416386928904 0 -16.241416386928904 -24.733783051342471 0 0 0 0 138.06222941420492 -16.241416386691526 0 -16.241416386691526 -24.733783051342471 0 0 0 0 69.182530055899406 -83.083997188950889 0 -83.083997188950889 71.083233013265271 0 0 0 0 76.897307910970994 -97.750826151790534 0 -97.750826151790534 -38.166450179283856 0 0 0 0 112.9247954247985 -1.7277219609859458 0 -1.7277219609859458 87.59952425314259 0 0 0 0 84.818036917647987 -91.269017261915906 0 -91.269017261915906 47.675172386938357 0 0 0 0 98.188331163895782 -101.80761441273353 0 -101.80761441273353 50.632113811147065 0 0 0 0 5.4110672838225184 -3.819231938922286 0 -3.819231938922286 4.6501585298683707 0 0 0 0 -13.3127447853185 -12.990615983921089 0 -12.990615983921089 178.14933424775518 0 0 0 0 121.77685887514963 -85.764029585701792 0 -85.764029585701792 217.34979900900362 0 0 0 0 -60.864805038196209 -197.40434750204849 0 -197.40434750204849 153.82132005610765 0 0 0 0 -94.50873246631636 87.086594192017401 0 87.086594192017401 266.79492147715791 0 0 0 0 45.809754874164355 -62.077177609586215 0 -62.077177609586215 115.53897638144554 0 0 0 0 -0.84367555203800748 -1.0059220570940397 0 -1.0059220570940397 1.9486777519296226 0 0 0 0 41.801397404269665 -1.6264467580494966 0 -1.6264467580494966 87.57319350659418 0 0 0 0 -0.94104079481536473 10.89821685184738 0 10.89821685184738 10.13760844348996 0 0 0 0 8.2360885425587185 46.967597810267762 0 46.967597810267762 55.405910638753994 0 0 0 0 59.167319315434725 -19.853066113584646 0 -19.853066113584646 26.830512470482063 0 0 0 0 35.30082406065776 -26.643322646486922 0 -26.643322646486922 5.9662019346324087 0 0 0 0 35.270501544669969 -18.904086500004269 0 -18.904086500004269 9.4338780418293027 0 0 0 0 21.524535715478123 3.5176887116012949 0 3.5176887116012949 19.984690610166581 0 0 0 0 39.800297201174544 -4.780949094787502 0 -4.780949094787502 36.582998075631622 0 0 0 0 24.176112686045258 17.310049839313876 0 17.310049839313876 15.893743402747489 0 0 0 0 49.866997779652593 -33.521263985231144 0 -33.521263985231144 47.209416905050603 0 0 0 0 13.461802407182404 11.948007537150261 0 11.948007537150261 33.058852689842752 0 0 0 0 34.654673620127141 7.6572162506354289 0 7.6572162506354289 26.258103211094749 0 0 0 0 35.628874597009599 14.932376029025939 0 14.932376029025939 7.76709797135765 0 0 0 0 35.176825472117343 5.0624499679588553 0 5.0624499679588553 12.529626813569848 0 0 0 0 28.9681524267653 11.498795327534026 0 11.498795327534026 13.594930786757686 0 0 0 0 44.218886410555569 -5.2367442786216998 0 -5.2367442786216998 9.4187508078994142 0 0 0 0 172.9383980086568 306.8589188090009 0 306.8589188090009 393.38352135400328 0 0 0 0 829.14914674750617 192.03645526178934 0 192.03645526178934 82.005635138944854 0 0 0 0 449.54307199976756 -332.99121551726648 0 -332.99121551726648 527.24549823034977 0 0 0 0 233.98924426849408 -64.538376961321774 0 -64.538376961321774 211.91667040122229 0 0 0 0 17.961359315114521 5.7305663082934473 0 5.7305663082934473 2.0343962120404591 0 0 0 0 69.930911185307195 60.587261748338278 0 60.587261748338278 -247.35681144435512 0 0 0 0 -37.484446298185503 -390.47249991488752 0 -390.47249991488752 560.70238194804369 0 0 0 0 46.338467904337449 -107.94693963318969 0 -107.94693963318969 -99.827215902274475 0 0 0 0 19.074446462611377 -51.877898076314523 0 -51.877898076314523 46.133024406826735 0 0 0 0 217.86827035513124 371.52002329135212 0 371.52002329135212 64.239146214762513 0 0 0 0 5.9447329044332946 2.4350791765638249 0 2.4350791765638249 1.5236190160801684 0 0 0 0 -85.750226396179642 72.357011675044305 0 72.357011675044305 63.041013240152097 0 0 0 0 391.17812821239204 253.49098224218278 0 253.49098224218278 -44.660996328391775 0 0 0 0 422.76565938754356 186.29094692940635 0 186.29094692940635 71.572414325077489 0 0 0 0 164.15322622068925 -35.938335548084069 0 -35.938335548084069 45.182754469446195 0 0 0 0 140.40413781601819 -6.3507754736419884 0 -6.3507754736419884 83.714679363496543 0 0 0 0 188.30236756578961 -91.085894804307827 0 -91.085894804307827 142.36122598127986 0 0 0 0 201.36826877231215 -61.060875095937263 0 -61.060875095937263 142.19789539368503 0 0 0 0 478.13690953870537 31.74573011157554 0 31.74573011157554 79.566790590866276 0 0 0 0 344.91058166901348 -67.484864196467242 0 -67.484864196467242 58.223903565352884 0 0 0 0 457.74120519288408 41.060141431174998 0 41.060141431174998 101.41534493462495 0 0 0 0 121.80177851789631 -91.489622921766568 0 -91.489622921766568 166.65298736173281 0 0 0 0 810.02405135853041 239.48821158063856 0 239.48821158063856 -47.482167885056697 0 0 0 0 498.58345559949521 -5.1570480364844116 0 -5.1570480364844116 37.536742350341228 0 0 0 0 829.01825134013779 105.0606647440145 0 105.0606647440145 71.478618302478935 0 0 0 0 1193.6339895033307 347.43546484948274 0 347.43546484948274 19.597637294918059 0 0 0 0 729.50524915175629 289.11769382057719 0 289.11769382057719 50.022795794102421 0 0 0 0 699.32701293900027 392.11679956931039 0 392.11679956931039 -41.876029834656947 0 0 0 0 823.65764512044552 -80.088408386316587 0 -80.088408386316587 21.97110847505337 0 0 0 0 209.90772502589971 -22.076018645824661 0 -22.076018645824661 31.833890128242274 0 0 0 0 5.8645609243606884 -2.5559743654620775 0 -2.5559743654620775 -0.32293217823280429 0 0 0 0 246.25417164626924 54.433118533665038 0 54.433118533665038 178.58371309620998 0 0 0 0 26.996564444038086 89.598180632918229 0 89.598180632918229 175.55013034957483 0 0 0 0 193.90738825096923 221.72850207776537 0 221.72850207776537 266.42075002444108 0 0 0 0 -88.171367625560379 -104.9898532511852 0 -104.9898532511852 241.47121124026626 0 0 0 0 -301.05839770549937 258.20477896786269 0 258.20477896786269 370.7818634967698 0 0 0 0 10.294176736981058 3.4743293365412455 0 3.4743293365412455 0.97511743696340147 0 0 0 0 1485.2193428058308 -386.98324986111038 0 -386.98324986111038 297.8153815983278 0 0 0 0 -1047.748000282365 28.677601672355195 0 28.677601672355195 -243.38074536706972 0 0 0 0 1845.8476863219257 -194.62002964736894 0 -194.62002964736894 -688.50033763643296 0 0 0 0 1451.0128153656115 31.2567393830941 0 31.2567393830941 -625.24917369520699 0 0 0 0 4.3982418678848205 -0.92518891300176165 0 -0.92518891300176165 -1.1238470448490645 0 0 0 0 412.27337111256202 468.5864552751973 0 468.5864552751973 421.19073329447019 0 0 0 0 7.1017171881314312 1.1994307902453443 0 1.1994307902453443 -1.1985420711003059 0 0 0 0 1795.0916686544078 162.73477275551704 0 162.73477275551704 15.87323948971607 0 0 0 0 188.10183249748297 246.60137457772498 0 246.60137457772498 160.57670881075683 0 0 0 0 2793.5657168414909 -695.14800799541263 0 -695.14800799541263 -459.99434626569564 0 0 0 0 1105.4457995748817 -192.89855179557162 0 -192.89855179557162 152.68998560812179 0 0 0 0 483.1792441453872 -150.92866833105472 0 -150.92866833105472 350.72998043090774 0 0 0 0 849.90304937847577 -239.54671600129814 0 -239.54671600129814 358.60050037766632 0 0 0 0 390.16205233513028 -338.0824538318011 0 -338.0824538318011 683.81873028856353 0 0 0 0 1938.1630676662317 -300.20645622093798 0 -300.20645622093798 214.40255243243519 0 0 0 0 853.08915238709596 -274.58547089386275 0 -274.58547089386275 373.71150104662229 0 0 0 0 256.60368850776285 -113.16609000337849 0 -113.16609000337849 41.973330345406794 0 0 0 0 -187.1909082964994 -121.53096059156087 0 -121.53096059156087 555.86975820123189 0 0 0 0 2.0593180033315548 0.73963080773816259 0 0.73963080773816259 0.52296855848728185 0 0 0 0 443.41923585071345 204.1006701125516 0 204.1006701125516 188.53809613361955 0 0 0 0 52.139526591083268 277.68292966187073 0 277.68292966187073 439.95613773276273 0 0 0 0 44.126126331175328 10.066031856844347 0 10.066031856844347 -174.84265178704663 0 0 0 0 -52.572064758140186 547.38629338096871 0 547.38629338096871 -99.867731598704268 0 0 0 0 69.99588606070435 60.584154674504475 0 60.584154674504475 42.437688190793054 0 0 0 0 -38.452609382278752 247.94087647152992 0 247.94087647152992 77.210741348639203 0 0 0 0 -145.64358623474254 366.06254824477764 0 366.06254824477764 -320.33999294484238 0 0 0 0 -339.37984344997676 310.49269845089111 0 310.49269845089111 383.54911354823707 0 0 0 0 26.894614710570011 11.344501529800425 0 11.344501529800425 -15.585589704091859 0 0 0 0 425.93598260189174 -80.662215236778138 0 -80.662215236778138 -80.001198271485919 0 0 0 0 488.31601831427542 -711.88232589862309 0 -711.88232589862309 773.94350902603765 0 0 0 0 196.38288974625175 93.684548404467932 0 93.684548404467932 285.69330725786131 0 0 0 0 -89.184504500502953 -225.39263910273075 0 -225.39263910273075 -11.866349383461056 0 0 0 0 127.6810724743118 -296.5086934173687 0 -296.5086934173687 -235.94035485223867 0 0 0 0 -359.23996814474231 488.40760811874497 0 488.40760811874497 -724.09310664158693 0 0 0 0 -988.71600985701662 747.30811580170848 0 747.30811580170848 -382.49567491705238 0 0 0 0 -681.35357931646286 109.87799026608991 0 109.87799026608991 -350.05197038799088 0 0 0 0 1163.5884737643064 -219.58748169787577 0 -219.58748169787577 -441.97329973115484 0 0 0 0 468.0478095804574 -200.05242486382122 0 -200.05242486382122 -413.75427220768324 0 0 0 0 -680.45536809240002 300.52356090287321 0 300.52356090287321 3.4199877601422486 0 0 0 0 -835.82144070089271 -459.02884535334215 0 -459.02884535334215 366.52925584799232 0 0 0 0 51.971385362754063 66.173386147132447 0 66.173386147132447 47.802159739324807 0 0 0 0 541.838304164703 -669.41083753553539 0 -669.41083753553539 -182.25105373609404 0 0 0 0 -436.79800226980296 776.17356949495934 0 776.17356949495934 275.13522258299781 0 0 0 0 -1191.4626484776381 734.96682414756651 0 734.96682414756651 -323.65761852293508 0 0 0 0 -612.6814001298626 240.36253454288817 0 240.36253454288817 -153.95342111203354 0 0 0 0 -30.098560446157052 2.6929162112395773 0 2.6929162112395773 23.150655944267974 0 0 0 0 37.732190601338516 45.62167778849971 0 45.62167778849971 1.9917917439343 0 0 0 0 45.971237493795343 152.37783888363265 0 152.37783888363265 -13.798320809011784 0 0 0 0 -22.475273460615426 66.249452100771123 0 66.249452100771123 47.954149058830808 0 0 0 0 97.916366014746018 89.902028152453568 0 89.902028152453568 26.06389289922663 0 0 0 0 73.647889278305229 91.722968229339813 0 91.722968229339813 14.598122801964109 0 0 0 0 68.396957835211651 51.128067434151944 0 51.128067434151944 16.130842985305208 0 0 0 0 34.867296316544525 88.81167762109817 0 88.81167762109817 25.34472405167071 0 0 0 0 35.17712031758856 66.954628135629719 0 66.954628135629719 31.835084587205074 0 0 0 0 -33.856130557847791 108.88856576228449 0 108.88856576228449 39.419749155347745 0 0 0 0 23.460133809043327 94.624923096930615 0 94.624923096930615 7.8869984381590257 0 0 0 0 -88.053094369672181 -174.208833105552 0 -174.208833105552 2016.604275976315 0 0 0 0 2063.0562971062245 -130.31608590052747 0 -130.31608590052747 -607.24990014413015 0 0 0 0 27.346939996097092 0.093536510176130516 0 0.093536510176130516 -1.0020980193047109 0 0 0 0 355.51496576015779 -537.14911652336014 0 -537.14911652336014 32.079484957677778 0 0 0 0 1065.8938636442144 -1117.5773146922206 0 -1117.5773146922206 485.27087960712925 0 0 0 0 -124.77800054402906 -28.640653933949579 0 -28.640653933949579 239.7903337332973 0 0 0 0 1302.1891455976438 522.40015650622081 0 522.40015650622081 -176.05371811384975 0 0 0 0 2220.9117623687489 208.98088664959869 0 208.98088664959869 -547.17932096643835 0 0 0 0 1768.9973570615111 -0.17929456648198538 0 -0.17929456648198538 -453.99085389439279 0 0 0 0 1383.173370382734 -490.57199331912852 0 -490.57199331912852 -548.1807202871787 0 0 0 0 2323.7963867503277 -347.14980327294325 0 -347.14980327294325 -706.67599197350864 0 0 0 0 30.118208950327244 15.407018693061218 0 15.407018693061218 -7.8234515985367352 0 0 0 0 27.911813619444729 13.303073340073752 0 13.303073340073752 1.6006309520180366 0 0 0 0 25.838975711420062 13.281194416343624 0 13.281194416343624 14.903542270449179 0 0 0 0 40.904084185458487 6.5504921663205096 0 6.5504921663205096 1.0479319971533698 0 0 0 0 54.229884049942484 19.379109767745149 0 19.379109767745149 13.146379509720646 0 0 0 0 19.88910300751013 5.056497948182141 0 5.056497948182141 1.0011132449544675 0 0 0 0 23.342373697290896 10.640493839707233 0 10.640493839707233 -12.554659914919284 0 0 0 0 213.74395053894841 -62.8814822643144 0 -62.8814822643144 -35.581374413435469 0 0 0 0 1.6606660435555227 -1.8391591882319887 0 -1.8391591882319887 1.8637215470874438 0 0 0 0 29.973678231486701 -73.393117539436616 0 -73.393117539436616 19.158347680489896 0 0 0 0 148.74574054091499 105.55347749214752 0 105.55347749214752 -135.35122803172635 0 0 0 0 68.061037328792736 7.9365781102255823 0 7.9365781102255823 -57.950412393816805 0 0 0 0 -97.75229303141532 191.77886063899314 0 191.77886063899314 86.338932868826305 0 0 0 0 66.84998602417761 43.82544686041561 0 43.82544686041561 27.932472481711436 0 0 0 0 -129.74609030978172 -268.24494720818984 0 -268.24494720818984 204.08367333369097 0 0 0 0 -110.48096890034503 149.9325485866857 0 149.9325485866857 262.45469614931881 0 0 0 0 318.40411884713103 52.895191465694552 0 52.895191465694552 -153.84692154014965 0 0 0 0 51.50799423456192 19.304753918477218 0 19.304753918477218 223.07146039280042 0 0 0 0 290.19831206230447 9.9410476133830343 0 9.9410476133830343 65.577243053441634 0 0 0 0 95.100188821495976 66.90217356721223 0 66.90217356721223 56.790254285185256 0 0 0 0 156.03804880648386 33.25331098658171 0 33.25331098658171 38.942420393379962 0 0 0 0 96.336746553977719 81.765570658071283 0 81.765570658071283 24.81942222152793 0 0 0 0 135.76215726273949 59.368508169739926 0 59.368508169739926 7.6775190891455622 0 0 0 0 137.67231698348769 77.582226541294403 0 77.582226541294403 4.4835074322204491 0 0 0 0 191.16020911319356 96.470821319820061 0 96.470821319820061 -14.014728693093275 0 0 0 0 239.40032103579142 67.522232872739551 0 67.522232872739551 -0.53533613616673392 0 0 0 0 122.31513849637122 74.378638555368525 0 74.378638555368525 44.209246902963059 0 0 0 0 190.32774913878529 97.989010775850147 0 97.989010775850147 -7.5462150149846821 0 0 0 0 231.90557602907575 123.40623797774998 0 123.40623797774998 12.635350452672355 0 0 0 0 188.3664944897173 95.958084522034824 0 95.958084522034824 -2.1649816807225761 0 0 0 0 153.86410117184278 114.74494534372388 0 114.74494534372388 95.607476413909808 0 0 0 0 319.23911294009213 231.74697917823121 0 231.74697917823121 145.08302169331455 0 0 0 0 22.82715970055142 -9.1582607098521294 0 -9.1582607098521294 -35.55264585189434 0 0 0 0 6.334663018827257 -4.5127048791012214 0 -4.5127048791012214 2.9318165904743392 0 0 0 0 123.8434058876046 66.472709093839285 0 66.472709093839285 37.691536405814077 0 0 0 0 73.042863331356784 41.847760779749933 0 41.847760779749933 26.866216323211574 0 0 0 0 48.003168127193931 -8.2785536551707537 0 -8.2785536551707537 11.130104617684992 0 0 0 0 12.584739449165454 -4.5557174580405189 0 -4.5557174580405189 5.2345051669931859 0 0 0 0 37.053564766421914 3.8804910133694648 0 3.8804910133694648 15.154103593865102 0 0 0 0 14.674137465335662 1.1056182990773777 0 1.1056182990773777 -6.1021499538610442 0 0 0 0 11.133616398699814 31.693540707386656 0 31.693540707386656 24.785536849670024 0 0 0 0 15.099435364536475 -32.365853856718466 0 -32.365853856718466 16.142952191236876 0 0 0 0 1.6730669158375235 0.45349369372721071 0 0.45349369372721071 -1.2666815438297174 0 0 0 0 -36.660377500287723 -175.40459054552662 0 -175.40459054552662 60.022950449882956 0 0 0 0 238.85009815735975 -19.8345043505999 0 -19.8345043505999 -4.120898594973589 0 0 0 0 48.641238157348198 1.576870592041467 0 1.576870592041467 -11.688133436610656 0 0 0 0 121.89085622434504 -8.4568477305801935 0 -8.4568477305801935 46.404470612164005 0 0 0 0 38.517140279494924 17.288610244950178 0 17.288610244950178 12.304889254236514 0 0 0 0 8.6726032280401171 7.834264235711629 0 7.834264235711629 6.4827558531948322 0 0 0 0 -1.0505615633896923 0.13835417834354757 0 0.13835417834354757 1.1870992331219519 0 0 0 0 41.840969656681409 -9.6482545461990412 0 -9.6482545461990412 1.6715628999199907 0 0 0 0 108.98380614080816 4.2218766333144231 0 4.2218766333144231 4.4666080508386585 0 0 0 0 55.065009143872885 10.500285176221269 0 10.500285176221269 21.974566257119477 0 0 0 0 40.716868940002314 -8.7554350026795191 0 -8.7554350026795191 18.660126229353409 0 0 0 0 117.39961982311797 -30.434528749081437 0 -30.434528749081437 -4.4253951617392886 0 0 0 0 211.14034276141319 5.625572069629925 0 5.625572069629925 -24.831732280490542 0 0 0 0 107.64160284859099 16.727231744473841 0 16.727231744473841 -13.593749536995347 0 0 0 0 171.07951587019488 48.362889714462654 0 48.362889714462654 -7.178744310343518 0 0 0 0 175.53688573594263 47.189544732210152 0 47.189544732210152 -24.488178339650403 0 0 0 0 236.32865668899103 40.384125003510547 0 40.384125003510547 -22.960056376899956 0 0 0 0 203.22698871654575 54.119051974988452 0 54.119051974988452 -23.023721535949676 0 0 0 0 261.36737349984469 44.558702688793346 0 44.558702688793346 -22.283419574823483 0 0 0 0 213.09847674057528 16.767548768882989 0 16.767548768882989 23.164324145117462 0 0 0 0 271.37259509577416 -31.478286488721324 0 -31.478286488721324 57.129205493647532 0 0 0 0 283.31820981489727 28.275639167252166 0 28.275639167252166 -23.627684208350274 0 0 0 0 254.57448474937701 46.676688468753582 0 46.676688468753582 -15.016880356971342 0 0 0 0 238.68801307230024 122.31114462559299 0 122.31114462559299 -27.041461878731809 0 0 0 0 239.50651543842105 127.52911786897596 0 127.52911786897596 -29.976565030411621 0 0 0 0 288.74259122008516 73.022853231313547 0 73.022853231313547 -32.593688062534056 0 0 0 0 230.56536021409011 89.769177480277989 0 89.769177480277989 -36.806199571014076 0 0 0 0 208.08619234943762 88.945254399388659 0 88.945254399388659 -30.408569952232938 0 0 0 0 194.78930753331952 83.923709183786855 0 83.923709183786855 -16.606472327563097 0 0 0 0 196.63265527030308 119.06098594088809 0 119.06098594088809 -24.87244683153267 0 0 0 0 152.18455583399918 89.239209662836629 0 89.239209662836629 -14.686160852442299 0 0 0 0 129.87424840350286 120.5352761939173 0 120.5352761939173 6.1563976230827393 0 0 0 0 96.533988165538176 112.24681948704199 0 112.24681948704199 6.7281585659829943 0 0 0 0 144.39617051140522 160.96670061352097 0 160.96670061352097 -12.375005389760645 0 0 0 0 213.90863067135797 109.59526769443755 0 109.59526769443755 -24.469505779148278 0 0 0 0 248.44812274325523 166.70365761278367 0 166.70365761278367 -13.180422474364775 0 0 0 0 89.36150283383904 237.36078300471888 0 237.36078300471888 34.75321667557273 0 0 0 0 223.09320319278049 214.28409845214628 0 214.28409845214628 -70.760738429679691 0 0 0 0 271.44252672257426 303.21673117143035 0 303.21673117143035 -17.588742702674494 0 0 0 0 43.845080480532488 217.33633230523765 0 217.33633230523765 34.316655017983521 0 0 0 0 249.94183349773812 275.30229097331835 0 275.30229097331835 0.36121770049568824 0 0 0 0 57.155408065998927 329.90838524056062 0 329.90838524056062 -96.172158701843387 0 0 0 0 -133.60239644770627 32.913400239606503 0 32.913400239606503 -113.96519865227906 0 0 0 0 711.92854438006179 220.34481754022769 0 220.34481754022769 -102.83316860980567 0 0 0 0 1038.6954632065026 -200.88030762564134 0 -200.88030762564134 -70.74588827276466 0 0 0 0 391.46405616085394 -75.919705668435597 0 -75.919705668435597 49.913883962714522 0 0 0 0 647.6333586404071 80.66696371582276 0 80.66696371582276 -74.619970215095691 0 0 0 0 355.51179848209722 131.66602380212703 0 131.66602380212703 -77.748902191464595 0 0 0 0 376.18952224909299 -27.19529614608237 0 -27.19529614608237 9.4283456646248851 0 0 0 0 328.85886250477051 0.76104152284665361 0 0.76104152284665361 60.844868271292626 0 0 0 0 5.5318152091273589 5.1761595586097542 0 5.1761595586097542 3.8035822542043793 0 0 0 0 288.30666869191919 -33.47594891678591 0 -33.47594891678591 32.492502535000312 0 0 0 0 292.17102398074348 -41.565280257808354 0 -41.565280257808354 48.135111825926174 0 0 0 0 3.1377445969401379 1.7305681747342589 0 1.7305681747342589 0.79513741585103059 0 0 0 0 16.598029707369278 -0.27985180254075398 0 -0.27985180254075398 0.015230115001123288 0 0 0 0 32.89445519450237 -22.001795612689875 0 -22.001795612689875 10.365026585057784 0 0 0 0 82.789119561326515 -20.181929636795338 0 -20.181929636795338 -0.30279899511129749 0 0 0 0 44.672013853254612 -4.0206726721574446 0 -4.0206726721574446 0.018017288972273417 0 0 0 0 4.9300968463649042 6.9677468958936206 0 6.9677468958936206 14.824513498069923 0 0 0 0 29.220928287308197 -16.191928377059586 0 -16.191928377059586 20.569651838941024 0 0 0 0 33.540712948917644 -6.8312376828771795 0 -6.8312376828771795 -2.4104152459681569 0 0 0 0 62.197300025387449 -11.272932878114998 0 -11.272932878114998 6.7879145340643294 0 0 0 0 433.35858428059146 -224.68755984829068 0 -224.68755984829068 -28.674562884142688 0 0 0 0 546.87054385783995 -586.98197284319451 0 -586.98197284319451 552.87719707754331 0 0 0 0 691.22801963062375 -668.43399053590019 0 -668.43399053590019 -20.853274521188723 0 0 0 0 383.91342418789282 140.60720967451562 0 140.60720967451562 -305.79763751615064 0 0 0 0 41.887773062326829 58.921057699519196 0 58.921057699519196 26.036778482643491 0 0 0 0 926.93441670339962 -444.79710565044934 0 -444.79710565044934 18.013582984962568 0 0 0 0 -6.3423764174804091 72.18501463987127 0 72.18501463987127 27.938753274804753 0 0 0 0 -27.991276675158588 102.79085291721617 0 102.79085291721617 24.663035991688048 0 0 0 0 71.420214081095764 78.433144913409251 0 78.433144913409251 12.991969626046739 0 0 0 0 34.344488078844734 107.03120178126289 0 107.03120178126289 31.720146935972025 0 0 0 0 51.588406226335792 131.61479637362413 0 131.61479637362413 53.212530175272605 0 0 0 0 5.3849532116000773 77.752987760936207 0 77.752987760936207 25.900841780200608 0 0 0 0 -4.3197729568346404 119.30177455918579 0 119.30177455918579 51.234587795950063 0 0 0 0 -2.4997279397794046 73.726263556812114 0 73.726263556812114 53.21499203233725 0 0 0 0 -5.5469910982646979 59.280790685047464 0 59.280790685047464 -4.1969312896949305 0 0 0 0 3.0456057896371931 12.65426348581849 0 12.65426348581849 50.613062210325495 0 0 0 0 -57.648729292006465 41.855732929643978 0 41.855732929643978 37.244930220440665 0 0 0 0 -27.042156564129982 109.27405871180588 0 109.27405871180588 94.299718782747277 0 0 0 0 -259.9615979254886 113.03724774665204 0 113.03724774665204 101.11004870585779 0 0 0 0 -117.58013310866954 333.37152917485702 0 333.37152917485702 9.3370611252346407 0 0 0 0 -108.0221063199715 9.3230239170601692 0 9.3230239170601692 107.52350666924133 0 0 0 0 -3.2357441837319243 -1.2243905234860684 0 -1.2243905234860684 0.30782049501915903 0 0 0 0 -261.04540674714008 197.20457645372352 0 197.20457645372352 -0.29214093335331559 0 0 0 0 0.56357461356674321 45.447292935347605 0 45.447292935347605 -165.77141307606414 0 0 0 0 2.5108303734887158 13.426984819172345 0 13.426984819172345 0.026853308286582209 0 0 0 0 27.918078532748041 6.6684541169430913 0 6.6684541169430913 -14.166888638638705 0 0 0 0 -5.8161251314104447 7.3354289903085146 0 7.3354289903085146 -0.51794362617655421 0 0 0 0 -26.286465188590228 30.183382092385404 0 30.183382092385404 -7.6341491099942438 0 0 0 0 5.8489906354516279 22.177896714399726 0 22.177896714399726 -20.817084323700371 0 0 0 0 44.204784812832344 42.685008933630257 0 42.685008933630257 -4.0293539273796402 0 0 0 0 4.8039451312229176 58.315497446450159 0 58.315497446450159 23.052045344775706 0 0 0 0 171.29439735534106 -84.104897882578939 0 -84.104897882578939 246.86453744382743 0 0 0 0 -28.074132856345386 55.646913114279215 0 55.646913114279215 31.574774805635457 0 0 0 0 325.49975533271208 -197.06223158876958 0 -197.06223158876958 56.78859470578891 0 0 0 0 59.096347943005753 -8.5098347950988469 0 -8.5098347950988469 -2.8135113930862317 0 0 0 0 256.61662542104023 -95.410899688236441 0 -95.410899688236441 351.26046452183618 0 0 0 0 -142.31757616385585 -35.621402467226233 0 -35.621402467226233 22.373189712097528 0 0 0 0 9.4702640749168552 -1.303692079779438 0 -1.303692079779438 -1.4536317818403293 0 0 0 0 29.990374367858749 -124.27301882808581 0 -124.27301882808581 -134.738715252058 0 0 0 0 55.102634140406735 -205.89879344221421 0 -205.89879344221421 1.207452277524468 0 0 0 0 1152.245338787965 -34.744001083464916 0 -34.744001083464916 -0.60257746255062539 0 0 0 0 79.196354152656568 136.44346792255254 0 136.44346792255254 210.96902558670226 0 0 0 0 -111.37339248487842 -119.64581239046322 0 -119.64581239046322 195.48068854888606 0 0 0 0 2304.2210953318572 65.742727305358244 0 65.742727305358244 -340.8981443680874 0 0 0 0 1731.7384529453411 -1037.4628834183372 0 -1037.4628834183372 348.17432812270755 0 0 0 0 3850.9772745588998 -756.12725158598619 0 -756.12725158598619 -1506.8350941448039 0 0 0 0 19.812684005091114 -8.3521927132062075 0 -8.3521927132062075 2.9735750883215326 0 0 0 0 1242.5651285117638 616.46761468386615 0 616.46761468386615 143.9808261991916 0 0 0 0 -113.20102471181599 -741.48693862970595 0 -741.48693862970595 1614.3818663724237 0 0 0 0 234.22130906218081 -639.49127675978093 0 -639.49127675978093 1090.2450087067796 0 0 0 0 -13.852342075304477 -68.915747268795599 0 -68.915747268795599 279.64475300321169 0 0 0 0 207.28993496493786 -58.159522304636468 0 -58.159522304636468 0.49969573396518968 0 0 0 0 -195.66231888091716 506.28120596910543 0 506.28120596910543 -310.60687375014606 0 0 0 0 -657.06026469107019 -348.6065083043776 0 -348.6065083043776 896.87860198279895 0 0 0 0 -256.09993003577983 356.50126539511001 0 356.50126539511001 142.43417882935779 0 0 0 0 -42.323707727686269 83.804035356469001 0 83.804035356469001 -223.22871074375524 0 0 0 0 -92.91737674747128 277.04481606219542 0 277.04481606219542 400.7157855174064 0 0 0 0 -13.507538281510961 7.3963054381817344 0 7.3963054381817344 -3.5340296244968679 0 0 0 0 24.855824304468115 198.22034008708317 0 198.22034008708317 -643.97598218678559 0 0 0 0 108.08540435113537 149.37660378527153 0 149.37660378527153 108.14629020636494 0 0 0 0 120.27078740148863 384.04139292364562 0 384.04139292364562 -474.15485307804647 0 0 0 0 -195.80952297622571 356.35871337890967 0 356.35871337890967 117.09222072594798 0 0 0 0 47.783462628009147 -6.8333525515372457 0 -6.8333525515372457 -30.073065165964181 0 0 0 0 619.89248904716806 -199.39442334404521 0 -199.39442334404521 93.377441075469278 0 0 0 0 798.84654065629002 -551.76059084262261 0 -551.76059084262261 225.7366291070777 0 0 0 0 1301.0820023751148 -1086.4337744315962 0 -1086.4337744315962 515.48641311895881 0 0 0 0 2056.3361027475257 -19.427654577564226 0 -19.427654577564226 114.66179793923584 0 0 0 0 -2.0703969396062121 -0.35088456772226095 0 -0.35088456772226095 0.16196902383291167 0 0 0 0 101.39987410107278 255.67206064686889 0 255.67206064686889 676.41128178022791 0 0 0 0 821.09810073339031 671.28064908013766 0 671.28064908013766 904.05482393267039 0 0 0 0 947.99535808092332 128.03543946854916 0 128.03543946854916 -125.37865808173046 0 0 0 0 149.80442001108895 -222.16445532527996 0 -222.16445532527996 -516.37124119908549 0 0 0 0 415.86069098371081 100.19105923958705 0 100.19105923958705 -126.46006919958836 0 0 0 0 755.74744979392563 -121.76747999167492 0 -121.76747999167492 -552.39031245647857 0 0 0 0 362.21731451014057 -292.55977686408096 0 -292.55977686408096 -58.620534533802129 0 0 0 0 970.37891985010356 -300.19234070780294 0 -300.19234070780294 -129.22303730832755 0 0 0 0 595.80011446363642 -639.5815944377955 0 -639.5815944377955 216.77079491255085 0 0 0 0 108.45163100361242 -17.429638669045744 0 -17.429638669045744 -234.86130471829529 0 0 0 0 369.1933827897883 182.90259328754291 0 182.90259328754291 -575.52140101938653 0 0 0 0 -86.827723899725243 -253.56751010522567 0 -253.56751010522567 -40.910351822348275 0 0 0 0 28.169925555204145 9.7203173939203751 0 9.7203173939203751 0.60766667825351561 0 0 0 0 -250.30008981436549 803.90583227918478 0 803.90583227918478 -817.67475020351412 0 0 0 0 22.651124834141228 671.76398175090071 0 671.76398175090071 -903.58365292032067 0 0 0 0 -90.868507633189438 -188.88660556312243 0 -188.88660556312243 124.27078656778394 0 0 0 0 -194.20655547574279 466.78820599280152 0 466.78820599280152 -629.98173865712852 0 0 0 0 -420.59033277665731 441.30137786082923 0 441.30137786082923 -1513.3242820071755 0 0 0 0 162.87899506578106 191.05576308303171 0 191.05576308303171 9.6696466946541477 0 0 0 0 579.84231624417589 80.958788372123308 0 80.958788372123308 -846.49721642971599 0 0 0 0 117.9676003176719 1.5181498390647903 0 1.5181498390647903 -261.36678684938397 0 0 0 0 68.229052430038053 6.1435277010166995 0 6.1435277010166995 -1.1419932972506928 0 0 0 0 38.120985005718012 15.920260371518864 0 15.920260371518864 0.20818023035369748 0 0 0 0 -245.92335497543081 999.58508311437686 0 999.58508311437686 -1226.388982954224 0 0 0 0 24.915466818463756 -161.22867628299537 0 -161.22867628299537 15.880357426127375 0 0 0 0 42.754101609956706 -27.094127952776034 0 -27.094127952776034 190.69056048436323 0 0 0 0 85.474124860252175 20.626048872950392 0 20.626048872950392 1.2096016822019671 0 0 0 0 118.58556443019188 30.359639363807219 0 30.359639363807219 -120.71993376054343 0 0 0 0 -105.27244723522745 441.50016896652778 0 441.50016896652778 -866.94612170629262 0 0 0 0 -243.45497527869884 569.16117242976907 0 569.16117242976907 -404.2911285978189 0 0 0 0 -76.525460782431765 490.95356824988448 0 490.95356824988448 -929.44302321457508 0 0 0 0 65.735107664731856 4.5103654910157189 0 4.5103654910157189 -8.4904589693414607 0 0 0 0 -5.4156564738589736 4.6432241370175618 0 4.6432241370175618 -1.5353564397191519 0 0 0 0 -312.15388798774256 494.96934203893829 0 494.96934203893829 -1411.730466200559 0 0 0 0 -142.4457641763729 783.66508273093859 0 783.66508273093859 -1014.5071576272749 0 0 0 0 -95.715301115706097 510.81925180416147 0 510.81925180416147 -1136.0127650477698 0 0 0 0 -255.60007446953387 678.98103210874069 0 678.98103210874069 -857.38050917945657 0 0 0 0 -4.4445077605778351 549.46247052173567 0 549.46247052173567 -876.08797037921704 0 0 0 0 -123.93366567174962 388.63691252859098 0 388.63691252859098 -348.96582665460301 0 0 0 0 11.033980242209509 655.67780450646205 0 655.67780450646205 -647.03307958472578 0 0 0 0 -66.426318529556738 388.67573479583734 0 388.67573479583734 -786.66848877522989 0 0 0 0 -243.83422619837802 432.95021581045876 0 432.95021581045876 -448.71406663359812 0 0 0 0 -115.91596376018424 643.38539664879499 0 643.38539664879499 -760.2794759239041 0 0 0 0 -188.26269039756153 425.16926740390227 0 425.16926740390227 -887.08958455929678 0 0 0 0 -110.30734725965885 197.67630934589397 0 197.67630934589397 -464.29784099315634 0 0 0 0 32.065918048610911 344.63887891215563 0 344.63887891215563 -408.08274021731995 0 0 0 0 -596.66149350404157 492.18709430818126 0 492.18709430818126 -781.53350775098806 0 0 0 0 -474.50862620526459 379.75220885535236 0 379.75220885535236 -861.26927991184129 0 0 0 0 -265.19031920901034 415.38198527144414 0 415.38198527144414 -1163.4501356386463 0 0 0 0 -519.3136382351513 279.36322541730078 0 279.36322541730078 -1065.0897706813703 0 0 0 0 39.505476974978876 10.701457287689855 0 10.701457287689855 -2.6263462816772574 0 0 0 0 -347.15005457709776 280.58287043637392 0 280.58287043637392 -1265.1004472010391 0 0 0 0 -164.78659612301271 488.74328522793076 0 488.74328522793076 -1367.7798325779804 0 0 0 0 -233.46806811052375 643.78589411824942 0 643.78589411824942 -1212.9836355658772 0 0 0 0 -457.8120381210465 505.77354027280307 0 505.77354027280307 -813.72834930693352 0 0 0 0 -245.06944253505208 441.84495544200763 0 441.84495544200763 -906.78597709740279 0 0 0 0 -289.11039113275183 419.28985852296501 0 419.28985852296501 -914.53798321245995 0 0 0 0 -123.53727903956315 372.39603857395196 0 372.39603857395196 -508.98507607223655 0 0 0 0 -305.05968615561142 337.33523028040145 0 337.33523028040145 -511.06900186305575 0 0 0 0 -178.15072255634004 345.5956578891055 0 345.5956578891055 -574.86391188348307 0 0 0 0 -378.17320660920814 423.4297088311796 0 423.4297088311796 -582.9599450316091 0 0 0 0 -320.09282496763626 404.94043564797175 0 404.94043564797175 -857.58957808923333 0 0 0 0 -429.57274535804754 626.57228564355319 0 626.57228564355319 -681.48458477154782 0 0 0 0 -76.301783826565952 406.7011381338225 0 406.7011381338225 -350.02660980578366 0 0 0 0 -349.61356407677522 430.82367036635151 0 430.82367036635151 -333.310039694843 0 0 0 0 -214.22150949562638 163.92564529652282 0 163.92564529652282 -89.712129552121041 0 0 0 0 -289.84416515039629 375.72780417131071 0 375.72780417131071 -202.32529783390783 0 0 0 0 -52.522905948921107 282.06135015242216 0 282.06135015242216 -18.471578961112755 0 0 0 0 64.460298588775913 108.67564192796999 0 108.67564192796999 -19.684160063570744 0 0 0 0 -197.46061369714153 273.78984304287405 0 273.78984304287405 21.888672809018317 0 0 0 0 -122.1836847053346 70.408057160419048 0 70.408057160419048 421.78233191396066 0 0 0 0 170.66588370827958 -17.486694110239114 0 -17.486694110239114 409.60422713537992 0 0 0 0 148.2368079151347 -33.78527881222908 0 -33.78527881222908 406.47096433669094 0 0 0 0 -194.38196027834783 298.28161717435796 0 298.28161717435796 896.37479401855671 0 0 0 0 -159.78249031748419 117.33889507467347 0 117.33889507467347 443.62523167284235 0 0 0 0 144.56304694818391 288.97772234311378 0 288.97772234311378 479.68919695179648 0 0 0 0 30.403841944877058 -86.81298450216309 0 -86.81298450216309 521.9803308159444 0 0 0 0 303.9380337738985 390.1070949611003 0 390.1070949611003 -215.00630868781445 0 0 0 0 10.110077373285549 2.0980240117898745 0 2.0980240117898745 -1.8730116981398979 0 0 0 0 851.50980743262335 -114.06890852885044 0 -114.06890852885044 -164.92118487196058 0 0 0 0 -101.70423819415737 597.81837786411052 0 597.81837786411052 -197.38759754689454 0 0 0 0 -255.79048392713594 587.55180225861113 0 587.55180225861113 -194.33096404337539 0 0 0 0 -223.47274900559569 452.29588834144306 0 452.29588834144306 -169.85325848739012 0 0 0 0 -201.77520117972745 367.30978315467109 0 367.30978315467109 -458.24179947197626 0 0 0 0 -49.489901227992959 403.80865153349077 0 403.80865153349077 -745.52275148230547 0 0 0 0 99.28975596325472 389.83596137096174 0 389.83596137096174 -476.26639541410475 0 0 0 0 -313.10709576457157 629.54761220419095 0 629.54761220419095 -466.45033599142334 0 0 0 0 -50.98750863874011 357.74224734588961 0 357.74224734588961 -41.656700626419479 0 0 0 0 -227.1187750070676 335.02767833623511 0 335.02767833623511 -41.112854591166979 0 0 0 0 -19.020335835812148 616.38884493096702 0 616.38884493096702 -436.42267571635603 0 0 0 0 1795.1297089856962 798.63136779559136 0 798.63136779559136 732.77400120192215 0 0 0 0 508.76354857326078 -1129.0527925333827 0 -1129.0527925333827 1992.8071672906317 0 0 0 0 28.838107201306912 -10.407221380765236 0 -10.407221380765236 5.888524064372362 0 0 0 0 1251.4160384067764 578.47510144942407 0 578.47510144942407 45.494885479507502 0 0 0 0 2098.1696960078843 -560.52735496182686 0 -560.52735496182686 -44.733781442642794 0 0 0 0 596.43167331947188 -308.48352651969253 0 -308.48352651969253 348.89509700452436 0 0 0 0 1348.7865834633121 -1059.3901815479803 0 -1059.3901815479803 1086.7350519688734 0 0 0 0 532.6247138133258 -351.54861823717874 0 -351.54861823717874 515.6728232305868 0 0 0 0 -44.10037151290453 -8.8256454984712036 0 -8.8256454984712036 632.35271134091226 0 0 0 0 218.86503449866723 259.70859760023814 0 259.70859760023814 145.34705428095367 0 0 0 0 392.51707357788109 -177.61872223863884 0 -177.61872223863884 841.17709885595468 0 0 0 0 376.87623123565572 115.26031632191734 0 115.26031632191734 1925.048683788933 0 0 0 0 758.40747238901531 -57.170824738999272 0 -57.170824738999272 26.398319414922298 0 0 0 0 392.42587740106319 770.65033875373138 0 770.65033875373138 46.36653280830069 0 0 0 0 262.68979612001567 412.05455410110881 0 412.05455410110881 -486.95194022408759 0 0 0 0 -19.910214800445829 145.1080182662572 0 145.1080182662572 95.775828043962974 0 0 0 0 160.84325236454606 699.73964439657902 0 699.73964439657902 -358.55963851468914 0 0 0 0 113.74656729686103 338.19788508207375 0 338.19788508207375 -1146.5923745537912 0 0 0 0 -85.191786224837415 464.66306186983638 0 464.66306186983638 -854.89177088745328 0 0 0 0 112.67398227395825 453.21373931568814 0 453.21373931568814 -859.33121358386052 0 0 0 0 384.0094633622939 477.81545424928117 0 477.81545424928117 -1075.2688764396407 0 0 0 0 274.58817128221926 96.864112014254033 0 96.864112014254033 -1019.6651155366526 0 0 0 0 95.865930117754033 884.91644346456269 0 884.91644346456269 -878.72238937209477 0 0 0 0 394.67895280127414 450.07819006338104 0 450.07819006338104 -1649.5982226920605 0 0 0 0 380.82814349760883 393.82671040576315 0 393.82671040576315 -1394.1677237142176 0 0 0 0 -1247.3391157248407 697.18622438413513 0 697.18622438413513 -1245.6217690250669 0 0 0 0 390.88040303555317 341.52386958456191 0 341.52386958456191 -2658.7891188286885 0 0 0 0 383.34965564729646 -258.30314856030964 0 -258.30314856030964 -2671.7037194348386 0 0 0 0 316.4394786140183 -354.69028359583899 0 -354.69028359583899 -1258.5241842924315 0 0 0 0 1032.7883670202136 -499.70141051794508 0 -499.70141051794508 -1057.6466990302142 0 0 0 0 537.18276109854924 100.59993349324941 0 100.59993349324941 -1006.0623803488886 0 0 0 0 1282.6071715024664 -781.24547211556728 0 -781.24547211556728 -787.48257516918966 0 0 0 0 637.84898340381915 -122.25254447853695 0 -122.25254447853695 -1094.0353986446498 0 0 0 0 420.79619768363773 524.18582410334602 0 524.18582410334602 -418.26619641394063 0 0 0 0 2697.7640437619993 -1292.0148853170585 0 -1292.0148853170585 162.01440734696007 0 0 0 0 1097.6006016247557 -1146.1405077411073 0 -1146.1405077411073 163.23730377741231 0 0 0 0 890.9159432471497 -691.26677076594387 0 -691.26677076594387 -17.186815155450859 0 0 0 0 1238.2126124769966 -812.48749880465357 0 -812.48749880465357 -458.97714218706824 0 0 0 0 839.61982758078375 -614.42818669675034 0 -614.42818669675034 -396.89291184546983 0 0 0 0 1031.2368789180764 -583.18641917877903 0 -583.18641917877903 -668.29085188988211 0 0 0 0 215.27547265680187 -24.755342948136558 0 -24.755342948136558 -477.06127394287978 0 0 0 0 605.52799954227066 -378.62029552964464 0 -378.62029552964464 -324.38526805019501 0 0 0 0 331.24175783731334 206.106129880362 0 206.106129880362 -662.68463334139688 0 0 0 0 645.23220148445762 8.7685999317143342 0 8.7685999317143342 -928.02196906321478 0 0 0 0 282.7376000781951 179.89069142758672 0 179.89069142758672 -647.31818246916737 0 0 0 0 -46.519618483216618 290.38205891606458 0 290.38205891606458 -413.23004073423158 0 0 0 0 534.39272486517439 124.70767677418826 0 124.70767677418826 -870.60502981669561 0 0 0 0 -55.987672471383121 540.46636620914614 0 540.46636620914614 -1024.9145666724216 0 0 0 0 -148.67808488931041 1217.8217890525666 0 1217.8217890525666 -2495.026873585567 0 0 0 0 322.63396429590648 562.97274395005297 0 562.97274395005297 -1762.4763747743855 0 0 0 0 186.23894900790765 577.21917593394573 0 577.21917593394573 -1269.8559162391175 0 0 0 0 -20.586329823127016 972.62339101929683 0 972.62339101929683 -1083.9036156049624 0 0 0 0 -24.299436647910625 657.5172068805914 0 657.5172068805914 -806.71934107809648 0 0 0 0 217.9221386872232 179.44804416814441 0 179.44804416814441 -263.76607605795289 0 0 0 0 -803.1059208829538 673.91547529093805 0 673.91547529093805 -383.09720065726287 0 0 0 0 128.81145739770727 -21.345215075662452 0 -21.345215075662452 -101.17898675477772 0 0 0 0 67.829822451127882 17.696424491445583 0 17.696424491445583 -8.9405996407343409 0 0 0 0 -3.783099739857164 11.216611887312119 0 11.216611887312119 0.80974230418497228 0 0 0 0 63.951177090541989 4.5151524947859087 0 4.5151524947859087 -17.300482390274151 0 0 0 0 52.257685772783589 310.28972754961615 0 310.28972754961615 -235.60131828636804 0 0 0 0 -502.41213498311117 89.946972330795688 0 89.946972330795688 88.319329836151155 0 0 0 0 -57.63056553225033 604.31728637715059 0 604.31728637715059 -517.39132936371607 0 0 0 0 -66.761061212018831 324.37712713071869 0 324.37712713071869 -1129.2458619891113 0 0 0 0 -93.111287445062771 262.70293450833924 0 262.70293450833924 36.755501369989361 0 0 0 0 66.062012868263992 867.26412548558346 0 867.26412548558346 -418.75320707990613 0 0 0 0 9.4450520916275309 18.424843521882799 0 18.424843521882799 -3.444291036621717 0 0 0 0 90.225850904284187 32.5030160959695 0 32.5030160959695 6.8260157895935976 0 0 0 0 109.63741826781188 27.351847130675964 0 27.351847130675964 -137.53547441177193 0 0 0 0 117.81863660484305 73.923776089064319 0 73.923776089064319 4.1922833310190981 0 0 0 0 144.63229029193462 -45.958643519949263 0 -45.958643519949263 -65.014794927875755 0 0 0 0 128.9881691953633 -53.655893975941837 0 -53.655893975941837 -124.00072867626577 0 0 0 0 19.845106705892249 40.347191761416781 0 40.347191761416781 -107.5374649624128 0 0 0 0 4.6765361838515673 215.29670936175484 0 215.29670936175484 8.0568344569001056 0 0 0 0 131.40414664754644 139.27030065309373 0 139.27030065309373 -1173.4158334240083 0 0 0 0 83.491216266352012 18.778134442825163 0 18.778134442825163 -8.4856642610052617 0 0 0 0 69.111178322861576 23.315334318097989 0 23.315334318097989 -0.37187275827480093 0 0 0 0 59.973932407185202 39.533444334707383 0 39.533444334707383 -49.0877956239583 0 0 0 0 -1355.6719031379907 1019.8754140316796 0 1019.8754140316796 -761.00644866974835 0 0 0 0 -148.20006415818352 -406.18213671379999 0 -406.18213671379999 -1044.7750521779635 0 0 0 0 13.794999489659052 6.9134237839191712 0 6.9134237839191712 -8.0822403937056535 0 0 0 0 -129.61814285450964 -615.26629823833719 0 -615.26629823833719 -1745.4749954179679 0 0 0 0 12.016863331969944 -7.8502376125369793 0 -7.8502376125369793 -12.709725171182889 0 0 0 0 -589.88524544233223 261.76017445737671 0 261.76017445737671 -18.168279860023176 0 0 0 0 54.818495978717692 11.11455920143635 0 11.11455920143635 -28.864590440050961 0 0 0 0 88.847551708201948 39.789278895078013 0 39.789278895078013 -10.141395434520312 0 0 0 0 54.04187249741517 30.503101455677097 0 30.503101455677097 -25.332867235658341 0 0 0 0 44.938729525105146 38.171842769580408 0 38.171842769580408 -1.9627957210265343 0 0 0 0 69.87163567377138 29.95927011254075 0 29.95927011254075 0.2835716597942195 0 0 0 0 -66.993016289270599 55.450054660241392 0 55.450054660241392 -20.838513383917018 0 0 0 0 4.8901538378341911 3.3809958245884957 0 3.3809958245884957 -2.5124498548522025 0 0 0 0 6.4392302805775898 -2.2097975676120996 0 -2.2097975676120996 -8.0327790418803424 0 0 0 0 104.19792499151663 -71.537397231370278 0 -71.537397231370278 6.041107478038839 0 0 0 0 17.707902265130542 -5.5924921844871278 0 -5.5924921844871278 -27.121054007112548 0 0 0 0 60.8641410311577 16.310254097385325 0 16.310254097385325 -21.80310791938399 0 0 0 0 21.909253248304594 37.877798452167553 0 37.877798452167553 -16.2470747071402 0 0 0 0 5.2451526237916255 30.739407427665839 0 30.739407427665839 -11.143619630848113 0 0 0 0 -1.5127832404104993 6.0640656330811566 0 6.0640656330811566 11.071578660204068 0 0 0 0 -31.781042686221383 21.711257009355897 0 21.711257009355897 -3.3460656554437378 0 0 0 0 -31.956670418003341 60.81272856174462 0 60.81272856174462 -56.529091295918988 0 0 0 0 -49.549262136322795 89.813856841943988 0 89.813856841943988 -33.6983771202555 0 0 0 0 -56.989802362208138 72.14887413433982 0 72.14887413433982 6.8209338938767701 0 0 0 0 -249.85062410082901 82.14228278250097 0 82.14228278250097 6.49800478533417 0 0 0 0 -0.64090109894148384 0.028065499072113198 0 0.028065499072113198 -1.1121862679167465 0 0 0 0 -37.363363122254668 -65.862155913491108 0 -65.862155913491108 -5.657148010964363 0 0 0 0 -150.0802432009732 134.62620947724199 0 134.62620947724199 0.092839648870264732 0 0 0 0 93.932466529688099 -144.10770337291672 0 -144.10770337291672 -56.604329283631017 0 0 0 0 120.75057448142979 -50.682486740710232 0 -50.682486740710232 -195.39150185369715 0 0 0 0 108.69552243207727 -69.430097958855526 0 -69.430097958855526 -61.804734372616849 0 0 0 0 143.45653498440515 -9.7616961031430378 0 -9.7616961031430378 -57.938960702470524 0 0 0 0 74.982664065464633 -42.773131775794809 0 -42.773131775794809 -39.567693368811128 0 0 0 0 86.182825980678899 -80.320013437589168 0 -80.320013437589168 -67.050532549159897 0 0 0 0 40.958482923844713 -102.80808259687069 0 -102.80808259687069 -0.23204664025348187 0 0 0 0 110.2134223702451 -99.416890428563619 0 -99.416890428563619 -53.136848915263826 0 0 0 0 118.35911874065096 -41.207410620862525 0 -41.207410620862525 -3.7515942213261724 0 0 0 0 830.14729917404475 131.59967354333963 0 131.59967354333963 -113.97922109520368 0 0 0 0 298.47429348102014 -131.51519426446885 0 -131.51519426446885 0.66728002358506444 0 0 0 0 -42.166158136999002 27.594092536079415 0 27.594092536079415 -55.010872604618129 0 0 0 0 170.84107595533715 -86.359838699910284 0 -86.359838699910284 -337.05353738790382 0 0 0 0 244.32470403442858 640.55548073605382 0 640.55548073605382 -2.2421399630404721 0 0 0 0 1801.498484007956 -1822.6456953991942 0 -1822.6456953991942 1525.5553740125688 0 0 0 0 25.519192624362915 4.6553672233479375 0 4.6553672233479375 0.11949117762496964 0 0 0 0 4671.6871959655109 -854.63901588597651 0 -854.63901588597651 -1173.0873750678209 0 0 0 0 853.41080011948225 715.37161874150956 0 715.37161874150956 -109.50966623764145 0 0 0 0 2089.1048485394203 -217.78685894898609 0 -217.78685894898609 -1.0170919475735334 0 0 0 0 971.30507002813101 -893.81638754746962 0 -893.81638754746962 904.12261405365894 0 0 0 0 1004.9176472937252 -485.57938104228657 0 -485.57938104228657 319.45276478442787 0 0 0 0 290.45317865232937 145.87522709132949 0 145.87522709132949 0.8645254371535056 0 0 0 0 -152.0219270721791 480.15271810246708 0 480.15271810246708 138.90546233179839 0 0 0 0 -39.16980303156015 167.52095024636279 0 167.52095024636279 21.627465406618285 0 0 0 0 1.2786111267632805 362.39102142769991 0 362.39102142769991 512.1231143917322 0 0 0 0 507.61597959746723 -363.62426168373554 0 -363.62426168373554 387.65559373649694 0 0 0 0 915.05536938807927 299.40037273097857 0 299.40037273097857 1448.5309571228829 0 0 0 0 1485.3759421799477 -1747.7285356427296 0 -1747.7285356427296 -1420.555577025556 0 0 0 0 0.66492968640517347 -2.2126417262317091 0 -2.2126417262317091 0.74937380259882058 0 0 0 0 -613.81593046832131 229.59939173570319 0 229.59939173570319 246.79950125185633 0 0 0 0 -184.27462346060202 791.86397012286261 0 791.86397012286261 -395.46428646937375 0 0 0 0 22.083576374789118 217.4740559988943 0 217.4740559988943 -1009.4953131553389 0 0 0 0 2.2245055359207981 8.9068588220841463 0 8.9068588220841463 -6.6474376987688624 0 0 0 0 53.682863668014761 5.7954659109072963 0 5.7954659109072963 -22.694451584441595 0 0 0 0 45.876672887967288 145.27784735411433 0 145.27784735411433 7.1142548343414092 0 0 0 0 5.9517766729827031 10.353835848848348 0 10.353835848848348 0.65141699856390645 0 0 0 0 25.345278387190774 64.998107081803028 0 64.998107081803028 7.8276115943790501 0 0 0 0 40.158966599372121 16.404687984507888 0 16.404687984507888 -19.576922417498064 0 0 0 0 845.60028502368368 351.72150656996655 0 351.72150656996655 228.91162998239724 0 0 0 0 270.96182220664923 63.046254300395958 0 63.046254300395958 103.83633840861148 0 0 0 0 151.18933285475941 -75.772914828023204 0 -75.772914828023204 10.879708429460152 0 0 0 0 53.761635969378403 27.255575091603532 0 27.255575091603532 24.245978651219048 0 0 0 0 395.38116286776494 107.76567937938853 0 107.76567937938853 -115.32907080996029 0 0 0 0 159.22068272973411 178.17440733154581 0 178.17440733154581 -11.969218709698907 0 0 0 0 555.55978863035853 317.57118661115055 0 317.57118661115055 107.17306332005319 0 0 0 0 918.79075900572934 -27.885389428271083 0 -27.885389428271083 -253.30528797784791 0 0 0 0 1176.6246728834958 16.61214726327762 0 16.61214726327762 -272.42908265103688 0 0 0 0 1726.781774099858 177.91260120755305 0 177.91260120755305 -312.22518888262312 0 0 0 0 1713.5080938988831 -604.90838726581569 0 -604.90838726581569 -355.64964065546974 0 0 0 0 1070.2364495456859 -634.54124198071804 0 -634.54124198071804 -489.75908864064149 0 0 0 0 1102.6268616538291 -446.70050491279289 0 -446.70050491279289 -311.0010327123473 0 0 0 0 618.48177766636945 -513.5492409773592 0 -513.5492409773592 -26.822688299826041 0 0 0 0 714.91734992625425 -407.58323662196108 0 -407.58323662196108 -135.2858557922882 0 0 0 0 133.62053380236466 114.98528051139809 0 114.98528051139809 -442.51022437630627 0 0 0 0 62.294358581491622 19.462086715733506 0 19.462086715733506 4.1071616292774795 0 0 0 0 1153.887954406222 -775.71961049131642 0 -775.71961049131642 58.926375373637711 0 0 0 0 582.10048980001011 -146.59174819409122 0 -146.59174819409122 -184.10257726277013 0 0 0 0 311.30635250383057 -353.55730478302826 0 -353.55730478302826 565.83427711474644 0 0 0 0 2358.6143069120881 735.05774372575888 0 735.05774372575888 288.35257620250468 0 0 0 0 864.64654324685398 -1202.7722059129624 0 -1202.7722059129624 1314.9712503252731 0 0 0 0 2369.3437667259423 -1071.8900419425427 0 -1071.8900419425427 81.754111213633223 0 0 0 0 1274.9934736696669 -560.7753449287552 0 -560.7753449287552 -111.95162008780244 0 0 0 0 129.48957445593987 31.195394209961901 0 31.195394209961901 15.484287468628843 0 0 0 0 151.99014678249659 10.583362236351888 0 10.583362236351888 3.3998223365123721 0 0 0 0 160.90316896174045 33.952072876161864 0 33.952072876161864 0.008243045697825066 0 0 0 0 149.71022099175025 30.412980818445504 0 30.412980818445504 15.444136254319282 0 0 0 0 -0.18256624459706927 -2.6194045776493056 0 -2.6194045776493056 -0.050839754806600967 0 0 0 0 5.3301561659544348 3.9795742341451046 0 3.9795742341451046 -1.7767682241146923 0 0 0 0 13.593697041495943 -1.9692714494362047 0 -1.9692714494362047 1.1033069673937916 0 0 0 0 198.08579875304713 18.346164625088484 0 18.346164625088484 -3.5122474860956672 0 0 0 0 7.4154807099093318 5.8538285855826473 0 5.8538285855826473 -0.21177735890029803 0 0 0 0 13.521299763277057 7.0303880659970588 0 7.0303880659970588 -4.8966422603798492 0 0 0 0 -391.64477486006217 460.3917254750703 0 460.3917254750703 -57.210325764380741 0 0 0 0 14.897985039569903 -0.37916332361322702 0 -0.37916332361322702 -0.60516272520141001 0 0 0 0 -402.25396708353946 188.90036129683185 0 188.90036129683185 -0.25795243487783387 0 0 0 0 -208.18709830030275 139.35662829087809 0 139.35662829087809 -121.02591234585526 0 0 0 0 -213.76704977243207 -34.804546438328799 0 -34.804546438328799 224.07316486699756 0 0 0 0 -258.72590484253305 251.48073992877215 0 251.48073992877215 -271.16910462372016 0 0 0 0 -83.178144688135944 289.31609167404895 0 289.31609167404895 -270.20547355530209 0 0 0 0 11.063908922763801 9.1275680273534476 0 9.1275680273534476 -4.8400488721961281 0 0 0 0 34.686193336885481 16.256625917898418 0 16.256625917898418 -16.633161892230419 0 0 0 0 22.103672768332785 10.454232643700522 0 10.454232643700522 -9.7867864273676766 0 0 0 0 15.772006651357515 9.9826223756722356 0 9.9826223756722356 -19.496075553744504 0 0 0 0 49.346795827790629 17.026496176427827 0 17.026496176427827 -31.802751766254005 0 0 0 0 18.246130505875044 1.8275553606065671 0 1.8275553606065671 -5.2532001347551613 0 0 0 0 33.289976885687793 1.7744628962984734 0 1.7744628962984734 -16.312897901018914 0 0 0 0 21.20082259865012 3.9833773794543959 0 3.9833773794543959 -7.829897675912548 0 0 0 0 -0.63457301403810007 -2.7437174947719427 0 -2.7437174947719427 -5.0689597219833011 0 0 0 0 144.97582575239176 1.5373307171703612 0 1.5373307171703612 -5.9802975036317889 0 0 0 0 26.025587881566025 -0.095962469123378469 0 -0.095962469123378469 -7.4972150406831588 0 0 0 0 112.78500931107556 2.8191079493371944 0 2.8191079493371944 -15.729170506079527 0 0 0 0 7.0652061567785545 -1.7482383286197489 0 -1.7482383286197489 -10.128245811193906 0 0 0 0 113.59396897256374 -0.71846609697009001 0 -0.71846609697009001 -6.0012610437250942 0 0 0 0 113.43753785421723 -4.0103771187396973 0 -4.0103771187396973 -17.558927017862629 0 0 0 0 105.30280804143695 14.211154722033854 0 14.211154722033854 -4.8267305002366925 0 0 0 0 125.81712737465568 7.6267812014127969 0 7.6267812014127969 -3.9117307019980387 0 0 0 0 126.83418362232624 11.963683603106233 0 11.963683603106233 6.0343313979492166 0 0 0 0 72.024912084514654 32.176592117000986 0 32.176592117000986 -14.892376835331675 0 0 0 0 120.68353791255504 0.25646778995510999 0 0.25646778995510999 -24.791930341099686 0 0 0 0 74.411121413134879 -24.759695852612275 0 -24.759695852612275 -36.793223097917064 0 0 0 0 75.9213215171618 -2.0425050319383899 0 -2.0425050319383899 -18.712823645889266 0 0 0 0 122.81424601696199 -13.286998593233591 0 -13.286998593233591 -75.479721162788223 0 0 0 0 124.92813073885918 10.762695210048051 0 10.762695210048051 -12.02138309062525 0 0 0 0 -6.9869222487676552 -8.122503897729402 0 -8.122503897729402 -1.4396194952793244 0 0 0 0 59.704298814568006 -2.0691021452987286 0 -2.0691021452987286 -27.58096526803477 0 0 0 0 -23.341027393587865 -21.17925975496189 0 -21.17925975496189 -59.802956262360738 0 0 0 0 13.382565909844764 3.807268067407108 0 3.807268067407108 -19.25811901428925 0 0 0 0 86.379890629468719 6.3160453645496091 0 6.3160453645496091 -23.637410299859312 0 0 0 0 65.253916720786947 4.0144654691212054 0 4.0144654691212054 -27.65071353228177 0 0 0 0 79.76924154876906 -0.86980913189449893 0 -0.86980913189449893 -37.754554898205242 0 0 0 0 89.731525993527612 31.385128086578334 0 31.385128086578334 -23.895162714214166 0 0 0 0 34.359872541084428 3.4095327143026566 0 3.4095327143026566 -12.235802801214611 0 0 0 0 62.106168177546351 -1.9807381506525417 0 -1.9807381506525417 -34.075710750445069 0 0 0 0 50.955139683341258 13.844949060775434 0 13.844949060775434 -21.287834651098819 0 0 0 0 18.957943644549232 -15.986747148006543 0 -15.986747148006543 -10.138652086299771 0 0 0 0 28.329615595273935 3.9409832085620451 0 3.9409832085620451 -13.323720225003854 0 0 0 0 27.825165465298369 -1.7382278040430919 0 -1.7382278040430919 -12.331607517239316 0 0 0 0 81.972329965705285 26.696698036230373 0 26.696698036230373 -11.534671827010243 0 0 0 0 68.438559654139681 32.252232467008071 0 32.252232467008071 -9.841909241189569 0 0 0 0 49.800461421290606 10.422234822683265 0 10.422234822683265 -9.9828489843500137 0 0 0 0 60.387849721126258 29.493492640700424 0 29.493492640700424 -9.7593548830627697 0 0 0 0 73.435323035409965 28.331937783501871 0 28.331937783501871 -23.173341870111472 0 0 0 0 74.068650169414468 30.891983557277854 0 30.891983557277854 -12.829470325195871 0 0 0 0 75.945423028228106 34.086753511688585 0 34.086753511688585 -21.228276458956316 0 0 0 0 73.823460345738567 27.082939428926693 0 27.082939428926693 -21.972445777927192 0 0 0 0 73.994449270423502 34.166510661705615 0 34.166510661705615 -19.607931503833242 0 0 0 0 72.012482810059737 31.627379302252393 0 31.627379302252393 -20.537817867771082 0 0 0 0 73.795702694711508 35.354123115918355 0 35.354123115918355 -21.177107047591562 0 0 0 0 82.28424625552725 26.064043594169561 0 26.064043594169561 -209.11560101777832 0 0 0 0 53.549449731872301 34.238163026993334 0 34.238163026993334 14.101476522435405 0 0 0 0 60.03342221179264 27.041314392625736 0 27.041314392625736 -6.7779323941249459 0 0 0 0 23.554038625140606 -6.0044332723815614 0 -6.0044332723815614 1.8243991410865519 0 0 0 0 18.018576128946734 -46.550585493180733 0 -46.550585493180733 -8.8460835878831858 0 0 0 0 8.0463854125038097 -2.5329837025988127 0 -2.5329837025988127 0.6706802976819688 0 0 0 0 182.19212386738218 205.51271790800729 0 205.51271790800729 202.28702212642929 0 0 0 0 206.70220937492559 -156.50994425367389 0 -156.50994425367389 -162.23434861045462 0 0 0 0 1447.8449625898502 -377.56537327679325 0 -377.56537327679325 -1230.7939265855384 0 0 0 0 107.68945279816398 54.134819117854931 0 54.134819117854931 -10.780790738375799 0 0 0 0 136.33317751760478 10.199859058210222 0 10.199859058210222 -39.073501561859302 0 0 0 0 74.481677135132486 -19.291867155296586 0 -19.291867155296586 9.6292930113722832 0 0 0 0 -2.4535642944070091 1.1044758820575566 0 1.1044758820575566 -19.674973145352872 0 0 0 0 118.08767264580911 -35.557492827677777 0 -35.557492827677777 -42.222767475654109 0 0 0 0 69.298027258191723 7.112513383903206 0 7.112513383903206 -8.7233758727411441 0 0 0 0 75.642496923042927 -22.893587516049593 0 -22.893587516049593 -37.728537187699658 0 0 0 0 30.350345574930543 -43.527043871701608 0 -43.527043871701608 -46.675068378068318 0 0 0 0 50.824551273311954 23.196862040185806 0 23.196862040185806 -79.964432935500554 0 0 0 0 65.949886205533403 -3.4824371757467816 0 -3.4824371757467816 -112.3029037470078 0 0 0 0 -53.849355729209492 33.98553226103104 0 33.98553226103104 -96.289440756492695 0 0 0 0 77.748636096439441 -52.959890952183741 0 -52.959890952183741 29.914468198083341 0 0 0 0 64.083574209493236 11.849249109999619 0 11.849249109999619 -2.3296819416464132 0 0 0 0 63.104698632007057 19.013324137303471 0 19.013324137303471 70.458492961248339 0 0 0 0 460.72248896687233 -298.93734945913548 0 -298.93734945913548 -60.328627148133819 0 0 0 0 499.16435199262924 -246.57150131046728 0 -246.57150131046728 10.094021329539828 0 0 0 0 304.84764956388972 -178.86542208606807 0 -178.86542208606807 54.414744987501763 0 0 0 0 261.87473519181367 -137.45305686537176 0 -137.45305686537176 24.43483844374714 0 0 0 0 312.29565079283202 -297.87377211572311 0 -297.87377211572311 245.64270525413303 0 0 0 0 431.14800811372697 -810.73238215024321 0 -810.73238215024321 768.58785493610958 0 0 0 0 300.35784247290576 -408.25316364433456 0 -408.25316364433456 112.94328501986092 0 0 0 0 563.84796104949783 -513.27648442692225 0 -513.27648442692225 154.62996782828122 0 0 0 0 888.47313761332043 -626.6763880703611 0 -626.6763880703611 -93.706087213147839 0 0 0 0 854.0560232840653 -740.8410651163922 0 -740.8410651163922 -320.56697257462292 0 0 0 0 951.53198785310815 -676.41436825340315 0 -676.41436825340315 -282.24057720692508 0 0 0 0 1124.2049664271181 -431.49320942535633 0 -431.49320942535633 -300.58019978597804 0 0 0 0 777.97437132315827 -370.46947546657975 0 -370.46947546657975 -50.729343377267469 0 0 0 0 776.84061324481445 -479.55471981000574 0 -479.55471981000574 -287.56993678052095 0 0 0 0 612.44223922019592 -97.968807187429775 0 -97.968807187429775 -147.4789103549374 0 0 0 0 611.28087722786586 -101.695720660593 0 -101.695720660593 -146.73420510509823 0 0 0 0 616.061716668396 101.34231154285152 0 101.34231154285152 -103.26346811164331 0 0 0 0 247.87637205806095 27.708009736150416 0 27.708009736150416 -49.200751599186333 0 0 0 0 248.22147187875817 32.019249129090895 0 32.019249129090895 -71.229462284343754 0 0 0 0 73.580350118107162 87.230629817800946 0 87.230629817800946 26.613454960657691 0 0 0 0 114.94395273493137 -14.227092021901626 0 -14.227092021901626 -36.544470032618847 0 0 0 0 231.22073377505876 23.928467115518288 0 23.928467115518288 -66.039435675691493 0 0 0 0 175.28924696106697 -36.490593140257261 0 -36.490593140257261 -79.601154823743855 0 0 0 0 266.72460254427278 16.443158708192641 0 16.443158708192641 -36.919246429286432 0 0 0 0 247.363815033008 -13.577779728240785 0 -13.577779728240785 -49.736997632542625 0 0 0 0 415.01647505414439 14.651421409213071 0 14.651421409213071 -87.666733641824976 0 0 0 0 483.24068050878122 -125.17782751213963 0 -125.17782751213963 -59.091358887162642 0 0 0 0 86.879858207990765 12.531789999291959 0 12.531789999291959 -3.5845010740013095 0 0 0 0 44.937241313811512 38.488160999669816 0 38.488160999669816 -3.973161129919454 0 0 0 0 -53.240052774548531 88.079158649954479 0 88.079158649954479 54.048507453921047 0 0 0 0 -50.90253050083993 12.573423569185252 0 12.573423569185252 56.390205452516966 0 0 0 0 81.712462992174551 30.64107964165305 0 30.64107964165305 -10.423117135876964 0 0 0 0 -41.147259533099714 83.186546150472168 0 83.186546150472168 -91.07325775641948 0 0 0 0 78.527018640364986 -78.794911259448781 0 -78.794911259448781 -55.036485202173935 0 0 0 0 -23.122240485279917 9.9113657252587757 0 9.9113657252587757 1.4408502687820075 0 0 0 0 82.286045691289473 26.556508382151151 0 26.556508382151151 -14.897598738116358 0 0 0 0 78.222383385582361 23.96487892283767 0 23.96487892283767 2.4749284084282408 0 0 0 0 -166.06254320495646 107.91750845641945 0 107.91750845641945 -39.29575010354165 0 0 0 0 79.738764573339722 16.078875895261262 0 16.078875895261262 -21.293336952934624 0 0 0 0 31.29513599308379 27.933037681964493 0 27.933037681964493 -19.160984958075048 0 0 0 0 76.954548437875928 26.882208532984805 0 26.882208532984805 -13.282092314970214 0 0 0 0 79.830087970767636 30.178219127616103 0 30.178219127616103 -19.429105860264826 0 0 0 0 84.083554978511529 26.150604267202652 0 26.150604267202652 -16.420527947382652 0 0 0 0 81.112764204124687 22.729092559188757 0 22.729092559188757 -20.342159392719623 0 0 0 0 71.018009569539572 16.919320031633561 0 16.919320031633561 -23.835151214676443 0 0 0 0 66.378565338847693 19.948564746406191 0 19.948564746406191 -20.864513612204064 0 0 0 0 73.953945942150312 28.405681895890666 0 28.405681895890666 -20.09362616157523 0 0 0 0 71.02322549422388 30.306810458125256 0 30.306810458125256 -19.212123094878734 0 0 0 0 -236.66946680576075 31.786995014681452 0 31.786995014681452 77.508856712229317 0 0 0 0 340.5501109266188 -104.68304406248717 0 -104.68304406248717 -0.85178713215282187 0 0 0 0 198.48295999056427 -35.773430171469954 0 -35.773430171469954 30.316056345807738 0 0 0 0 385.0444743836124 -90.668723806058551 0 -90.668723806058551 -54.495998356891505 0 0 0 0 258.03729852451943 -64.14615106266865 0 -64.14615106266865 19.780127187990729 0 0 0 0 332.16880601575758 -3.3704080410259394 0 -3.3704080410259394 -53.136338183641783 0 0 0 0 203.83151887511485 16.541766660520807 0 16.541766660520807 -30.648491057123465 0 0 0 0 0.31409347282783528 5.0719362755569364 0 5.0719362755569364 -5.1369332903479901 0 0 0 0 206.05324267220567 25.34316850216419 0 25.34316850216419 1.2135807347294758 0 0 0 0 60.364752514637075 4.9967457975617435 0 4.9967457975617435 -25.900836294198598 0 0 0 0 69.483729802595917 8.6676615005962958 0 8.6676615005962958 -25.074591474141926 0 0 0 0 166.89267046994064 -46.450428964330058 0 -46.450428964330058 21.258831490034936 0 0 0 0 269.58791439863853 -69.470092059636954 0 -69.470092059636954 -5.4130264342820738 0 0 0 0 353.01220449394896 33.489793042637757 0 33.489793042637757 -266.53257158843917 0 0 0 0 245.61825734967715 -79.456893015278183 0 -79.456893015278183 6.6981744698568946 0 0 0 0 281.14085548497678 -58.746880452508776 0 -58.746880452508776 0.77652879746165127 0 0 0 0 45.679837375721036 5.4424125938943462 0 5.4424125938943462 -35.750439030794951 0 0 0 0 40.410337116833915 12.774810415221168 0 12.774810415221168 -43.65276586520222 0 0 0 0 43.59103335958207 96.190627696825686 0 96.190627696825686 -14.075631815161614 0 0 0 0 45.290777099577099 8.6652714321564872 0 8.6652714321564872 -21.094080198170559 0 0 0 0 67.591508177181822 33.746567137257443 0 33.746567137257443 -16.447907007073809 0 0 0 0 54.280243387911469 23.268843868332624 0 23.268843868332624 -19.933821444624414 0 0 0 0 53.18147266098822 15.279429383524075 0 15.279429383524075 -23.427916668275429 0 0 0 0 59.320870483381441 13.842102059850731 0 13.842102059850731 -25.667507592315815 0 0 0 0 58.637197839212604 15.51811975176679 0 15.51811975176679 -21.851018731111253 0 0 0 0 38.34417753375601 -4.145506569157078 0 -4.145506569157078 -32.353579138260102 0 0 0 0 40.314852860930841 17.51687152296472 0 17.51687152296472 -9.3142018796515913 0 0 0 0 50.90353760929429 10.238238818415994 0 10.238238818415994 -88.721004852333863 0 0 0 0 61.344303452606255 -10.241638300019986 0 -10.241638300019986 -48.605505618103052 0 0 0 0 39.575088732555571 -5.3535710116721091 0 -5.3535710116721091 -10.557115425567584 0 0 0 0 50.243267626545276 -2.7837049525496695 0 -2.7837049525496695 -52.495513157778987 0 0 0 0 17.761230067068837 -14.453496948875468 0 -14.453496948875468 -28.994163068639885 0 0 0 0 7.1760546966397669 -48.382564972242108 0 -48.382564972242108 8.5275264431111282 0 0 0 0 194.26175666220661 -103.62835031650866 0 -103.62835031650866 -102.78097069692467 0 0 0 0 82.102262712135939 -21.840565032711922 0 -21.840565032711922 -5.5409807934378321 0 0 0 0 46.01555602685562 -43.949896808209417 0 -43.949896808209417 32.723349986343237 0 0 0 0 228.82434099879902 -136.28880638217197 0 -136.28880638217197 -27.353129252507642 0 0 0 0 237.89305982808582 -139.97742424367971 0 -139.97742424367971 35.394829327779007 0 0 0 0 231.99282125006721 -60.258958930273366 0 -60.258958930273366 55.387066905881511 0 0 0 0 64.375940881698625 -311.95016538222262 0 -311.95016538222262 557.0082325839503 0 0 0 0 186.27715872130648 -106.40441490631565 0 -106.40441490631565 104.79024776340884 0 0 0 0 393.47024993243394 112.53374412268386 0 112.53374412268386 194.8282332785966 0 0 0 0 154.57068907654684 -98.688583414847926 0 -98.688583414847926 115.69889041045826 0 0 0 0 -10.300684176007053 41.438274181577071 0 41.438274181577071 65.653024068164086 0 0 0 0 -0.5338839443683554 -2.1639471134294297 0 -2.1639471134294297 -15.650603602693373 0 0 0 0 134.68489941452935 -18.420938076743141 0 -18.420938076743141 -30.541935936114896 0 0 0 0 -34.751328307276708 11.332011692713422 0 11.332011692713422 50.35380151822028 0 0 0 0 15.785205263033276 6.264783650640311 0 6.264783650640311 -14.638839500919858 0 0 0 0 2.0403246136459643 1.9684544959690271 0 1.9684544959690271 -0.60001605928065516 0 0 0 0 47.05745578504866 -40.314893581773504 0 -40.314893581773504 62.025650470692199 0 0 0 0 0.045700126553782638 1.5931179983075765 0 1.5931179983075765 -1.3309569091611024 0 0 0 0 476.72550412362034 -125.31194906684141 0 -125.31194906684141 21.8575016077084 0 0 0 0 128.14507305592997 -49.731433172813922 0 -49.731433172813922 -103.77301831098885 0 0 0 0 186.25096000067424 81.621666234797885 0 81.621666234797885 108.292815982148 0 0 0 0 228.4713048695121 10.020853846077443 0 10.020853846077443 -3.9658063773640606 0 0 0 0 69.353801109449705 69.004742736146 0 69.004742736146 53.626263991179258 0 0 0 0 -0.060610984326842754 0.96939401223542632 0 0.96939401223542632 -2.1002231872993535 0 0 0 0 304.45127803864307 85.76641900386312 0 85.76641900386312 -19.475255990870664 0 0 0 0 107.60011845160625 -22.563120852646534 0 -22.563120852646534 -11.283716959836966 0 0 0 0 244.80629683510051 65.557304997639221 0 65.557304997639221 -37.523500197089106 0 0 0 0 27.689275937928528 10.985948021379262 0 10.985948021379262 3.7240721967748911 0 0 0 0 -47.801642154343426 -16.273670054470131 0 -16.273670054470131 63.227043692777215 0 0 0 0 -70.81238890640816 23.12405770083933 0 23.12405770083933 67.013181367248762 0 0 0 0 -75.190259759459877 72.041662349807666 0 72.041662349807666 -105.63037959940993 0 0 0 0 112.66098885852261 17.200421738141813 0 17.200421738141813 -139.21955693175732 0 0 0 0 93.492272680974565 197.46199256893578 0 197.46199256893578 -393.77612912034965 0 0 0 0 193.10422204530914 -53.580208387409584 0 -53.580208387409584 -232.88605710239608 0 0 0 0 244.61601931342739 -5.4155564001302992 0 -5.4155564001302992 -129.75451874360806 0 0 0 0 98.121603313673404 -6.7115054685400537 0 -6.7115054685400537 48.332787336773436 0 0 0 0 67.666649283622974 -72.668239765804174 0 -72.668239765804174 14.400828525907855 0 0 0 0 102.59943317997386 -15.133686901086548 0 -15.133686901086548 -130.07074198366536 0 0 0 0 22.341647161374567 -44.193082392508586 0 -44.193082392508586 -138.77490019861943 0 0 0 0 101.09939596914046 87.558712367652333 0 87.558712367652333 -266.31421423736174 0 0 0 0 40.069537627775617 10.113551964317143 0 10.113551964317143 2.227921054566103 0 0 0 0 23.61917859375535 21.849086145512047 0 21.849086145512047 -56.652007126222088 0 0 0 0 238.89646499950231 -163.84856586905255 0 -163.84856586905255 -21.974435561707651 0 0 0 0 128.05714716334478 -56.336252602134664 0 -56.336252602134664 -185.37716757660382 0 0 0 0 152.58598792954581 28.641028643771278 0 28.641028643771278 -83.429375644191168 0 0 0 0 26.019856654802425 -1.1846459957378102 0 -1.1846459957378102 17.280662386991025 0 0 0 0 15.424004059000879 -7.1870808651053935 0 -7.1870808651053935 -6.9451029874288963 0 0 0 0 31.003167667120579 23.098187120684088 0 23.098187120684088 -23.519734970370337 0 0 0 0 20.524561217607697 20.247109926222038 0 20.247109926222038 5.3383193637082513 0 0 0 0 14.954111051539996 7.4284096048756965 0 7.4284096048756965 2.1324304623047414 0 0 0 0 10.826159916556207 46.080016427640658 0 46.080016427640658 -29.908956017585297 0 0 0 0 15.269182390948117 8.2325853328575249 0 8.2325853328575249 -21.223084051311162 0 0 0 0 29.996516685409915 12.715279516774103 0 12.715279516774103 -30.811558896839415 0 0 0 0 29.901986020937329 11.584128662723742 0 11.584128662723742 -28.717501166660441 0 0 0 0 20.759922757584718 27.819880496563201 0 27.819880496563201 -49.68144422153091 0 0 0 0 14.16754939679231 3.8072390168333641 0 3.8072390168333641 -43.405250058556703 0 0 0 0 13.943951786408434 32.324232974295228 0 32.324232974295228 -33.515896974448879 0 0 0 0 -83.620288110469119 -59.30612755528 0 -59.30612755528 -91.605883278600231 0 0 0 0 255.48963539223769 39.555051822280802 0 39.555051822280802 -65.13374102376838 0 0 0 0 -2.555665504274657 -5.6476838697599305 0 -5.6476838697599305 100.24568685950362 0 0 0 0 66.353150843868207 -138.65045278509706 0 -138.65045278509706 114.73756512699765 0 0 0 0 46.369991359853884 -65.929218963699896 0 -65.929218963699896 -70.185723714515916 0 0 0 0 57.810305103119845 -1.7384146343082456 0 -1.7384146343082456 -15.400349626518917 0 0 0 0 202.44699498706723 127.30127789785911 0 127.30127789785911 -199.71668198120824 0 0 0 0 31.208130678511225 8.9072804449533578 0 8.9072804449533578 -58.984699553047449 0 0 0 0 26.275660764018539 7.5373065162930288 0 7.5373065162930288 -46.666889042271578 0 0 0 0 29.917079839418989 -2.9407181052637732 0 -2.9407181052637732 -14.398255805739556 0 0 0 0 30.375454002001788 12.422574049916875 0 12.422574049916875 -54.389652422527433 0 0 0 0 25.733139403411315 14.773358326074984 0 14.773358326074984 -1.1789486622265759 0 0 0 0 42.302613742457225 -7.5905313861327386 0 -7.5905313861327386 -29.321139749464834 0 0 0 0 28.197497344575822 0.05810833178111352 0 0.05810833178111352 -28.579026541010535 0 0 0 0 27.183638021088541 -1.2919912454572753 0 -1.2919912454572753 -26.108191012189124 0 0 0 0 75.273720684993521 12.144374250572923 0 12.144374250572923 -32.102449569864717 0 0 0 0 27.526411401573569 10.762370155163808 0 10.762370155163808 -39.24053436081158 0 0 0 0 38.165657845562009 15.101105539119892 0 15.101105539119892 -6.9997021143023055 0 0 0 0 126.62722059898078 -27.610149257801822 0 -27.610149257801822 -201.11836581852185 0 0 0 0 108.67278853227617 -51.410220375546487 0 -51.410220375546487 -121.16611291321669 0 0 0 0 11.57643420160889 -17.360934790420036 0 -17.360934790420036 -10.085626881543813 0 0 0 0 73.518548849343347 4.8290545046995135 0 4.8290545046995135 -1.3392587786294357 0 0 0 0 124.46632524108099 -212.19368998265327 0 -212.19368998265327 86.393533060003392 0 0 0 0 3.3986179609921692 -0.80134119179928121 0 -0.80134119179928121 -1.0947993753778746 0 0 0 0 18.254725474253064 5.2510083919678436 0 5.2510083919678436 -9.102390813499369 0 0 0 0 57.457986730558332 45.603260175869764 0 45.603260175869764 -68.495685313718241 0 0 0 0 23.247085435859617 5.3099033496607717 0 5.3099033496607717 -0.20356543645537784 0 0 0 0 -72.416611311637098 148.16926287370734 0 148.16926287370734 -114.84677473309785 0 0 0 0 2.9604319460013357 1.0520496619575397 0 1.0520496619575397 -1.7650230932441886 0 0 0 0 24.099779145675711 -19.28727228293792 0 -19.28727228293792 -146.42757582076229 0 0 0 0 17.090784445987083 28.442586081448098 0 28.442586081448098 -73.551566712299973 0 0 0 0 68.634713440161249 23.078722615570541 0 23.078722615570541 -123.09930828747383 0 0 0 0 108.15927072140948 1.6265652265471999 0 1.6265652265471999 -52.868819064495256 0 0 0 0 62.208789364551194 53.269121284122775 0 53.269121284122775 -61.462966214524386 0 0 0 0 -9.1754310546675697 723.2327487865341 0 723.2327487865341 548.79912408815835 0 0 0 0 13.829940269077955 3.5921671475424546 0 3.5921671475424546 -30.425148140878711 0 0 0 0 20.141384584421758 18.345382182353205 0 18.345382182353205 -49.256599132480915 0 0 0 0 43.379207435151329 30.294292540935203 0 30.294292540935203 -65.627837020658262 0 0 0 0 29.960119333645082 7.944990843270574 0 7.944990843270574 -10.434979851377804 0 0 0 0 34.407491742196726 36.341322618818594 0 36.341322618818594 -61.685855706840812 0 0 0 0 30.43674881440802 8.8191886595595825 0 8.8191886595595825 -2.7159002972507604 0 0 0 0 38.402862206850614 13.418244474946192 0 13.418244474946192 -9.7588227400004826 0 0 0 0 27.971037426614203 15.806550234996394 0 15.806550234996394 -35.34373722784585 0 0 0 0 32.629319773552226 -6.2718320487339412 0 -6.2718320487339412 -15.381502917311987 0 0 0 0 31.967572257878203 -3.1291858978388376 0 -3.1291858978388376 -24.710789754638984 0 0 0 0 25.902163674058102 10.284601345519832 0 10.284601345519832 -27.495017062945408 0 0 0 0 18.312414036030532 9.4048543805836289 0 9.4048543805836289 -26.559515178203583 0 0 0 0 96.16199635178171 8.83532182448252 0 8.83532182448252 -20.663795240845133 0 0 0 0 20.147182717940268 8.3080521610194005 0 8.3080521610194005 -16.698325793593952 0 0 0 0 19.938575511489034 14.198473543168348 0 14.198473543168348 -58.8194777831377 0 0 0 0 86.251695697179883 8.189216231635271 0 8.189216231635271 -19.228069927632419 0 0 0 0 24.069302978728729 5.7188094054697416 0 5.7188094054697416 -0.49261353765894356 0 0 0 0 23.911762702919077 19.671510605405274 0 19.671510605405274 -60.168487586899914 0 0 0 0 13.759493847035628 22.711808948571615 0 22.711808948571615 -8.7179919516675 0 0 0 0 31.943771433030321 7.1708076011073558 0 7.1708076011073558 -14.902116365340596 0 0 0 0 26.033188233280725 10.142819229204633 0 10.142819229204633 -29.586374059777881 0 0 0 0 53.790182628901675 13.576137408457726 0 13.576137408457726 -25.475223965801888 0 0 0 0 30.0985188309308 12.377115445533583 0 12.377115445533583 -3.4802816394581439 0 0 0 0 53.319826891296543 4.8860162637138274 0 4.8860162637138274 -26.453393343177595 0 0 0 0 42.680715549533488 13.817241972412376 0 13.817241972412376 -29.580723736805339 0 0 0 0 25.989933370161452 9.9880727449399274 0 9.9880727449399274 -15.94506210410691 0 0 0 0 36.629044711931783 1.0568470362341031 0 1.0568470362341031 -12.817731710478256 0 0 0 0 34.874484453728655 4.1066800401094952 0 4.1066800401094952 -13.290671893692434 0 0 0 0 62.596710773574159 -4.0702052723681845 0 -4.0702052723681845 -27.782744339012424 0 0 0 0 113.51318885639193 23.181207172619906 0 23.181207172619906 3.9761641350742138 0 0 0 0 104.67104602704057 -73.459175317815607 0 -73.459175317815607 -100.70267212530598 0 0 0 0 113.41127504914766 24.664694982566289 0 24.664694982566289 -210.18186069263902 0 0 0 0 66.247606751538115 -58.565212051322305 0 -58.565212051322305 -63.720616718539532 0 0 0 0 10.513225440151821 1.0471268085830161 0 1.0471268085830161 -21.972744798121241 0 0 0 0 56.429329184727976 35.327216857807798 0 35.327216857807798 -55.120040799221897 0 0 0 0 30.269541579647921 -14.247916272088332 0 -14.247916272088332 7.3669715498081132 0 0 0 0 65.975023546838202 19.181774384380333 0 19.181774384380333 -59.59194891005609 0 0 0 0 7.6604291363867105 1.4111540595013281 0 1.4111540595013281 -3.475727410142305 0 0 0 0 95.871491890167817 -85.405985497538495 0 -85.405985497538495 -42.438695539021865 0 0 0 0 -5.5663390549452743 -8.9900753071597137 0 -8.9900753071597137 12.353859007790561 0 0 0 0 82.199088902467338 -21.014024819474798 0 -21.014024819474798 -34.785557791244173 0 0 0 0 38.477104010948096 -7.1955255015272996 0 -7.1955255015272996 -73.41036155013262 0 0 0 0 46.777488026687934 17.90123791923088 0 17.90123791923088 -3.2227975276146026 0 0 0 0 -33.282610989714158 75.815384565396016 0 75.815384565396016 -50.0183032825189 0 0 0 0 -1.2107378070293464 1.1447502124912319 0 1.1447502124912319 2.8916772776023834 0 0 0 0 136.57826021088113 -202.11340543134065 0 -202.11340543134065 190.51819801032252 0 0 0 0 95.92809200839838 -3.551981641776365 0 -3.551981641776365 -17.675635638755921 0 0 0 0 65.884631834895117 32.901900898652457 0 32.901900898652457 -54.989126148867854 0 0 0 0 36.46966603236433 -2.305994710595769 0 -2.305994710595769 -1.313226625083189 0 0 0 0 99.29128695721738 -9.087425038258516 0 -9.087425038258516 -0.64054764716092905 0 0 0 0 3.189702115700495 -1.9275527056323227 0 -1.9275527056323227 -11.552033268696874 0 0 0 0 34.515266593523847 37.588174016415905 0 37.588174016415905 -18.059972063905661 0 0 0 0 9.1291007439980607 16.997025127089046 0 16.997025127089046 -20.149221095215481 0 0 0 0 -5.3215811488201155 3.6627009091356229 0 3.6627009091356229 -1.9775852027000838 0 0 0 0 42.923899751011049 -2.1378944150965253 0 -2.1378944150965253 -5.2966574494166707 0 0 0 0 11.27963864090998 -16.666744810179807 0 -16.666744810179807 -34.583749300581985 0 0 0 0 33.328041125885647 13.399863968320915 0 13.399863968320915 5.2145980382883863 0 0 0 0 58.945794233979541 16.074490943823548 0 16.074490943823548 -23.540615026693558 0 0 0 0 40.687643282159115 28.506381184553902 0 28.506381184553902 6.4488972141916747 0 0 0 0 21.053878785996773 11.443658897160617 0 11.443658897160617 -16.715203466857929 0 0 0 0 23.707813262197305 35.827008291844322 0 35.827008291844322 -30.441811971895731 0 0 0 0 -6.1573288279905682 19.640315474569434 0 19.640315474569434 3.7359030509051081 0 0 0 0 54.308230902322975 6.6832241388756302 0 6.6832241388756302 -32.195510022809231 0 0 0 0 63.616130199254258 16.043310302656209 0 16.043310302656209 -23.85074612009339 0 0 0 0 112.72798225545557 -5.3115013976548653 0 -5.3115013976548653 -17.768173305178152 0 0 0 0 15.225222781300545 -2.8833186434458185 0 -2.8833186434458185 1.8021101581425683 0 0 0 0 1.8089941714034694 2.3657686521072705 0 2.3657686521072705 -1.880171609222959 0 0 0 0 55.682030399580981 44.025364503715082 0 44.025364503715082 1.6934626348265738 0 0 0 0 50.863051109248772 0.4917570306433845 0 0.4917570306433845 -8.7767124112415331 0 0 0 0 43.70489978849244 -1.6466620242602588 0 -1.6466620242602588 -3.6756221303361158 0 0 0 0 67.672793796601582 -49.90791674958416 0 -49.90791674958416 -8.1543053556870291 0 0 0 0 98.892325026454273 51.764153873167743 0 51.764153873167743 -5.3163067910809332 0 0 0 0 55.957976565769059 26.089104876724377 0 26.089104876724377 11.805399518705599 0 0 0 0 49.773391748849463 41.083884890101899 0 41.083884890101899 85.437792589371384 0 0 0 0 23.859718609695847 24.438440813520629 0 24.438440813520629 -38.97528693426284 0 0 0 0 59.972353058023145 14.991135384829249 0 14.991135384829249 -66.013750323727436 0 0 0 0 62.779452504073561 5.6542798184809726 0 5.6542798184809726 -52.9884273743628 0 0 0 0 65.687807048700051 35.521305225254764 0 35.521305225254764 0.13022318588627968 0 0 0 0 35.084706953730887 2.9788057002484081 0 2.9788057002484081 -5.5690213503245065 0 0 0 0 20.606596718751973 1.5959589564012759 0 1.5959589564012759 -9.4627080032084621 0 0 0 0 10.494019330333686 0.85604492927450337 0 0.85604492927450337 -3.0400303695423645 0 0 0 0 4.7711897320258458 4.4970412507589259 0 4.4970412507589259 -4.0044086154843228 0 0 0 0 68.034465827746317 53.961331231506847 0 53.961331231506847 23.977072823406615 0 0 0 0 71.287194250398898 51.935328826627938 0 51.935328826627938 19.251464129617489 0 0 0 0 28.30519674763605 14.5734990181125 0 14.5734990181125 1.8118332136753708 0 0 0 0 68.773482039381634 47.897618683244218 0 47.897618683244218 22.615091494641092 0 0 0 0 69.151968331956596 57.582695778942252 0 57.582695778942252 34.650121361526544 0 0 0 0 66.893545019294834 44.223254514197833 0 44.223254514197833 36.289076859931811 0 0 0 0 73.470641669933684 66.115263869912269 0 66.115263869912269 12.071408066316508 0 0 0 0 102.15274554354255 89.943556050259303 0 89.943556050259303 45.732380228371767 0 0 0 0 117.26147536706412 92.849838439604355 0 92.849838439604355 1.2905542477433301 0 0 0 0 91.635506067497772 97.647306598322757 0 97.647306598322757 66.382811097904778 0 0 0 0 21.162149817699913 1.3935898383940923 0 1.3935898383940923 -0.4210390241013986 0 0 0 0 59.434843081617146 127.53182023494264 0 127.53182023494264 189.04824530278893 0 0 0 0 62.875054309406551 -18.747011355480936 0 -18.747011355480936 -90.324322404355371 0 0 0 0 49.456881082878681 272.09436903390451 0 272.09436903390451 585.95968361169253 0 0 0 0 129.22646893742785 140.34580912312595 0 140.34580912312595 51.680922225395989 0 0 0 0 7.7440282028787806 2.6148548698705909 0 2.6148548698705909 -0.55354855881676457 0 0 0 0 99.449295069549407 -112.56450193318506 0 -112.56450193318506 -220.09086578992583 0 0 0 0 115.74584310957289 111.5863515924184 0 111.5863515924184 -6.5864186638573301 0 0 0 0 -0.13006228650630192 2.2525434999628402 0 2.2525434999628402 -12.510675778777276 0 0 0 0 517.65453655891179 411.81730886466357 0 411.81730886466357 128.89444591901383 0 0 0 0 699.84022093412932 455.89738206103721 0 455.89738206103721 121.48392236288146 0 0 0 0 4.1172755397560934 0.44291795284375723 0 0.44291795284375723 -5.3786758206678726 0 0 0 0 308.98214582004584 391.80829387667291 0 391.80829387667291 -63.392918496039783 0 0 0 0 -11.682844510447467 -572.27319731176249 0 -572.27319731176249 149.98357664041032 0 0 0 0 441.87630331284527 7.8991955904525639 0 7.8991955904525639 24.764023430683665 0 0 0 0 266.81904454853793 256.49352249995354 0 256.49352249995354 147.26569800248089 0 0 0 0 154.60692760041275 181.19517355104472 0 181.19517355104472 117.44072264665374 0 0 0 0 72.104112477201852 -53.454095762868747 0 -53.454095762868747 22.875672069503707 0 0 0 0 287.65003787218302 135.46969811661256 0 135.46969811661256 110.29717667529076 0 0 0 0 23.923558665257588 -16.487103951434619 0 -16.487103951434619 76.105408278093819 0 0 0 0 96.005752372308052 -61.56433046669008 0 -61.56433046669008 18.406081978277143 0 0 0 0 104.47264641986112 -96.747287668358695 0 -96.747287668358695 32.49042675565488 0 0 0 0 132.52735613355253 -79.18180014541349 0 -79.18180014541349 20.461291900890501 0 0 0 0 25.643457467624103 14.776933464434478 0 14.776933464434478 -26.053580977746606 0 0 0 0 36.893009452556726 -27.588246829691343 0 -27.588246829691343 27.988485321147891 0 0 0 0 77.221473762227106 -122.34848603453247 0 -122.34848603453247 64.441004475223963 0 0 0 0 130.46069846388309 137.58046256328407 0 137.58046256328407 -289.70318750266006 0 0 0 0 224.74862445401959 191.87043522463864 0 191.87043522463864 -456.94915388008667 0 0 0 0 31.418786073690853 -10.078731040937228 0 -10.078731040937228 -1.1407541348409396 0 0 0 0 118.30982232960378 -28.48315601060176 0 -28.48315601060176 8.8971034129374402 0 0 0 0 28.441939443254995 3.2864408899094713 0 3.2864408899094713 -1.2240186942412592 0 0 0 0 83.745701088162605 -37.061586358782279 0 -37.061586358782279 16.924943489471843 0 0 0 0 65.626841292279849 8.2433769900966816 0 8.2433769900966816 -25.566080806040503 0 0 0 0 40.865925347148732 26.875558217092248 0 26.875558217092248 3.0891445994420792 0 0 0 0 145.43174704955891 -117.01734494979428 0 -117.01734494979428 101.00001237656397 0 0 0 0 232.48255301272729 43.562460929038934 0 43.562460929038934 17.634504725508606 0 0 0 0 7.4166301243872681 2.124654370939183 0 2.124654370939183 -1.5543311885217079 0 0 0 0 10.954748992036912 -6.6494204667596932 0 -6.6494204667596932 -29.082876536180265 0 0 0 0 33.390596295474097 75.376503971262082 0 75.376503971262082 18.400102061750658 0 0 0 0 23.080336286167608 10.016105456988086 0 10.016105456988086 -3.9897712362626265 0 0 0 0 30.117903684261989 13.013706810862473 0 13.013706810862473 -8.2836797629440913 0 0 0 0 44.246601726222934 11.762480417401264 0 11.762480417401264 -13.250005377507167 0 0 0 0 20.039650020073168 7.6211171589920923 0 7.6211171589920923 -14.445317833360605 0 0 0 0 173.59707071910816 4.0743472303347517 0 4.0743472303347517 -47.529112250498656 0 0 0 0 194.92137998141698 -24.976670783655663 0 -24.976670783655663 -67.867444462382991 0 0 0 0 148.64543572264341 4.3625338479885833 0 4.3625338479885833 -29.012045769013117 0 0 0 0 173.42660822597099 -42.869493232140485 0 -42.869493232140485 10.875709397256287 0 0 0 0 278.03440552553366 -73.416335306964811 0 -73.416335306964811 6.2952529383037472 0 0 0 0 71.035644172356115 -23.92946442679704 0 -23.92946442679704 321.27889172412688 0 0 0 0 160.07028956799331 -144.3144746629157 0 -144.3144746629157 -10.696878634346035 0 0 0 0 207.37191731058283 115.26743783741676 0 115.26743783741676 -395.28043218868515 0 0 0 0 159.15769901008582 6.3629490721140449 0 6.3629490721140449 -26.345778803692546 0 0 0 0 124.90278311691691 23.598289035844573 0 23.598289035844573 -76.72369715570494 0 0 0 0 85.96546297370287 180.67415816448431 0 180.67415816448431 40.983052660774774 0 0 0 0 110.90766904940665 110.78652597617611 0 110.78652597617611 19.812070479622889 0 0 0 0 228.31275848494442 262.27516013150898 0 262.27516013150898 178.36005084681074 0 0 0 0 264.67001140279808 -92.790252300035604 0 -92.790252300035604 0.39693348982291354 0 0 0 0 236.59790082170002 -30.733960902490253 0 -30.733960902490253 88.072490555903642 0 0 0 0 247.65364669095288 115.66604828989057 0 115.66604828989057 -8.3169531835692396 0 0 0 0 524.33678851056175 33.531671027854827 0 33.531671027854827 15.175307153922404 0 0 0 0 346.20448841573307 -92.957067486963524 0 -92.957067486963524 303.24265728093815 0 0 0 0 351.60219616200993 -92.966113042406505 0 -92.966113042406505 118.5556383530984 0 0 0 0 78.119146602550245 -66.223737130153154 0 -66.223737130153154 144.18478614542016 0 0 0 0 343.78924329863185 -94.023936566875818 0 -94.023936566875818 133.51407446518442 0 0 0 0 193.21940894395811 -64.362011734993757 0 -64.362011734993757 286.34166733714574 0 0 0 0 586.00964210700113 140.1876002389381 0 140.1876002389381 302.41877377487435 0 0 0 0 -36.568734313383175 99.209217127927332 0 99.209217127927332 141.46882511968045 0 0 0 0 0.058445086267965962 -40.935038317764111 0 -40.935038317764111 4.8000162703501701 0 0 0 0 3.714906837630231 2.2164532873737315 0 2.2164532873737315 -0.054698689478103191 0 0 0 0 743.60602810228556 27.049317697919832 0 27.049317697919832 145.57961530561488 0 0 0 0 131.07646789368755 -3.9588757319272077 0 -3.9588757319272077 49.561632596432901 0 0 0 0 68.065525219140909 -55.017240637013941 0 -55.017240637013941 12.914376209596412 0 0 0 0 37.213286570198761 -14.64928810672609 0 -14.64928810672609 -8.7954566213015823 0 0 0 0 62.223195486451004 27.406353927812233 0 27.406353927812233 79.903035865407219 0 0 0 0 1.6577020455180893 1.2681475927527792 0 1.2681475927527792 -0.384937778214411 0 0 0 0 -51.803663208616854 48.631249395474697 0 48.631249395474697 -49.531858178493621 0 0 0 0 137.92555368816284 67.691358598299303 0 67.691358598299303 87.632650847533455 0 0 0 0 -46.757116024879906 197.95830863362585 0 197.95830863362585 114.85390441685922 0 0 0 0 55.656299652924254 12.217967916833572 0 12.217967916833572 -17.020565069150621 0 0 0 0 -50.631059188112658 169.43881191006932 0 169.43881191006932 -72.038264792512564 0 0 0 0 -56.874198013763817 20.562523638520361 0 20.562523638520361 -65.654917345736749 0 0 0 0 -51.519807050584859 33.907319441282652 0 33.907319441282652 -43.468178587733746 0 0 0 0 -32.487941864208551 13.403995622548791 0 13.403995622548791 -30.521392325302259 0 0 0 0 32.865703156910513 21.511035492354129 0 21.511035492354129 -24.785676250695566 0 0 0 0 -103.83237044851467 66.666679177662786 0 66.666679177662786 -10.212144652175084 0 0 0 0 31.467030580623074 6.9813785171853766 0 6.9813785171853766 -6.2521784983715794 0 0 0 0 178.63921068834316 -60.976768966732607 0 -60.976768966732607 7.1046841617085192 0 0 0 0 -68.973088453444689 80.598836663826319 0 80.598836663826319 -7.4613256967177222 0 0 0 0 107.25539370095066 -14.62402893868375 0 -14.62402893868375 -4.3136510519966578 0 0 0 0 92.418121715745656 4.1325282084403625 0 4.1325282084403625 -8.7358404822643934 0 0 0 0 88.452281165376917 -8.8778260771171063 0 -8.8778260771171063 1.3259883916148283 0 0 0 0 104.10102951418958 -7.0536117006745371 0 -7.0536117006745371 -5.0676295419425514 0 0 0 0 95.755178822147172 -1.3737560973862628 0 -1.3737560973862628 -6.6602844081680814 0 0 0 0 87.315572175335546 -5.4167361235499811 0 -5.4167361235499811 0.68466938054505988 0 0 0 0 29.674407369491043 6.5201211887309256 0 6.5201211887309256 -8.792148057669575 0 0 0 0 113.36944234057592 -19.948104303311993 0 -19.948104303311993 0.6394248455953857 0 0 0 0 93.84569965719129 -8.561018201889965 0 -8.561018201889965 0.77009647631075495 0 0 0 0 -2.6141978744970231 0.47703033817380458 0 0.47703033817380458 1.0517427135804454 0 0 0 0 94.410870482483006 -13.292810739016204 0 -13.292810739016204 0.30268716929367656 0 0 0 0 117.66318359755678 -41.53519518579224 0 -41.53519518579224 36.503752666743367 0 0 0 0 86.957599041670619 -10.045050189770791 0 -10.045050189770791 -1.1029078352962642 0 0 0 0 60.212574948722619 5.6326396196612301 0 5.6326396196612301 -14.023689694295467 0 0 0 0 29.06328019537176 5.7697026141226218 0 5.7697026141226218 -8.5825465902635578 0 0 0 0 57.551009461945796 -11.614676328164933 0 -11.614676328164933 -13.628036214729036 0 0 0 0 56.473347228153159 1.8450325511827348 0 1.8450325511827348 -5.5101882589063322 0 0 0 0 73.512010631366138 -1.4065686751055182 0 -1.4065686751055182 -17.375035740366002 0 0 0 0 29.39304897371947 -3.6705423517068567 0 -3.6705423517068567 -5.4009726553665658 0 0 0 0 64.107761051503985 -2.8749731668708591 0 -2.8749731668708591 -5.6212023903635782 0 0 0 0 78.504184931596683 -7.8330181698943306 0 -7.8330181698943306 -4.7436716939514554 0 0 0 0 67.645715071863378 -8.7060957928742937 0 -8.7060957928742937 1.4500032310024835 0 0 0 0 52.252664891623823 5.9238884229982514 0 5.9238884229982514 -11.393431262367375 0 0 0 0 69.17445380546269 -15.246433148239703 0 -15.246433148239703 -1.7089679444616195 0 0 0 0 81.657911389687797 -27.577317466700606 0 -27.577317466700606 10.26493297214256 0 0 0 0 10.613175750209905 -1.7014882460141081 0 -1.7014882460141081 -0.039511073126980989 0 0 0 0 76.090662442427856 -11.790174041414957 0 -11.790174041414957 -0.11138966213911772 0 0 0 0 65.459430617484031 -6.4420565502705358 0 -6.4420565502705358 -3.3460035091666214 0 0 0 0 57.713159436170827 -18.422866025432995 0 -18.422866025432995 -21.870047455651729 0 0 0 0 98.188381134867086 10.176008570487284 0 10.176008570487284 -29.508256710112619 0 0 0 0 -1.3047633307686093 0.55143959389248209 0 0.55143959389248209 0.010673022166137969 0 0 0 0 76.028922252611665 -16.560355323199474 0 -16.560355323199474 -22.46354323824653 0 0 0 0 265.57300888653845 -31.288164582208992 0 -31.288164582208992 -84.056231424397993 0 0 0 0 39.161026441281138 36.285278664450288 0 36.285278664450288 10.633207572993342 0 0 0 0 84.00580248238839 -9.2273086345953743 0 -9.2273086345953743 -6.0992800914918917 0 0 0 0 17.174713513176052 4.383416250933891 0 4.383416250933891 -7.3804423070432605 0 0 0 0 6.0225190693441562 -3.514178969414214 0 -3.514178969414214 -3.4934441056268035 0 0 0 0 79.655272189840616 31.596968668685804 0 31.596968668685804 20.389485718209471 0 0 0 0 122.83510029042372 -62.141330134083546 0 -62.141330134083546 2.0661951187898921 0 0 0 0 33.198783213840215 24.870851187066819 0 24.870851187066819 11.867880652476742 0 0 0 0 21.067798870959635 6.9381331683206326 0 6.9381331683206326 -16.118896823075005 0 0 0 0 340.22604560334003 162.25265917772776 0 162.25265917772776 19.672837139325566 0 0 0 0 96.352490008066525 -57.900723306935106 0 -57.900723306935106 3.1159274534840051 0 0 0 0 48.547210254103732 -9.5443684531882127 0 -9.5443684531882127 -5.7671579846359027 0 0 0 0 84.526225494329992 -16.789651026797856 0 -16.789651026797856 -25.663763813203332 0 0 0 0 67.982120658147323 -14.632745815268208 0 -14.632745815268208 -24.160215657522713 0 0 0 0 200.71383180614794 -82.640692009613304 0 -82.640692009613304 -93.357815369696254 0 0 0 0 68.910731458824245 -18.617364738973009 0 -18.617364738973009 -13.275374668608531 0 0 0 0 83.638028162196861 80.335000840648263 0 80.335000840648263 28.726338639781716 0 0 0 0 34.780114459649624 25.36951746169342 0 25.36951746169342 -11.200900585506574 0 0 0 0 73.444711448799353 13.468818209035817 0 13.468818209035817 -11.106063344113863 0 0 0 0 59.632948691854835 7.5712791063433542 0 7.5712791063433542 -30.861290705447118 0 0 0 0 64.114363498905732 -0.56982148054885329 0 -0.56982148054885329 -18.711304088526958 0 0 0 0 59.903063526857295 -3.341454712463019 0 -3.341454712463019 -18.24043680881914 0 0 0 0 67.623528686865711 -5.5023684059500511 0 -5.5023684059500511 -20.512393097200402 0 0 0 0 57.659626364562428 -8.4462109358828457 0 -8.4462109358828457 -17.118551225429201 0 0 0 0 40.861691386104525 -7.4964568873395052 0 -7.4964568873395052 -4.0776244955296983 0 0 0 0 48.579371631487447 3.4173716855821112 0 3.4173716855821112 -19.057759564278967 0 0 0 0 54.620866177559947 9.6088271013777558 0 9.6088271013777558 -12.805248664319151 0 0 0 0 41.504734838479465 7.9554408509148828 0 7.9554408509148828 -6.8768845535146301 0 0 0 0 34.139009738835739 1.6989751079963753 0 1.6989751079963753 -29.678284903515305 0 0 0 0 35.125157121394295 22.249345755644754 0 22.249345755644754 -61.091237980421283 0 0 0 0 40.244881797334529 2.2726381136790224 0 2.2726381136790224 -28.136498610994749 0 0 0 0 34.961610867825584 8.1160233517630083 0 8.1160233517630083 -4.7222241319407345 0 0 0 0 56.761145484146255 15.405248836992541 0 15.405248836992541 -57.231606213032137 0 0 0 0 31.002823159808912 7.7448374248265139 0 7.7448374248265139 -14.685516979054643 0 0 0 0 35.018333193829591 21.99576347047784 0 21.99576347047784 -18.49964592456687 0 0 0 0 48.719749532989226 -27.725126066022312 0 -27.725126066022312 -26.395753014144248 0 0 0 0 38.543744723137934 7.5355544112107964 0 7.5355544112107964 -17.059302455660827 0 0 0 0 -49.61445924306463 14.35569060713101 0 14.35569060713101 -40.134103492880968 0 0 0 0 29.54579030375001 1.0023826759670698 0 1.0023826759670698 -11.758559007472353 0 0 0 0 -21.985401248457492 -78.521319318658698 0 -78.521319318658698 -4.0037101302477822 0 0 0 0 21.053927525456515 -2.3920602623078651 0 -2.3920602623078651 -20.764478201422612 0 0 0 0 -17.454956504734582 9.4874588979457712 0 9.4874588979457712 -42.585976642627088 0 0 0 0 42.29131735495173 8.3222144812714163 0 8.3222144812714163 -13.342705450847038 0 0 0 0 60.403008460532874 12.710889077045977 0 12.710889077045977 -48.353181971418053 0 0 0 0 23.2327482381952 20.920079443822488 0 20.920079443822488 -42.708292608185729 0 0 0 0 34.6951093703303 -1.0420735941522707 0 -1.0420735941522707 -15.574559932000589 0 0 0 0 18.957976516074268 12.28507084426019 0 12.28507084426019 -28.855544361380453 0 0 0 0 21.545407136510448 9.7824741345432891 0 9.7824741345432891 -16.000755218460093 0 0 0 0 27.915523357747588 13.265013722353615 0 13.265013722353615 -40.31813139010319 0 0 0 0 32.398078227806707 26.913634599608429 0 26.913634599608429 -14.564635743642622 0 0 0 0 68.083972933171026 -2.9245905625391515 0 -2.9245905625391515 -117.20216205177712 0 0 0 0 69.103723590349546 -15.026105806296982 0 -15.026105806296982 -6.5541184633893863 0 0 0 0 -4.0795575791271403 64.276856598142331 0 64.276856598142331 -264.09064210533506 0 0 0 0 3.2467261805034582 -1.5885758694685848 0 -1.5885758694685848 -1.7327933122231904 0 0 0 0 28.281051513485409 3.4755521717966076 0 3.4755521717966076 -0.88050927330546003 0 0 0 0 232.45217790672905 -73.235490670730087 0 -73.235490670730087 -4.3074052581750948 0 0 0 0 0.0021785696952179023 3.1240281243884809 0 3.1240281243884809 -1.2217608434987879 0 0 0 0 87.816024031781126 -19.808177791179332 0 -19.808177791179332 -23.5583984623986 0 0 0 0 32.701101321101305 58.034990761018662 0 58.034990761018662 -104.40980016052072 0 0 0 0 -21.173296522756573 46.576425449143699 0 46.576425449143699 101.74066913442857 0 0 0 0 130.08490664447891 24.331193527631513 0 24.331193527631513 -41.370850299565063 0 0 0 0 160.17935684637632 33.520502227805991 0 33.520502227805991 -43.354767732388041 0 0 0 0 253.84081269052695 76.17705095183419 0 76.17705095183419 -21.957539052103584 0 0 0 0 1.801252594363234 0.046512692359357288 0 0.046512692359357288 -4.9271155660861226 0 0 0 0 194.59390033443924 65.789091523620129 0 65.789091523620129 -44.419330704012253 0 0 0 0 131.68484411257668 -8.7455335536933489 0 -8.7455335536933489 -29.88703684289743 0 0 0 0 87.879762673110235 -22.913153981205141 0 -22.913153981205141 -30.455962342606199 0 0 0 0 227.91026352063636 16.139087897453805 0 16.139087897453805 -49.752198214452847 0 0 0 0 10.952856575959117 5.6025522101508969 0 5.6025522101508969 -4.1224325696506021 0 0 0 0 -49.334670078533236 -120.76144895949938 0 -120.76144895949938 194.96390451778316 0 0 0 0 -37.224975919350982 -72.789575994139057 0 -72.789575994139057 72.256147685253893 0 0 0 0 217.42629283195492 -32.018479939054316 0 -32.018479939054316 -64.08784255871069 0 0 0 0 83.616500957345124 -53.849747923077643 0 -53.849747923077643 73.892602362529033 0 0 0 0 51.255686006494216 -136.40166851033973 0 -136.40166851033973 -118.82908098081316 0 0 0 0 124.90924184623873 -182.67626269048387 0 -182.67626269048387 4.1795780208198678 0 0 0 0 79.895499238220509 -145.74641677306226 0 -145.74641677306226 33.652551286016148 0 0 0 0 128.65137479933037 -76.720220975554867 0 -76.720220975554867 -170.35351017145103 0 0 0 0 -74.432289326970931 -47.645818856336064 0 -47.645818856336064 -31.521102359949055 0 0 0 0 156.93709344525996 29.346522733745246 0 29.346522733745246 -444.55058601746487 0 0 0 0 -50.781145908869803 -55.9215359312293 0 -55.9215359312293 -162.79362937679548 0 0 0 0 217.78880667715566 89.567766161840183 0 89.567766161840183 -86.12449283673476 0 0 0 0 241.26535766018787 -96.741036720432533 0 -96.741036720432533 -188.80306120353077 0 0 0 0 121.5614452825248 -78.302945938648364 0 -78.302945938648364 -27.148665276988595 0 0 0 0 76.265271888201823 -4.6782903857551901 0 -4.6782903857551901 -167.47971849338666 0 0 0 0 53.640166241697443 11.418389073281219 0 11.418389073281219 -8.2207562596931893 0 0 0 0 51.344051156371279 15.726989536915141 0 15.726989536915141 -14.388076605119295 0 0 0 0 23.117861448842064 18.099645240355883 0 18.099645240355883 -6.7094788918923198 0 0 0 0 58.36682741016088 17.006605909778258 0 17.006605909778258 -4.8645637282183634 0 0 0 0 24.463792597918655 -66.473431315752805 0 -66.473431315752805 -153.42532685975493 0 0 0 0 62.017353550894768 21.40907375415145 0 21.40907375415145 -17.874806641026225 0 0 0 0 59.641045827645399 8.2277298326567028 0 8.2277298326567028 -5.2974460506850614 0 0 0 0 10.851596352200758 1.2226018224035329 0 1.2226018224035329 -2.6553866247123157 0 0 0 0 72.201630736984953 15.916449294674294 0 15.916449294674294 -15.069545399455819 0 0 0 0 65.539777958529157 5.5867005787157495 0 5.5867005787157495 -5.4303015262548797 0 0 0 0 23.136950017483812 15.45305835777539 0 15.45305835777539 -10.898230932354345 0 0 0 0 151.86075718753273 -119.61013759959178 0 -119.61013759959178 87.446563688632068 0 0 0 0 20.749773734264437 9.3999491538934521 0 9.3999491538934521 0.19804228848385996 0 0 0 0 12.246749381160043 2.1125163831659393 0 2.1125163831659393 -40.780407867286158 0 0 0 0 73.634638654228183 8.0471860869765806 0 8.0471860869765806 -14.617333311495258 0 0 0 0 80.293707639921195 4.5553327526886278 0 4.5553327526886278 -10.144440352989477 0 0 0 0 73.801056446085568 11.046022822708892 0 11.046022822708892 3.9213011560659652 0 0 0 0 393.27335203012626 -44.657698996760701 0 -44.657698996760701 -477.74672022340292 0 0 0 0 326.15070636154269 -561.52798117529073 0 -561.52798117529073 369.79983741862389 0 0 0 0 763.62519644699933 -283.39116246004869 0 -283.39116246004869 22.460293151907536 0 0 0 0 250.404151190829 -329.20566806435272 0 -329.20566806435272 54.086704173185353 0 0 0 0 117.58896413793991 -39.421262921314337 0 -39.421262921314337 219.66789408606974 0 0 0 0 -10.73432280390989 53.000220383538363 0 53.000220383538363 92.693198783772459 0 0 0 0 -29.050334414539975 -5.2772877800164224 0 -5.2772877800164224 -0.16531598867618413 0 0 0 0 9.5047416682789674 0.47989905021562151 0 0.47989905021562151 -0.61514256314287863 0 0 0 0 149.85560065790196 117.44552198978727 0 117.44552198978727 15.241172830732467 0 0 0 0 452.03421448584413 143.87789477846763 0 143.87789477846763 -2.2826344754254819 0 0 0 0 720.88249540516699 -215.78045395791764 0 -215.78045395791764 119.99596437205219 0 0 0 0 306.37981658379431 -190.5620674410263 0 -190.5620674410263 -24.136414477700555 0 0 0 0 93.532152551022591 108.35621563897087 0 108.35621563897087 -5.5864693096521592 0 0 0 0 228.72414302206016 2.2407856806952395 0 2.2407856806952395 41.775072615555473 0 0 0 0 46.969597383696964 20.021742081599285 0 20.021742081599285 -36.960727623425669 0 0 0 0 -20.281075223436346 59.427135573463033 0 59.427135573463033 54.420697621397437 0 0 0 0 45.277866209638887 41.792098221669221 0 41.792098221669221 81.675048523164037 0 0 0 0 -85.7215167868344 44.31925451761613 0 44.31925451761613 21.859003934994263 0 0 0 0 5.9932550808653957 13.128147806900294 0 13.128147806900294 0.77733178301067773 0 0 0 0 -237.1944762264684 618.93299670671297 0 618.93299670671297 95.261693947943286 0 0 0 0 44.621145763076626 42.764338552840471 0 42.764338552840471 -3.4730230937256135 0 0 0 0 97.928816531042685 88.772291774528895 0 88.772291774528895 -104.35126571972739 0 0 0 0 5.8818760253979008 -1.0019850960952787 0 -1.0019850960952787 -0.72804843700765398 0 0 0 0 109.97882087220205 163.6077127559609 0 163.6077127559609 245.65913672428263 0 0 0 0 572.58075446622388 -304.11330238991701 0 -304.11330238991701 23.41568440789009 0 0 0 0 -37.838904885680677 -27.469077201351563 0 -27.469077201351563 111.51341479072795 0 0 0 0 386.52912893383473 260.31237952347544 0 260.31237952347544 63.250871303363951 0 0 0 0 243.8231503777788 85.807687923364924 0 85.807687923364924 -44.401744264290528 0 0 0 0 341.82930999790551 -154.61228130278775 0 -154.61228130278775 -237.42726867108897 0 0 0 0 -40.053723202530819 90.853104879613099 0 90.853104879613099 -15.696607167611077 0 0 0 0 31.95411511823562 43.343538166804521 0 43.343538166804521 0.29738070864706567 0 0 0 0 -774.2474627322008 20.887387035121776 0 20.887387035121776 338.08885631576027 0 0 0 0 88.62783747288313 451.4563339328601 0 451.4563339328601 304.69206586562859 0 0 0 0 121.20555229108368 -211.02428725491629 0 -211.02428725491629 -260.8449973870824 0 0 0 0 507.45240201010893 -695.56551204077834 0 -695.56551204077834 -457.58806070771152 0 0 0 0 786.16808221163228 1012.73178737405 0 1012.73178737405 59.351599433468209 0 0 0 0 8.8052083195892692 -3.2520213815675874 0 -3.2520213815675874 2.3008824441175397 0 0 0 0 275.09471970353479 -29.596992127078622 0 -29.596992127078622 6.6874088624432915 0 0 0 0 425.18588842032477 362.66930171676961 0 362.66930171676961 367.06633749858918 0 0 0 0 687.65691636945121 -329.83439944909333 0 -329.83439944909333 312.3082446297567 0 0 0 0 258.77191389599466 59.90612203597766 0 59.90612203597766 118.63022901132456 0 0 0 0 413.31809692370007 -28.250972737598659 0 -28.250972737598659 -18.822558168219928 0 0 0 0 1109.7948927102552 52.890885853503477 0 52.890885853503477 -307.0317447513097 0 0 0 0 5.8318592422630218 -2.1869728344503869 0 -2.1869728344503869 -0.57339397196726838 0 0 0 0 -412.77726136590354 55.259496334916406 0 55.259496334916406 194.53530416995721 0 0 0 0 73.622425047709839 -267.21755405509799 0 -267.21755405509799 225.59924458487765 0 0 0 0 323.99584369508011 -258.36122441236 0 -258.36122441236 42.056059184833316 0 0 0 0 34.259620742232073 228.64280279801415 0 228.64280279801415 -99.374568814718486 0 0 0 0 -53.040825580173987 197.80256750637324 0 197.80256750637324 78.835363012486823 0 0 0 0 224.64074209649698 26.828085343924272 0 26.828085343924272 65.434623404802096 0 0 0 0 -409.26954929484054 123.86691646715462 0 123.86691646715462 53.12518246966107 0 0 0 0 6.8399742760634581 2.4788402204339803 0 2.4788402204339803 -1.4471548848072129 0 0 0 0 625.93836806286708 -9.1183663488733941 0 -9.1183663488733941 -238.23700604122587 0 0 0 0 249.32555808514007 -284.23300031078065 0 -284.23300031078065 -311.90825512339302 0 0 0 0 -167.55432562122587 -115.91081465540333 0 -115.91081465540333 220.05867706098178 0 0 0 0 210.81716549159319 345.7250994341245 0 345.7250994341245 453.5697730031186 0 0 0 0 91.805350969909341 96.830173604735819 0 96.830173604735819 254.71363813873177 0 0 0 0 219.39798807547049 17.55830451496422 0 17.55830451496422 0.52433025764321428 0 0 0 0 286.61758130183443 157.61797142103705 0 157.61797142103705 49.848241073820645 0 0 0 0 79.336434032702527 52.108665460124939 0 52.108665460124939 104.64190956462608 0 0 0 0 43.827080559916794 83.261656535861619 0 83.261656535861619 140.33272365447897 0 0 0 0 54.061303768525249 63.748800670204673 0 63.748800670204673 9.0950716018551248 0 0 0 0 152.55434046650771 122.13806897727045 0 122.13806897727045 43.513561899031629 0 0 0 0 173.27582773007452 -5.7332186922462824 0 -5.7332186922462824 -69.448887034928703 0 0 0 0 159.60387602521223 60.072986090684026 0 60.072986090684026 -30.816871708178041 0 0 0 0 157.7114028550568 50.287231904341752 0 50.287231904341752 -20.74218798628317 0 0 0 0 41.633054043297307 -11.199233215626464 0 -11.199233215626464 -23.03539284292674 0 0 0 0 108.12399996441673 -46.427626468954259 0 -46.427626468954259 -56.249732279812633 0 0 0 0 39.052241135155782 -24.778265715961425 0 -24.778265715961425 -40.665716697550124 0 0 0 0 59.700579532714158 29.858260501387818 0 29.858260501387818 3.2741190470982864 0 0 0 0 -188.81851888338861 18.767889802948048 0 18.767889802948048 13.740568554770903 0 0 0 0 -419.98975755698604 284.98595284834812 0 284.98595284834812 505.02424911660728 0 0 0 0 37.165540172444381 35.838324896685435 0 35.838324896685435 -13.981744272497892 0 0 0 0 -421.75185429999311 -185.45404984665225 0 -185.45404984665225 908.34055743667682 0 0 0 0 520.41357218966004 178.49978757307485 0 178.49978757307485 -386.13588027577737 0 0 0 0 449.95607854190166 -91.991546989793733 0 -91.991546989793733 -246.2034781903053 0 0 0 0 -6.7133882132766303 -216.38810813081977 0 -216.38810813081977 -43.55037209182683 0 0 0 0 583.52978265102138 291.16600929729066 0 291.16600929729066 0.14002329885397558 0 0 0 0 233.16439226543298 28.511738832013179 0 28.511738832013179 -58.563641162208931 0 0 0 0 40.905592331575463 21.176026680068389 0 21.176026680068389 67.110492001279226 0 0 0 0 12.907567129170445 -5.193474502410055 0 -5.193474502410055 -9.6580458583803352 0 0 0 0 49.183044682111358 39.537201686817752 0 39.537201686817752 -10.138313875439053 0 0 0 0 71.318342709797435 80.933368431653435 0 80.933368431653435 56.623595657541728 0 0 0 0 152.57433872157708 48.595897244741536 0 48.595897244741536 -34.443720724291779 0 0 0 0 13.685804040360381 52.961444560186465 0 52.961444560186465 -65.06989544886892 0 0 0 0 81.49150114148506 16.727491498175368 0 16.727491498175368 -48.588456674891859 0 0 0 0 21.564267293884768 88.831163154395654 0 88.831163154395654 -253.60517470500781 0 0 0 0 36.37361804759712 6.1137049830404067 0 6.1137049830404067 -122.24093998884018 0 0 0 0 63.064933129448036 60.725608893055778 0 60.725608893055778 -91.235178634260592 0 0 0 0 64.512988287839107 50.015734580197204 0 50.015734580197204 -73.335845249892373 0 0 0 0 59.394662070924824 80.588962396915122 0 80.588962396915122 -30.211493052873266 0 0 0 0 64.640413121982419 51.334778781807699 0 51.334778781807699 -60.135530753967032 0 0 0 0 54.230000564100919 33.877531903530326 0 33.877531903530326 -77.974671899595705 0 0 0 0 54.33139080766523 35.939035046543751 0 35.939035046543751 -50.436542152265247 0 0 0 0 29.447341808496276 36.827329916354756 0 36.827329916354756 -21.232982753130273 0 0 0 0 41.995000336231897 15.890964805572366 0 15.890964805572366 -11.846957764224499 0 0 0 0 34.931155625061365 52.977059410556876 0 52.977059410556876 3.0691877558156193 0 0 0 0 7.152434266621583 18.596832877515972 0 18.596832877515972 -14.929011713313546 0 0 0 0 -55.380843578313943 128.89553469821249 0 128.89553469821249 73.45610363284618 0 0 0 0 11.56055912849115 34.773838481756002 0 34.773838481756002 -41.593093396984841 0 0 0 0 32.34821160936491 3.2449409651385395 0 3.2449409651385395 -30.844584863247007 0 0 0 0 20.904438093632052 18.467315024583513 0 18.467315024583513 -49.866146311345801 0 0 0 0 -18.410651835773024 34.112853906456394 0 34.112853906456394 -5.4174048512835498 0 0 0 0 39.367138464358533 4.265241754302366 0 4.265241754302366 -24.891113509898275 0 0 0 0 23.567792968882713 54.975730967453501 0 54.975730967453501 -71.949149156791236 0 0 0 0 99.151571419555694 -32.753403440814054 0 -32.753403440814054 -126.19553804363022 0 0 0 0 127.35904083550849 13.751013009465055 0 13.751013009465055 -101.27074311859997 0 0 0 0 86.477530450269114 83.517558714613187 0 83.517558714613187 -60.297831381376 0 0 0 0 29.649372705560722 -7.12587453931895 0 -7.12587453931895 -4.589025646897376 0 0 0 0 69.43896769231651 -48.003119440250885 0 -48.003119440250885 -129.21395618710051 0 0 0 0 23.12462157124537 -18.007475257537862 0 -18.007475257537862 -108.15866927294417 0 0 0 0 120.91691029994399 -105.21451243428146 0 -105.21451243428146 301.6375477804263 0 0 0 0 8.4496235933250432 1.0556704232180607 0 1.0556704232180607 -6.8768588214238484 0 0 0 0 240.56922445941018 -23.814054433055389 0 -23.814054433055389 46.362156334426345 0 0 0 0 221.80253026093123 -202.25777849402766 0 -202.25777849402766 -278.10102409257775 0 0 0 0 13.894899919354771 1.602465827310283 0 1.602465827310283 -2.4876095827931142 0 0 0 0 -187.42766255277093 105.54220059299223 0 105.54220059299223 197.86775838846143 0 0 0 0 65.317356886109337 128.33239590631956 0 128.33239590631956 -53.336196483018739 0 0 0 0 30.174715878078132 15.882228724385186 0 15.882228724385186 43.132250936144374 0 0 0 0 55.000047893154829 24.554315392565798 0 24.554315392565798 10.883324262328259 0 0 0 0 67.044344709080178 65.032245169431064 0 65.032245169431064 -66.291456287029661 0 0 0 0 115.87463825006853 25.474835670173121 0 25.474835670173121 -75.613907467790483 0 0 0 0 8.8612495055967884 82.947775929870687 0 82.947775929870687 31.598907472492556 0 0 0 0 -92.364453200076241 210.53495925601192 0 210.53495925601192 80.021874693110703 0 0 0 0 86.157857316793525 27.757785928657086 0 27.757785928657086 -127.75260399798663 0 0 0 0 19.721545384524234 11.146316368473357 0 11.146316368473357 0.40136572609046084 0 0 0 0 29.431772197160171 53.539910071459303 0 53.539910071459303 -4.1887895029485662 0 0 0 0 20.167907271416993 16.79313406910245 0 16.79313406910245 -9.3160634770490542 0 0 0 0 9.4135844855844653 17.820673112796847 0 17.820673112796847 -0.82377680196328185 0 0 0 0 63.940659442126559 20.9160235050241 0 20.9160235050241 -1.9578436420792231 0 0 0 0 121.16522313459427 139.77296687036076 0 139.77296687036076 3.942786544097018 0 0 0 0 102.60048869354068 5.4029849116461861 0 5.4029849116461861 -33.345629875591513 0 0 0 0 169.66151214942511 15.775538803153495 0 15.775538803153495 -49.584750219373575 0 0 0 0 70.745741847000318 -16.605136683647942 0 -16.605136683647942 -23.821942497440332 0 0 0 0 110.40508612440317 22.996058228665419 0 22.996058228665419 -25.673069550539964 0 0 0 0 138.53840739850421 56.146746176865264 0 56.146746176865264 -18.216849474574701 0 0 0 0 114.73071981598332 -6.2042228015795899 0 -6.2042228015795899 -56.962703917741905 0 0 0 0 140.19331169370707 -39.809289036499194 0 -39.809289036499194 -57.384489999323705 0 0 0 0 81.439634760093895 5.7081254476602226 0 5.7081254476602226 -10.233929001691001 0 0 0 0 96.065149623376783 -27.409457001469377 0 -27.409457001469377 39.104337032879982 0 0 0 0 121.64441699432427 22.411902216209704 0 22.411902216209704 4.5194741158914837 0 0 0 0 110.45404835656518 19.538483003079889 0 19.538483003079889 15.094110984436824 0 0 0 0 120.06226498633623 19.363533240435288 0 19.363533240435288 -26.227661963488671 0 0 0 0 122.89928258479631 10.93478672835495 0 10.93478672835495 -8.8147772449756019 0 0 0 0 124.98802824584709 12.446557057266986 0 12.446557057266986 -31.440106774728136 0 0 0 0 105.80591521844326 -5.5946259143822061 0 -5.5946259143822061 17.185405122320276 0 0 0 0 112.29533975129016 31.283572092263128 0 31.283572092263128 45.023262264810327 0 0 0 0 172.63141401589382 -11.089711625597943 0 -11.089711625597943 35.803435089381111 0 0 0 0 119.77877671478927 39.411656040494876 0 39.411656040494876 -6.1193138573125623 0 0 0 0 49.49771953310119 4.0837037418948512 0 4.0837037418948512 -23.134159349838257 0 0 0 0 64.44852673956467 35.519128253931044 0 35.519128253931044 17.54277266830422 0 0 0 0 92.170303928684007 168.40016053997866 0 168.40016053997866 -75.854630992675766 0 0 0 0 121.54374908567661 189.89389840804324 0 189.89389840804324 228.78587826870054 0 0 0 0 27.692721162602538 8.5606032429386119 0 8.5606032429386119 14.102426876747771 0 0 0 0 0.44191674064632025 -2.0061865437021211 0 -2.0061865437021211 0.17713679118343423 0 0 0 0 203.44910613456159 83.776353001226113 0 83.776353001226113 -0.74053473939130754 0 0 0 0 69.506107089022407 -21.477071449074998 0 -21.477071449074998 -82.03784997188643 0 0 0 0 76.211915950552793 60.245285040002081 0 60.245285040002081 0.14348994571767201 0 0 0 0 152.60966099434154 61.777103481462333 0 61.777103481462333 -0.060402119453391148 0 0 0 0 118.83973978318681 36.122383819410594 0 36.122383819410594 -1.9474486303048337 0 0 0 0 109.77060386902303 58.350421327433125 0 58.350421327433125 118.04798743184179 0 0 0 0 117.77834340860136 44.357230592890211 0 44.357230592890211 30.009619281174253 0 0 0 0 108.27447251887679 42.959661055668334 0 42.959661055668334 32.481468861568828 0 0 0 0 146.36644979040284 59.977898213401595 0 59.977898213401595 25.300408630277545 0 0 0 0 137.67944185019587 44.427700129460241 0 44.427700129460241 0.043637146079690402 0 0 0 0 131.70371659609373 33.954811064809377 0 33.954811064809377 18.763260662747967 0 0 0 0 44.610512370076322 1.8450079137126068 0 1.8450079137126068 -9.6065514949409589 0 0 0 0 39.312892716579086 1.4699205085439928 0 1.4699205085439928 -7.0841503417904725 0 0 0 0 48.259715213899085 7.2100015230106322 0 7.2100015230106322 -4.4387899042528502 0 0 0 0 36.381038056395482 -5.332811143899562 0 -5.332811143899562 -11.948057055982645 0 0 0 0 41.403192380557357 0.2268493393506219 0 0.2268493393506219 -3.623104467011693 0 0 0 0 68.683238227922175 0.4488014169020289 0 0.4488014169020289 -10.811416842442268 0 0 0 0 133.71986284974992 25.89053144004103 0 25.89053144004103 -33.461041604465322 0 0 0 0 61.398178094794275 -38.009448717805498 0 -38.009448717805498 1.5422377872972319 0 0 0 0 97.287688623415306 27.956748803201435 0 27.956748803201435 3.9808350736084321 0 0 0 0 68.690835349014378 5.5858632955198573 0 5.5858632955198573 -14.89270779016806 0 0 0 0 86.299501365247124 34.085628051609888 0 34.085628051609888 1.911084637015847 0 0 0 0 51.930630835269568 2.4335599030367234 0 2.4335599030367234 -11.720620560708008 0 0 0 0 38.109879075354172 4.8184290680480899 0 4.8184290680480899 -21.378526888685354 0 0 0 0 107.94997342875286 18.569283608062051 0 18.569283608062051 -40.009830948621129 0 0 0 0 60.545486107235774 9.7236976740837235 0 9.7236976740837235 28.862390385220124 0 0 0 0 101.00526212945988 7.9912238174429149 0 7.9912238174429149 -41.596854895751676 0 0 0 0 38.881939880652141 -1.9910701034498288 0 -1.9910701034498288 -5.0489402704152759 0 0 0 0 111.18708805496863 54.900574411109119 0 54.900574411109119 -68.795630176097575 0 0 0 0 139.73875715509348 34.046384682420467 0 34.046384682420467 -63.737399195099897 0 0 0 0 8.6017543192508583 11.824840364370104 0 11.824840364370104 7.0617976765164503 0 0 0 0 29.691553177188325 144.67079058817336 0 144.67079058817336 46.731329590231098 0 0 0 0 80.257245600286751 40.102736067556918 0 40.102736067556918 19.938581626975889 0 0 0 0 67.793350421678042 27.150358352292784 0 27.150358352292784 -32.441325115888532 0 0 0 0 54.834942785557359 25.993657263041925 0 25.993657263041925 7.2643287883260257 0 0 0 0 113.87615106131125 34.160657663006532 0 34.160657663006532 -2.7689015854120953 0 0 0 0 20.866750297369435 16.758832276391331 0 16.758832276391331 -8.5575068384168844 0 0 0 0 66.271298684646695 24.688220185572035 0 24.688220185572035 -0.19794292839767191 0 0 0 0 48.67367440080335 22.664892250851736 0 22.664892250851736 0.7388030350941559 0 0 0 0 48.807264764007414 31.56895052376629 0 31.56895052376629 2.1099680915851309 0 0 0 0 39.899456871285281 21.854281009207725 0 21.854281009207725 7.1520725492429182 0 0 0 0 3.8337503627295177 2.1203356106813374 0 2.1203356106813374 -0.43400695680951107 0 0 0 0 61.198035388515564 55.842508096526529 0 55.842508096526529 -0.14440402303841893 0 0 0 0 47.058748194132932 20.391568067377676 0 20.391568067377676 25.063407978251469 0 0 0 0 1.8651246325825923 54.880281997662244 0 54.880281997662244 0.85306880337830648 0 0 0 0 -0.25624286010003061 -0.016727374017875718 0 -0.016727374017875718 -0.0721426693279687 0 0 0 0 73.446063852024963 64.044760650865214 0 64.044760650865214 33.964926759351052 0 0 0 0 -19.975144728290616 -21.747788323543904 0 -21.747788323543904 -0.04589668385807362 0 0 0 0 18.068095510025159 14.524216622570172 0 14.524216622570172 -7.3182567703180084 0 0 0 0 65.775575564584869 -25.598909768621468 0 -25.598909768621468 0.12138696612590777 0 0 0 0 27.293194478254009 35.262353547207184 0 35.262353547207184 -15.799060358824264 0 0 0 0 13.849682679443504 -34.796488648894368 0 -34.796488648894368 -15.316910982084714 0 0 0 0 3.5927409154435281 -1.7211293176275149 0 -1.7211293176275149 -1.2464891406592629 0 0 0 0 169.66357857271214 -44.491051902436894 0 -44.491051902436894 1.4551837015722757 0 0 0 0 170.29632222360578 65.599275554005189 0 65.599275554005189 19.617132210861627 0 0 0 0 218.81869060880854 35.57489319488257 0 35.57489319488257 -34.324158314858089 0 0 0 0 18.676469598256517 0.85367108311994999 0 0.85367108311994999 0.0068002890662394039 0 0 0 0 1.8950295496740353 0.11614560583166167 0 0.11614560583166167 0.30746429894839628 0 0 0 0 213.77353070567551 55.485596115511555 0 55.485596115511555 17.205721244418811 0 0 0 0 1.9298345522011005 0.23037175847065328 0 0.23037175847065328 -0.094438644404267608 0 0 0 0 53.249576888774754 -15.457730603438767 0 -15.457730603438767 -0.051456537695622431 0 0 0 0 13.940147246859851 -3.2249865070207484 0 -3.2249865070207484 15.947618797894421 0 0 0 0 85.683446937095141 22.627347516728424 0 22.627347516728424 12.016135380499016 0 0 0 0 78.133225223849877 -7.2922322354528877 0 -7.2922322354528877 11.971831790802527 0 0 0 0 57.131000947934808 -25.236635451157639 0 -25.236635451157639 -3.8862578804901347 0 0 0 0 49.880841721256729 12.247343281336732 0 12.247343281336732 4.9164163538928278 0 0 0 0 35.612155767528748 -14.168398365703489 0 -14.168398365703489 -9.204704395941107 0 0 0 0 37.157241472508758 -7.8127658021650603 0 -7.8127658021650603 -12.569229812551889 0 0 0 0 117.23452195033315 25.429419104844243 0 25.429419104844243 -10.704982126133274 0 0 0 0 17.844939392520843 12.098982753486382 0 12.098982753486382 1.5422902205396816 0 0 0 0 85.056656222266611 0.97839807623464026 0 0.97839807623464026 -0.79324805381321539 0 0 0 0 18.17794264253763 -9.5078802703374379 0 -9.5078802703374379 -2.2886619708009404 0 0 0 0 22.512390328432389 -12.565126245225002 0 -12.565126245225002 0.63207618386848319 0 0 0 0 30.469713466188466 -3.246954765981144 0 -3.246954765981144 -2.6794384989132096 0 0 0 0 26.806934103457024 -11.338309736792951 0 -11.338309736792951 -5.6941187768534292 0 0 0 0 9.6341224412801125 -1.1207237737596358 0 -1.1207237737596358 -0.77565425050247816 0 0 0 0 24.576230225000472 -15.288453688437734 0 -15.288453688437734 5.8723529632200666 0 0 0 0 66.562319157383172 17.44371513693487 0 17.44371513693487 26.982522007498972 0 0 0 0 26.444439448910998 -25.148482070487518 0 -25.148482070487518 6.5921806998020482 0 0 0 0 49.609776548357331 -13.391145417191737 0 -13.391145417191737 -6.974867332926209 0 0 0 0 8.0029254616190428 -8.3244962055209797 0 -8.3244962055209797 1.4666076027301775 0 0 0 0 -25.756815140994149 -42.189332269568261 0 -42.189332269568261 31.232796629622882 0 0 0 0 107.28143419409753 -10.834581082084554 0 -10.834581082084554 -1.5420244601986468 0 0 0 0 129.44454119587317 -2.7336799550867568 0 -2.7336799550867568 -6.0526519584236667 0 0 0 0 49.781086741942111 -3.8270024883863698 0 -3.8270024883863698 -0.21347831325277178 0 0 0 0 74.583412650585785 -29.073187037585541 0 -29.073187037585541 -6.692948393130111 0 0 0 0 62.115156876960839 -2.0894458602545001 0 -2.0894458602545001 -5.2735295142773779 0 0 0 0 46.759513192697113 -12.68387621137213 0 -12.68387621137213 -4.5791513469229335 0 0 0 0 4.3514950107576169 0.28777234557698961 0 0.28777234557698961 0.092647879117425891 0 0 0 0 221.59801951092959 141.60866998749344 0 141.60866998749344 81.122933263018354 0 0 0 0 40.24084597401378 65.061674861434724 0 65.061674861434724 70.191154666945152 0 0 0 0 39.786592370990547 -15.636252316906713 0 -15.636252316906713 11.114588390841462 0 0 0 0 188.33185412992316 62.375762687053523 0 62.375762687053523 4.1521966657593836 0 0 0 0 125.26693116703245 52.988442000323992 0 52.988442000323992 10.27746113843026 0 0 0 0 141.50625950028189 22.944545476634239 0 22.944545476634239 -3.0467432393062879 0 0 0 0 131.6755748946598 -8.5667247495290173 0 -8.5667247495290173 0.16134636866093094 0 0 0 0 0.63334686343634417 -0.17787559162084676 0 -0.17787559162084676 -0.09206285847262019 0 0 0 0 259.60126420870074 67.56764053635365 0 67.56764053635365 -13.66188973852188 0 0 0 0 115.76262517712894 -29.252833741256794 0 -29.252833741256794 0.041028437545609558 0 0 0 0 185.59749594621098 30.496240740456471 0 30.496240740456471 -10.191132786214951 0 0 0 0 229.22922587863286 -49.617508733770592 0 -49.617508733770592 0.81165319320531637 0 0 0 0 190.89551748476515 -33.240755804896878 0 -33.240755804896878 -0.074837931021032672 0 0 0 0 180.98510784134851 -59.847387831600365 0 -59.847387831600365 38.072696794771787 0 0 0 0 129.88876351782528 -25.570637334084616 0 -25.570637334084616 0.033359790780256013 0 0 0 0 175.12882824087501 -60.277090526411179 0 -60.277090526411179 14.678338002307896 0 0 0 0 169.02816930582048 -38.772573812556125 0 -38.772573812556125 5.8414229631306469 0 0 0 0 105.22590906190453 -37.313358393347087 0 -37.313358393347087 46.192216754279833 0 0 0 0 104.51800232937057 -21.323361142470304 0 -21.323361142470304 0.89150769020293907 0 0 0 0 155.64551346926601 -60.551801726937839 0 -60.551801726937839 46.925502706310162 0 0 0 0 129.50960449622653 9.9313588962011679 0 9.9313588962011679 53.557137827826182 0 0 0 0 0.63491783055258111 -0.20646717494224731 0 -0.20646717494224731 -0.12171178411341038 0 0 0 0 144.3978005632016 -14.702391459659889 0 -14.702391459659889 7.2896101803149236 0 0 0 0 381.56863992846047 -10.054554563290623 0 -10.054554563290623 -4.1109068067459802 0 0 0 0 244.18130992149236 -98.422969903894227 0 -98.422969903894227 103.58856617284913 0 0 0 0 191.52821908704937 -32.598076916476352 0 -32.598076916476352 30.765461574207919 0 0 0 0 213.18822661676677 -8.0719430050801311 0 -8.0719430050801311 97.929787704377716 0 0 0 0 168.27981174078013 -43.146671466520026 0 -43.146671466520026 93.821011170910154 0 0 0 0 273.60203271554201 -115.22565117432215 0 -115.22565117432215 286.67824907896164 0 0 0 0 483.3175983504625 -78.887059277254281 0 -78.887059277254281 18.718218588626883 0 0 0 0 425.85078045398404 74.907822585284507 0 74.907822585284507 27.395663785254669 0 0 0 0 293.17155666409235 111.48205789481749 0 111.48205789481749 178.96741252217794 0 0 0 0 187.25305924280838 56.276641294457136 0 56.276641294457136 67.931958818433387 0 0 0 0 218.02180952718481 10.906688135111835 0 10.906688135111835 69.363464469677837 0 0 0 0 250.8299679721531 66.74742769655478 0 66.74742769655478 23.53115295786003 0 0 0 0 219.52283705180162 19.948746039171795 0 19.948746039171795 -42.321394198371593 0 0 0 0 300.17750608320057 -23.892533171781579 0 -23.892533171781579 -48.884546810705785 0 0 0 0 223.74525151126727 -0.33214606444090577 0 -0.33214606444090577 -45.539009479344003 0 0 0 0 79.163691366999046 -21.772498073637717 0 -21.772498073637717 49.032006809613165 0 0 0 0 129.5786232023238 50.457983523698545 0 50.457983523698545 1.4333962519461778 0 0 0 0 127.0867083085177 19.714761872733447 0 19.714761872733447 47.513621288865636 0 0 0 0 49.418629355393932 9.4707986140751927 0 9.4707986140751927 -7.7107733320984266 0 0 0 0 106.41571533643582 69.657190133790039 0 69.657190133790039 -43.812078163064001 0 0 0 0 50.211484634836609 25.928457443558955 0 25.928457443558955 -7.4021777740145502 0 0 0 0 131.18390111105327 -3.6660536105749628 0 -3.6660536105749628 -29.155123964445579 0 0 0 0 92.459399239618506 -40.427816480643699 0 -40.427816480643699 36.323576755482655 0 0 0 0 214.06374653318198 -25.735508700326022 0 -25.735508700326022 -72.347176480093367 0 0 0 0 187.55664895733935 30.377951956434288 0 30.377951956434288 -43.10220084363025 0 0 0 0 179.2968014760263 -12.540033786411641 0 -12.540033786411641 -28.006084900246293 0 0 0 0 184.43333678298222 -5.5481923604271515 0 -5.5481923604271515 -38.414665760676854 0 0 0 0 138.89657848041679 -12.271205165878996 0 -12.271205165878996 -39.34473731085302 0 0 0 0 291.94985184348479 218.68478694666828 0 218.68478694666828 -18.196291684615687 0 0 0 0 191.11962756955472 -24.130234945897428 0 -24.130234945897428 15.330417914750058 0 0 0 0 147.29897965243435 -80.229289057310268 0 -80.229289057310268 -51.870558495918161 0 0 0 0 68.53933907910573 -40.369756580084157 0 -40.369756580084157 -7.4181299524711237 0 0 0 0 111.17921915933584 -100.10242962909969 0 -100.10242962909969 -52.248143972162438 0 0 0 0 19.52775983436814 -33.658293393339278 0 -33.658293393339278 -16.249374050475044 0 0 0 0 20.077473139197934 -3.2885375171959765 0 -3.2885375171959765 14.236587186762574 0 0 0 0 51.913075935843949 -1.4885688496478338 0 -1.4885688496478338 -5.9543486035753741 0 0 0 0 -14.746371042070678 -40.222202110388025 0 -40.222202110388025 2.1805407956688327 0 0 0 0 66.107966078197933 -43.021698572508967 0 -43.021698572508967 1.9898624402342193 0 0 0 0 10.738003690842447 -16.833572806405186 0 -16.833572806405186 16.922520464930514 0 0 0 0 224.57675955697778 -178.07239538011237 0 -178.07239538011237 93.915132763249858 0 0 0 0 614.84952887427062 -30.77319652290447 0 -30.77319652290447 -148.00173172879838 0 0 0 0 388.43676785982097 15.883792642635171 0 15.883792642635171 -152.53177137431555 0 0 0 0 299.57271840419708 52.77520347686216 0 52.77520347686216 -26.657921627224624 0 0 0 0 445.24807286111172 94.886280863893916 0 94.886280863893916 -83.287563381521963 0 0 0 0 353.62899373255641 130.87765486236083 0 130.87765486236083 51.770164339644026 0 0 0 0 4.8945185296906857 136.73641902002191 0 136.73641902002191 -69.68271784189983 0 0 0 0 389.7702714617044 -396.96909037976934 0 -396.96909037976934 -371.54353417990842 0 0 0 0 -714.65595717042743 -425.40063863021169 0 -425.40063863021169 315.76015287910536 0 0 0 0 112.32667982800922 -538.45992603476634 0 -538.45992603476634 244.39160374493844 0 0 0 0 60.504144517035456 -15.275612201581104 0 -15.275612201581104 39.32141015638274 0 0 0 0 351.20130212808544 680.83728858325276 0 680.83728858325276 -23.014835276874237 0 0 0 0 -0.21240608907433511 -3.7027685548288076 0 -3.7027685548288076 7.5993225469564045 0 0 0 0 4.1343636367184615 -5.3136378755716436 0 -5.3136378755716436 7.744970293175621 0 0 0 0 862.10311852462473 359.50285922167927 0 359.50285922167927 -117.02808417622924 0 0 0 0 -837.86640974493639 -170.65042172080101 0 -170.65042172080101 -120.74953328587685 0 0 0 0 831.86896389645699 -278.42245968376375 0 -278.42245968376375 -22.054475067867088 0 0 0 0 -788.6849749381654 -175.48368277892234 0 -175.48368277892234 59.618781666364612 0 0 0 0 -943.41225110070081 146.82171140663246 0 146.82171140663246 -567.81142008128109 0 0 0 0 349.82390875346027 -182.6835244689612 0 -182.6835244689612 -98.889627762027544 0 0 0 0 77.31593389274633 -34.396831031053949 0 -34.396831031053949 -4.9264720136061904 0 0 0 0 69.542465714912396 -90.242844420543861 0 -90.242844420543861 -83.699106096834839 0 0 0 0 707.23094536396093 -1312.8383793896128 0 -1312.8383793896128 -148.33601204392039 0 0 0 0 210.36315738304984 205.66755347600247 0 205.66755347600247 2.0516192205423067 0 0 0 0 31.065863811293582 -3.8840623383463821 0 -3.8840623383463821 3.0993067622965036 0 0 0 0 170.05986634829605 -12.563537498858864 0 -12.563537498858864 13.37299224517983 0 0 0 0 159.78124466733425 -8.2603266881392301 0 -8.2603266881392301 19.893229123550014 0 0 0 0 25.835367887732183 0.96165814291185825 0 0.96165814291185825 -0.25101708036348747 0 0 0 0 36.459116833526338 -29.262522690299107 0 -29.262522690299107 -1.953028523851994 0 0 0 0 92.788782973271736 -17.748499070660579 0 -17.748499070660579 10.730614034539677 0 0 0 0 101.56542004607036 0.57621799691999342 0 0.57621799691999342 -7.8512531560631942 0 0 0 0 12.589952096153866 -10.287889971526255 0 -10.287889971526255 37.063148523403015 0 0 0 0 97.268569486681372 -151.18504835714893 0 -151.18504835714893 248.16437809694688 0 0 0 0 389.83892781674513 -137.71611457863074 0 -137.71611457863074 9.6610437823661641 0 0 0 0 232.63428068482244 -110.17347170874976 0 -110.17347170874976 -113.57233871795529 0 0 0 0 138.16162361463648 -44.63827502883322 0 -44.63827502883322 -65.29499962484806 0 0 0 0 166.61013259476749 -94.204971433301523 0 -94.204971433301523 11.500886790709103 0 0 0 0 55.943910377798602 -152.34133014813739 0 -152.34133014813739 44.542671695074688 0 0 0 0 48.848354497236613 -29.263525490201488 0 -29.263525490201488 4.2731410682934445 0 0 0 0 53.531601142455941 -37.546920636628954 0 -37.546920636628954 -5.9444838650725851 0 0 0 0 -29.557299496897031 -164.93163440498665 0 -164.93163440498665 -80.818058065927971 0 0 0 0 95.577835925127147 -106.48443388778497 0 -106.48443388778497 -79.066229229119472 0 0 0 0 3368.4457787052088 1541.4111239290969 0 1541.4111239290969 -156.55342707440695 0 0 0 0 3624.4168297960132 1232.7413772798709 0 1232.7413772798709 -32.556027706587145 0 0 0 0 2034.9923488181666 924.61165035692886 0 924.61165035692886 153.4960672271763 0 0 0 0 3088.6252891215554 744.33975457051929 0 744.33975457051929 -202.32625512100782 0 0 0 0 2836.4447865955735 302.85354183536492 0 302.85354183536492 0.34249539096857984 0 0 0 0 4496.3880322537152 938.81659242175931 0 938.81659242175931 -637.2421221816287 0 0 0 0 3738.3063251898493 382.01733729229284 0 382.01733729229284 -218.60523343575892 0 0 0 0 2690.0296554189554 986.93156792521836 0 986.93156792521836 -142.91976825980475 0 0 0 0 2342.9583679620409 802.54131402512917 0 802.54131402512917 267.02999483548768 0 0 0 0 1525.2277894255822 180.5177156959553 0 180.5177156959553 0.27520070731772744 0 0 0 0 2035.4792680256942 883.28517905932802 0 883.28517905932802 249.51258334585793 0 0 0 0 4.2070132490118226 2.3220482181742739 0 2.3220482181742739 1.4892052860326905 0 0 0 0 2637.758627991614 272.08192495494677 0 272.08192495494677 -176.35277822084595 0 0 0 0 422.31651687473641 -139.06482833406324 0 -139.06482833406324 124.76535433789147 0 0 0 0 1694.9553456290159 1160.0069162609907 0 1160.0069162609907 314.32935796169812 0 0 0 0 1786.8608591478715 544.17583064672249 0 544.17583064672249 60.070214533274836 0 0 0 0 204.57956810577889 113.50409992073787 0 113.50409992073787 267.20162039934706 0 0 0 0 18.856920292228608 -8.8803156225148427 0 -8.8803156225148427 1.4052373980474728 0 0 0 0 -218.80696793952666 -172.45343374702952 0 -172.45343374702952 249.39950132545403 0 0 0 0 30.104930584988324 7.4155837545652119 0 7.4155837545652119 3.6384208796632009 0 0 0 0 32.316353782618535 2.5571971313338508 0 2.5571971313338508 -0.046155049138633331 0 0 0 0 24.379551450518875 1.9234489018030274 0 1.9234489018030274 1.1429384639592777 0 0 0 0 2.9981396716198105 1.0253946235462195 0 1.0253946235462195 -1.2047306637440722 0 0 0 0 51.635331054741982 9.9443644025494109 0 9.9443644025494109 -8.7106210292843542 0 0 0 0 18.105197152894107 17.649086856812893 0 17.649086856812893 48.551668345574242 0 0 0 0 6.7697817966974867 4.1465957839968439 0 4.1465957839968439 3.0385175035357865 0 0 0 0 286.1701913052093 268.54724017915186 0 268.54724017915186 -62.498728011934389 0 0 0 0 12.949266538271331 -38.49378730934891 0 -38.49378730934891 74.619475542903714 0 0 0 0 18.743700014645583 66.605988229912953 0 66.605988229912953 132.12145085275597 0 0 0 0 -0.11140850939537472 0.01890816089454006 0 0.01890816089454006 -0.36413477370632841 0 0 0 0 50.962176628090674 13.352620490459582 0 13.352620490459582 8.5348674197921728 0 0 0 0 106.37788687857392 6.4697784402840304 0 6.4697784402840304 8.7480028995979673 0 0 0 0 116.33355086548545 -39.503871568285362 0 -39.503871568285362 17.916694772595559 0 0 0 0 87.058767265814822 -14.51990734050152 0 -14.51990734050152 0.035483391732170889 0 0 0 0 59.345641546096886 -19.962497677955454 0 -19.962497677955454 23.478208156392981 0 0 0 0 45.422345908125862 -10.259681163916152 0 -10.259681163916152 -19.413174111905168 0 0 0 0 70.411485410932073 9.4483906525632868 0 9.4483906525632868 -17.130028514267003 0 0 0 0 7.1244923836650855 3.8000758432933424 0 3.8000758432933424 -2.2674372593742067 0 0 0 0 44.877345923814573 27.78081031830903 0 27.78081031830903 -1.1826772714621043 0 0 0 0 68.665925465778855 26.805682013424512 0 26.805682013424512 6.3907877773249027 0 0 0 0 40.688326346920803 1.4816948655843092 0 1.4816948655843092 38.452817968958279 0 0 0 0 32.347607342569972 4.6220227852480065 0 4.6220227852480065 -3.3255111772065789 0 0 0 0 48.544327324828828 17.393443329789449 0 17.393443329789449 -11.404605963289965 0 0 0 0 1.9921010380057851 54.924207566634536 0 54.924207566634536 0.90420803023177498 0 0 0 0 86.716050841572724 -9.5272805051003644 0 -9.5272805051003644 21.066834014602591 0 0 0 0 80.534142092044931 -4.8339482869114363 0 -4.8339482869114363 23.081434709843506 0 0 0 0 84.009622047975427 -30.983990720027691 0 -30.983990720027691 49.646154765408028 0 0 0 0 49.865123132535302 22.143613986153696 0 22.143613986153696 -10.130829635921543 0 0 0 0 29.214131914126483 83.95158353244905 0 83.95158353244905 -31.349532996737281 0 0 0 0 76.160334220941877 -0.23492873504402745 0 -0.23492873504402745 27.656776241882049 0 0 0 0 42.168699163448764 7.202838702883696 0 7.202838702883696 31.148279267576527 0 0 0 0 50.494843290886365 1.3465910427482015 0 1.3465910427482015 -6.3008558670370647 0 0 0 0 76.999949576464132 -3.9090527247117901 0 -3.9090527247117901 7.0711055029766214 0 0 0 0 75.740882131271064 -2.9741989149981691 0 -2.9741989149981691 34.217046125372804 0 0 0 0 64.551086255800328 -12.395351580534452 0 -12.395351580534452 -1.9489665841958868 0 0 0 0 75.492823771695839 1.2037617107557708 0 1.2037617107557708 14.810557237534681 0 0 0 0 64.070328818634152 -13.602437134329193 0 -13.602437134329193 20.728481285927501 0 0 0 0 72.815351899393136 14.503131544488781 0 14.503131544488781 5.1952602120970823 0 0 0 0 53.543559006997384 -57.632315530833921 0 -57.632315530833921 93.511619433327951 0 0 0 0 43.747159319620096 10.659861751156996 0 10.659861751156996 3.6298845043510775 0 0 0 0 16.93457787231489 -3.3810070795336458 0 -3.3810070795336458 -2.6805307516014341 0 0 0 0 63.267381750352797 -29.416520612234535 0 -29.416520612234535 101.51858565550788 0 0 0 0 30.913789902064309 -10.11898786389429 0 -10.11898786389429 29.06516172634656 0 0 0 0 41.057892183947843 -19.523109253280836 0 -19.523109253280836 14.572646077077934 0 0 0 0 40.251334019965725 -0.28536376493320859 0 -0.28536376493320859 30.967422822174285 0 0 0 0 9.6782438736004224 1.4495363730382564 0 1.4495363730382564 -0.010709680294796797 0 0 0 0 43.65873896307312 -3.3687890000483094 0 -3.3687890000483094 32.600720796413498 0 0 0 0 60.42587293399265 -7.361673043651308 0 -7.361673043651308 21.50373956660178 0 0 0 0 43.186021811203318 -6.9559422726515265 0 -6.9559422726515265 25.100511221365196 0 0 0 0 67.833769649732858 -11.546653598624289 0 -11.546653598624289 32.131931646246358 0 0 0 0 68.423397973063402 -7.3107864689818598 0 -7.3107864689818598 21.610700018878106 0 0 0 0 75.457728084071277 -11.481755068911013 0 -11.481755068911013 13.598538534822183 0 0 0 0 79.681800702368491 -25.097170580105285 0 -25.097170580105285 26.645947360592345 0 0 0 0 33.069521059169745 -12.181530936572216 0 -12.181530936572216 1.3631418973129872 0 0 0 0 49.961598801397486 4.5597100670634063 0 4.5597100670634063 15.29473423714353 0 0 0 0 -162.50521826228942 -358.34434345443697 0 -358.34434345443697 -205.89477432714193 0 0 0 0 210.26964861110901 151.5203809717384 0 151.5203809717384 41.05998352512961 0 0 0 0 27.704278925579274 181.8119688025954 0 181.8119688025954 300.27322403482776 0 0 0 0 31.676183187652896 -16.260169266004908 0 -16.260169266004908 1.5630442514890337 0 0 0 0 753.21330799142015 179.65519397751586 0 179.65519397751586 36.307172827693648 0 0 0 0 985.59943412705616 1078.3131390183009 0 1078.3131390183009 890.15090134590855 0 0 0 0 453.33868558018003 268.51179276228777 0 268.51179276228777 261.82348423074961 0 0 0 0 47.296954509529257 18.023947188975782 0 18.023947188975782 6.1699524798174439 0 0 0 0 155.75484559413599 206.7961870988089 0 206.7961870988089 340.87189546048103 0 0 0 0 97.174038621073123 -341.6419191423638 0 -341.6419191423638 -325.60402817246131 0 0 0 0 360.93637862132164 -121.90843905152633 0 -121.90843905152633 -907.52167376234684 0 0 0 0 37.842847350031661 -0.29352362270208232 0 -0.29352362270208232 -4.2991355917162792 0 0 0 0 -3.7498252496297937 -6.0062493294683463 0 -6.0062493294683463 23.665399073505569 0 0 0 0 100.5948668752244 -29.394002214806278 0 -29.394002214806278 -15.475752327060036 0 0 0 0 37.944592628347777 7.2142982042094701 0 7.2142982042094701 -0.10557475843965203 0 0 0 0 54.917670802322391 22.47707033801538 0 22.47707033801538 -4.5946243899313686 0 0 0 0 32.462844343084726 -29.082300588985618 0 -29.082300588985618 114.06903848653769 0 0 0 0 108.29765914104064 -94.307236639678763 0 -94.307236639678763 69.215039521216838 0 0 0 0 126.16837807446427 -162.00914978717574 0 -162.00914978717574 323.65058861157627 0 0 0 0 8.046867818993519 3.2878630810284193 0 3.2878630810284193 4.4570625356176521 0 0 0 0 34.730099203748978 -4.5065482892679256 0 -4.5065482892679256 244.31398086381068 0 0 0 0 38.239125742809847 -24.69973375454083 0 -24.69973375454083 338.51973970942947 0 0 0 0 262.45328562782379 -126.28012167031636 0 -126.28012167031636 79.814742543186014 0 0 0 0 231.55103340616188 -251.19647369979805 0 -251.19647369979805 320.86747556252294 0 0 0 0 480.82154976513993 -368.71541276198877 0 -368.71541276198877 118.65742879532002 0 0 0 0 4416.0045758920169 417.95083150615488 0 417.95083150615488 66.432651708831827 0 0 0 0 24.984876434580656 46.821199478988547 0 46.821199478988547 13.836096865397849 0 0 0 0 315.24265766360622 -155.52138601895308 0 -155.52138601895308 63.871181003212769 0 0 0 0 282.61050457008241 160.14613650262845 0 160.14613650262845 -53.643914102248345 0 0 0 0 4934.2764903152929 851.3270402805133 0 851.3270402805133 408.19209866657695 0 0 0 0 1.8344242915887463 8.1731206764798685 0 8.1731206764798685 -2.0043560651973058 0 0 0 0 4502.66494728834 1447.0024610887165 0 1447.0024610887165 2048.3038632776593 0 0 0 0 5523.6788368779089 967.26215037969996 0 967.26215037969996 -224.26402858707411 0 0 0 0 142.67361036021612 -494.23775167191889 0 -494.23775167191889 298.44327593621836 0 0 0 0 16.987987655520328 9.5352681114913338 0 9.5352681114913338 6.3988428051297239 0 0 0 0 -208.24295169202378 125.24449753546185 0 125.24449753546185 -3.622806094289956 0 0 0 0 843.88261030678404 1941.858962185984 0 1941.858962185984 2722.2256012515691 0 0 0 0 3550.3802393833757 -773.14473029667806 0 -773.14473029667806 313.29266193625972 0 0 0 0 -445.77198333936394 189.19515743315833 0 189.19515743315833 1298.6405889843013 0 0 0 0 2709.2052910358325 2098.7696623753723 0 2098.7696623753723 768.0003362129728 0 0 0 0 2059.7767078673496 1591.9511895312814 0 1591.9511895312814 629.11560035031334 0 0 0 0 3744.6275669663155 3269.8376383055361 0 3269.8376383055361 1604.7522905592905 0 0 0 0 1285.1694521818135 1763.9918233209778 0 1763.9918233209778 1896.3104978343249 0 0 0 0 5155.818926554959 1687.1296964196815 0 1687.1296964196815 -63.536412479355135 0 0 0 0 4497.2461477135948 362.64930038514649 0 362.64930038514649 -175.42676185888499 0 0 0 0 3475.9536273848789 59.480527314212381 0 59.480527314212381 -122.94772808370791 0 0 0 0 17.739128672299557 -71.181923174156964 0 -71.181923174156964 -94.750205114362416 0 0 0 0 14.448912487091143 -18.179806300138807 0 -18.179806300138807 19.730624302003374 0 0 0 0 264.75064972729888 67.713175594822133 0 67.713175594822133 -152.91407410401234 0 0 0 0 151.45233634668693 120.30166585255483 0 120.30166585255483 33.65216405678575 0 0 0 0 100.48428609534312 7.3073222937834998 0 7.3073222937834998 -44.991810111549057 0 0 0 0 89.820626067667035 30.289679034943219 0 30.289679034943219 -52.443049351491027 0 0 0 0 2.3635802813223563 -0.43141245929746219 0 -0.43141245929746219 48.127842893241905 0 0 0 0 56.754287462048524 4.5570557272072847 0 4.5570557272072847 16.431293685183164 0 0 0 0 45.929827910439428 3.4520596026477008 0 3.4520596026477008 -3.1080215825664741 0 0 0 0 4495.3559817376517 -1030.0315453580326 0 -1030.0315453580326 28.554291476759261 0 0 0 0 12.165295785113017 -11.276338570532914 0 -11.276338570532914 14.131860794199259 0 0 0 0 58.184843118477147 -14.016849372469551 0 -14.016849372469551 30.812894445208258 0 0 0 0 19.412616130726221 -4.3560527087797993 0 -4.3560527087797993 20.403525774478592 0 0 0 0 4497.6921670607135 545.0246434789733 0 545.0246434789733 -111.10045525434074 0 0 0 0 3218.2637247389648 1589.2555074255999 0 1589.2555074255999 819.5108727691694 0 0 0 0 13.735486541987484 15.129249545717414 0 15.129249545717414 -30.335128454058577 0 0 0 0 8.7804139751314452 16.450173644354578 0 16.450173644354578 -10.573626552137732 0 0 0 0 116.70380175315222 2.1925355352027509 0 2.1925355352027509 -138.95877705717339 0 0 0 0 163.96781753053801 29.261659342875646 0 29.261659342875646 -126.29375997470379 0 0 0 0 67.419826439543328 -24.194935861281259 0 -24.194935861281259 0.88415791415710643 0 0 0 0 101.31755013662041 22.204403332519405 0 22.204403332519405 -61.457858503536045 0 0 0 0 52.969114454637747 -5.4299046439414269 0 -5.4299046439414269 51.972905578133577 0 0 0 0 72.692256496146001 -20.840704388808831 0 -20.840704388808831 34.512874291031949 0 0 0 0 80.10535173433891 -108.56609483707507 0 -108.56609483707507 72.775679494742235 0 0 0 0 71.133972642722938 -26.856872587552036 0 -26.856872587552036 0.69988268611460636 0 0 0 0 49.484759369617677 -69.542734019484556 0 -69.542734019484556 80.318149311913203 0 0 0 0 87.919811318584834 -67.270849378934372 0 -67.270849378934372 -66.310497560561998 0 0 0 0 38.480378230931819 -32.164041478338277 0 -32.164041478338277 65.676494277818193 0 0 0 0 55.08205386894042 -22.132310977251223 0 -22.132310977251223 10.128189526679762 0 0 0 0 59.106281901564216 -12.818313434231413 0 -12.818313434231413 10.490592083541742 0 0 0 0 40.819802087804419 -17.460474569018288 0 -17.460474569018288 36.525502988999733 0 0 0 0 6.4760439284000313 8.7564889845320977 0 8.7564889845320977 -13.523265366500254 0 0 0 0 42.699440225303988 -24.816558413400969 0 -24.816558413400969 10.781345724429539 0 0 0 0 51.61529296921799 -15.704605426335462 0 -15.704605426335462 11.125289227113321 0 0 0 0 33.335399229953794 -4.7012173258353513 0 -4.7012173258353513 -5.0638619871605091 0 0 0 0 92.939485383285501 12.189579505139164 0 12.189579505139164 -64.950620173568723 0 0 0 0 12.338903810834211 -1.1111203266236203 0 -1.1111203266236203 -0.95445214147884272 0 0 0 0 46.290213748929091 16.330837210795494 0 16.330837210795494 10.6887015703754 0 0 0 0 95.132737438951153 -64.404726747590416 0 -64.404726747590416 -67.6494561264293 0 0 0 0 230.23498766148987 6.0130218597087151 0 6.0130218597087151 10.992169199514592 0 0 0 0 76.91327867443033 -78.762286967965565 0 -78.762286967965565 159.97754469081428 0 0 0 0 0.44026431407110067 5.454374503379313 0 5.454374503379313 71.418967987690394 0 0 0 0 -3.4046505469761996 1.6943704895551406 0 1.6943704895551406 4.5451636803483577 0 0 0 0 138.19376468483097 -56.872878376587323 0 -56.872878376587323 1.2052332543071316 0 0 0 0 56.584144662880135 -55.206745844531156 0 -55.206745844531156 82.998040916843365 0 0 0 0 79.355101088774973 -53.187658048359026 0 -53.187658048359026 -2.1417394432637593 0 0 0 0 73.894257836639383 -26.748086601128136 0 -26.748086601128136 0.29156403737106856 0 0 0 0 63.495279114111327 -27.823788668060388 0 -27.823788668060388 76.179315728400752 0 0 0 0 69.08457746647764 16.631524512964006 0 16.631524512964006 97.252426857952742 0 0 0 0 80.773813060044631 4.5340327803594391 0 4.5340327803594391 9.6804498593901371 0 0 0 0 66.117176280116837 -30.778304689801416 0 -30.778304689801416 73.066320380416073 0 0 0 0 78.808304103302362 -24.716461123172166 0 -24.716461123172166 30.568522843397659 0 0 0 0 22.82573769236393 -2.0758553544389713 0 -2.0758553544389713 25.844540765786434 0 0 0 0 90.276075349800522 -45.61683857840967 0 -45.61683857840967 50.404793615387916 0 0 0 0 75.589784946587031 -26.33254450621099 0 -26.33254450621099 4.7297404300154939 0 0 0 0 59.224274022722966 -12.26954743911142 0 -12.26954743911142 27.578074912028569 0 0 0 0 65.786259804325596 -24.415294679078052 0 -24.415294679078052 8.5248205547840374 0 0 0 0 75.327469657204347 -45.072237804944052 0 -45.072237804944052 51.273680153340138 0 0 0 0 84.553318887941714 -45.226060830273127 0 -45.226060830273127 52.795409968621243 0 0 0 0 20.540989493004957 0.19191352648522297 0 0.19191352648522297 15.19377994893415 0 0 0 0 75.920702135408646 -43.670693017960275 0 -43.670693017960275 50.300515684109769 0 0 0 0 94.737334634170111 -68.497884835887362 0 -68.497884835887362 31.215951762613713 0 0 0 0 65.974649512732867 -43.707250903647264 0 -43.707250903647264 47.703746245798357 0 0 0 0 45.264318705827463 -31.684825789854756 0 -31.684825789854756 41.086660571413915 0 0 0 0 45.72009746292315 -65.002793781199102 0 -65.002793781199102 35.316085461440366 0 0 0 0 52.215095768354274 -28.051779872396377 0 -28.051779872396377 7.0280830611579992 0 0 0 0 81.343361911574902 -63.26709396593796 0 -63.26709396593796 -3.24327810513239 0 0 0 0 80.86128664093485 -34.064111858896013 0 -34.064111858896013 8.964188614183513 0 0 0 0 50.079688320584012 -25.659155953184495 0 -25.659155953184495 10.859871048944203 0 0 0 0 -70.594939040136524 -8.9712484571591631 0 -8.9712484571591631 10.946256106730289 0 0 0 0 16.43320301049971 15.255433428532342 0 15.255433428532342 -28.12599465904816 0 0 0 0 30.397978651259109 -38.965892162854402 0 -38.965892162854402 -22.224253553664312 0 0 0 0 308.28448422727524 -64.34140033787844 0 -64.34140033787844 -43.284583563920023 0 0 0 0 135.39538628315495 152.63551004045348 0 152.63551004045348 -30.344945519143948 0 0 0 0 39.721889322778708 -28.64612409658605 0 -28.64612409658605 15.620216027977291 0 0 0 0 206.06141622069845 -166.88379752415995 0 -166.88379752415995 20.349509853591286 0 0 0 0 41.934465316206115 -42.315845700410819 0 -42.315845700410819 1.2171402119192862 0 0 0 0 54.076094424708572 -32.363435028711592 0 -32.363435028711592 8.9096597153534276 0 0 0 0 14.439455814404937 -35.744808826440476 0 -35.744808826440476 2.6662671467363199 0 0 0 0 26.986596276310593 -53.308789989049956 0 -53.308789989049956 1.1261430379690864 0 0 0 0 38.783688542323944 -39.842205884543887 0 -39.842205884543887 2.6924794654842117 0 0 0 0 31.705541031238681 -38.827202831482737 0 -38.827202831482737 6.5820574986687461 0 0 0 0 49.372930037958213 -29.646221719702794 0 -29.646221719702794 9.7260365061565608 0 0 0 0 40.488802024262228 -27.672515425935643 0 -27.672515425935643 14.003542285885352 0 0 0 0 37.13482338628819 -36.147703753638979 0 -36.147703753638979 0.14650306568995575 0 0 0 0 40.513912725386035 -29.784433593369215 0 -29.784433593369215 1.2179832450724462 0 0 0 0 41.434572415973889 -27.732455479046592 0 -27.732455479046592 34.054278807686387 0 0 0 0 46.148757574927004 -4.4797873603467906 0 -4.4797873603467906 3.698422436205874 0 0 0 0 27.71561092814045 -4.4141400173145939 0 -4.4141400173145939 14.252500811054233 0 0 0 0 30.855314669406653 -12.289518142231032 0 -12.289518142231032 6.3977229166393954 0 0 0 0 22.442253350513056 1.8188159975356939 0 1.8188159975356939 9.7303762015662869 0 0 0 0 23.114819234098832 4.3150597744322567 0 4.3150597744322567 18.962626684280622 0 0 0 0 17.250568907285924 -1.4442129573571947 0 -1.4442129573571947 23.230472850393198 0 0 0 0 11.038196050969418 -10.885227133016997 0 -10.885227133016997 11.764984112111051 0 0 0 0 144.93536693904025 -170.59260382725188 0 -170.59260382725188 155.42907740531064 0 0 0 0 3.7385172847439776 -0.88852723776705744 0 -0.88852723776705744 -2.062502304791229 0 0 0 0 176.90565552396583 -44.519746990793465 0 -44.519746990793465 -95.940440939836662 0 0 0 0 48.486154507289768 -17.855253292661629 0 -17.855253292661629 0.62781195385877875 0 0 0 0 -21.834694954188308 43.600559392743889 0 43.600559392743889 90.744979865057303 0 0 0 0 13.082682769494426 -6.4084640746737165 0 -6.4084640746737165 3.8838737494562885 0 0 0 0 26.873169529601 -18.491165268592795 0 -18.491165268592795 13.37851939950815 0 0 0 0 41.87861289508254 -17.861434010855959 0 -17.861434010855959 1.1172858984679253 0 0 0 0 48.830003769564428 -85.1898466583458 0 -85.1898466583458 25.454899180610482 0 0 0 0 29.02236982229806 -20.885652370871867 0 -20.885652370871867 3.2290168162803639 0 0 0 0 29.346932768230545 -19.740044810924132 0 -19.740044810924132 1.2595601517305113 0 0 0 0 55.093280604225583 11.776980702069523 0 11.776980702069523 -16.549354971140133 0 0 0 0 14.124931036851535 0.047793015325389376 0 0.047793015325389376 -0.54547922890483047 0 0 0 0 58.533800521006924 3.7224751115707022 0 3.7224751115707022 -8.1221511362787169 0 0 0 0 8.2722324366709756 -2.3305380997840217 0 -2.3305380997840217 7.1330278382130494 0 0 0 0 20.501362959314065 -43.90471220096839 0 -43.90471220096839 18.821026691211046 0 0 0 0 32.319499369274126 11.860384663680634 0 11.860384663680634 1.0041974428413596 0 0 0 0 61.712660016601149 -3.9923316546777414 0 -3.9923316546777414 20.156673781894824 0 0 0 0 51.992285535816336 -8.439343059400926 0 -8.439343059400926 18.695434211856991 0 0 0 0 102.10894474735687 -54.463720515863088 0 -54.463720515863088 16.952453319562665 0 0 0 0 31.329818431677268 -14.762134243609125 0 -14.762134243609125 -5.6744132443182025 0 0 0 0 -10.305684802297037 -15.856149038125523 0 -15.856149038125523 59.714267686929134 0 0 0 0 21.40601485222578 -1.9953178480234328 0 -1.9953178480234328 2.1711115076935243 0 0 0 0 46.084072006851784 -74.61922049209258 0 -74.61922049209258 80.758311749427548 0 0 0 0 32.060034993104637 -42.86693037531677 0 -42.86693037531677 15.117363498759687 0 0 0 0 77.530225667956984 -8.2501588044997334 0 -8.2501588044997334 14.04751930907279 0 0 0 0 75.379352389660198 -39.847351735774737 0 -39.847351735774737 -54.836368039049262 0 0 0 0 26.21138371878277 0.99686893705626289 0 0.99686893705626289 -4.7461463949187648 0 0 0 0 26.378898058406776 -147.93782005007677 0 -147.93782005007677 -84.521581422846907 0 0 0 0 -120.7922449054131 -309.21767288825419 0 -309.21767288825419 276.01895728617421 0 0 0 0 -2.3992648584246865 0.03087914186046703 0 0.03087914186046703 5.0671614549853956 0 0 0 0 219.56997049823258 53.072267713539503 0 53.072267713539503 -5.5167428818915312 0 0 0 0 -15.200896872629528 12.604233949444335 0 12.604233949444335 177.49296619590064 0 0 0 0 17.106015147113226 10.711927532565511 0 10.711927532565511 -2.393857561165774 0 0 0 0 191.79977723860247 -55.93183985738483 0 -55.93183985738483 -61.559491894565326 0 0 0 0 889.71025547024328 -84.915875909269459 0 -84.915875909269459 44.939266969160542 0 0 0 0 132.60653441011891 132.87257183027754 0 132.87257183027754 336.7302977283166 0 0 0 0 744.54157897640835 -698.31124441767633 0 -698.31124441767633 242.49431519719434 0 0 0 0 4501.664927434831 -1264.515996364114 0 -1264.515996364114 -735.41241326105398 0 0 0 0 4428.858047850139 -3273.2911907273187 0 -3273.2911907273187 1582.5992369650589 0 0 0 0 1429.0119244333309 -1966.7783265093819 0 -1966.7783265093819 1057.5881094952369 0 0 0 0 75.452614082605578 67.485878082882209 0 67.485878082882209 -100.35242764166287 0 0 0 0 18.56273043167073 1.6003994061949669 0 1.6003994061949669 -4.8569193059104254 0 0 0 0 42.954849222012854 45.872443599103008 0 45.872443599103008 526.72597129672181 0 0 0 0 6.019285789270711 -5.0982411725454 0 -5.0982411725454 14.526625599926247 0 0 0 0 4497.0298209719922 -5.2924432006627624 0 -5.2924432006627624 13.710656982337341 0 0 0 0 41.667698368924903 -100.09574644908798 0 -100.09574644908798 -1.7663694349951129 0 0 0 0 4.6817962182285555 -19.322529530461225 0 -19.322529530461225 -17.65531999363975 0 0 0 0 49.488329335181334 -112.61940648516816 0 -112.61940648516816 133.65119275244888 0 0 0 0 43.695726411940996 69.183247312442745 0 69.183247312442745 106.00462158141727 0 0 0 0 4.7326690151626849 -1.6671643934803022 0 -1.6671643934803022 0.31692452134153337 0 0 0 0 177.35507870369474 -137.28308027365256 0 -137.28308027365256 -11.326036680992729 0 0 0 0 8.0558626954224692 -12.98663736695913 0 -12.98663736695913 16.957687804006735 0 0 0 0 -238.10486464988207 -89.491015791725658 0 -89.491015791725658 516.35930357828784 0 0 0 0 3730.865423151321 1313.5947675749999 0 1313.5947675749999 495.60566042113754 0 0 0 0 20.838394654577655 -15.81910417622619 0 -15.81910417622619 13.421656780520209 0 0 0 0 261.65324037683604 -29.596294452104758 0 -29.596294452104758 -187.47168504098772 0 0 0 0 155.80595019664844 5.7986162621689274 0 5.7986162621689274 -25.49551297668301 0 0 0 0 85.565094084449811 35.225381959440483 0 35.225381959440483 23.74433184047075 0 0 0 0 -13.82500950722897 142.16268074132199 0 142.16268074132199 -65.880390421835955 0 0 0 0 101.40126415483064 -20.179541359146896 0 -20.179541359146896 21.815982273738882 0 0 0 0 144.32389414940877 6.9674387125053983 0 6.9674387125053983 -28.335453886369816 0 0 0 0 269.02193855216319 -20.891815734490592 0 -20.891815734490592 -77.460212336237646 0 0 0 0 205.03494232877711 -71.921843051673022 0 -71.921843051673022 -72.692110012832018 0 0 0 0 125.13681335388719 1.299642726912225 0 1.299642726912225 -79.126448544617233 0 0 0 0 242.76153701580188 -18.231488780505515 0 -18.231488780505515 -54.305803541814385 0 0 0 0 183.6716557092077 52.893755139713448 0 52.893755139713448 -211.43202271368136 0 0 0 0 212.30435777695311 -28.198446433330901 0 -28.198446433330901 -143.1628701842028 0 0 0 0 155.61493912450533 97.842579530087278 0 97.842579530087278 -246.86917361324095 0 0 0 0 138.53779517166549 502.97796390938538 0 502.97796390938538 -273.93283957294807 0 0 0 0 556.94354738519178 128.54743637187494 0 128.54743637187494 -215.27272321502443 0 0 0 0 160.30972847782624 8.4664388220426616 0 8.4664388220426616 -25.273100307324967 0 0 0 0 504.7857463841392 366.6645192035889 0 366.6645192035889 382.18985843636892 0 0 0 0 402.05257147172233 -84.988789631973532 0 -84.988789631973532 382.44174325765925 0 0 0 0 411.12122193150572 -196.7645726141568 0 -196.7645726141568 703.06336960948238 0 0 0 0 -118.5434183297366 33.974771083017913 0 33.974771083017913 165.51876238188788 0 0 0 0 -73.4479458113492 -44.777353997168575 0 -44.777353997168575 217.70767790228138 0 0 0 0 5.5938112767471466 -114.54984300204569 0 -114.54984300204569 189.24815716244916 0 0 0 0 45.457347259129165 -10.290610016957999 0 -10.290610016957999 35.176225172885552 0 0 0 0 55.97644977280288 -42.532473773581501 0 -42.532473773581501 56.649160055143795 0 0 0 0 128.75053413170099 -123.19624105180208 0 -123.19624105180208 79.626008198076079 0 0 0 0 81.479678076048003 -34.626028316807691 0 -34.626028316807691 24.190354642043303 0 0 0 0 601.68482410829165 -27.188495568174005 0 -27.188495568174005 -235.89284157257975 0 0 0 0 0.46586013955563033 1.8231619255234364 0 1.8231619255234364 0.33207014644246602 0 0 0 0 387.18424290225084 62.482872447110026 0 62.482872447110026 2.4892159795381303 0 0 0 0 669.33541238728503 -29.730768928477573 0 -29.730768928477573 -139.58393803707463 0 0 0 0 598.94019303288951 -51.076344814293634 0 -51.076344814293634 -139.52923736087286 0 0 0 0 741.40145409377874 -105.59298825820883 0 -105.59298825820883 -225.10122680690679 0 0 0 0 204.31102577875572 -177.99388004899461 0 -177.99388004899461 428.75919367328481 0 0 0 0 124.48576034991856 73.71138930326606 0 73.71138930326606 3.6113275255444535 0 0 0 0 9.3684733936605085 -2.5580764625658361 0 -2.5580764625658361 3.0341744302589815 0 0 0 0 45.429597405993263 -16.209785206424783 0 -16.209785206424783 40.493438863716847 0 0 0 0 43.123934456727397 -34.9814900925941 0 -34.9814900925941 8.9742425865564819 0 0 0 0 56.412572790359263 -60.837182232553005 0 -60.837182232553005 20.27818417669414 0 0 0 0 -3.0161183546442771 -19.813580861691207 0 -19.813580861691207 -22.968271571297009 0 0 0 0 -0.16120130150417822 -14.327054229976728 0 -14.327054229976728 4.7125273361581632 0 0 0 0 64.624141519550903 15.175292706566381 0 15.175292706566381 4.9484485589819087 0 0 0 0 64.957866030323203 12.204374919937663 0 12.204374919937663 12.806694193658139 0 0 0 0 117.06429355715227 5.2790009321519165 0 5.2790009321519165 -9.40518026253676 0 0 0 0 41.495033454229997 -23.489933225770983 0 -23.489933225770983 -12.995461674431226 0 0 0 0 46.773990899630007 -18.951174460230618 0 -18.951174460230618 -18.402193014867635 0 0 0 0 127.43057394072821 7.1699752292030894 0 7.1699752292030894 -51.715431650732171 0 0 0 0 16.632418907046286 2.2698641484869597 0 2.2698641484869597 -5.7637600896494732 0 0 0 0 -13.686571872851346 -39.33676831864841 0 -39.33676831864841 -44.62683179403939 0 0 0 0 281.51788919992396 -994.55021213312511 0 -994.55021213312511 526.99260584126023 0 0 0 0 83.767700099522642 -11.834739274416883 0 -11.834739274416883 -0.049094289878249098 0 0 0 0 1255.2373582501896 -655.61824857939064 0 -655.61824857939064 -142.61830258225723 0 0 0 0 -1.1741832362386901 -1.40859851673207 0 -1.40859851673207 6.1113510581342112 0 0 0 0 -0.99102415778907016 -28.47517805845564 0 -28.47517805845564 -69.33376046512052 0 0 0 0 85.923093874358187 -24.116888957739008 0 -24.116888957739008 0.88274161892165137 0 0 0 0 96.878478102710119 -28.745015311512404 0 -28.745015311512404 -9.5290310643276612 0 0 0 0 100.22911823525465 -27.214052546161213 0 -27.214052546161213 -22.791921353473299 0 0 0 0 192.82829142874107 -43.599033111700919 0 -43.599033111700919 -67.099002521712336 0 0 0 0 178.83121760602808 -15.097651210861557 0 -15.097651210861557 23.913780127503742 0 0 0 0 130.69572319013378 -14.485551668587291 0 -14.485551668587291 -28.8667380091476 0 0 0 0 83.212848918512464 -16.124200105326508 0 -16.124200105326508 -74.185077411299801 0 0 0 0 122.67044337411548 0.65700568105441448 0 0.65700568105441448 -26.023843725203953 0 0 0 0 177.41170295184565 -34.089467117835738 0 -34.089467117835738 -41.551888283440348 0 0 0 0 109.43073157309846 -33.133904044565838 0 -33.133904044565838 -7.4881379406488122 0 0 0 0 118.22283112691366 3.8096858552007689 0 3.8096858552007689 -51.560558363516975 0 0 0 0 111.06149846240871 -4.2463379863411532 0 -4.2463379863411532 -22.14428403727397 0 0 0 0 133.88611197667157 -40.007290522285999 0 -40.007290522285999 -23.295018598028662 0 0 0 0 115.86518833378793 -2.9239777919955543 0 -2.9239777919955543 -19.285050674409039 0 0 0 0 87.222490077870248 -22.754036360225911 0 -22.754036360225911 -17.329209980661485 0 0 0 0 170.01140721712727 9.5255347885847641 0 9.5255347885847641 -12.017794891229869 0 0 0 0 177.38748083863175 -80.98678726848766 0 -80.98678726848766 -35.27230853873516 0 0 0 0 113.82603392138844 -38.315777744829802 0 -38.315777744829802 -17.455539010659777 0 0 0 0 67.303872564990797 -4.1068988834154254 0 -4.1068988834154254 -1.5680371945410814 0 0 0 0 108.70568583963905 -7.6926120204915378 0 -7.6926120204915378 6.3383915695193878 0 0 0 0 69.655548029717124 -10.692730952562634 0 -10.692730952562634 -4.1505891882555712 0 0 0 0 64.491747937790933 -10.557526870939455 0 -10.557526870939455 20.405038482422697 0 0 0 0 71.713757198931148 17.985641045691466 0 17.985641045691466 -1.8265902926343283 0 0 0 0 112.86311354310601 -24.388741258454843 0 -24.388741258454843 13.809176161080586 0 0 0 0 83.434892179522706 -4.1972416201148155 0 -4.1972416201148155 -5.3636186044320251 0 0 0 0 79.113187307647195 -21.83679381918364 0 -21.83679381918364 -0.27289193454833338 0 0 0 0 100.72123561813714 -30.353129120324638 0 -30.353129120324638 28.766540669613278 0 0 0 0 122.37861089711259 -9.6452366785727008 0 -9.6452366785727008 -40.484735096650184 0 0 0 0 91.30737029514421 -50.557605453227097 0 -50.557605453227097 10.766278582634641 0 0 0 0 94.787629387307788 -44.329909479554502 0 -44.329909479554502 15.049614801414975 0 0 0 0 92.68208355573006 -21.72866513995632 0 -21.72866513995632 28.597438411025564 0 0 0 0 79.903317455260549 -32.081177562512266 0 -32.081177562512266 34.356297502801681 0 0 0 0 99.509124159361818 -46.110381711545415 0 -46.110381711545415 39.997487743263378 0 0 0 0 22.403337317673333 -2.2434811747436356 0 -2.2434811747436356 7.0871511150197701 0 0 0 0 99.371293165444513 -40.642331153854229 0 -40.642331153854229 18.214976980741085 0 0 0 0 108.90427820601053 -43.666033785673108 0 -43.666033785673108 -9.0960126154932368 0 0 0 0 84.630252187803308 -163.32706891991484 0 -163.32706891991484 41.762832410506235 0 0 0 0 72.159324471079884 -56.588119227088171 0 -56.588119227088171 26.545459024021472 0 0 0 0 71.460130686948105 -149.08978067974203 0 -149.08978067974203 196.1019568646152 0 0 0 0 0.9857740739528964 -7.2661047165652981 0 -7.2661047165652981 3.4020654483224084 0 0 0 0 14.879586837472743 -46.490510373812867 0 -46.490510373812867 39.023807088335246 0 0 0 0 81.58008816774236 -51.242676453081231 0 -51.242676453081231 36.273318103000292 0 0 0 0 46.051368455024203 -31.543670116577232 0 -31.543670116577232 -7.1406446930959646 0 0 0 0 48.463146369933483 -30.466630686406191 0 -30.466630686406191 3.5330697047054342 0 0 0 0 26.857512779376393 -38.517914317465667 0 -38.517914317465667 9.8429811069155306 0 0 0 0 51.991052773549598 -31.467028489209511 0 -31.467028489209511 18.838068974357128 0 0 0 0 150.77048592405481 -19.346234019261829 0 -19.346234019261829 -10.599596410687809 0 0 0 0 161.443430453357 34.997821785158521 0 34.997821785158521 -85.914529258023322 0 0 0 0 31.860905753808339 -17.98847884681102 0 -17.98847884681102 6.3261147947437593 0 0 0 0 187.77330146702297 -58.374607141578963 0 -58.374607141578963 -41.091909744787699 0 0 0 0 192.38091135233844 -31.78744361693316 0 -31.78744361693316 -43.712743318861612 0 0 0 0 160.09623696208655 -59.908853834518595 0 -59.908853834518595 -39.65058669048085 0 0 0 0 297.32266103665461 -108.25379074887314 0 -108.25379074887314 12.760564189818069 0 0 0 0 186.78433921777651 -33.160871665194009 0 -33.160871665194009 68.311669236547459 0 0 0 0 210.44294321426423 -61.547422514155187 0 -61.547422514155187 -27.930306629851657 0 0 0 0 208.72812284425527 -49.680275629012613 0 -49.680275629012613 -76.218521691894239 0 0 0 0 245.17892172021783 -116.58655972572468 0 -116.58655972572468 -72.510091631513205 0 0 0 0 243.19133665326808 -182.34915374427874 0 -182.34915374427874 1.8657772195601865 0 0 0 0 219.61201598644766 -132.88128361816143 0 -132.88128361816143 15.10143374402287 0 0 0 0 164.64964980080913 -166.46420759771445 0 -166.46420759771445 62.637669683723118 0 0 0 0 79.206217932773143 -239.86429384614303 0 -239.86429384614303 -17.718818926002314 0 0 0 0 1.6707154687402408 0.16572554600978862 0 0.16572554600978862 -4.6428002580801575 0 0 0 0 34.552169133512507 -97.370302135059774 0 -97.370302135059774 8.4046553893404052 0 0 0 0 346.25318604151482 -318.0353929024057 0 -318.0353929024057 -99.038094703591923 0 0 0 0 340.13713187274078 -106.38428332445822 0 -106.38428332445822 -54.673982850483299 0 0 0 0 59.539939677662915 -47.803311512627261 0 -47.803311512627261 26.537446911030713 0 0 0 0 63.431966063822983 -48.939042298130062 0 -48.939042298130062 14.79844824182328 0 0 0 0 5.3070810375204047 -5.971961604427463 0 -5.971961604427463 -5.4042182293090519 0 0 0 0 122.67075801211831 14.412802632111379 0 14.412802632111379 14.423192089421036 0 0 0 0 65.309134528524737 -40.651294817630514 0 -40.651294817630514 -0.84190436787866929 0 0 0 0 58.034579415914777 -49.147868718801874 0 -49.147868718801874 14.813222232907947 0 0 0 0 78.346474433484218 -44.451594841208589 0 -44.451594841208589 -138.70591460452306 0 0 0 0 68.568033582472708 -42.511967921899213 0 -42.511967921899213 -20.018707752005866 0 0 0 0 61.942955877104396 -52.977712807668922 0 -52.977712807668922 -3.4801477748878824 0 0 0 0 47.354805530469093 -69.190756164977586 0 -69.190756164977586 -33.875051972823712 0 0 0 0 52.489450851971924 -46.760355334367887 0 -46.760355334367887 2.7653944767216672 0 0 0 0 21.776814311946509 -88.33309444018505 0 -88.33309444018505 0.22112231329492715 0 0 0 0 17.42157386472536 -187.4507115429592 0 -187.4507115429592 -97.575542449705608 0 0 0 0 27.545339395393967 -113.52923334302523 0 -113.52923334302523 60.166553392524293 0 0 0 0 -33.27447944758751 -80.273060345871727 0 -80.273060345871727 42.138563316948876 0 0 0 0 0.92101615395404224 -48.58520726076199 0 -48.58520726076199 63.695441266442913 0 0 0 0 25.24726665509661 -64.656598462275952 0 -64.656598462275952 25.453965251060481 0 0 0 0 8.9834788986045169 -60.144925486593365 0 -60.144925486593365 24.761758027745714 0 0 0 0 21.260917921601504 -46.539340830700411 0 -46.539340830700411 15.481732596846321 0 0 0 0 27.555694173890515 -58.812394916795029 0 -58.812394916795029 10.806762105194139 0 0 0 0 -8.4644798255867499 -5.6796231300945692 0 -5.6796231300945692 -29.464188470142631 0 0 0 0 -58.255148105137778 -193.14874641026609 0 -193.14874641026609 70.826404460222875 0 0 0 0 -45.874689681109885 -63.567281838570807 0 -63.567281838570807 215.87963335737766 0 0 0 0 326.53060468250624 -345.4350373058985 0 -345.4350373058985 303.77658531795032 0 0 0 0 2.3348389550119464 52.686884221325329 0 52.686884221325329 254.906947280206 0 0 0 0 366.15974910080331 -221.30239566979378 0 -221.30239566979378 266.37884561459202 0 0 0 0 276.64351158019053 37.435929606192985 0 37.435929606192985 354.66028035488807 0 0 0 0 253.78231559220239 -54.17276456833838 0 -54.17276456833838 99.850695072469534 0 0 0 0 638.10579672355834 46.598063542455407 0 46.598063542455407 -20.506676604361019 0 0 0 0 322.54993339067369 -108.26706346518768 0 -108.26706346518768 -37.675886789356127 0 0 0 0 255.387757202996 -53.82421932780926 0 -53.82421932780926 -47.505432727712559 0 0 0 0 390.69078997512406 -56.910239346436811 0 -56.910239346436811 -51.655327046260027 0 0 0 0 317.91732799503734 -131.19719417273427 0 -131.19719417273427 -73.705742768147502 0 0 0 0 254.09896909243616 17.584705902298992 0 17.584705902298992 74.742556274137314 0 0 0 0 185.84537176071899 -52.280558509707134 0 -52.280558509707134 5.5900755283537364 0 0 0 0 187.78065582430645 -23.514420907215481 0 -23.514420907215481 -92.782392164551311 0 0 0 0 291.06105696176564 -61.82052010714915 0 -61.82052010714915 -89.341769698135977 0 0 0 0 232.62922620584141 -97.816727997835187 0 -97.816727997835187 -40.078780925422961 0 0 0 0 249.13277080639455 -54.477777976077959 0 -54.477777976077959 -114.5574578270498 0 0 0 0 186.41437181476795 -50.616439104594065 0 -50.616439104594065 -136.68564411936632 0 0 0 0 204.56184707375724 19.608316054328498 0 19.608316054328498 -55.704972402555541 0 0 0 0 116.43870774608877 42.934617231735729 0 42.934617231735729 -90.136665525504213 0 0 0 0 277.21669462899808 -34.727175330601312 0 -34.727175330601312 -113.9565806053829 0 0 0 0 182.33555252654529 -69.621466431996566 0 -69.621466431996566 55.79056553637929 0 0 0 0 182.17060723193754 -24.701899954035071 0 -24.701899954035071 38.17043334459413 0 0 0 0 214.8563375622216 -95.71649571488183 0 -95.71649571488183 154.38764344153242 0 0 0 0 197.4420543988017 -17.185737852531474 0 -17.185737852531474 109.36276950831916 0 0 0 0 194.41698134444778 -16.37105697735069 0 -16.37105697735069 151.70400140120728 0 0 0 0 202.98101550173305 -37.525569067334345 0 -37.525569067334345 85.579602013256135 0 0 0 0 213.94116148765534 -80.820466449113837 0 -80.820466449113837 185.1136742142852 0 0 0 0 169.30360408288107 -31.215138870326655 0 -31.215138870326655 140.00481233689061 0 0 0 0 168.79496893011856 -29.682003604471845 0 -29.682003604471845 155.0538239790485 0 0 0 0 183.96075669196216 -17.929125724346704 0 -17.929125724346704 157.40795940526385 0 0 0 0 228.30009369728168 10.970412069081476 0 10.970412069081476 -23.086318092991405 0 0 0 0 115.51284480390132 22.482419865549218 0 22.482419865549218 111.53853340010676 0 0 0 0 268.64695137475792 -75.42993264340987 0 -75.42993264340987 103.93597711241858 0 0 0 0 271.36291783998968 -90.033696538236626 0 -90.033696538236626 30.348315861020524 0 0 0 0 339.00509644217345 -134.59109343904692 0 -134.59109343904692 42.515158419129079 0 0 0 0 306.82644803224866 -73.055547363501717 0 -73.055547363501717 3.8730990807066519 0 0 0 0 298.64149087650367 -73.210977775175934 0 -73.210977775175934 19.063527332011745 0 0 0 0 426.29450355359222 -58.449672399666497 0 -58.449672399666497 20.390344043529012 0 0 0 0 403.90458899784926 -167.93363482241512 0 -167.93363482241512 6.411171201041725 0 0 0 0 283.29637646861192 -58.353664431125708 0 -58.353664431125708 40.72923648097867 0 0 0 0 815.2030081548055 -145.98811302154127 0 -145.98811302154127 -33.507483704038805 0 0 0 0 0.16498647263846777 0.68763607132172311 0 0.68763607132172311 1.2577939320272833 0 0 0 0 -14.184713919887145 80.652558596059407 0 80.652558596059407 -20.781673589220645 0 0 0 0 154.63404785540627 23.651059186381765 0 23.651059186381765 -170.05320610984381 0 0 0 0 161.97203550255654 -78.569062094733113 0 -78.569062094733113 9.475716536865832 0 0 0 0 216.93357906287247 -54.047884964794889 0 -54.047884964794889 -6.0853199697930904 0 0 0 0 249.90372485520857 -166.53195298200012 0 -166.53195298200012 95.354159566242856 0 0 0 0 305.2451100757462 -139.45742088788802 0 -139.45742088788802 -10.026029875424978 0 0 0 0 301.12058225645342 -163.65068314400918 0 -163.65068314400918 21.86492211369864 0 0 0 0 257.15129582885675 -35.805079032032836 0 -35.805079032032836 10.570006717082151 0 0 0 0 423.87112336618884 -126.16688028796898 0 -126.16688028796898 30.599407556289577 0 0 0 0 205.16795134277436 -84.886076273875659 0 -84.886076273875659 24.743657891662338 0 0 0 0 278.80042838111331 -121.44425947247294 0 -121.44425947247294 97.653024496138244 0 0 0 0 278.62105843964741 -122.09639318651847 0 -122.09639318651847 156.30105407209203 0 0 0 0 664.75139574095374 -12.97382570936702 0 -12.97382570936702 52.391090868658921 0 0 0 0 0.28802451864072509 -1.9694065971827399 0 -1.9694065971827399 6.2733918340449613 0 0 0 0 256.86060862623435 57.344105284984778 0 57.344105284984778 41.10678836400416 0 0 0 0 -3.676770450033473 19.185525623231101 0 19.185525623231101 69.12609910001197 0 0 0 0 11.631033103367372 -16.648564168882103 0 -16.648564168882103 25.992792225677476 0 0 0 0 174.77149667439517 9.1792889476602042 0 9.1792889476602042 23.272343245946729 0 0 0 0 5.4631808711310441 -21.454840752364362 0 -21.454840752364362 29.072776607643846 0 0 0 0 4.8959200881666547 -7.8557500051221751 0 -7.8557500051221751 11.92641308973581 0 0 0 0 184.71799738681511 43.213111986504948 0 43.213111986504948 58.922510997428304 0 0 0 0 132.98078244839417 51.400040976937134 0 51.400040976937134 57.690444797223336 0 0 0 0 13.450469958137546 -23.575246718563449 0 -23.575246718563449 29.612956933657188 0 0 0 0 17.828875358172809 -23.68013129307883 0 -23.68013129307883 23.954839333882546 0 0 0 0 25.788943167310208 -35.305655403456285 0 -35.305655403456285 14.873577562335868 0 0 0 0 19.599807736463845 -48.342865948482824 0 -48.342865948482824 24.786972027560523 0 0 0 0 19.784383055705803 -46.620270276945305 0 -46.620270276945305 40.494472693911575 0 0 0 0 25.353359356267902 -33.05902196015893 0 -33.05902196015893 32.889318786217473 0 0 0 0 33.173690187046304 -31.30270194118475 0 -31.30270194118475 27.737597435966222 0 0 0 0 25.463227318497957 -34.690476246290132 0 -34.690476246290132 28.564412518514018 0 0 0 0 19.21841983323975 -32.195973884979594 0 -32.195973884979594 51.49379520072398 0 0 0 0 28.983800035952299 -26.927822203339019 0 -26.927822203339019 38.088227301853294 0 0 0 0 53.398017615108984 -31.877710217572712 0 -31.877710217572712 39.088804346119105 0 0 0 0 16.188625996859628 -21.216230500723441 0 -21.216230500723441 34.883482190275458 0 0 0 0 37.408915585929208 -15.161633738241449 0 -15.161633738241449 35.106319187058034 0 0 0 0 46.095384594285861 -16.799472092067845 0 -16.799472092067845 35.284014917295394 0 0 0 0 15.357484313288296 -18.274448332905934 0 -18.274448332905934 55.222133098417316 0 0 0 0 12.764485778676317 -11.676481786717318 0 -11.676481786717318 39.147738089940958 0 0 0 0 16.089885843157489 -6.1988168705025242 0 -6.1988168705025242 -7.4222398993545253 0 0 0 0 24.675740748265525 -7.4962481688753542 0 -7.4962481688753542 -4.9374418274012442 0 0 0 0 6.2097602055218886 -11.441889770861962 0 -11.441889770861962 15.763663710588844 0 0 0 0 15.386897630683961 -24.181614725639974 0 -24.181614725639974 33.386362523091975 0 0 0 0 42.156751166665344 -26.614538009496755 0 -26.614538009496755 1.0832454728033554 0 0 0 0 20.894073035819019 -12.883679661659698 0 -12.883679661659698 14.014167344781526 0 0 0 0 22.69787864034879 -24.613476766777239 0 -24.613476766777239 55.630497763349922 0 0 0 0 6.6499903163785348 -6.3218312190510915 0 -6.3218312190510915 1.1081232021524556 0 0 0 0 28.188945993504603 -39.843761648332475 0 -39.843761648332475 73.303564957215713 0 0 0 0 1.2504676638403112 0.89865209225584763 0 0.89865209225584763 -1.2263798607960377 0 0 0 0 23.907861371844774 -29.729905201115798 0 -29.729905201115798 49.505580023724178 0 0 0 0 2.265240946085008 0.009721564861493448 0 0.009721564861493448 -0.33948448837339829 0 0 0 0 13.256602161598821 -3.8154983243452349 0 -3.8154983243452349 -4.2898824241023803 0 0 0 0 62.723145077070512 -15.217550008114813 0 -15.217550008114813 -12.229908626405631 0 0 0 0 4.9054499433841556 -7.6153643669122175 0 -7.6153643669122175 -2.7708137703043576 0 0 0 0 17.167185595513729 -1.3498704786225062 0 -1.3498704786225062 -27.171545453118711 0 0 0 0 15.484080486886313 -9.7243151878596912 0 -9.7243151878596912 -2.6891857486712443 0 0 0 0 7.4896335778977061 -6.1027451400357577 0 -6.1027451400357577 0.233650293611527 0 0 0 0 6.6355142378379242 -9.1626679000378317 0 -9.1626679000378317 0.79703823915224348 0 0 0 0 21.098681464740366 -13.446484283418556 0 -13.446484283418556 9.7829697370432314 0 0 0 0 54.875970263230556 -38.862992639179765 0 -38.862992639179765 -4.7684070223973549 0 0 0 0 30.667580262401316 -37.005684209984793 0 -37.005684209984793 10.285667750227731 0 0 0 0 2.8526020976969448 -19.168086425711067 0 -19.168086425711067 33.50660543704771 0 0 0 0 45.614645776731777 -48.620189353656087 0 -48.620189353656087 19.014948628050206 0 0 0 0 28.722130240784736 -22.56759308696526 0 -22.56759308696526 -6.0904714254538703 0 0 0 0 22.037391826826934 -6.7993147939278487 0 -6.7993147939278487 -5.2895331909950301 0 0 0 0 10.159995552677621 -3.9384380137609014 0 -3.9384380137609014 -8.0423696994134541 0 0 0 0 9.4352831471866807 -1.8424072918146095 0 -1.8424072918146095 -4.2360805340996848 0 0 0 0 29.039710697237751 -4.9846661980392355 0 -4.9846661980392355 -16.663450729270608 0 0 0 0 76.780501768680551 44.631724794893159 0 44.631724794893159 -11.573536133462767 0 0 0 0 52.250353837707735 -37.248579684108336 0 -37.248579684108336 3.6044615588471061 0 0 0 0 39.093785794697929 -7.9327423817772065 0 -7.9327423817772065 -20.627347420851375 0 0 0 0 34.624361154747021 -0.77038830132187286 0 -0.77038830132187286 86.495790682860388 0 0 0 0 29.143173645569153 -22.731674187674717 0 -22.731674187674717 -3.9769072414736932 0 0 0 0 29.319399734820944 -25.028451895520966 0 -25.028451895520966 5.0465663058787493 0 0 0 0 -55.643369217712461 6.5400306836813797 0 6.5400306836813797 3.3089581451504273 0 0 0 0 42.923550314259046 -35.434761421542589 0 -35.434761421542589 -5.1237332950170185 0 0 0 0 29.511361753590165 -13.99135345759548 0 -13.99135345759548 -9.0122567612430888 0 0 0 0 47.662224933432299 -31.040035014244125 0 -31.040035014244125 -5.4434549722525087 0 0 0 0 68.161754457149073 -116.93134367442121 0 -116.93134367442121 -23.263998605249071 0 0 0 0 61.505211531231907 57.986286526034519 0 57.986286526034519 93.031537564376436 0 0 0 0 194.02222924079251 94.978679688716454 0 94.978679688716454 81.549273624090574 0 0 0 0 264.80087026237743 30.441800433714889 0 30.441800433714889 3.5243240533435483 0 0 0 0 225.66088901643161 106.79881971027885 0 106.79881971027885 -27.739454499339899 0 0 0 0 3.8286440407027698 -3.4570042993829304 0 -3.4570042993829304 1.2939989173501965 0 0 0 0 54.701846225889312 80.980422685164513 0 80.980422685164513 106.82573272949332 0 0 0 0 175.95240058855416 -0.55880020121799134 0 -0.55880020121799134 -96.648043937590046 0 0 0 0 168.02208661389886 -20.610385273567772 0 -20.610385273567772 -122.60521782446131 0 0 0 0 263.71962304111912 15.42574278055281 0 15.42574278055281 -149.24412950510714 0 0 0 0 106.7610530957154 17.090384054459378 0 17.090384054459378 -93.54897437876707 0 0 0 0 174.45692446398516 -48.935832664139639 0 -48.935832664139639 -46.542948119230914 0 0 0 0 26.374088240863184 -1.7575015454472833 0 -1.7575015454472833 -2.9921585294662538 0 0 0 0 266.50183750910219 8.8661223074395821 0 8.8661223074395821 -121.69030202929753 0 0 0 0 151.66263853137991 10.442386805037641 0 10.442386805037641 -45.187145203618357 0 0 0 0 188.68724688659677 -109.71030928536584 0 -109.71030928536584 26.650912799071648 0 0 0 0 132.82199669728504 -15.686245733631493 0 -15.686245733631493 -39.06009000025125 0 0 0 0 171.32822755552479 -87.617005332474946 0 -87.617005332474946 4.8877520242931496 0 0 0 0 275.78600859719154 -157.26880176053237 0 -157.26880176053237 36.44884428358796 0 0 0 0 259.69913409083165 42.583453408206537 0 42.583453408206537 -12.698175683100544 0 0 0 0 369.67749844415084 -62.824524202422253 0 -62.824524202422253 -84.135722514899726 0 0 0 0 6.7368314699526053 -9.9918065329146675 0 -9.9918065329146675 16.092010733334057 0 0 0 0 34.153230518910277 11.606319517434713 0 11.606319517434713 238.9644693794362 0 0 0 0 -12.745005136572217 -94.361075721418274 0 -94.361075721418274 308.76311918768943 0 0 0 0 -5.7233696419761486 -26.555947914006012 0 -26.555947914006012 21.604463117777726 0 0 0 0 -11.534349678800936 -104.23884282803192 0 -104.23884282803192 174.63567957666419 0 0 0 0 134.62931681853934 -179.409178260516 0 -179.409178260516 18.445069047103061 0 0 0 0 112.52722224607714 -121.55021888115039 0 -121.55021888115039 67.579395582455049 0 0 0 0 -245.39753678877605 -343.60231080108133 0 -343.60231080108133 108.94983585666091 0 0 0 0 101.53777102537606 -188.94564220520522 0 -188.94564220520522 -236.0783232824723 0 0 0 0 -594.46761260917629 -310.07306291628555 0 -310.07306291628555 -22.136723009657544 0 0 0 0 19.279610272313473 -9.2402192995475794 0 -9.2402192995475794 -11.015308301758784 0 0 0 0 116.43820971208697 -27.425614232374755 0 -27.425614232374755 -95.734301738566046 0 0 0 0 167.58745787468888 -30.405195618402104 0 -30.405195618402104 -55.022786931596784 0 0 0 0 120.98261839902261 -51.744216792903899 0 -51.744216792903899 -2.170371592610536 0 0 0 0 -201.1002739878295 -271.13665539315173 0 -271.13665539315173 -90.690317056818003 0 0 0 0 1.3295749630595992 -61.070680286576128 0 -61.070680286576128 -19.841229954630041 0 0 0 0 131.89819130863009 -45.247790473613861 0 -45.247790473613861 -2.8796202054215008 0 0 0 0 -10.053142266169743 -105.68144874921882 0 -105.68144874921882 30.333373281302556 0 0 0 0 59.64340944772357 -90.720070025077177 0 -90.720070025077177 31.546370856837939 0 0 0 0 21.453320578967777 -59.075964180773838 0 -59.075964180773838 24.318666527695029 0 0 0 0 27.271287058461454 -12.458449074802793 0 -12.458449074802793 2.2616346018876894 0 0 0 0 232.47120282425385 -280.00841891909226 0 -280.00841891909226 342.2144204132519 0 0 0 0 4836.4742454236257 1161.0607673631821 0 1161.0607673631821 -1593.7606464166565 0 0 0 0 125.19924032389099 -121.06351281768593 0 -121.06351281768593 108.02279633179523 0 0 0 0 204.35101379161301 -100.49103053080307 0 -100.49103053080307 -8.2589673180773389 0 0 0 0 -0.35441523429211119 -27.014961226929341 0 -27.014961226929341 8.5452888747541991 0 0 0 0 2822.9892608472728 -1642.3386804371466 0 -1642.3386804371466 -651.75098715750369 0 0 0 0 -354.00291760995606 -570.68532186419736 0 -570.68532186419736 767.58000860402944 0 0 0 0 2367.366368528048 -3068.5863381490281 0 -3068.5863381490281 1045.661109013628 0 0 0 0 128.42703613285909 -36.952779052011216 0 -36.952779052011216 1.7011510414465882 0 0 0 0 48.739487378779813 273.82372279522031 0 273.82372279522031 -577.51908033947916 0 0 0 0 4.1012046587008797 -5.5803583703283053 0 -5.5803583703283053 6.6728173591118143 0 0 0 0 1054.0649218204926 493.90137853174565 0 493.90137853174565 -32.482327575992713 0 0 0 0 724.1934017927997 404.78667425250069 0 404.78667425250069 144.70357806188667 0 0 0 0 660.57875234642779 235.10424324127075 0 235.10424324127075 113.24769505116365 0 0 0 0 17.657324181483364 -9.2130267742355585 0 -9.2130267742355585 -4.8433425303606459 0 0 0 0 331.57548036351363 49.681023837025919 0 49.681023837025919 42.112710937662087 0 0 0 0 -447.62103367949021 191.73759574137682 0 191.73759574137682 260.19923266489059 0 0 0 0 1074.3811823887154 -27.830006935634628 0 -27.830006935634628 -138.86242201908624 0 0 0 0 255.93678730646025 -352.56513596754189 0 -352.56513596754189 34.634941765253416 0 0 0 0 14.586599638803104 59.249623845001651 0 59.249623845001651 -28.79459697679502 0 0 0 0 20.53712385850493 -1.9892675485076943 0 -1.9892675485076943 -3.5613326858799326 0 0 0 0 260.45392583563495 -65.161634281117585 0 -65.161634281117585 -41.657910577982534 0 0 0 0 2122.7462755910674 -4147.1420322164513 0 -4147.1420322164513 -6.2766901637005503 0 0 0 0 126.66621011922848 176.223456537522 0 176.223456537522 -95.720108498466288 0 0 0 0 -0.45011839772405438 212.97628081364019 0 212.97628081364019 -60.509993133443913 0 0 0 0 50.03120392034225 58.335222183857695 0 58.335222183857695 -37.413858622468979 0 0 0 0 -124.74766207446828 72.296773340920481 0 72.296773340920481 -21.335946278799383 0 0 0 0 30.798933068030692 30.333752343689412 0 30.333752343689412 -68.331332000341718 0 0 0 0 -18.825897219880289 -3.7846576094284501 0 -3.7846576094284501 -91.788390631070797 0 0 0 0 8.237073458831901 63.387809952590942 0 63.387809952590942 -14.835148796979411 0 0 0 0 5.7763763717898655 87.135381550854163 0 87.135381550854163 -91.17043487632327 0 0 0 0 -40.237011345880205 71.54609506593988 0 71.54609506593988 -6.141749487836023 0 0 0 0 22.104505912056538 112.99800632725237 0 112.99800632725237 115.22555599351017 0 0 0 0 21.171797802678498 -7.3736900917847379 0 -7.3736900917847379 -31.490826188952269 0 0 0 0 39.556532179733509 12.751746544288835 0 12.751746544288835 5.5328044391173243 0 0 0 0 42.812484376911016 47.016433361233794 0 47.016433361233794 -61.573513784274837 0 0 0 0 265.90267786949062 -83.405085757188544 0 -83.405085757188544 -9.8576837576001708 0 0 0 0 180.36724501922527 -133.66102043216847 0 -133.66102043216847 111.66955721714294 0 0 0 0 501.80719163264621 -163.96333522069199 0 -163.96333522069199 47.877428558090287 0 0 0 0 306.17784640799255 -228.53872822730364 0 -228.53872822730364 171.42880105010863 0 0 0 0 192.75803658594305 -96.62856236531934 0 -96.62856236531934 55.594732498710073 0 0 0 0 10.563965208133595 7.6297263076894524 0 7.6297263076894524 86.056836009617882 0 0 0 0 115.26201474138725 40.953718170688717 0 40.953718170688717 -20.565572204774753 0 0 0 0 66.160509700412149 13.278643636744391 0 13.278643636744391 -21.116875937511395 0 0 0 0 177.47701014404495 82.01639905984257 0 82.01639905984257 -90.359411886201997 0 0 0 0 52.72078567217914 50.541374459205777 0 50.541374459205777 -59.355182938790193 0 0 0 0 55.141056566494875 27.618696197586623 0 27.618696197586623 1.3379607057798353 0 0 0 0 90.075138600885111 46.437839002349392 0 46.437839002349392 -36.201646796200293 0 0 0 0 93.398205351062643 85.86189708873053 0 85.86189708873053 -61.196042727055556 0 0 0 0 -11.007875989289005 41.338926223503222 0 41.338926223503222 -34.694045741895025 0 0 0 0 4495.7443637587639 2178.8402678665307 0 2178.8402678665307 701.1092848822874 0 0 0 0 18.636231297456192 -7.3008384921922627 0 -7.3008384921922627 3.931579383214312 0 0 0 0 42.129852492459236 -732.16539551078154 0 -732.16539551078154 777.71154845020351 0 0 0 0 86.11383134094649 366.00399942434439 0 366.00399942434439 29.133152578732791 0 0 0 0 184.94859786999587 94.158913990096607 0 94.158913990096607 -345.19362669209556 0 0 0 0 111.49139209968052 -38.779469047400539 0 -38.779469047400539 560.64096130553594 0 0 0 0 2128.9038017734729 333.32366098367788 0 333.32366098367788 -105.0134647311931 0 0 0 0 38.219628743786558 -22.450067482252209 0 -22.450067482252209 8.0367201944206705 0 0 0 0 -46.64177833894064 -230.30330060687584 0 -230.30330060687584 -230.37457107909768 0 0 0 0 2238.4023993127703 968.64544069225417 0 968.64544069225417 69.718698009223147 0 0 0 0 4498.2969669727609 407.21015203812317 0 407.21015203812317 -892.03090223878826 0 0 0 0 2559.4569012707652 -465.02162037825445 0 -465.02162037825445 -806.23668112635482 0 0 0 0 2536.8884638516583 -77.039454330718513 0 -77.039454330718513 -335.76313441842535 0 0 0 0 701.92876628546946 336.52191267321263 0 336.52191267321263 96.815478867269235 0 0 0 0 92.540844098781236 -99.781147896159837 0 -99.781147896159837 -127.36080784861224 0 0 0 0 47.637049714841396 -27.458922160231701 0 -27.458922160231701 7.8780683910542004 0 0 0 0 242.35848619298486 21.572298163212508 0 21.572298163212508 -178.97478290323511 0 0 0 0 419.31037152763383 -335.82163459510025 0 -335.82163459510025 44.059533359511533 0 0 0 0 227.15395982388509 252.28675337220645 0 252.28675337220645 112.51506786210371 0 0 0 0 23.391048537542346 -7.4678435738966868 0 -7.4678435738966868 -13.170213905949833 0 0 0 0 30.862747193409632 -41.410944165825413 0 -41.410944165825413 6.1641609964353847 0 0 0 0 40.251138549876487 26.382417141986394 0 26.382417141986394 -35.369649151124577 0 0 0 0 161.9597914486003 88.981379858257014 0 88.981379858257014 -31.408858943675568 0 0 0 0 87.865018368363963 10.860961823684192 0 10.860961823684192 -94.727750788308185 0 0 0 0 85.765241482645479 -26.41660875914576 0 -26.41660875914576 6.8423854843699701 0 0 0 0 1.0770114399425381 0.37102035940310429 0 0.37102035940310429 -5.1687792807178559 0 0 0 0 -20.554624302822049 -13.665449192905271 0 -13.665449192905271 5.7000082548543105 0 0 0 0 25.782669328025804 -44.294653925773787 0 -44.294653925773787 101.28529024511545 0 0 0 0 83.949811334990954 68.86273220127805 0 68.86273220127805 27.918793397111585 0 0 0 0 2.2138520277443092 -0.40645156606639166 0 -0.40645156606639166 0.0660099873870576 0 0 0 0 -15.688706333523442 -26.51576939479628 0 -26.51576939479628 29.217251955278698 0 0 0 0 8.0006775648143957 -5.7344716948282439 0 -5.7344716948282439 19.1414405385176 0 0 0 0 125.93419087371149 -73.369244596138969 0 -73.369244596138969 20.709801719393909 0 0 0 0 -61.412678834356484 -15.649100084952124 0 -15.649100084952124 223.79519411453794 0 0 0 0 245.79323015022965 79.269711398734216 0 79.269711398734216 -138.86585926039857 0 0 0 0 141.06014620387941 138.5103133467955 0 138.5103133467955 -33.207976603413499 0 0 0 0 -5.5674685948470142 213.00963897388624 0 213.00963897388624 85.70137217437582 0 0 0 0 -48.705911335338897 134.57698532459665 0 134.57698532459665 -13.564502456476589 0 0 0 0 9.324251388752586 -13.711638756562319 0 -13.711638756562319 13.264917726633875 0 0 0 0 38.431656145599845 -4.76913318611048 0 -4.76913318611048 -6.8115616091811262 0 0 0 0 12.851591247731918 -7.1809113099877564 0 -7.1809113099877564 2.2450409724281171 0 0 0 0 13.798941300367005 -30.119013962837016 0 -30.119013962837016 80.485833380413169 0 0 0 0 52.979487700744357 -12.982796110837853 0 -12.982796110837853 -28.037006784003097 0 0 0 0 19.380111088234116 -27.708183706639602 0 -27.708183706639602 -31.076026144271054 0 0 0 0 31.968511937906442 -163.03661505189757 0 -163.03661505189757 36.570108017242092 0 0 0 0 -2.8197839720232878 -24.806769911008814 0 -24.806769911008814 -19.371628525352207 0 0 0 0 7.8325333612142032 -12.02016138912578 0 -12.02016138912578 9.921224265970146 0 0 0 0 9.6919303991599008 -24.475195820563385 0 -24.475195820563385 -20.613838366727578 0 0 0 0 -80.072262537563802 -101.9398062958071 0 -101.9398062958071 126.0747922054652 0 0 0 0 48.582076110076741 -139.51504622264201 0 -139.51504622264201 85.114366314552171 0 0 0 0 63.647262160222454 12.421251972007667 0 12.421251972007667 -78.92323071410874 0 0 0 0 72.156210157374517 -65.435371906020009 0 -65.435371906020009 130.56683287285523 0 0 0 0 62.344051534164464 -95.617932799927985 0 -95.617932799927985 -93.545250366785581 0 0 0 0 42.162927809527901 -166.76904182715043 0 -166.76904182715043 -270.53403179154157 0 0 0 0 -35.582658802381047 18.882571613013852 0 18.882571613013852 -109.60389918477449 0 0 0 0 18.458515679703936 -12.876056256096627 0 -12.876056256096627 2.7717815602292788 0 0 0 0 11.87312225608855 -8.5192601812323403 0 -8.5192601812323403 -10.637970258238484 0 0 0 0 0.14757696741435211 -21.237696728107039 0 -21.237696728107039 -11.439924312489893 0 0 0 0 9.8199036817386514 -15.758930823671562 0 -15.758930823671562 -11.775143425908936 0 0 0 0 20.719994603944912 -18.422945533328914 0 -18.422945533328914 3.2724162524146907 0 0 0 0 20.378541667002892 -23.820992516259707 0 -23.820992516259707 6.6753678291549896 0 0 0 0 33.232729567562046 -44.532692901616542 0 -44.532692901616542 -171.37859009620661 0 0 0 0 18.835943151258107 -21.99958414197954 0 -21.99958414197954 -11.917049355924064 0 0 0 0 17.022041469725082 -20.978522301497833 0 -20.978522301497833 -12.050823786895307 0 0 0 0 13.62532610615429 -23.814565707734349 0 -23.814565707734349 11.819566655814304 0 0 0 0 23.062670186100718 -30.459220907784903 0 -30.459220907784903 9.733954757123394 0 0 0 0 19.669317864085315 -24.390139393901336 0 -24.390139393901336 -7.7816448764133384 0 0 0 0 -18.60134459665278 14.852636896437616 0 14.852636896437616 -56.352957448420739 0 0 0 0 5.4577452442457286 0.19695981901791271 0 0.19695981901791271 -11.386723063318948 0 0 0 0 11.224443585073459 -5.5593846872993709 0 -5.5593846872993709 -21.671932595079852 0 0 0 0 5.4325122965662729 -3.7123550763656135 0 -3.7123550763656135 -9.3668025094904213 0 0 0 0 13.043225634766145 -14.040160550383639 0 -14.040160550383639 -0.42003994029749148 0 0 0 0 21.317592914652778 -18.090791753922531 0 -18.090791753922531 -11.30289686072183 0 0 0 0 15.461646354384769 -6.4138165842085577 0 -6.4138165842085577 -10.281429368433953 0 0 0 0 5.4894617765239673 -7.1783436314428855 0 -7.1783436314428855 -1.8360795916214201 0 0 0 0 -4.8805154528672574 -15.870321671034162 0 -15.870321671034162 11.166939344690405 0 0 0 0 -2.6574950905342121 -29.746783520277404 0 -29.746783520277404 0.39998314366494014 0 0 0 0 6.2137826718119413 -2.6220561403554745 0 -2.6220561403554745 -1.6118997038922465 0 0 0 0 2.1139436285784114 -8.2530388345891694 0 -8.2530388345891694 -3.4252807829704377 0 0 0 0 17.054996970909997 -18.899436213339868 0 -18.899436213339868 -28.980906250618659 0 0 0 0 10.675372086349114 -10.626316365649842 0 -10.626316365649842 5.6446166564460611 0 0 0 0 9.6657501212976058 -6.1791699800480728 0 -6.1791699800480728 -7.9629853721830841 0 0 0 0 42.874287161202872 -26.498655407432054 0 -26.498655407432054 11.029019355909513 0 0 0 0 35.736940238573879 -37.642213390187607 0 -37.642213390187607 0.55408136707285394 0 0 0 0 32.348460012810392 -32.63533099662861 0 -32.63533099662861 0.35832325420858524 0 0 0 0 40.645244635343261 -38.229227387123728 0 -38.229227387123728 -2.0330689518076497 0 0 0 0 35.826376782475563 -34.729979055425076 0 -34.729979055425076 -1.3012099383314535 0 0 0 0 28.460684958772617 -27.223972269767955 0 -27.223972269767955 6.1999501721209072 0 0 0 0 35.113960410755681 -38.662676734815818 0 -38.662676734815818 13.057985889005522 0 0 0 0 50.143481460327166 -49.651799295946148 0 -49.651799295946148 11.44825385695782 0 0 0 0 26.153848308696979 -46.447833428126614 0 -46.447833428126614 36.614550074607905 0 0 0 0 58.190767104621045 -37.840153479352011 0 -37.840153479352011 12.09899858800236 0 0 0 0 1.1843192057131091 -6.7859076704226027 0 -6.7859076704226027 27.757834840715077 0 0 0 0 25.499195243275608 -49.261212523665677 0 -49.261212523665677 57.683263168623853 0 0 0 0 57.239945180728682 -28.015701819780588 0 -28.015701819780588 27.479195864532812 0 0 0 0 47.946529266431753 -41.161115230582482 0 -41.161115230582482 21.255447320822725 0 0 0 0 16.73899490423355 -5.6842977530106964 0 -5.6842977530106964 -42.98171499013165 0 0 0 0 1.8575448742474521 -2.0605801776512536 0 -2.0605801776512536 -1.8292187675662681 0 0 0 0 36.395108225482545 -38.740776964425812 0 -38.740776964425812 -17.797235046361493 0 0 0 0 16.433790757571842 -19.337645798197201 0 -19.337645798197201 1.0215808657717389 0 0 0 0 26.200871748329519 -41.190492861873636 0 -41.190492861873636 0.85305091181442094 0 0 0 0 9.8585644374907133 -23.110290310621167 0 -23.110290310621167 9.6872156327195853 0 0 0 0 20.4494288929709 -43.301771244659903 0 -43.301771244659903 12.200780044036492 0 0 0 0 48.964596783447632 -49.7236137531861 0 -49.7236137531861 7.2701962564108271 0 0 0 0 4.3759815642025757 -5.8679472387081795 0 -5.8679472387081795 0.59028764979205484 0 0 0 0 22.91976437205858 -18.509081690912918 0 -18.509081690912918 8.9646724673652116 0 0 0 0 18.504378913567052 -19.543225551624801 0 -19.543225551624801 10.397651533183705 0 0 0 0 0.1081443745752324 -5.6448962656553885 0 -5.6448962656553885 3.3906588810104124 0 0 0 0 34.359613122578594 -3.711789702718761 0 -3.711789702718761 -17.637905672280631 0 0 0 0 62.349223865268868 -44.569674328403551 0 -44.569674328403551 -0.7303131972846586 0 0 0 0 68.651791077338203 42.32880081234407 0 42.32880081234407 -121.88425595608533 0 0 0 0 22.603984082685514 -16.097839379006913 0 -16.097839379006913 -10.55311733454371 0 0 0 0 12.803680066994275 -10.551276810343722 0 -10.551276810343722 -15.492929558996764 0 0 0 0 138.75514578363072 -51.150478191239017 0 -51.150478191239017 -99.165095468781146 0 0 0 0 22.948218101582654 -16.800300147623581 0 -16.800300147623581 0.22861958139917948 0 0 0 0 15.474387947033392 -10.210609006760251 0 -10.210609006760251 -26.48772353213414 0 0 0 0 14.668937737924352 -0.42036456128940003 0 -0.42036456128940003 -13.748046593014669 0 0 0 0 -3.395192370577206 -1.1449631267273617 0 -1.1449631267273617 -64.536345744825667 0 0 0 0 103.39385287799541 26.816812461079962 0 26.816812461079962 -119.71864672144693 0 0 0 0 59.499294399298378 -34.671328049924341 0 -34.671328049924341 -47.4614780649772 0 0 0 0 135.21257330674416 6.2285417356624748 0 6.2285417356624748 -36.166964926366063 0 0 0 0 62.259777863424461 -16.294145728402782 0 -16.294145728402782 116.55624189740229 0 0 0 0 0.16518296777940122 57.944256220525858 0 57.944256220525858 -22.013267476902456 0 0 0 0 94.648168918662122 49.989796201199169 0 49.989796201199169 3.0553856047981753 0 0 0 0 -6.5608098131779116 -12.472104275085258 0 -12.472104275085258 -31.425960255907739 0 0 0 0 11.977565764158498 -135.27440185864907 0 -135.27440185864907 409.87745046528971 0 0 0 0 -3.6984992611135539 -1.0226356253087197 0 -1.0226356253087197 11.284860669967898 0 0 0 0 24.676429659983114 -145.42019631263247 0 -145.42019631263247 62.98820452134305 0 0 0 0 15.536665010491561 57.254219326917791 0 57.254219326917791 33.416779973144003 0 0 0 0 69.406452427334443 -35.684461111083465 0 -35.684461111083465 79.906241982156644 0 0 0 0 97.53343202213 -65.512239504420904 0 -65.512239504420904 381.64211218091032 0 0 0 0 180.4064162962859 -66.636403566415993 0 -66.636403566415993 116.55479795363236 0 0 0 0 124.62304154987942 33.217228589163142 0 33.217228589163142 153.52454897217876 0 0 0 0 380.16166702166629 -197.2227568770511 0 -197.2227568770511 367.19641378192364 0 0 0 0 158.87297071120702 63.801970494127261 0 63.801970494127261 453.45626023317175 0 0 0 0 -331.79048010308202 933.6553742642393 0 933.6553742642393 803.40925444539243 0 0 0 0 352.8738058125964 66.048743743304499 0 66.048743743304499 275.84853118349133 0 0 0 0 120.86234678491201 31.082605965535777 0 31.082605965535777 532.95985248352872 0 0 0 0 357.49484477436272 -785.88584052910312 0 -785.88584052910312 -351.53889012847969 0 0 0 0 -66.113880511926254 -310.14867640732359 0 -310.14867640732359 -231.65929081630543 0 0 0 0 -140.07673557991802 -155.33278046618298 0 -155.33278046618298 -358.33559765200084 0 0 0 0 56.665033241988112 -67.222448802864108 0 -67.222448802864108 92.036612410222915 0 0 0 0 37.933141976353326 -29.426182677687756 0 -29.426182677687756 1.0368479249673728 0 0 0 0 -188.69116626587493 -326.18596515150978 0 -326.18596515150978 278.66916785259775 0 0 0 0 439.03616689427145 -257.94107159193288 0 -257.94107159193288 -929.2759714030999 0 0 0 0 -30.309041306520157 -129.70634314648328 0 -129.70634314648328 432.91345931790875 0 0 0 0 26.852144961697192 -18.032844999279533 0 -18.032844999279533 3.5087664094540423 0 0 0 0 317.49463615612331 -295.74720101230884 0 -295.74720101230884 -315.2678264825314 0 0 0 0 502.40423974378791 -142.1291090400926 0 -142.1291090400926 -517.55262712831563 0 0 0 0 118.55052861613149 -377.90365274570422 0 -377.90365274570422 561.6370158376717 0 0 0 0 -126.34259664061392 -152.77116893930702 0 -152.77116893930702 -516.35387055214835 0 0 0 0 -70.388510502492863 -14.1929631720418 0 -14.1929631720418 -349.80218529118321 0 0 0 0 67.38285990525128 35.965280463089044 0 35.965280463089044 -871.675473064127 0 0 0 0 -130.08028384078352 97.715149876699115 0 97.715149876699115 1041.6426876150861 0 0 0 0 224.02911383572791 28.341495454250605 0 28.341495454250605 -52.679286168413228 0 0 0 0 13.301419976153753 -13.077254531440065 0 -13.077254531440065 2.8020173863541524 0 0 0 0 2.5253441166460107 -108.00663923949304 0 -108.00663923949304 -573.78460830259644 0 0 0 0 -79.524191645745304 42.852444582088381 0 42.852444582088381 -420.27206044754598 0 0 0 0 30.395714363643833 -213.71901845837502 0 -213.71901845837502 523.80030334800722 0 0 0 0 37.270793744974071 -59.752013058996454 0 -59.752013058996454 535.06971922898219 0 0 0 0 6.3139467958835809 -4.4080372172141837 0 -4.4080372172141837 0.20007823784550999 0 0 0 0 35.112872087043797 -293.24597246536018 0 -293.24597246536018 1036.3152253183187 0 0 0 0 93.872180467118596 -233.44233417178452 0 -233.44233417178452 377.15864276643697 0 0 0 0 177.40120783526436 -40.702216406395564 0 -40.702216406395564 135.8965079384343 0 0 0 0 48.121122216754884 -158.12486050907773 0 -158.12486050907773 147.74699625639619 0 0 0 0 -19.530190110723197 -64.353374460122268 0 -64.353374460122268 208.60917688419158 0 0 0 0 -81.50486720311892 -64.063927638034329 0 -64.063927638034329 417.89587627351648 0 0 0 0 -10.762936672832438 -177.09668888653687 0 -177.09668888653687 332.28596081334217 0 0 0 0 -130.73909824416478 35.786568815415194 0 35.786568815415194 465.75260192135738 0 0 0 0 -30.309176394352107 -141.60184371960281 0 -141.60184371960281 406.8083771718857 0 0 0 0 13.985864408168709 -4.3977499747118145 0 -4.3977499747118145 653.14287733068613 0 0 0 0 3.0787219218317148 -5.5961763937754299 0 -5.5961763937754299 6.9516673644028026 0 0 0 0 226.66791633520916 -237.83491346189044 0 -237.83491346189044 121.4793739068175 0 0 0 0 -196.6862781187665 337.3892093761919 0 337.3892093761919 1570.3515647239467 0 0 0 0 270.60736733772501 -309.92993524858218 0 -309.92993524858218 -439.65951720386147 0 0 0 0 33.576558946135094 -7.5810448745379757 0 -7.5810448745379757 -0.9774569132805444 0 0 0 0 20.470129263848591 -7.1660928473946095 0 -7.1660928473946095 -0.37498213455940654 0 0 0 0 -88.423989732818882 -250.67587087804634 0 -250.67587087804634 557.13527636502613 0 0 0 0 -119.74502366843808 -259.65757254846278 0 -259.65757254846278 701.2967373351737 0 0 0 0 -26.959111075186229 16.708765778455927 0 16.708765778455927 -410.75955973040539 0 0 0 0 3.4946877105393384 -5.1615210989062277 0 -5.1615210989062277 1.6163092721165617 0 0 0 0 188.95302436767088 -68.434874159826364 0 -68.434874159826364 -845.96350557673713 0 0 0 0 397.8098978575581 -376.82614259460672 0 -376.82614259460672 -392.73241199512302 0 0 0 0 212.07068528057243 -461.90395730811747 0 -461.90395730811747 549.33176608901465 0 0 0 0 381.77267288672738 -106.91254609633643 0 -106.91254609633643 -377.02613846568079 0 0 0 0 -60.851182828451783 -5.8240449745193672 0 -5.8240449745193672 -191.06347810499892 0 0 0 0 536.08359462757289 -1311.2186540975408 0 -1311.2186540975408 1387.8549005491095 0 0 0 0 313.62729676106392 -24.802281460828567 0 -24.802281460828567 -132.00060791521128 0 0 0 0 1645.7229280408501 -332.80493843675947 0 -332.80493843675947 404.07017260132534 0 0 0 0 1648.262099126634 -649.21473771027661 0 -649.21473771027661 -300.12576617054839 0 0 0 0 2866.8081137338522 -873.57844595372433 0 -873.57844595372433 -297.44703095739294 0 0 0 0 2194.1496934353236 -2188.8735787471956 0 -2188.8735787471956 1667.3340911314895 0 0 0 0 4491.0103622176284 -1841.4936763830465 0 -1841.4936763830465 42.213010680569056 0 0 0 0 1902.3168633053065 1019.063776379218 0 1019.063776379218 -457.70559247505838 0 0 0 0 19.441800549818396 -4.4492303823575128 0 -4.4492303823575128 0.76298622144349926 0 0 0 0 4477.969100596998 -152.52792302121574 0 -152.52792302121574 -371.28694882245566 0 0 0 0 -102.99103717286926 -1107.8897513098223 0 -1107.8897513098223 999.27167989928626 0 0 0 0 -302.51988970254752 568.35126174722177 0 568.35126174722177 1292.1187904302467 0 0 0 0 615.7298670571181 29.259300405137651 0 29.259300405137651 1500.7271342455017 0 0 0 0 346.18146629815601 -479.12492982970946 0 -479.12492982970946 546.92272342584852 0 0 0 0 1588.5730711604774 -1184.014679044368 0 -1184.014679044368 786.79512121965161 0 0 0 0 4491.4628706788335 -2743.3307721670485 0 -2743.3307721670485 1302.5591772602484 0 0 0 0 2520.4803134127687 -1609.8193180882345 0 -1609.8193180882345 748.95788043381981 0 0 0 0 2156.5338231857677 -2080.202182206443 0 -2080.202182206443 1584.4181266145893 0 0 0 0 -305.97216900461444 -557.27379162889713 0 -557.27379162889713 1744.8541236261183 0 0 0 0 31.643439948987613 -8.9248586651260293 0 -8.9248586651260293 4.1473565840205371 0 0 0 0 1723.140484409827 -2506.8829609264767 0 -2506.8829609264767 3477.9715002953908 0 0 0 0 4487.6314670917445 371.21378452757676 0 371.21378452757676 -1094.4869892719887 0 0 0 0 4502.7356064215292 371.61729348109697 0 371.61729348109697 -1094.5567079824152 0 0 0 0 342.58940292631087 -711.03869611899734 0 -711.03869611899734 -211.54920101645325 0 0 0 0 1491.4691430097919 1603.001455098587 0 1603.001455098587 -230.00732349392237 0 0 0 0 69.496057941974811 -17.561789562167203 0 -17.561789562167203 0.5036600429472704 0 0 0 0 753.30194518798089 -326.47485369333117 0 -326.47485369333117 -1719.8495165453141 0 0 0 0 370.02634916908937 150.92493940534484 0 150.92493940534484 319.85537942378789 0 0 0 0 548.0838680808788 -674.77561918984566 0 -674.77561918984566 164.92523743223182 0 0 0 0 -167.64216922096966 -73.426029198528681 0 -73.426029198528681 1681.5072655937774 0 0 0 0 -320.04581521466025 56.095535220432112 0 56.095535220432112 -95.623849508709554 0 0 0 0 12.449815849915581 126.37519054203102 0 126.37519054203102 79.7239914612951 0 0 0 0 42.081462823020956 -124.76034671127263 0 -124.76034671127263 514.29122379678893 0 0 0 0 699.14190263112869 -27.500427540871669 0 -27.500427540871669 -249.2456525234839 0 0 0 0 914.22424150814368 -1212.3825044639998 0 -1212.3825044639998 1276.9366224648197 0 0 0 0 1388.233467412103 -753.81308701731712 0 -753.81308701731712 253.63512165272016 0 0 0 0 235.51903658900846 80.369769571597374 0 80.369769571597374 -250.69725066246269 0 0 0 0 -88.310457803715508 -284.12064334777278 0 -284.12064334777278 260.60583200817496 0 0 0 0 20.326360463221764 -33.172435164037189 0 -33.172435164037189 45.417735403039629 0 0 0 0 65.443428066144406 -105.05233278281048 0 -105.05233278281048 14.957606678432057 0 0 0 0 -5.2210989911509387 16.74694837836978 0 16.74694837836978 146.11003363615964 0 0 0 0 21.859537283738973 -158.33308846081491 0 -158.33308846081491 55.334268766786408 0 0 0 0 45.150443196403032 -41.379783029712648 0 -41.379783029712648 44.76482132304271 0 0 0 0 -11.965744207844637 52.914653372696193 0 52.914653372696193 -53.979202369837822 0 0 0 0 214.30394245463231 -605.13116650058919 0 -605.13116650058919 -857.08538537311347 0 0 0 0 69.695887801691754 -27.671464392221559 0 -27.671464392221559 9.1070585904878847 0 0 0 0 -190.44185100652976 -124.74569959416249 0 -124.74569959416249 -15.440552106780501 0 0 0 0 189.05791771078748 -398.50469896869276 0 -398.50469896869276 73.873016012036146 0 0 0 0 -260.35903425599463 -457.62828161067182 0 -457.62828161067182 650.38101148576879 0 0 0 0 413.83584711005096 81.090369046870251 0 81.090369046870251 -303.70620023731317 0 0 0 0 338.9574166703751 -350.42028920301766 0 -350.42028920301766 -220.4172975386291 0 0 0 0 -458.23371983255402 -630.40072863325759 0 -630.40072863325759 25.410455877001709 0 0 0 0 20.588310126258278 -0.31558621894191319 0 -0.31558621894191319 -9.3627343942953551 0 0 0 0 125.05784408614863 -60.406666426903804 0 -60.406666426903804 2.88719747971688 0 0 0 0 254.67415611186516 14.295761070736035 0 14.295761070736035 76.162508047373194 0 0 0 0 253.37765021338782 -114.1510955351132 0 -114.1510955351132 -76.470267878326467 0 0 0 0 4.2359362267342249 18.302797903519046 0 18.302797903519046 -15.51933415249883 0 0 0 0 179.45414912446176 -228.39300901014667 0 -228.39300901014667 46.968324649415081 0 0 0 0 110.62085931597903 -154.89138827322472 0 -154.89138827322472 12.094182871087469 0 0 0 0 230.57667372817741 34.199056896746924 0 34.199056896746924 -365.79936639319476 0 0 0 0 20.915245179361452 -15.178567597462568 0 -15.178567597462568 3.1679338517412265 0 0 0 0 558.62546673058023 -276.52392616529607 0 -276.52392616529607 -201.26701813137231 0 0 0 0 203.45361128614604 -166.15090556395938 0 -166.15090556395938 -65.251101882015064 0 0 0 0 160.73191551546915 -197.09756854585498 0 -197.09756854585498 -55.419452987161094 0 0 0 0 200.63908129670199 -301.38392209905879 0 -301.38392209905879 210.49190307676463 0 0 0 0 160.51269324787654 -187.57752089919427 0 -187.57752089919427 34.13105469873733 0 0 0 0 152.35980810172077 -124.97125079678915 0 -124.97125079678915 -9.7086764358142545 0 0 0 0 208.59668612045289 -149.25086769968425 0 -149.25086769968425 -34.048953048269141 0 0 0 0 94.801075884598959 -160.01701495767566 0 -160.01701495767566 6.5819959990249117 0 0 0 0 170.51641435801548 -46.165904849153549 0 -46.165904849153549 -11.253487312474135 0 0 0 0 303.04029292005362 -154.14708887124198 0 -154.14708887124198 -39.890776498262767 0 0 0 0 112.77254339937315 -20.20872028890404 0 -20.20872028890404 -57.295883430020453 0 0 0 0 266.52752783153483 5.4118430407197593 0 5.4118430407197593 -81.435168566936682 0 0 0 0 15.280107250647141 -2.8697078331966566 0 -2.8697078331966566 -12.658573984749665 0 0 0 0 140.4239762658126 -40.948067275793619 0 -40.948067275793619 -58.332011368926032 0 0 0 0 477.30418240626022 -98.047822307544266 0 -98.047822307544266 -50.259503014387974 0 0 0 0 111.26155448278951 -208.7792687721867 0 -208.7792687721867 248.09491249770508 0 0 0 0 164.7535821388301 38.224508601234447 0 38.224508601234447 168.67906940522107 0 0 0 0 92.062781802218524 -210.96333651535906 0 -210.96333651535906 240.42120406083632 0 0 0 0 212.49567473563184 -241.45572976208041 0 -241.45572976208041 136.24911673753286 0 0 0 0 209.54919054767743 -315.56976138858045 0 -315.56976138858045 239.44182825402368 0 0 0 0 -130.87630584918475 -298.34206109741478 0 -298.34206109741478 1031.4514084406464 0 0 0 0 3.2779940986443705 -4.3776909357305716 0 -4.3776909357305716 -1.6208049790303276 0 0 0 0 -95.082893326726662 -125.12271859220965 0 -125.12271859220965 156.64631322817695 0 0 0 0 168.850381264936 -505.17819359255782 0 -505.17819359255782 546.64916681805062 0 0 0 0 169.37695152455427 -786.94938063343943 0 -786.94938063343943 310.13153055467751 0 0 0 0 -22.704436238680501 -843.34742163009867 0 -843.34742163009867 1005.2097239133609 0 0 0 0 -38.067341334925004 -733.74896478792107 0 -733.74896478792107 301.43620428915438 0 0 0 0 -97.176008256861678 -614.95191478621837 0 -614.95191478621837 829.00817206347665 0 0 0 0 -131.449650700044 -652.74645692271406 0 -652.74645692271406 969.80854442197153 0 0 0 0 526.16906828081028 -793.75207377379934 0 -793.75207377379934 51.546049917748121 0 0 0 0 952.89165211261161 -409.34982360272789 0 -409.34982360272789 -6.2226944823164558 0 0 0 0 3316.9978146287031 -1585.1306038254584 0 -1585.1306038254584 574.54867923748088 0 0 0 0 1305.0096035468596 -1597.6290512876503 0 -1597.6290512876503 881.17915352358159 0 0 0 0 1279.6356766054232 -2078.4159208204187 0 -2078.4159208204187 2389.5920032806848 0 0 0 0 -412.68925904535536 -70.118103424875699 0 -70.118103424875699 2332.338719323142 0 0 0 0 -65.251974285169126 281.14938009690377 0 281.14938009690377 154.37399988100879 0 0 0 0 3.5378195069889955 -3.9290061566319174 0 -3.9290061566319174 -2.8288238101493413 0 0 0 0 66.284730763281914 -71.535933503520482 0 -71.535933503520482 54.498616850740291 0 0 0 0 -39.729038725154169 -42.231118320079986 0 -42.231118320079986 62.071252503777941 0 0 0 0 1027.4485691124587 406.15948759254024 0 406.15948759254024 -131.7471715730353 0 0 0 0 -1.4556939129344428 -14.689896810859615 0 -14.689896810859615 7.080448776697704 0 0 0 0 3532.771404413932 -2456.8464086277841 0 -2456.8464086277841 1595.0000077908287 0 0 0 0 6.8261127463443572 -10.576814215232993 0 -10.576814215232993 8.5726342867511178 0 0 0 0 2.7583690541541142 -10.898120477744161 0 -10.898120477744161 20.133560389479591 0 0 0 0 1720.6929429067695 -1366.5153899493901 0 -1366.5153899493901 980.71467142119297 0 0 0 0 1979.1562499178285 -1986.2156667573313 0 -1986.2156667573313 1372.3648227516583 0 0 0 0 -1152.1036580523323 181.08645922503547 0 181.08645922503547 2384.2757183528688 0 0 0 0 737.01955584980306 -1872.701507796095 0 -1872.701507796095 3463.1398584202548 0 0 0 0 155.55350698357734 -479.94194473814389 0 -479.94194473814389 1229.5762045527063 0 0 0 0 1801.0164122720253 -3613.7739956581781 0 -3613.7739956581781 1326.7062896683206 0 0 0 0 -9.1919408935260662 -1854.8463138358866 0 -1854.8463138358866 2914.2681690260233 0 0 0 0 18.379204065370669 -13.087219333026303 0 -13.087219333026303 8.1828586988582863 0 0 0 0 2370.6656815299898 443.75368183945255 0 443.75368183945255 10.41751855144912 0 0 0 0 458.27818675353501 429.98656590152825 0 429.98656590152825 70.12774869309942 0 0 0 0 1728.7203362855935 12.090706815927035 0 12.090706815927035 -462.51276960644805 0 0 0 0 41.255246385008 -20.238427439707728 0 -20.238427439707728 6.7149695561016998 0 0 0 0 -7.8073605917988971 -227.00366605314491 0 -227.00366605314491 -471.27783361913691 0 0 0 0 628.60196779255239 1087.696733370436 0 1087.696733370436 -448.63604261478122 0 0 0 0 1297.2893864216803 -759.77197051999053 0 -759.77197051999053 -1552.2895072665162 0 0 0 0 4492.3719574989254 1756.0093808561235 0 1756.0093808561235 -213.98294157703012 0 0 0 0 1397.3306682443065 787.94670305871387 0 787.94670305871387 -420.92899127118056 0 0 0 0 4500.238358055125 261.05934598128971 0 261.05934598128971 -627.60375609728771 0 0 0 0 1816.3473143828533 -11.886454247622197 0 -11.886454247622197 326.63015235265215 0 0 0 0 1896.9157303798984 -363.22996061286904 0 -363.22996061286904 846.10900680536884 0 0 0 0 2065.9589538997643 -1644.0364218619777 0 -1644.0364218619777 1822.3242862109473 0 0 0 0 2288.6196440988933 -586.29054713674589 0 -586.29054713674589 353.3697320159655 0 0 0 0 4499.3746240281016 -1679.0128834381294 0 -1679.0128834381294 546.47023423892233 0 0 0 0 213.25019470690313 -22.444102393387311 0 -22.444102393387311 -87.880563806425016 0 0 0 0 120.79778272927888 109.0063550410473 0 109.0063550410473 -153.94466596860343 0 0 0 0 162.754560941938 5.222444854571421 0 5.222444854571421 -11.355326194702641 0 0 0 0 61.282626703204571 12.66545099376985 0 12.66545099376985 -20.745855069508544 0 0 0 0 48.429580302014074 -14.555931166158643 0 -14.555931166158643 13.270109825385703 0 0 0 0 1105.3612954830969 439.75924591539115 0 439.75924591539115 199.7694566637972 0 0 0 0 0.81445526458668382 0.94919206109028265 0 0.94919206109028265 2.864739623433032 0 0 0 0 1388.9791509814313 -139.93029174585308 0 -139.93029174585308 -3.658349971256257 0 0 0 0 1196.9778677798004 -43.632372273777492 0 -43.632372273777492 -3.3069740942755743 0 0 0 0 142.48069325311371 -55.471315200925346 0 -55.471315200925346 -75.328724019606852 0 0 0 0 7.5903367727770892 -7.0358123738583345 0 -7.0358123738583345 14.668043036425342 0 0 0 0 204.30170992658532 -2.1039100321434034 0 -2.1039100321434034 -41.184394836184765 0 0 0 0 225.61349507716841 -11.795114958330032 0 -11.795114958330032 -78.734060737749587 0 0 0 0 29.268881692998896 -10.23810405850142 0 -10.23810405850142 -35.037188893296616 0 0 0 0 140.41645863283338 13.643792426167465 0 13.643792426167465 -59.088479443105768 0 0 0 0 191.28358454132831 -12.39970814088656 0 -12.39970814088656 -65.308557567727576 0 0 0 0 167.72863330797554 -33.238930119228371 0 -33.238930119228371 -67.440533594010731 0 0 0 0 187.67639110045275 7.2109892162922051 0 7.2109892162922051 -155.67125722931246 0 0 0 0 239.96416661250441 148.04378023068784 0 148.04378023068784 -341.05397010151455 0 0 0 0 166.42915193861356 1.765876714170469 0 1.765876714170469 -1.4466495081899953 0 0 0 0 130.35458403524865 140.97321960917884 0 140.97321960917884 -66.211341565265684 0 0 0 0 196.46422511180117 80.167816973559184 0 80.167816973559184 -249.58951867709675 0 0 0 0 181.06251601942813 197.82268856142787 0 197.82268856142787 1.0350022457132582 0 0 0 0 170.52716079339802 213.55048737025959 0 213.55048737025959 16.25874197160374 0 0 0 0 89.166654005084183 134.44232969774657 0 134.44232969774657 -60.423197201582298 0 0 0 0 79.850474217082137 137.70379634386063 0 137.70379634386063 -0.0034888222385234258 0 0 0 0 7.7604965743348657 112.12152006785072 0 112.12152006785072 32.182217662820221 0 0 0 0 45.275996044703902 91.203520116709569 0 91.203520116709569 -17.86804850405133 0 0 0 0 -9.3680461301042612 55.889339104653459 0 55.889339104653459 -5.7195685254955606 0 0 0 0 114.75815368545364 73.210198147653045 0 73.210198147653045 -57.255794877592052 0 0 0 0 648.19213003577897 322.75223905325902 0 322.75223905325902 -250.45632435526633 0 0 0 0 31.95365189641743 33.763424323108993 0 33.763424323108993 -23.586324899453579 0 0 0 0 121.06945352425646 4.5872466685150357 0 4.5872466685150357 -13.714584719826405 0 0 0 0 24.974110280716417 16.525561689380211 0 16.525561689380211 -15.693284137782754 0 0 0 0 860.28442632815495 138.59729638767703 0 138.59729638767703 -144.56853330063041 0 0 0 0 487.28544901431815 -251.42603593375679 0 -251.42603593375679 -209.42143312761596 0 0 0 0 393.61431411443482 -178.52063656674113 0 -178.52063656674113 -167.51313486702941 0 0 0 0 359.43396921096428 8.8904204021498572 0 8.8904204021498572 -42.805844919916922 0 0 0 0 341.44293275755626 121.50363537247722 0 121.50363537247722 -489.8787314691283 0 0 0 0 300.61550633732986 -221.57025843289864 0 -221.57025843289864 35.889713267197749 0 0 0 0 229.93736174421429 -125.65915406149918 0 -125.65915406149918 2.2787802443426699 0 0 0 0 385.00098514312413 -321.05609105292478 0 -321.05609105292478 -368.14283481023369 0 0 0 0 756.70152268106176 -117.32456922594247 0 -117.32456922594247 -20.295681827367389 0 0 0 0 10.676994887553519 -120.32883246352367 0 -120.32883246352367 -0.3184299063175331 0 0 0 0 54.523102718401788 -58.056226156511457 0 -58.056226156511457 18.219274206396221 0 0 0 0 41.113653812542282 -56.244360260444971 0 -56.244360260444971 27.482231938849189 0 0 0 0 372.90642301872504 38.146846732701306 0 38.146846732701306 20.650443179913054 0 0 0 0 -1.8549275597342216 -26.724238292118592 0 -26.724238292118592 17.003714214499702 0 0 0 0 273.67828745388761 -163.52376413192292 0 -163.52376413192292 -80.448850204541259 0 0 0 0 -6.7564267797221333 -28.371461224389996 0 -28.371461224389996 -7.9332072385330292 0 0 0 0 53.779214024474641 -84.14778489229343 0 -84.14778489229343 -0.44819435552153664 0 0 0 0 83.008071435688635 -58.997212202561762 0 -58.997212202561762 17.339266918710212 0 0 0 0 25.338133985282212 -25.287840121581866 0 -25.287840121581866 -37.756650181119767 0 0 0 0 45.681888784609328 -58.56487978023597 0 -58.56487978023597 -17.476722543821637 0 0 0 0 29.525363771401317 -88.327321340217395 0 -88.327321340217395 -21.526105782004379 0 0 0 0 34.367875082388764 -70.833470237220581 0 -70.833470237220581 17.501103125940062 0 0 0 0 51.087005290177331 -43.791830947774997 0 -43.791830947774997 6.8645423441626008 0 0 0 0 22.120294098563349 -8.6986577743638094 0 -8.6986577743638094 -33.750183369355483 0 0 0 0 92.136097184793471 -67.819466697276994 0 -67.819466697276994 9.8201326545279244 0 0 0 0 58.707209620974027 -38.172221700567661 0 -38.172221700567661 26.371393091794857 0 0 0 0 124.03898611168006 -75.004287058990599 0 -75.004287058990599 3.4480721577165241 0 0 0 0 394.30250282684119 -150.66206644733387 0 -150.66206644733387 309.72661885908565 0 0 0 0 791.3306538163306 -197.63759557285493 0 -197.63759557285493 12.795261370172739 0 0 0 0 1059.4908432059601 164.53936726235861 0 164.53936726235861 273.37751234089069 0 0 0 0 791.20075971912593 -191.8189228870242 0 -191.8189228870242 125.45277110372263 0 0 0 0 648.24017571313016 -105.06748861906453 0 -105.06748861906453 362.67808058831815 0 0 0 0 624.49352086659928 -22.217826425578096 0 -22.217826425578096 97.524492089941305 0 0 0 0 400.7167005923402 -190.28054337105095 0 -190.28054337105095 7.0252980048742302 0 0 0 0 90.003446611051913 -94.019302738535316 0 -94.019302738535316 265.26417666755469 0 0 0 0 -16.833267937637423 -17.825089170643274 0 -17.825089170643274 2.0832808943737664 0 0 0 0 978.18709831506567 -14.705947187479524 0 -14.705947187479524 55.318075379447805 0 0 0 0 617.98802471754243 -484.29204368092292 0 -484.29204368092292 -61.874325217961086 0 0 0 0 1038.247660454108 -120.65995180929008 0 -120.65995180929008 121.1976230605369 0 0 0 0 760.15884987201753 -634.15807118929297 0 -634.15807118929297 517.4176388871665 0 0 0 0 501.41971157868466 176.88140181203926 0 176.88140181203926 145.78471227741306 0 0 0 0 1907.1287422176247 97.602267712012235 0 97.602267712012235 -223.07399801506676 0 0 0 0 35.54312182139067 -3.1947534403050142 0 -3.1947534403050142 -28.879841219786613 0 0 0 0 -8.9582300287533911 -17.029966476486926 0 -17.029966476486926 11.583685014110479 0 0 0 0 114.76492701208736 -61.947586507621168 0 -61.947586507621168 10.425001036337676 0 0 0 0 77.588864067969553 56.780055030255426 0 56.780055030255426 -186.79609563150598 0 0 0 0 91.720760822488046 14.5871735319339 0 14.5871735319339 -175.26968709876382 0 0 0 0 11.933842481337393 0.14315607068245839 0 0.14315607068245839 0.1762403398239627 0 0 0 0 1175.2749916047469 -274.27683014494096 0 -274.27683014494096 -237.69015548747393 0 0 0 0 1226.9923451881041 -276.71300013910422 0 -276.71300013910422 -238.14091049719684 0 0 0 0 109.16461072445236 -174.46346375585472 0 -174.46346375585472 150.48629205653651 0 0 0 0 264.93834191850328 -151.86056953793832 0 -151.86056953793832 75.705421084172485 0 0 0 0 139.6636415043904 -72.592122015813402 0 -72.592122015813402 -21.783764319735383 0 0 0 0 70.248097182029596 -51.227801729812768 0 -51.227801729812768 -12.951936940509768 0 0 0 0 411.4812660647658 -281.85775767192081 0 -281.85775767192081 -237.41038598886371 0 0 0 0 294.6322872324854 -418.48473168808914 0 -418.48473168808914 109.68106888744728 0 0 0 0 196.47825710273264 -521.70668237802784 0 -521.70668237802784 30.568212119160307 0 0 0 0 281.36089837793224 -363.66136457947539 0 -363.66136457947539 -109.75371584006643 0 0 0 0 427.50179667941484 -657.55512411603786 0 -657.55512411603786 -197.56816223685448 0 0 0 0 519.67179465625304 -754.88571745652359 0 -754.88571745652359 -114.28337545474392 0 0 0 0 366.91824744557744 -772.17731443123512 0 -772.17731443123512 251.92383139905601 0 0 0 0 168.91052793654583 -828.17313122621931 0 -828.17313122621931 262.10853799119809 0 0 0 0 -293.93071230528585 565.0089378795044 0 565.0089378795044 -842.37386167093882 0 0 0 0 -23.300512951173005 -135.29831273974901 0 -135.29831273974901 -185.53496798791002 0 0 0 0 8.3519968860971971 -6.0053042576888487 0 -6.0053042576888487 -11.218438355449404 0 0 0 0 579.88151067653962 -92.700821648475312 0 -92.700821648475312 -1451.3367539062881 0 0 0 0 -362.88725823845016 -161.92188761475222 0 -161.92188761475222 -762.4273176899851 0 0 0 0 405.59532388301159 866.61119485806205 0 866.61119485806205 -1687.9146110873771 0 0 0 0 413.15534194946667 -359.55401077871102 0 -359.55401077871102 -493.5020562046617 0 0 0 0 308.94164198252838 -60.921556221562923 0 -60.921556221562923 -690.1171735965363 0 0 0 0 708.25292609342432 -462.3193822698542 0 -462.3193822698542 -656.85677852188883 0 0 0 0 794.53699819032772 -829.43645947786831 0 -829.43645947786831 -303.11310632645473 0 0 0 0 630.06388414331923 -244.51186483502224 0 -244.51186483502224 -452.39754843118897 0 0 0 0 835.20861222922395 -330.41950194777826 0 -330.41950194777826 -747.0572782948251 0 0 0 0 799.425868021307 337.53050912730799 0 337.53050912730799 -249.80431741028715 0 0 0 0 853.90288682893151 110.193958909846 0 110.193958909846 -472.0125929190084 0 0 0 0 598.92887994969715 474.03702820321428 0 474.03702820321428 -819.51933061424143 0 0 0 0 1097.8805124134087 147.49437689422211 0 147.49437689422211 -941.97168281056315 0 0 0 0 563.52092057270784 -103.40389095217427 0 -103.40389095217427 -816.90973528581856 0 0 0 0 206.00339873577468 -22.841647757459555 0 -22.841647757459555 48.976690680107978 0 0 0 0 158.92009308779961 228.06523476569623 0 228.06523476569623 -475.22305286177038 0 0 0 0 906.05817410260352 45.629162765037108 0 45.629162765037108 -911.50280051692675 0 0 0 0 0.67298908112191214 -0.63433135536182306 0 -0.63433135536182306 -8.0177307585928475 0 0 0 0 935.89122911980667 -15.193819200000235 0 -15.193819200000235 -1099.1870850234659 0 0 0 0 761.75387142798718 -31.139325614592963 0 -31.139325614592963 -342.67636183061518 0 0 0 0 1273.153920265293 -574.51161786419607 0 -574.51161786419607 -580.67365371892856 0 0 0 0 1702.3517595089215 -128.90400895519224 0 -128.90400895519224 -2100.4520033010726 0 0 0 0 1158.5980022999684 -338.45222180875828 0 -338.45222180875828 -234.05042448093809 0 0 0 0 1242.3430352361029 -342.65120795272469 0 -342.65120795272469 -234.09140327436864 0 0 0 0 608.43161319738283 -532.94820305699022 0 -532.94820305699022 271.95664802719511 0 0 0 0 369.49626754903875 -63.489489734142353 0 -63.489489734142353 -46.18238611383822 0 0 0 0 593.83780637225573 -220.86414393328835 0 -220.86414393328835 -23.330355028966551 0 0 0 0 195.66474346832547 -75.681405636292084 0 -75.681405636292084 78.795823767582988 0 0 0 0 287.92075745809416 -42.672908341816623 0 -42.672908341816623 -32.435954343818594 0 0 0 0 -2.4711870683647916 -2.5606807367562681 0 -2.5606807367562681 -22.654370181281081 0 0 0 0 148.54461275867652 0.52245005397617206 0 0.52245005397617206 -43.33291665794286 0 0 0 0 1.1631027064511734 -1.1083412046948808 0 -1.1083412046948808 4.9676938195405658 0 0 0 0 -154.25720493605331 -224.95173655495182 0 -224.95173655495182 164.10923270079093 0 0 0 0 158.27992642880781 -27.297067486432582 0 -27.297067486432582 -12.582212533913889 0 0 0 0 163.7872254801332 -32.77476060512106 0 -32.77476060512106 -15.580537330537538 0 0 0 0 188.52129584880095 3.0707757823025759 0 3.0707757823025759 -60.873650573658551 0 0 0 0 180.41053132074012 -40.542613840180593 0 -40.542613840180593 -11.643352022482873 0 0 0 0 187.38077572101611 -5.0613886531762091 0 -5.0613886531762091 -5.7370165474875421 0 0 0 0 152.75697784157092 -32.063081429784347 0 -32.063081429784347 -6.5740423556205343 0 0 0 0 216.84124937305751 -33.303827064358558 0 -33.303827064358558 -46.478982236626393 0 0 0 0 161.66474838112526 -91.330462448063997 0 -91.330462448063997 -96.707855216945177 0 0 0 0 187.4345029870201 280.8981680966051 0 280.8981680966051 -361.64311908115542 0 0 0 0 307.99226971555618 -145.19818339088317 0 -145.19818339088317 -301.08202777819656 0 0 0 0 812.58671653564306 441.89072639177488 0 441.89072639177488 -803.58595461913967 0 0 0 0 0.054884617405136282 1.4471166962401298 0 1.4471166962401298 -0.62270335366788432 0 0 0 0 -27.488764265508507 250.37258967016402 0 250.37258967016402 53.338760175557695 0 0 0 0 244.31802534512826 385.69219605816437 0 385.69219605816437 -67.360922514741958 0 0 0 0 261.31562085090263 86.445455524932044 0 86.445455524932044 77.3505241210907 0 0 0 0 -3.9143865492887358 1.6007007871803509 0 1.6007007871803509 8.8586921008737569 0 0 0 0 445.99192214905088 405.31663538616897 0 405.31663538616897 43.426686131718725 0 0 0 0 0.71598830169355665 3.768964787943716 0 3.768964787943716 -17.189382933973128 0 0 0 0 167.25880473473808 76.088957128106358 0 76.088957128106358 122.74335978130898 0 0 0 0 472.32945041264247 209.75443509954306 0 209.75443509954306 -72.787726225688687 0 0 0 0 110.51976144265063 -423.28505748309544 0 -423.28505748309544 -1125.5173626839905 0 0 0 0 28.577872290995032 9.67236933415343 0 9.67236933415343 -17.089051375548525 0 0 0 0 26.118945074027579 31.927989334662357 0 31.927989334662357 40.047154365468259 0 0 0 0 38.415375372307608 26.216176576535645 0 26.216176576535645 23.028692404199319 0 0 0 0 -5.5368622048897151 3.1059366716339056 0 3.1059366716339056 2.5803732719911121 0 0 0 0 351.69827731518308 205.49986096157454 0 205.49986096157454 49.65297506047682 0 0 0 0 41.087155067281856 33.06053534259263 0 33.06053534259263 20.861692771446059 0 0 0 0 34.383833673026857 35.85956534254322 0 35.85956534254322 29.635434761716397 0 0 0 0 248.5798992022701 143.11529434116096 0 143.11529434116096 36.070462017120008 0 0 0 0 -7.6820563587566824 4.5398775394384572 0 4.5398775394384572 -1.0816986051148056 0 0 0 0 39.353872326213605 35.528227300823801 0 35.528227300823801 20.294703275530992 0 0 0 0 164.17115952044696 91.353916915657919 0 91.353916915657919 23.295366151818598 0 0 0 0 209.52961193345254 67.256084816225325 0 67.256084816225325 33.528095356721678 0 0 0 0 211.76673147178371 53.064216650053822 0 53.064216650053822 -21.92546995453813 0 0 0 0 214.32812417421701 64.717268319944878 0 64.717268319944878 -12.618383389944938 0 0 0 0 133.33316536998609 57.847172057525313 0 57.847172057525313 28.753900182920916 0 0 0 0 175.04336371726822 87.704337808918353 0 87.704337808918353 37.307600965589359 0 0 0 0 235.12620908218378 21.051144024928305 0 21.051144024928305 -7.3676463850863456 0 0 0 0 269.77286379347061 1.8933875923609094 0 1.8933875923609094 -23.138631807831189 0 0 0 0 392.84217808451649 78.208287631065105 0 78.208287631065105 -41.730809321577624 0 0 0 0 -2.3449733315232137 7.0212237245865552 0 7.0212237245865552 -27.251608923416363 0 0 0 0 248.66659858665662 73.891957596411771 0 73.891957596411771 -7.3606012264693845 0 0 0 0 199.17513031220005 13.778633106839607 0 13.778633106839607 -41.596824512056173 0 0 0 0 215.15464759456518 -23.449036744332034 0 -23.449036744332034 -34.740802372174812 0 0 0 0 192.55758400931518 61.521053161736234 0 61.521053161736234 -102.18437073268342 0 0 0 0 147.22854898181686 -18.586271197933456 0 -18.586271197933456 -70.983307682722852 0 0 0 0 219.16358748980701 -83.916638277767561 0 -83.916638277767561 -304.96083711787287 0 0 0 0 249.48425293951459 -54.271116304887073 0 -54.271116304887073 -345.94261404717599 0 0 0 0 186.98060871424605 -97.102616006530297 0 -97.102616006530297 -289.52566193324265 0 0 0 0 168.0737110236405 -56.767967784771827 0 -56.767967784771827 -283.15939866908457 0 0 0 0 226.64239862565591 34.501280581048832 0 34.501280581048832 -169.18236643456817 0 0 0 0 14.031371065184459 40.557045296236112 0 40.557045296236112 -13.780446479723082 0 0 0 0 186.70940466113098 -29.095663374704145 0 -29.095663374704145 -122.19224444249335 0 0 0 0 215.68169588467572 13.505126766651301 0 13.505126766651301 -177.23527280109238 0 0 0 0 167.51528254873179 -2.2496068340426998 0 -2.2496068340426998 -3.2443377978930612 0 0 0 0 221.22207209375483 13.987759024907746 0 13.987759024907746 -78.707931809107322 0 0 0 0 233.57277046467061 19.323357906300089 0 19.323357906300089 -78.86335431536736 0 0 0 0 176.87494271706964 52.017449605635193 0 52.017449605635193 4.2061955146764376 0 0 0 0 14.883976705816949 13.729666988725533 0 13.729666988725533 -37.584685102265269 0 0 0 0 245.93324028539064 62.664359185847218 0 62.664359185847218 -74.875253731972862 0 0 0 0 243.51754287227232 54.739966691498921 0 54.739966691498921 -13.967983050306657 0 0 0 0 196.43379506163183 119.63298719860813 0 119.63298719860813 13.310226074667298 0 0 0 0 4.9611651457594235 -17.975406372441157 0 -17.975406372441157 -13.744074800496353 0 0 0 0 -53.778800819884054 -73.505348174796381 0 -73.505348174796381 -6.3174353979939042 0 0 0 0 163.37489173571424 3.3957326688263123 0 3.3957326688263123 -35.138802705031637 0 0 0 0 101.42658264228082 -0.86756934537238273 0 -0.86756934537238273 -11.180938507181818 0 0 0 0 164.83292638033254 70.882963747435269 0 70.882963747435269 -41.994276451292535 0 0 0 0 39.576609554758761 -3.958817403523426 0 -3.958817403523426 -57.098314654545447 0 0 0 0 70.521756592694203 -12.289277495251081 0 -12.289277495251081 -11.604761271219743 0 0 0 0 297.03802547371015 20.493585170599545 0 20.493585170599545 -73.025692252802401 0 0 0 0 168.85657809545228 56.855221277768578 0 56.855221277768578 20.229537704270115 0 0 0 0 195.53434380487306 -1.9774864595328836 0 -1.9774864595328836 5.6653830638388172 0 0 0 0 125.75536583528446 -4.6579756466653635 0 -4.6579756466653635 15.350815144389344 0 0 0 0 91.126718635656289 35.550878521640698 0 35.550878521640698 35.171488535397657 0 0 0 0 124.11497409915722 4.9953601540576145 0 4.9953601540576145 -4.6321648383299587 0 0 0 0 235.98266256097236 22.990818875428886 0 22.990818875428886 -21.911089979123062 0 0 0 0 186.76994308412714 29.869548531049986 0 29.869548531049986 7.7682374209380214 0 0 0 0 30.188775047916497 -12.194616717224307 0 -12.194616717224307 -16.086310959987077 0 0 0 0 57.019443407207746 97.295459838104762 0 97.295459838104762 12.633214735233196 0 0 0 0 90.336896223811095 3.6925572520460719 0 3.6925572520460719 -11.460556581338096 0 0 0 0 -55.443264668695065 -204.93038325128055 0 -204.93038325128055 -164.93154519776817 0 0 0 0 33.309246650466378 -5.7368449991930746 0 -5.7368449991930746 7.2168853718663613 0 0 0 0 163.86472087397055 -74.162564474451756 0 -74.162564474451756 -249.74722704909072 0 0 0 0 84.589202863528044 -55.989757674877183 0 -55.989757674877183 -55.691698101349175 0 0 0 0 201.03789970505022 -127.02946188492206 0 -127.02946188492206 -239.33050037012504 0 0 0 0 185.19324559178131 -194.84762067425663 0 -194.84762067425663 -285.20763760194859 0 0 0 0 78.603084547299659 -236.65594266087965 0 -236.65594266087965 -237.7861531787803 0 0 0 0 124.50315718089905 61.659773702494022 0 61.659773702494022 50.503757785575544 0 0 0 0 184.72275757659258 60.653270676278225 0 60.653270676278225 -5.7524882636544135 0 0 0 0 -458.16169150860833 -513.33673289493299 0 -513.33673289493299 45.250235965175307 0 0 0 0 3.898118668437581 -11.49774292700906 0 -11.49774292700906 9.4452293919293488 0 0 0 0 186.73753940262088 70.805327641821805 0 70.805327641821805 42.100997619901818 0 0 0 0 193.19932122168768 -118.9098481673002 0 -118.9098481673002 -211.73385456490178 0 0 0 0 195.89559494251262 -147.60278563427073 0 -147.60278563427073 -256.61184602727599 0 0 0 0 270.66385630337754 -184.49138196773401 0 -184.49138196773401 -165.28791139366388 0 0 0 0 254.2326111917655 -49.833830108232178 0 -49.833830108232178 -275.18092850489484 0 0 0 0 582.27634900600833 -80.732420432689423 0 -80.732420432689423 -294.53543555699252 0 0 0 0 385.1386605177513 255.69860545485744 0 255.69860545485744 -91.406154498991782 0 0 0 0 307.09726057302851 -138.90904679012237 0 -138.90904679012237 -280.45741152595565 0 0 0 0 154.51851459476438 -181.36053993645464 0 -181.36053993645464 -189.4678002015371 0 0 0 0 -61.982745308267255 -146.98429944268378 0 -146.98429944268378 155.23376450578871 0 0 0 0 -55.39685765922377 -90.64102576451296 0 -90.64102576451296 57.336469222885171 0 0 0 0 56.894031785581319 -202.84427164440058 0 -202.84427164440058 169.4061441879403 0 0 0 0 -64.459441874683762 -54.284749105381707 0 -54.284749105381707 58.12774928662293 0 0 0 0 -56.77711248436708 -92.775850833711047 0 -92.775850833711047 243.20364545976781 0 0 0 0 219.62549487712477 -328.50294515354835 0 -328.50294515354835 169.38691396025843 0 0 0 0 88.461282856669641 -128.96133245650071 0 -128.96133245650071 -14.372974338102722 0 0 0 0 94.4650960197323 -88.761155847372947 0 -88.761155847372947 -62.214469991322403 0 0 0 0 215.49760191381461 -45.509524514404575 0 -45.509524514404575 -214.70138907091496 0 0 0 0 110.13948698112654 -126.23892640290615 0 -126.23892640290615 -14.877073330347685 0 0 0 0 49.834484015591215 -31.467364346347495 0 -31.467364346347495 -121.06768121819459 0 0 0 0 -147.58501268724922 -40.907539132750571 0 -40.907539132750571 52.772847893748349 0 0 0 0 43.86380368099185 -13.503219158333195 0 -13.503219158333195 -56.030182925646841 0 0 0 0 358.82400967508988 -93.088067175974174 0 -93.088067175974174 -6.8231642511709651 0 0 0 0 259.06660202971034 -23.740090610810512 0 -23.740090610810512 6.70975411614927 0 0 0 0 232.0541724691866 -42.789062294654741 0 -42.789062294654741 55.654881346852562 0 0 0 0 187.91471390357239 15.92511156215528 0 15.92511156215528 37.060651969414721 0 0 0 0 172.75042999290838 16.720360644236735 0 16.720360644236735 62.144052562253819 0 0 0 0 97.698041836257516 47.261083230866461 0 47.261083230866461 49.825292532433195 0 0 0 0 124.51398003955751 -31.621582005885784 0 -31.621582005885784 75.300345763349469 0 0 0 0 135.79598903987932 52.185872717102711 0 52.185872717102711 -14.387254636800208 0 0 0 0 0.17353818439932023 -0.31341293871568876 0 -0.31341293871568876 1.5875323213077976 0 0 0 0 148.02677090694374 -23.303085993787136 0 -23.303085993787136 54.20610392976738 0 0 0 0 226.9454572582963 -168.68536481657793 0 -168.68536481657793 62.320157792901227 0 0 0 0 -1.8005349283021133 43.67178332708454 0 43.67178332708454 183.70281728534701 0 0 0 0 22.143099786614805 -3.7334451315641566 0 -3.7334451315641566 0.18703857674974866 0 0 0 0 204.82670826057029 -51.353488525574903 0 -51.353488525574903 -121.76121356764816 0 0 0 0 23.561713133569128 -138.48441890550839 0 -138.48441890550839 98.861493294735283 0 0 0 0 -1.018201610797405 -10.783906192882569 0 -10.783906192882569 132.54949398846611 0 0 0 0 38.092408205749315 4.4537379960977495 0 4.4537379960977495 5.1857247760269578 0 0 0 0 109.88705619874077 49.008583066721712 0 49.008583066721712 -119.75228422213695 0 0 0 0 43.772320953175949 63.826400965233915 0 63.826400965233915 62.211914820879883 0 0 0 0 -12.764864340641225 56.727799044865606 0 56.727799044865606 22.223792991841947 0 0 0 0 58.837474583448056 36.491629741317865 0 36.491629741317865 44.736542583612618 0 0 0 0 66.827673030751598 34.974601718814846 0 34.974601718814846 22.276518349464475 0 0 0 0 108.39715737753068 77.020293159043831 0 77.020293159043831 21.288937187651754 0 0 0 0 61.62349812942648 35.017873890272085 0 35.017873890272085 -13.078725964278419 0 0 0 0 39.005564010625676 79.977052960025048 0 79.977052960025048 24.792063107250215 0 0 0 0 31.693476496722724 63.904356751141677 0 63.904356751141677 15.051862815353161 0 0 0 0 -45.240847253360698 61.646141068801626 0 61.646141068801626 27.911271638713515 0 0 0 0 21.760466275131751 11.061600552610901 0 11.061600552610901 3.6139509313673965 0 0 0 0 93.313675429364594 84.404184661420004 0 84.404184661420004 38.529889955051203 0 0 0 0 86.107759466972993 30.09513567536834 0 30.09513567536834 31.244941130800726 0 0 0 0 31.317087068633555 42.917029902268808 0 42.917029902268808 118.50164002570273 0 0 0 0 62.594998619060789 52.689409037014229 0 52.689409037014229 121.55308765385416 0 0 0 0 62.409233866413132 38.163254930201276 0 38.163254930201276 153.03428282517962 0 0 0 0 8.0968432666573378 -0.090911776220300666 0 -0.090911776220300666 0.35164881109337287 0 0 0 0 245.04503506970377 244.80587415635546 0 244.80587415635546 360.32471299885742 0 0 0 0 -44.167419935465205 -190.96109809118843 0 -190.96109809118843 412.09322848432748 0 0 0 0 685.09625733035909 57.53288363904403 0 57.53288363904403 -48.097707153073316 0 0 0 0 154.08706258252278 -95.216280520307919 0 -95.216280520307919 -17.269702181405364 0 0 0 0 235.57588983711597 -53.710606158903389 0 -53.710606158903389 -0.96902465875427879 0 0 0 0 218.1820445143112 130.10565499850509 0 130.10565499850509 106.85302660312846 0 0 0 0 89.1628828566827 -54.011454864294137 0 -54.011454864294137 2.5861459408251903 0 0 0 0 70.269378362757379 -2.7344807904730715 0 -2.7344807904730715 -12.909058043389564 0 0 0 0 136.50313917806102 -36.442786525211403 0 -36.442786525211403 2.1080072463018951 0 0 0 0 116.86831932861969 69.697940895504871 0 69.697940895504871 18.753858214734919 0 0 0 0 -3.1858935965719866 68.664024394078979 0 68.664024394078979 38.889851288950013 0 0 0 0 73.074206907206644 25.61880955545098 0 25.61880955545098 -25.585795101174654 0 0 0 0 57.411437006826418 69.172198514430733 0 69.172198514430733 -38.032586048047165 0 0 0 0 27.611951833866819 22.351197487552831 0 22.351197487552831 -11.468230514772044 0 0 0 0 30.153156575006506 38.503685968099035 0 38.503685968099035 11.961811408386893 0 0 0 0 38.06961650736163 25.547335750655606 0 25.547335750655606 16.369135753008937 0 0 0 0 -80.301406896376648 -38.250386661697235 0 -38.250386661697235 34.964775323311983 0 0 0 0 59.709426465400611 35.384960388956642 0 35.384960388956642 8.7730322161351069 0 0 0 0 7.90353029032865 6.0616639799277401 0 6.0616639799277401 6.2973578590244736 0 0 0 0 61.744314540832875 28.426645351702675 0 28.426645351702675 -29.711418429371179 0 0 0 0 54.191610759760806 -8.2732555727557227 0 -8.2732555727557227 -14.716553860266913 0 0 0 0 43.113255295886155 34.691812577462812 0 34.691812577462812 17.245469949378467 0 0 0 0 -2.1523094352814951 16.673759334982606 0 16.673759334982606 -3.9634909494479871 0 0 0 0 16.052775096134489 16.144354781530854 0 16.144354781530854 15.45503202283593 0 0 0 0 22.049079488934538 33.252769579569282 0 33.252769579569282 29.81002524951699 0 0 0 0 -49.678765540020777 35.520619562030674 0 35.520619562030674 57.201825195137644 0 0 0 0 -117.99654802682016 80.845044968929074 0 80.845044968929074 30.252993395893213 0 0 0 0 39.088443778997316 33.249314857473109 0 33.249314857473109 13.867620288915191 0 0 0 0 40.818404282270421 40.660207881781844 0 40.660207881781844 12.092428595266938 0 0 0 0 134.05173880566008 60.611948573545192 0 60.611948573545192 20.461352545748014 0 0 0 0 2.9758002641393375 13.694884416164612 0 13.694884416164612 0.19208525052061987 0 0 0 0 35.316598280522655 32.716080897204755 0 32.716080897204755 25.885945125486149 0 0 0 0 9.2718000864606438 101.18254021176585 0 101.18254021176585 8.7857674499017548 0 0 0 0 32.182116309562844 32.506583420081142 0 32.506583420081142 20.315604518512828 0 0 0 0 38.360568701598822 36.780791819582078 0 36.780791819582078 22.622013086073707 0 0 0 0 26.806918852925719 12.172200088692964 0 12.172200088692964 -20.030905168455533 0 0 0 0 156.43510704056598 8.947972530622792 0 8.947972530622792 -578.44448397035376 0 0 0 0 130.75913478673147 154.03767673870874 0 154.03767673870874 -219.17806905479483 0 0 0 0 50.686566447460791 32.717858023985173 0 32.717858023985173 -460.79790150583949 0 0 0 0 -11.750858088583755 171.85692691063684 0 171.85692691063684 -125.71182934888748 0 0 0 0 -7.4096743995487486 156.69116061488876 0 156.69116061488876 -121.59363033968475 0 0 0 0 28.105058912103711 38.107962866103627 0 38.107962866103627 49.886000146783587 0 0 0 0 -17.968843591891783 2.9968697371314286 0 2.9968697371314286 20.33505169398595 0 0 0 0 70.509946195565135 141.52968532030354 0 141.52968532030354 -178.97602924247531 0 0 0 0 44.045614163129358 93.443379596928935 0 93.443379596928935 -189.13544514543173 0 0 0 0 58.942174229487136 168.90181059862516 0 168.90181059862516 -153.82053785975768 0 0 0 0 102.90443133008739 198.56021775152385 0 198.56021775152385 -268.2622176162613 0 0 0 0 105.39528749609019 230.20933795531855 0 230.20933795531855 -182.47054173771539 0 0 0 0 3.3779000290596741 206.70286932955605 0 206.70286932955605 -177.38671734671607 0 0 0 0 -11.146170167072341 185.7210300387228 0 185.7210300387228 -118.30154266652607 0 0 0 0 19.760748087101753 29.270232067864487 0 29.270232067864487 41.424864512090792 0 0 0 0 -260.51638823094254 304.73578856736094 0 304.73578856736094 -131.46824707351061 0 0 0 0 -123.40158295137257 174.01857936842765 0 174.01857936842765 92.878102402082277 0 0 0 0 -133.74506783306606 151.30293606090481 0 151.30293606090481 45.117196130529919 0 0 0 0 -78.420391898648404 72.197311778000937 0 72.197311778000937 207.38905461415834 0 0 0 0 -112.02311549472051 51.041732636646657 0 51.041732636646657 178.89333723003915 0 0 0 0 404.26389804457585 116.15087276653026 0 116.15087276653026 -8.4618610693055416 0 0 0 0 144.13214547934467 3.0477084016406479 0 3.0477084016406479 110.37418774354637 0 0 0 0 357.55174837877269 52.881601432608704 0 52.881601432608704 -45.155610174733283 0 0 0 0 126.659339671628 141.09220250405735 0 141.09220250405735 -9.7339732213208663 0 0 0 0 524.18313986969815 -66.111435541893343 0 -66.111435541893343 -109.76044848621041 0 0 0 0 772.17309233742753 -106.7937676878887 0 -106.7937676878887 -104.90848154044477 0 0 0 0 323.00958102165373 -157.50709359965208 0 -157.50709359965208 -12.860553722785198 0 0 0 0 520.82016905718069 -75.038055006786863 0 -75.038055006786863 -25.797296403536848 0 0 0 0 437.64716617613772 -221.93977830787833 0 -221.93977830787833 66.045211573300548 0 0 0 0 337.77955195344111 -85.021327958882182 0 -85.021327958882182 -37.936576297760439 0 0 0 0 1083.082141530879 190.03550331340841 0 190.03550331340841 -6.5381576613866059 0 0 0 0 888.77697593685355 -393.36371339472726 0 -393.36371339472726 130.62224808748942 0 0 0 0 439.7908742234215 85.814639809199775 0 85.814639809199775 639.9864370494771 0 0 0 0 1309.7846541528511 250.93220956201901 0 250.93220956201901 -18.925362302546773 0 0 0 0 308.04244558604159 -182.58893093176368 0 -182.58893093176368 100.16112300059604 0 0 0 0 150.59922658884489 75.27219933406991 0 75.27219933406991 333.60367290023828 0 0 0 0 107.70629086719555 -33.765451703637041 0 -33.765451703637041 56.675560749196393 0 0 0 0 261.40987042458528 3.6991037379211775 0 3.6991037379211775 -20.993005299105334 0 0 0 0 63.094665127995086 202.74305170090702 0 202.74305170090702 144.66649724392391 0 0 0 0 648.05136387027528 201.61426128848893 0 201.61426128848893 44.596790592074285 0 0 0 0 154.22897317665729 121.19367469062809 0 121.19367469062809 -28.164277980836232 0 0 0 0 535.14739966361003 -99.302511883373427 0 -99.302511883373427 -80.5506322029496 0 0 0 0 50.379995001625502 97.121604902085437 0 97.121604902085437 -2.8172277828507504 0 0 0 0 1420.2616437515858 -210.5839803268295 0 -210.5839803268295 -258.48158755316354 0 0 0 0 678.24826145285817 -102.06735919802065 0 -102.06735919802065 -86.268964677059103 0 0 0 0 877.0038886818902 -35.043148603138206 0 -35.043148603138206 -99.812341866726456 0 0 0 0 508.30613013184939 -152.80649472020878 0 -152.80649472020878 -73.078474901210939 0 0 0 0 1237.7616659040032 -226.80072382466506 0 -226.80072382466506 -217.37682811144441 0 0 0 0 1144.5742763983908 -218.15706003163405 0 -218.15706003163405 -195.35076992796235 0 0 0 0 1127.6254356608169 -281.23861165500841 0 -281.23861165500841 -140.4242752058708 0 0 0 0 2.0223760155029256 0.078692750989382221 0 0.078692750989382221 -0.78789113649948028 0 0 0 0 175.55115347849733 -105.94663808340761 0 -105.94663808340761 -90.246428656839043 0 0 0 0 -72.202054164623405 -83.707832811392336 0 -83.707832811392336 359.30702203909902 0 0 0 0 3.1168241288626102 4.1965512031554821 0 4.1965512031554821 9.8464327000243088 0 0 0 0 217.48325614989699 -83.594394231655315 0 -83.594394231655315 222.63622370584199 0 0 0 0 175.77137764135887 -366.95138040497386 0 -366.95138040497386 155.87568684284497 0 0 0 0 50.788798128471811 -103.94628405098936 0 -103.94628405098936 -110.83105771332157 0 0 0 0 4.6110116898394153 -58.996733901659468 0 -58.996733901659468 217.87546226585766 0 0 0 0 38.44926525736264 -208.33846626961076 0 -208.33846626961076 80.891365724731259 0 0 0 0 10.777597618458458 -45.468984263436255 0 -45.468984263436255 49.385149170662203 0 0 0 0 -119.71620514182803 8.7431484727615754 0 8.7431484727615754 170.08606263513684 0 0 0 0 2.7365534200575894 82.874339954840536 0 82.874339954840536 139.99890504750044 0 0 0 0 273.7916792570436 293.0011949258963 0 293.0011949258963 415.53792292162183 0 0 0 0 135.66125617909722 -143.7875544579002 0 -143.7875544579002 292.22667577405423 0 0 0 0 -32.664096783753848 39.448483791544732 0 39.448483791544732 39.684602691564578 0 0 0 0 -45.862513843243505 17.293244052140381 0 17.293244052140381 13.797165180248157 0 0 0 0 18.553066207432494 6.8745375783589679 0 6.8745375783589679 -44.912765599965496 0 0 0 0 14.531736462166009 27.386163887431394 0 27.386163887431394 -13.845516330395185 0 0 0 0 -22.732766105325936 18.305099245819292 0 18.305099245819292 149.32411523712017 0 0 0 0 7.529428271611323 -1.7951397770252697 0 -1.7951397770252697 46.543645520017549 0 0 0 0 -13.870506340499674 50.295896893785198 0 50.295896893785198 206.4802317516569 0 0 0 0 15.591652746041291 65.475627053381686 0 65.475627053381686 160.00430354811806 0 0 0 0 -6.4761691869398419 34.995554966269992 0 34.995554966269992 144.8764603416239 0 0 0 0 34.294443716502428 84.678847880517424 0 84.678847880517424 173.08851223895272 0 0 0 0 30.60847622300389 49.639974447557506 0 49.639974447557506 116.08784355118405 0 0 0 0 46.111504680636244 18.46473990364376 0 18.46473990364376 36.401382604437458 0 0 0 0 22.88462762124982 10.577962471875367 0 10.577962471875367 33.948492167865425 0 0 0 0 9.5284937044434628 23.566484330117419 0 23.566484330117419 31.541500457694497 0 0 0 0 70.539088473191214 14.056112533471492 0 14.056112533471492 20.037589594026372 0 0 0 0 28.698775937994469 18.143963865046203 0 18.143963865046203 36.41381966326054 0 0 0 0 53.956082694356155 50.277582997256104 0 50.277582997256104 108.62458677589075 0 0 0 0 63.092813108043288 26.743815500334165 0 26.743815500334165 4.8530839358136291 0 0 0 0 73.927932083602627 59.99048264942985 0 59.99048264942985 101.47821664082585 0 0 0 0 55.404512263672814 70.644313292328889 0 70.644313292328889 126.20166309407023 0 0 0 0 80.475056540004289 -76.839582169256801 0 -76.839582169256801 78.864485948157153 0 0 0 0 -0.54388851908924662 -1.1671757629716835 0 -1.1671757629716835 -1.3765646517173264 0 0 0 0 -191.96249268432985 -109.41722550435907 0 -109.41722550435907 171.43109950441237 0 0 0 0 193.2120157799668 5.1275307481003551 0 5.1275307481003551 -55.925450967931283 0 0 0 0 -130.11736303077487 182.75673289865927 0 182.75673289865927 39.111281752286004 0 0 0 0 3.5401773104920262 0.89940441002417293 0 0.89940441002417293 -6.5787421561981745 0 0 0 0 -371.49171634886443 74.566485967913877 0 74.566485967913877 139.78505750417958 0 0 0 0 42.441065031544952 10.085430707402512 0 10.085430707402512 -24.438932976681599 0 0 0 0 -96.811045796512758 -15.439284806766409 0 -15.439284806766409 -146.28439624498424 0 0 0 0 105.17684377584646 195.6748608083858 0 195.6748608083858 -247.80622176507859 0 0 0 0 -3.9312910578822198 20.955531875925459 0 20.955531875925459 -28.906842109521222 0 0 0 0 49.228638823881695 22.707734360917947 0 22.707734360917947 -4.6445468575783364 0 0 0 0 11.561369082341116 66.568210994298852 0 66.568210994298852 -84.657919817345601 0 0 0 0 11.55205759423734 57.611743650299104 0 57.611743650299104 -54.457420372810475 0 0 0 0 16.651530326936836 7.8661900438291976 0 7.8661900438291976 -2.3315266475645089 0 0 0 0 8.7918676539023668 10.453001173863726 0 10.453001173863726 3.018407247367914 0 0 0 0 25.786644282868565 14.604072817431188 0 14.604072817431188 -8.3780552302411024 0 0 0 0 62.111394830948484 -3.9985446155853879 0 -3.9985446155853879 -11.397196973926611 0 0 0 0 36.846423039270803 27.275057246344211 0 27.275057246344211 -51.936824456802526 0 0 0 0 25.743969056882179 52.893946588170024 0 52.893946588170024 -72.601084714633771 0 0 0 0 38.963744035005675 11.553163020735099 0 11.553163020735099 -18.033660162969909 0 0 0 0 -4.0399710382635021 34.949820826951637 0 34.949820826951637 -14.557169533178481 0 0 0 0 90.13244547708382 -62.320947585317981 0 -62.320947585317981 -8.1736422626138392 0 0 0 0 61.325158651115999 45.692218984369447 0 45.692218984369447 -76.960210567184959 0 0 0 0 25.0344328025717 12.127187318699733 0 12.127187318699733 3.9281243921689044 0 0 0 0 140.56671721862222 -56.375463290204266 0 -56.375463290204266 -57.665108357547979 0 0 0 0 130.12966617964048 -58.342153673315352 0 -58.342153673315352 -20.01248934006162 0 0 0 0 247.37578148017383 -138.42216269369612 0 -138.42216269369612 -8.0445050275734502 0 0 0 0 82.590162032778608 -103.89368301716968 0 -103.89368301716968 59.747314192635713 0 0 0 0 54.076335436791851 9.8243397447199641 0 9.8243397447199641 -4.9100586986804728 0 0 0 0 6.5063282745286415 -73.270537021510791 0 -73.270537021510791 138.44298005749488 0 0 0 0 21.197289476789656 9.3600358520442146 0 9.3600358520442146 3.7151564404047939 0 0 0 0 153.76926793702114 -119.0751493896804 0 -119.0751493896804 62.943741640356166 0 0 0 0 8.1296268149235402 -12.034164092228821 0 -12.034164092228821 -59.212380689923521 0 0 0 0 -36.375017046066205 -11.33857951968389 0 -11.33857951968389 -26.519451906436188 0 0 0 0 111.27952043164987 -155.56849018686171 0 -155.56849018686171 190.64392600764677 0 0 0 0 433.43294649671589 -281.1390933550781 0 -281.1390933550781 -135.40085055672023 0 0 0 0 458.8099499655973 -144.89868553298413 0 -144.89868553298413 -326.36096624678839 0 0 0 0 382.65515698934178 -248.9176906153927 0 -248.9176906153927 -151.00765326035526 0 0 0 0 286.15762070764868 -167.27661497659517 0 -167.27661497659517 -93.394806529297512 0 0 0 0 301.73321529160876 -136.57481082937602 0 -136.57481082937602 -103.33403366220318 0 0 0 0 254.77081614192161 10.114384031875375 0 10.114384031875375 -178.08886736865952 0 0 0 0 237.53821863148187 -77.058902585469525 0 -77.058902585469525 -157.05779611080789 0 0 0 0 76.126289313760935 182.9933893810387 0 182.9933893810387 -341.27905449183447 0 0 0 0 194.51915430663394 275.53547087909612 0 275.53547087909612 -751.25113901580767 0 0 0 0 377.6588823238053 -76.100719159869868 0 -76.100719159869868 -312.81578822443277 0 0 0 0 31.495392178507245 88.472823504799948 0 88.472823504799948 -98.883545367631541 0 0 0 0 54.140149990322243 10.201606099686614 0 10.201606099686614 -154.16634401069132 0 0 0 0 -3.4305721006281673 2.4709663908726585 0 2.4709663908726585 -0.95325312580388433 0 0 0 0 26.261938440957692 16.59946049525507 0 16.59946049525507 5.8310106611902599 0 0 0 0 -11.379666966934778 -13.017338652980577 0 -13.017338652980577 34.638814178558277 0 0 0 0 11.493502744739143 0.77520906195887207 0 0.77520906195887207 -16.168605729302257 0 0 0 0 -59.600330543429664 93.605295355239605 0 93.605295355239605 -72.023288555544696 0 0 0 0 80.466709191117161 46.624500727135171 0 46.624500727135171 -104.20122965195333 0 0 0 0 31.402084675966762 15.24337149445455 0 15.24337149445455 -24.52377615235855 0 0 0 0 -63.473911342141946 -39.999479661049008 0 -39.999479661049008 -6.2082181294749716 0 0 0 0 -39.616166283489747 -144.00844075685583 0 -144.00844075685583 -105.74355693694906 0 0 0 0 0.0052688830966862721 -1.8897966234158794 0 -1.8897966234158794 -5.5592582540247077 0 0 0 0 -495.36718752363595 415.71863713351706 0 415.71863713351706 -301.63205151454349 0 0 0 0 111.72415647521484 -5.9278546690302392 0 -5.9278546690302392 -537.43819016093676 0 0 0 0 114.89588549290602 595.53050100848782 0 595.53050100848782 -574.37283515211948 0 0 0 0 -398.74120061384383 367.91244989029059 0 367.91244989029059 -74.071827078886372 0 0 0 0 61.37091353066171 403.79129858012226 0 403.79129858012226 112.5487678469168 0 0 0 0 371.41941601012695 500.41342162633805 0 500.41342162633805 140.6914834602548 0 0 0 0 250.56729204408839 378.98943750704319 0 378.98943750704319 -74.315473708080333 0 0 0 0 124.0539402746881 202.60037765405912 0 202.60037765405912 74.462242337394798 0 0 0 0 493.91899768180883 168.41958328919281 0 168.41958328919281 72.375247389783439 0 0 0 0 570.10042716679345 158.80127152511932 0 158.80127152511932 -286.88628712355398 0 0 0 0 72.841644749351872 -130.05116096357412 0 -130.05116096357412 -454.49006752019 0 0 0 0 634.96950050035412 -268.0022442350014 0 -268.0022442350014 -243.70336368597302 0 0 0 0 535.21875889212004 -237.24504760310228 0 -237.24504760310228 -163.8178240936206 0 0 0 0 495.84638744942458 -31.080048407908727 0 -31.080048407908727 -344.86331993747598 0 0 0 0 1032.4490602225451 -307.52302540101425 0 -307.52302540101425 -35.531412755941346 0 0 0 0 835.69238490023054 -154.9907370923417 0 -154.9907370923417 -151.03683360880814 0 0 0 0 770.84212195568216 -415.80037093758108 0 -415.80037093758108 -93.834946947434503 0 0 0 0 700.18151304013736 -506.2477454164756 0 -506.2477454164756 187.07153880394742 0 0 0 0 479.64042013896687 -395.06569978116363 0 -395.06569978116363 -76.684979552910107 0 0 0 0 345.26812747609256 -308.50462927252295 0 -308.50462927252295 -132.31831768853306 0 0 0 0 454.98679413175023 62.252925364175439 0 62.252925364175439 -26.467240332337894 0 0 0 0 327.01053086119373 -144.24246192637648 0 -144.24246192637648 -66.692631927477422 0 0 0 0 -287.59617634147639 -261.93848022380121 0 -261.93848022380121 131.80519058167056 0 0 0 0 269.5074944961143 -412.87913361696519 0 -412.87913361696519 -58.62014460079422 0 0 0 0 167.29515020447525 -140.78520346186815 0 -140.78520346186815 10.153269701578211 0 0 0 0 107.04093115719024 -104.99901624350241 0 -104.99901624350241 75.509825121408312 0 0 0 0 -48.635103195197189 -90.870495912876322 0 -90.870495912876322 18.9606280125372 0 0 0 0 33.649702184459784 -169.8120517726461 0 -169.8120517726461 18.476085926522501 0 0 0 0 477.60318074283487 118.57028293410383 0 118.57028293410383 543.53299712511398 0 0 0 0 0.76409060755257596 -0.39952362420473975 0 -0.39952362420473975 4.2215290969760026 0 0 0 0 5.3958173988613156 10.963866744805626 0 10.963866744805626 22.093738812024675 0 0 0 0 -264.75792011575629 11.986764784304484 0 11.986764784304484 83.565437119757007 0 0 0 0 -21.868163339686362 -211.17614446583411 0 -211.17614446583411 571.71774407707562 0 0 0 0 -0.592112236834339 -10.326512772059232 0 -10.326512772059232 -103.21729163238706 0 0 0 0 912.7016818962984 -173.51452763315319 0 -173.51452763315319 2.0329270877300587 0 0 0 0 976.1007320967019 -221.90302723096011 0 -221.90302723096011 38.931520168072893 0 0 0 0 1942.0839117941923 -530.5391323724989 0 -530.5391323724989 -133.56636366394014 0 0 0 0 9.7655571061688704 5.8160874308994606 0 5.8160874308994606 4.1645927004537864 0 0 0 0 823.24008103978485 -251.2337494054982 0 -251.2337494054982 7.0046868613469542 0 0 0 0 1010.7244085880038 -143.95372023894515 0 -143.95372023894515 -122.77094838672019 0 0 0 0 1008.8788645073801 -157.926873553321 0 -157.926873553321 -15.88689845279805 0 0 0 0 899.65543871716181 -106.637734408504 0 -106.637734408504 -37.820049211346486 0 0 0 0 1056.6197787723486 -98.136718819437192 0 -98.136718819437192 -87.366308088550795 0 0 0 0 1037.8481539334189 -139.68251887361248 0 -139.68251887361248 -149.5759312065893 0 0 0 0 1040.7370298943551 -220.73172839240033 0 -220.73172839240033 -64.969533453084296 0 0 0 0 1033.1409867017665 -131.95380562033733 0 -131.95380562033733 -192.52427437554891 0 0 0 0 902.44382661170675 -179.13080816655611 0 -179.13080816655611 -150.49335067237826 0 0 0 0 881.38016529854212 -90.482383978134749 0 -90.482383978134749 -145.39468604754211 0 0 0 0 602.24008941849593 -162.65143549577647 0 -162.65143549577647 -105.6475234753616 0 0 0 0 907.1168649438514 -193.91485324355563 0 -193.91485324355563 -182.38473120920935 0 0 0 0 1007.0965729241343 -107.51278212741181 0 -107.51278212741181 -163.32362195445603 0 0 0 0 906.28743618566796 -162.29248148677524 0 -162.29248148677524 -126.78167392282194 0 0 0 0 1041.8295605062012 -185.51700111204354 0 -185.51700111204354 -26.657954604213728 0 0 0 0 1191.5560686385006 -117.78220123282517 0 -117.78220123282517 -54.020176553996365 0 0 0 0 941.51976947898584 -102.27195340692015 0 -102.27195340692015 -103.99923429259889 0 0 0 0 1054.122991360714 -176.15051572146058 0 -176.15051572146058 -131.26971096387933 0 0 0 0 926.39823151958808 -141.50775711085316 0 -141.50775711085316 -157.47178507656963 0 0 0 0 732.14299406336613 -185.56926740163726 0 -185.56926740163726 -52.889962209264922 0 0 0 0 724.57410954701618 -207.03366260553776 0 -207.03366260553776 -113.03526210597192 0 0 0 0 602.72100791957746 -197.85525038725063 0 -197.85525038725063 -19.992018854209164 0 0 0 0 1333.9875112331702 11.569492075917879 0 11.569492075917879 -14.334202551951421 0 0 0 0 1106.6351706565074 4.8143161178713854 0 4.8143161178713854 -45.057584832511566 0 0 0 0 1145.8465614853303 91.080999103900922 0 91.080999103900922 23.862110780935836 0 0 0 0 947.87519346979661 -36.127011281245359 0 -36.127011281245359 -37.066858099769888 0 0 0 0 1158.5808899363974 -28.27773894728989 0 -28.27773894728989 -88.02392794487605 0 0 0 0 -443.46303020762389 132.72910634583423 0 132.72910634583423 227.78770633643035 0 0 0 0 5.0830994475672924 299.16336275418598 0 299.16336275418598 -200.12627569946881 0 0 0 0 -32.951833221013658 219.31662063944623 0 219.31662063944623 -40.761711211316651 0 0 0 0 -409.04896678902242 -88.52179027226066 0 -88.52179027226066 70.961502284093285 0 0 0 0 -283.50070970419438 215.7144490352448 0 215.7144490352448 33.792225686361235 0 0 0 0 36.082248794707425 -127.46901090034783 0 -127.46901090034783 46.897168925172082 0 0 0 0 180.17323525723623 -65.219428282101035 0 -65.219428282101035 -51.709666732688675 0 0 0 0 590.02206805386368 -204.07998812830056 0 -204.07998812830056 -192.57961336645349 0 0 0 0 146.8208831523591 -472.8779396106022 0 -472.8779396106022 -64.98261793016718 0 0 0 0 244.99489182233447 -235.73184910896725 0 -235.73184910896725 -79.645050664272276 0 0 0 0 443.3134560112544 -383.93012906296735 0 -383.93012906296735 -105.62697769993611 0 0 0 0 -166.6827663345066 -138.39771778200247 0 -138.39771778200247 51.119953397272184 0 0 0 0 -115.18527763275688 -13.020727820461389 0 -13.020727820461389 168.69687051205256 0 0 0 0 527.07817094290112 -268.16432513960535 0 -268.16432513960535 11.722475220136857 0 0 0 0 -34.972611123099341 -84.051321150283911 0 -84.051321150283911 -165.78666798764698 0 0 0 0 -104.38323165459769 -172.10816701722797 0 -172.10816701722797 -69.143118073196092 0 0 0 0 -66.301785722425848 -64.548953517034533 0 -64.548953517034533 -13.295022554604202 0 0 0 0 -95.168050291162217 -66.677258087796872 0 -66.677258087796872 29.380362334710298 0 0 0 0 75.270147032337263 92.785433434921288 0 92.785433434921288 -37.850037700862913 0 0 0 0 59.581707401714084 192.21559148363667 0 192.21559148363667 147.85459239333068 0 0 0 0 -64.082382880078512 99.501356761621082 0 99.501356761621082 247.66547761546099 0 0 0 0 -21.140325045569625 1.514502553458442 0 1.514502553458442 79.519857622107338 0 0 0 0 164.05861102985364 249.07922920298824 0 249.07922920298824 165.9066674301157 0 0 0 0 224.17842236579236 190.18501294471253 0 190.18501294471253 -237.44320016512938 0 0 0 0 386.5592025803976 404.26672521434921 0 404.26672521434921 40.873284409835833 0 0 0 0 161.87920107632453 161.76391440134967 0 161.76391440134967 14.138666056276179 0 0 0 0 172.96399081773598 237.2046550376549 0 237.2046550376549 370.49333199370358 0 0 0 0 888.71676451931944 916.40164090831195 0 916.40164090831195 1432.6268059040758 0 0 0 0 587.15303940053855 476.3373333191571 0 476.3373333191571 894.57008328415031 0 0 0 0 1461.9246217017844 286.33200727901385 0 286.33200727901385 177.47100428242811 0 0 0 0 510.2976843771321 573.93560615847491 0 573.93560615847491 531.55406047593806 0 0 0 0 157.93329653244973 260.13764457871059 0 260.13764457871059 275.62651963991084 0 0 0 0 605.92216911234209 498.48155473590714 0 498.48155473590714 -132.88985907244341 0 0 0 0 863.76727254330945 872.39389426462913 0 872.39389426462913 383.36872558708956 0 0 0 0 399.30874845401172 357.21812491354268 0 357.21812491354268 -68.646276215937178 0 0 0 0 720.24914590598564 622.0985804978759 0 622.0985804978759 143.55621163131059 0 0 0 0 945.77527515520705 -312.85276145282251 0 -312.85276145282251 -527.91370928193783 0 0 0 0 793.25730029298029 283.33599678219889 0 283.33599678219889 -347.374879010477 0 0 0 0 1762.4027939519528 567.11449831600567 0 567.11449831600567 -399.19788583128866 0 0 0 0 1783.0812396253641 -133.68113154309594 0 -133.68113154309594 -729.70777334535342 0 0 0 0 445.27037439357719 -72.87267660451208 0 -72.87267660451208 -200.08886778882191 0 0 0 0 782.37425470398921 293.99295495968749 0 293.99295495968749 -269.76139798072927 0 0 0 0 563.22933459952219 354.08395722445511 0 354.08395722445511 -177.16968705515046 0 0 0 0 500.60881644776236 236.41847204687974 0 236.41847204687974 -281.21075686841164 0 0 0 0 369.81996355767842 355.07889013997988 0 355.07889013997988 -172.68022446856267 0 0 0 0 386.09771361894673 216.93676090234504 0 216.93676090234504 -49.214568634203829 0 0 0 0 391.69678591833326 198.9715481398139 0 198.9715481398139 -31.174578698337655 0 0 0 0 522.61792576260348 36.492487677923044 0 36.492487677923044 -65.835689581418251 0 0 0 0 500.7722822926462 175.59202848154621 0 175.59202848154621 -193.80769295402388 0 0 0 0 189.46475581065079 414.39153258051522 0 414.39153258051522 -134.39519006902765 0 0 0 0 384.54146214988032 392.07193088559598 0 392.07193088559598 -143.70533939293682 0 0 0 0 373.56877850972705 473.62500360426191 0 473.62500360426191 -257.1640617882511 0 0 0 0 311.78115431024162 377.61356841555579 0 377.61356841555579 -63.248609427996598 0 0 0 0 261.36774034010523 461.73180096699372 0 461.73180096699372 -170.56985812679531 0 0 0 0 147.00285463460568 536.77407340360423 0 536.77407340360423 -62.752393467939214 0 0 0 0 179.7642085446405 468.58788996383521 0 468.58788996383521 76.302117549503009 0 0 0 0 184.11506503481178 409.51380179185162 0 409.51380179185162 -68.286196598017568 0 0 0 0 112.74756018062544 379.18810632228815 0 379.18810632228815 120.15485489568402 0 0 0 0 0.25046233561649012 -2.277212602243023 0 -2.277212602243023 2.8985784137331718 0 0 0 0 18.656937666591148 212.45877294329557 0 212.45877294329557 47.191946923705473 0 0 0 0 83.235585579887356 147.85695971632492 0 147.85695971632492 57.580288956796267 0 0 0 0 254.604196673552 99.056408952674161 0 99.056408952674161 43.168075038866846 0 0 0 0 281.0824356777257 52.664834870534008 0 52.664834870534008 44.991034003980076 0 0 0 0 157.89534051491228 240.52531070956266 0 240.52531070956266 -1.3626049614306339 0 0 0 0 267.44895684472067 316.27899827312319 0 316.27899827312319 13.817746802622565 0 0 0 0 92.6128694705003 315.98460692186632 0 315.98460692186632 21.370337389889755 0 0 0 0 130.66388801231369 351.62496458798751 0 351.62496458798751 54.507373451038802 0 0 0 0 114.53997944793991 292.46698095433317 0 292.46698095433317 42.382224369413052 0 0 0 0 -87.64069555068636 -246.73597823082162 0 -246.73597823082162 -234.57742173250062 0 0 0 0 183.42958237033054 -87.220821361836443 0 -87.220821361836443 38.922456453886753 0 0 0 0 172.09506473085162 -59.748905480285799 0 -59.748905480285799 81.169785791672439 0 0 0 0 156.34427418589257 -26.227387027634222 0 -26.227387027634222 64.448125761961933 0 0 0 0 163.3901861112754 -78.927540575269404 0 -78.927540575269404 46.174374345509591 0 0 0 0 129.84647263177249 63.432839729141733 0 63.432839729141733 286.00210270985235 0 0 0 0 -32.766267555953164 -82.376704745387087 0 -82.376704745387087 225.71609299293459 0 0 0 0 96.739400671312524 -75.125591978330519 0 -75.125591978330519 111.64273288095669 0 0 0 0 1.0952066513354246 -2.1833960535676811 0 -2.1833960535676811 5.6452763413402041 0 0 0 0 208.94239634412952 145.84051657536889 0 145.84051657536889 214.85585312298889 0 0 0 0 473.9081117912275 43.508625597066668 0 43.508625597066668 -20.851138178227529 0 0 0 0 229.51909002053799 75.682766826151095 0 75.682766826151095 128.89883596372175 0 0 0 0 494.66898612130512 579.98660590066049 0 579.98660590066049 270.41281586977584 0 0 0 0 -271.82744268894157 249.7690532819729 0 249.7690532819729 239.78179984686813 0 0 0 0 36.345709327610052 52.886758960627049 0 52.886758960627049 80.627718550473446 0 0 0 0 6.1651665192472107 12.263419061792648 0 12.263419061792648 20.497295498791726 0 0 0 0 170.29510837234002 -42.003152416558635 0 -42.003152416558635 1.0467479259700667 0 0 0 0 184.68049339380559 -71.233366455884152 0 -71.233366455884152 11.460137869060645 0 0 0 0 47.078949221120183 -33.499314167610919 0 -33.499314167610919 -9.4956256846935503 0 0 0 0 -0.77938479379392245 -0.79192838811207755 0 -0.79192838811207755 0.82064459323655647 0 0 0 0 33.506779261859492 11.397887675612822 0 11.397887675612822 -22.522470744969269 0 0 0 0 -42.256482667879254 32.71524487800923 0 32.71524487800923 4.4029761058563963 0 0 0 0 -20.374603405068513 -21.523271544144166 0 -21.523271544144166 33.384857014019872 0 0 0 0 88.763061487984487 -0.0095375236169275013 0 -0.0095375236169275013 31.024860599676686 0 0 0 0 257.85177667862808 2.453233733901925 0 2.453233733901925 -36.61273245895427 0 0 0 0 232.41756184124279 12.935455432945673 0 12.935455432945673 -43.388694297201027 0 0 0 0 169.6780788728247 -56.163491454839459 0 -56.163491454839459 69.857456647020626 0 0 0 0 253.05444246362913 -88.972369528041781 0 -88.972369528041781 66.272813593591934 0 0 0 0 272.9886845935107 1.2449550053825078 0 1.2449550053825078 26.744288929494815 0 0 0 0 237.12034295528701 -9.3641412964445863 0 -9.3641412964445863 26.135276959036673 0 0 0 0 0.43599754167697258 -2.5404199031355743 0 -2.5404199031355743 -1.0735790285343008 0 0 0 0 338.4680539515839 -31.450839394134618 0 -31.450839394134618 -84.786453144307416 0 0 0 0 343.0353968862355 -63.974939384182562 0 -63.974939384182562 47.575447981960679 0 0 0 0 -213.6903453640939 74.701820266844152 0 74.701820266844152 509.76313378638588 0 0 0 0 353.92015108519251 5.83623665301144 0 5.83623665301144 -8.182879182502802 0 0 0 0 55.414014974867314 231.48850167976934 0 231.48850167976934 -58.148640485412216 0 0 0 0 4.1388692690306925 244.86346417495815 0 244.86346417495815 73.763754616632013 0 0 0 0 22.649757384892155 316.77544005777878 0 316.77544005777878 132.75471860402831 0 0 0 0 7.3469261644622748 245.16631061419912 0 245.16631061419912 44.400948674002763 0 0 0 0 -206.39381949277231 1.6319587330672221 0 1.6319587330672221 228.99150659221323 0 0 0 0 -12.588875852055935 214.41076999265249 0 214.41076999265249 156.54781088003256 0 0 0 0 -71.377477401531451 48.850912435339069 0 48.850912435339069 -149.05606259202068 0 0 0 0 -244.06682632228694 -127.49342280416568 0 -127.49342280416568 22.494090967111788 0 0 0 0 129.21163525638985 404.12610838174442 0 404.12610838174442 148.68842145099779 0 0 0 0 22.635882540117564 325.24925106755671 0 325.24925106755671 351.6306254864221 0 0 0 0 -1.0726942961700843 136.59395908949773 0 136.59395908949773 299.68530371714928 0 0 0 0 -79.431840540613848 195.4233384571753 0 195.4233384571753 474.56233855351275 0 0 0 0 87.323706598550416 210.9811921730543 0 210.9811921730543 351.64332158597517 0 0 0 0 -156.04719183791167 129.32566340365429 0 129.32566340365429 430.84234962104074 0 0 0 0 -61.724849224367063 14.197678913762502 0 14.197678913762502 416.6523344848722 0 0 0 0 -0.11965355533717958 -2.437885806105216 0 -2.437885806105216 1.2123308111674795 0 0 0 0 0.88384449481511518 -4.3899746615621495 0 -4.3899746615621495 -3.6428666148369757 0 0 0 0 -240.62623565598324 -118.94842140056403 0 -118.94842140056403 -831.52255123373106 0 0 0 0 -348.32272693571758 36.175252200937393 0 36.175252200937393 828.49082364585047 0 0 0 0 -408.40790330817617 -79.661656390084318 0 -79.661656390084318 311.3688656276172 0 0 0 0 -145.00473321198103 55.935330433113506 0 55.935330433113506 274.88651145862514 0 0 0 0 -336.00445152371867 -0.68956456579689984 0 -0.68956456579689984 412.28919915701408 0 0 0 0 -312.82263922776474 -1.4975719788099013 0 -1.4975719788099013 408.82303122649955 0 0 0 0 -346.30313670327905 13.496819201532162 0 13.496819201532162 415.8377910803174 0 0 0 0 -326.61454511779812 11.933950012568857 0 11.933950012568857 412.17545296802018 0 0 0 0 -440.33625252837373 130.32889413331577 0 130.32889413331577 330.15755898977659 0 0 0 0 -198.29607253487666 -23.046142400684403 0 -23.046142400684403 -80.665682562879738 0 0 0 0 -379.70713514957788 146.13434673630582 0 146.13434673630582 -235.37965367972174 0 0 0 0 -428.95251716956773 -119.52313138179125 0 -119.52313138179125 -114.00533698507934 0 0 0 0 -335.25668598737593 139.00036594485846 0 139.00036594485846 -1.0605114419740858 0 0 0 0 -85.20636230407996 41.618000657352198 0 41.618000657352198 444.97640274419973 0 0 0 0 108.08515705144873 151.99996939200309 0 151.99996939200309 338.23539407417593 0 0 0 0 -82.821127710494693 -41.079990912639005 0 -41.079990912639005 204.76766331559611 0 0 0 0 -220.84601018651028 143.37324710544112 0 143.37324710544112 326.99957182403341 0 0 0 0 -219.28216809539117 50.867962221745984 0 50.867962221745984 142.90476240972384 0 0 0 0 -21.461727371475718 -231.34393637431276 0 -231.34393637431276 251.27512565445886 0 0 0 0 -4.5360443236868377 -161.49231124516155 0 -161.49231124516155 -10.449162696622807 0 0 0 0 -61.594478892628103 -266.48061174153554 0 -266.48061174153554 -148.06455188672771 0 0 0 0 -148.73576525112003 -274.24890931487607 0 -274.24890931487607 -57.278652208176936 0 0 0 0 -103.70258289771992 -359.81435007864116 0 -359.81435007864116 -206.03830453869159 0 0 0 0 1.803357288477855 -393.10844444802024 0 -393.10844444802024 -149.1263751531078 0 0 0 0 -103.43222599649448 -331.51655722988437 0 -331.51655722988437 19.72183013727772 0 0 0 0 -418.53932060921397 -367.16438650575765 0 -367.16438650575765 -73.041405091085835 0 0 0 0 -2.7778811860248904 -5.4315153506443998 0 -5.4315153506443998 -3.8881806502435339 0 0 0 0 37.081098693849071 -273.63203388024249 0 -273.63203388024249 -193.27681950725309 0 0 0 0 61.387687694070337 -207.52708827936021 0 -207.52708827936021 -467.43343942379033 0 0 0 0 -1.5298979483537305 -4.5346887057683105 0 -4.5346887057683105 -7.4795644396125809 0 0 0 0 -163.4053038462007 -361.9997409410862 0 -361.9997409410862 -480.22317114924135 0 0 0 0 187.15410837831951 11.062678591118129 0 11.062678591118129 3.1666886295643053 0 0 0 0 179.51555812561128 -3.9699248112019632 0 -3.9699248112019632 -23.564589271364639 0 0 0 0 179.51997130655636 -5.2089148946572053 0 -5.2089148946572053 -8.5841750852869154 0 0 0 0 114.82081093982151 -15.865182196307615 0 -15.865182196307615 43.142179873037094 0 0 0 0 16.683086622248993 7.74674444763059 0 7.74674444763059 -2.5731746050851143 0 0 0 0 7.1365461988579577 -3.1234152075493666 0 -3.1234152075493666 -1.7721094855534467 0 0 0 0 41.261907691471379 -10.993638167337394 0 -10.993638167337394 -14.136896914640602 0 0 0 0 80.549357564447746 17.372759659126132 0 17.372759659126132 -19.161292661207881 0 0 0 0 165.80556711316569 -85.094201035135484 0 -85.094201035135484 -67.683202696409353 0 0 0 0 -0.25963239195870447 -1.5287527720755572 0 -1.5287527720755572 -0.19587342988778289 0 0 0 0 -16.388030262532084 30.621376033416709 0 30.621376033416709 -1.2009257714707928 0 0 0 0 159.05572029311497 -24.655734272009795 0 -24.655734272009795 -19.046731067979181 0 0 0 0 3.4896604220705285 -3.3005101299995658 0 -3.3005101299995658 53.428167962192674 0 0 0 0 -0.97371097476578328 -0.64044498619985868 0 -0.64044498619985868 0.30756373148548377 0 0 0 0 220.64968376515571 9.4982540053824778 0 9.4982540053824778 -96.039619252123885 0 0 0 0 227.16994448081459 -11.342893166784052 0 -11.342893166784052 -37.822828853436249 0 0 0 0 241.436911670472 21.812165251882107 0 21.812165251882107 -53.142864208410174 0 0 0 0 203.45910392863516 0.1928180555387371 0 0.1928180555387371 -23.494439554652672 0 0 0 0 187.0675143903909 -34.787896481045209 0 -34.787896481045209 -56.266495644267707 0 0 0 0 308.86187466700676 -210.76193133937826 0 -210.76193133937826 256.65702583978782 0 0 0 0 9.312964539022861 -5.5660494714463269 0 -5.5660494714463269 -0.51057820556487243 0 0 0 0 1829.0636770076217 -92.224723755307195 0 -92.224723755307195 19.044172538340717 0 0 0 0 890.02879305631541 -770.51361247642365 0 -770.51361247642365 639.22553637821056 0 0 0 0 1593.749905789271 636.92765677229863 0 636.92765677229863 256.25938550789294 0 0 0 0 15.450561732307207 2.3450348121677393 0 2.3450348121677393 0.082581169807704469 0 0 0 0 470.52158115999373 363.36784848908701 0 363.36784848908701 1084.0571999019328 0 0 0 0 935.71913066798334 -267.92072687619225 0 -267.92072687619225 936.52030898165185 0 0 0 0 1964.3910915394445 -94.768819925131538 0 -94.768819925131538 242.84392620945255 0 0 0 0 1412.0698503759904 584.34231617256364 0 584.34231617256364 387.46733164815896 0 0 0 0 700.64301550869413 411.62945465193218 0 411.62945465193218 353.58487947469143 0 0 0 0 133.98226857929239 365.89706910243063 0 365.89706910243063 450.26129607950861 0 0 0 0 463.35147063737531 290.21692249397938 0 290.21692249397938 383.22878300710227 0 0 0 0 357.81947428677449 169.34689727448404 0 169.34689727448404 633.5218276838541 0 0 0 0 81.099394337105082 287.09432193933515 0 287.09432193933515 630.92316862717234 0 0 0 0 229.91263324935608 -22.12238745306513 0 -22.12238745306513 524.69131275776726 0 0 0 0 205.29128778247286 25.880035425897404 0 25.880035425897404 455.12148972924479 0 0 0 0 169.60294664168396 -142.42062081205586 0 -142.42062081205586 191.21866597143708 0 0 0 0 268.28139541051132 -1.269574298216412 0 -1.269574298216412 240.45910716917206 0 0 0 0 62.177461955816398 -77.975419370645341 0 -77.975419370645341 320.54137585492936 0 0 0 0 119.49575299336357 -299.21359855603259 0 -299.21359855603259 87.524731850779062 0 0 0 0 23.693823050020001 -237.51367678280258 0 -237.51367678280258 49.519914051557862 0 0 0 0 17.969478012269064 -33.073882211687305 0 -33.073882211687305 523.07027383625973 0 0 0 0 681.97638250598175 94.829702307431944 0 94.829702307431944 338.15212546616931 0 0 0 0 366.95474932913203 -174.84348913511712 0 -174.84348913511712 151.44115999933638 0 0 0 0 137.12067106003087 216.57161653472212 0 216.57161653472212 1100.9614461363344 0 0 0 0 605.37134769534896 389.07003049718242 0 389.07003049718242 542.95095162759844 0 0 0 0 1244.6942078481843 637.10101537628725 0 637.10101537628725 585.6090219333546 0 0 0 0 1022.6290502532974 244.49209803032196 0 244.49209803032196 131.13614051435889 0 0 0 0 1549.2409886307614 456.33032931610933 0 456.33032931610933 213.09266110055432 0 0 0 0 1004.3838976046136 44.551124158637322 0 44.551124158637322 378.23040981097347 0 0 0 0 446.63567408697054 252.96070175246678 0 252.96070175246678 256.84193797011085 0 0 0 0 2229.3911018398621 121.71536791439848 0 121.71536791439848 -179.39669691839299 0 0 0 0 1908.0013370503493 873.81333425326193 0 873.81333425326193 319.76308886250627 0 0 0 0 3555.0276500568179 596.14449573344882 0 596.14449573344882 -160.31355418192834 0 0 0 0 0.72736163707810064 5.2775561052412101 0 5.2775561052412101 12.283021587179007 0 0 0 0 1248.7367045137962 643.846403546489 0 643.846403546489 427.6050638394554 0 0 0 0 2724.8963393947488 1775.4082852763559 0 1775.4082852763559 911.1399653876033 0 0 0 0 386.51704684105061 1989.7670700853942 0 1989.7670700853942 -769.65750069552905 0 0 0 0 -2532.825900798267 2946.5278705158171 0 2946.5278705158171 5656.2557246475408 0 0 0 0 1667.2506199675263 630.59194388489732 0 630.59194388489732 -3.4827053917888406 0 0 0 0 19.742011527222747 12.357223600104099 0 12.357223600104099 7.3755773854070856 0 0 0 0 1726.3922931795059 -1791.4461710170704 0 -1791.4461710170704 -2404.3586894737805 0 0 0 0 -526.0714796156135 897.77685180479432 0 897.77685180479432 -497.28934841508726 0 0 0 0 1540.1227409011553 885.93387250622254 0 885.93387250622254 -171.79985505254194 0 0 0 0 106.53955450671742 43.31754027205421 0 43.31754027205421 18.745872835629434 0 0 0 0 872.34850907431974 -642.98018753040014 0 -642.98018753040014 -350.87278171948128 0 0 0 0 560.52962865960217 -777.12145790738305 0 -777.12145790738305 63.650295930656284 0 0 0 0 -3228.3035967504766 -1985.6517193067921 0 -1985.6517193067921 86.584595378935774 0 0 0 0 10.250677332269021 11.979234349579695 0 11.979234349579695 4.6769373001483885 0 0 0 0 720.34219203107932 2165.6519160382577 0 2165.6519160382577 -1104.7380237038433 0 0 0 0 -1423.3094878993288 1651.9570170503766 0 1651.9570170503766 -269.21422397223614 0 0 0 0 1230.9605597395639 802.50456394750836 0 802.50456394750836 -2954.1404206905718 0 0 0 0 1623.1655761291549 -1659.8829525576803 0 -1659.8829525576803 -1205.5339425143356 0 0 0 0 369.0454794301113 853.4401721709728 0 853.4401721709728 2168.2318179679387 0 0 0 0 -984.69263389886328 -320.4232677094169 0 -320.4232677094169 354.76547982297052 0 0 0 0 1630.3161896949605 -744.72881116926874 0 -744.72881116926874 -340.25034190755332 0 0 0 0 33.719231968211204 7.3544103364671471 0 7.3544103364671471 -0.6415454160030869 0 0 0 0 536.43489432350907 139.44532050577254 0 139.44532050577254 -416.92282709573738 0 0 0 0 -716.43984116556931 -205.75081163061805 0 -205.75081163061805 -289.2632581146936 0 0 0 0 76.892985177482842 -630.39662725760172 0 -630.39662725760172 -955.61828141794467 0 0 0 0 264.74075316329254 -370.80073373685775 0 -370.80073373685775 226.10253636173002 0 0 0 0 423.43255884117752 -65.37006497218681 0 -65.37006497218681 -272.04223044336322 0 0 0 0 -263.38797959583826 -253.46690029319871 0 -253.46690029319871 239.4139651616988 0 0 0 0 -1.6517345678876154 -218.51389971058961 0 -218.51389971058961 -479.6479985122769 0 0 0 0 116.03839504686948 -420.14783695157985 0 -420.14783695157985 -381.7262797675794 0 0 0 0 58.689209040769128 -328.3630128067889 0 -328.3630128067889 -291.50112072516822 0 0 0 0 -66.854441457593566 -495.88894002150391 0 -495.88894002150391 -92.889831963198958 0 0 0 0 -57.390575714918441 -426.03396791405544 0 -426.03396791405544 -326.09321740797168 0 0 0 0 30.857490493090154 -30.020547973676003 0 -30.020547973676003 -46.76152393810662 0 0 0 0 -75.784003741949164 -183.58249085573607 0 -183.58249085573607 -569.65698863917351 0 0 0 0 164.73619572749703 -88.077705643203444 0 -88.077705643203444 -1237.2656158837981 0 0 0 0 41.104115813503981 -3.7446996327722566 0 -3.7446996327722566 -10.927515722188375 0 0 0 0 120.97692112527329 47.23601035826357 0 47.23601035826357 -25.656030241701956 0 0 0 0 101.22112377104514 38.033362604004786 0 38.033362604004786 2.4963091863694515 0 0 0 0 107.98482086401054 60.468727879539983 0 60.468727879539983 -45.331303387538355 0 0 0 0 89.791087941251675 29.850877125802299 0 29.850877125802299 -39.578667597776473 0 0 0 0 120.78452846595246 44.035182588574799 0 44.035182588574799 -58.177255436537962 0 0 0 0 104.1429064986587 56.714801799879751 0 56.714801799879751 -30.926368445729167 0 0 0 0 117.53819300279429 78.604461342771174 0 78.604461342771174 3.9938134430894934 0 0 0 0 130.8260877289722 80.058812474482238 0 80.058812474482238 -67.628407748899917 0 0 0 0 22.449688414048552 25.261613458174395 0 25.261613458174395 -15.245002640081424 0 0 0 0 -113.03345213737339 -222.94622292582244 0 -222.94622292582244 120.63451672534393 0 0 0 0 7.5265598768310156 606.76388806031537 0 606.76388806031537 -213.90104083286406 0 0 0 0 149.45867293478142 61.399641384198823 0 61.399641384198823 15.591473453820104 0 0 0 0 -196.73346429516823 607.69751244232702 0 607.69751244232702 1306.9508532878899 0 0 0 0 1145.0668794052472 -587.52095694269519 0 -587.52095694269519 420.68059339290994 0 0 0 0 550.53373713626934 -36.485929902515636 0 -36.485929902515636 -166.95015425360907 0 0 0 0 570.62436470064904 324.63833117266802 0 324.63833117266802 -109.26671550068932 0 0 0 0 178.36858404972736 134.94202337213437 0 134.94202337213437 -68.658602892559429 0 0 0 0 619.30242208275013 429.00792765437291 0 429.00792765437291 -242.37829992023944 0 0 0 0 622.56520299251133 475.94169357788451 0 475.94169357788451 -175.22189718078334 0 0 0 0 20.212731706303771 2.1087145687939874 0 2.1087145687939874 -0.44899531504390033 0 0 0 0 720.81909386308689 -993.69230782061186 0 -993.69230782061186 -83.524995854752888 0 0 0 0 584.70149494774523 656.06813353532561 0 656.06813353532561 -421.16240114019502 0 0 0 0 1328.2887848817663 379.76499798544603 0 379.76499798544603 -398.45283954939077 0 0 0 0 197.84616235717749 -115.78897711537138 0 -115.78897711537138 -59.614710699849638 0 0 0 0 87.527215599853662 -63.351512767538679 0 -63.351512767538679 19.005611144104819 0 0 0 0 62.172978628766941 -87.097621106355291 0 -87.097621106355291 15.540138161433333 0 0 0 0 5.8929006457863302 -1.3779893064820934 0 -1.3779893064820934 -2.4098180920470114 0 0 0 0 34.797001015213937 -11.373575471627419 0 -11.373575471627419 0.13683942511488567 0 0 0 0 36.668332462323633 13.223131712338045 0 13.223131712338045 11.089222241247626 0 0 0 0 7.412667537131636 -3.3968634339616539 0 -3.3968634339616539 -4.7516848536305822 0 0 0 0 74.047804527210701 -122.23837389711025 0 -122.23837389711025 116.27866978418024 0 0 0 0 -15.694105127335206 -33.6100044134364 0 -33.6100044134364 115.76961459464837 0 0 0 0 417.32252704798702 417.10080355269565 0 417.10080355269565 154.17304571164095 0 0 0 0 139.19696116338491 7.0259738884997205 0 7.0259738884997205 60.948758620601438 0 0 0 0 9.9401959743990922 -2.9772635062904556 0 -2.9772635062904556 -0.073104865394689966 0 0 0 0 1251.1656103139721 136.48292266107819 0 136.48292266107819 -1332.1177961512949 0 0 0 0 120.11232803488929 7.2735046872985549 0 7.2735046872985549 240.65118214014365 0 0 0 0 -263.3921310300218 -220.41415972704038 0 -220.41415972704038 -45.379759336123243 0 0 0 0 -147.72212584396948 -134.32473074575137 0 -134.32473074575137 18.496854753720982 0 0 0 0 88.659303057542274 23.210146448760497 0 23.210146448760497 -50.221738841560182 0 0 0 0 -100.92466422405778 -363.27854913685951 0 -363.27854913685951 -157.20896378097859 0 0 0 0 -106.96719632592612 -351.89722337020248 0 -351.89722337020248 -171.41448423818656 0 0 0 0 -253.7959623584411 -399.32494684272751 0 -399.32494684272751 -127.58227160057322 0 0 0 0 -104.81221447437565 -340.81958716336885 0 -340.81958716336885 -123.49102809141914 0 0 0 0 -67.192351344872804 -299.79077188693373 0 -299.79077188693373 -222.75219694284897 0 0 0 0 13.790640052087838 -239.39264255818489 0 -239.39264255818489 -182.42184201760028 0 0 0 0 -63.288865652008099 -283.55342118298358 0 -283.55342118298358 -169.11475106164107 0 0 0 0 7.2544996098986303 -180.37735328342387 0 -180.37735328342387 -573.47708128775776 0 0 0 0 128.76737729133856 151.82996815674778 0 151.82996815674778 -148.06567930780147 0 0 0 0 87.846081353480884 31.031749904055296 0 31.031749904055296 1.2884871243839804 0 0 0 0 88.605289474081474 -11.32028640860517 0 -11.32028640860517 -39.548275148014 0 0 0 0 24.694555277322689 5.3864039021806462 0 5.3864039021806462 -9.504408695377812 0 0 0 0 58.345651576859382 -138.72682910781077 0 -138.72682910781077 -327.14198722927176 0 0 0 0 196.25684967848338 13.08175506049065 0 13.08175506049065 -159.88767470333551 0 0 0 0 21.095212074699269 -1.011466859751212 0 -1.011466859751212 -12.966331956195887 0 0 0 0 509.7921716406122 17.372945346518463 0 17.372945346518463 -190.02172587479981 0 0 0 0 -63.232474777051721 429.50129680161081 0 429.50129680161081 810.10741883492392 0 0 0 0 18.554206364878187 -1.7839534618252451 0 -1.7839534618252451 -20.383078308494564 0 0 0 0 106.41711347543196 6.8838416276955741 0 6.8838416276955741 -22.915864883791073 0 0 0 0 43.92101799382381 3.3985987064260357 0 3.3985987064260357 -13.136697470187102 0 0 0 0 87.958721878127108 48.821386473140592 0 48.821386473140592 -35.018991817712958 0 0 0 0 189.86711245729748 87.743279740238904 0 87.743279740238904 -40.464340322650969 0 0 0 0 86.375130279979203 53.188817256686889 0 53.188817256686889 -21.680615267805479 0 0 0 0 28.882590631956973 -0.34698744772029499 0 -0.34698744772029499 -0.25309450692504498 0 0 0 0 81.444275370871765 44.69624658659086 0 44.69624658659086 -15.582228440216568 0 0 0 0 85.536794606792682 42.237197139913405 0 42.237197139913405 -20.455230583025696 0 0 0 0 88.626488895053626 67.067600684996705 0 67.067600684996705 11.983297413517448 0 0 0 0 90.079388449499831 40.041501327899866 0 40.041501327899866 11.607861994343098 0 0 0 0 83.987761758729903 56.473247462138488 0 56.473247462138488 -10.423479873679753 0 0 0 0 164.47858660362544 45.491225632285932 0 45.491225632285932 -36.97085738646274 0 0 0 0 92.60023073504999 11.503834256800474 0 11.503834256800474 -3.4728099976655358 0 0 0 0 78.458801798878994 -3.9915904187819251 0 -3.9915904187819251 1.3842335401232049 0 0 0 0 57.732718622360323 5.5556223256421227 0 5.5556223256421227 -3.12487989826686 0 0 0 0 81.428803827666769 2.4243541319332191 0 2.4243541319332191 -11.644560403846686 0 0 0 0 121.80634044847102 4.3494774277028228 0 4.3494774277028228 -189.68551544504589 0 0 0 0 103.46181775513833 5.1307935340873883 0 5.1307935340873883 -23.575606650028931 0 0 0 0 70.963384771755955 -3.6781710092081994 0 -3.6781710092081994 -14.003428698709286 0 0 0 0 106.69340105366064 -36.236033222172409 0 -36.236033222172409 -48.704840193667224 0 0 0 0 78.884626666401488 2.3202857912215293 0 2.3202857912215293 -7.2132756643160256 0 0 0 0 80.781923295311572 13.382485764495868 0 13.382485764495868 -22.2932328605566 0 0 0 0 12.937953595480549 -12.870531987618909 0 -12.870531987618909 0.84884257099087179 0 0 0 0 71.748083709499042 2.5774028066371102 0 2.5774028066371102 -11.094294803946468 0 0 0 0 89.603701737321899 11.102873367984785 0 11.102873367984785 -7.0255271566784359 0 0 0 0 48.365380101405037 2.5876706085657162 0 2.5876706085657162 -5.7149224548841495 0 0 0 0 46.435869933113281 -10.541858755126782 0 -10.541858755126782 -6.4036878618062474 0 0 0 0 45.847245432296134 -13.113352502182607 0 -13.113352502182607 -2.3888985904429934 0 0 0 0 37.190677208287525 -7.8199104602535954 0 -7.8199104602535954 -4.6353641122404952 0 0 0 0 30.851633891954542 2.1725195622387332 0 2.1725195622387332 -7.0818000907733882 0 0 0 0 75.311718503508018 -6.7008728396212973 0 -6.7008728396212973 -0.60952717122927424 0 0 0 0 30.409372904976053 8.277639088295679 0 8.277639088295679 -9.3889225550359043 0 0 0 0 34.256314358062809 -8.1086808111967912 0 -8.1086808111967912 1.3794009643170284 0 0 0 0 14.235664835554168 -5.5094147726001879 0 -5.5094147726001879 2.7235241388179272 0 0 0 0 51.48345139126468 4.5921524196774044 0 4.5921524196774044 -5.2986583349193097 0 0 0 0 61.522207337219598 -4.2056510959429403 0 -4.2056510959429403 -10.729479831191298 0 0 0 0 46.904768226551823 -7.2136404508728447 0 -7.2136404508728447 -12.564417866961776 0 0 0 0 50.480086865176247 -11.436880886714381 0 -11.436880886714381 -12.091374927445615 0 0 0 0 43.741215972654501 -16.615162994450138 0 -16.615162994450138 -2.5832878333355929 0 0 0 0 24.689976784968167 4.0510127633679076 0 4.0510127633679076 -27.33155921766047 0 0 0 0 30.346691353209508 -2.5204202205976287 0 -2.5204202205976287 -4.9127517370256122 0 0 0 0 27.938979826460127 0.26709393360943068 0 0.26709393360943068 0.07573538474025554 0 0 0 0 23.61733274057076 11.168026921831604 0 11.168026921831604 -3.722513198206606 0 0 0 0 19.273586057346577 -4.9815779411002099 0 -4.9815779411002099 0.17881239009251715 0 0 0 0 -2.5258641241271107 29.912577061669253 0 29.912577061669253 -0.68423415199322335 0 0 0 0 12.82428545303992 -0.95685984169904259 0 -0.95685984169904259 -9.6376493481438956 0 0 0 0 56.389680470732856 -10.180811080786953 0 -10.180811080786953 -11.071145355024782 0 0 0 0 27.648726014583858 1.1723036014913042 0 1.1723036014913042 -7.6275545347236484 0 0 0 0 49.273678711510115 -5.8453977675444122 0 -5.8453977675444122 -6.448297917849958 0 0 0 0 6.8516540812565694 6.2994551727886687 0 6.2994551727886687 -6.5146252674075491 0 0 0 0 32.199677396507468 9.1800676829636814 0 9.1800676829636814 -9.5799974810915955 0 0 0 0 14.190498271137711 11.778835178648354 0 11.778835178648354 -7.4128965685629442 0 0 0 0 77.721721764020913 -5.1330310098883274 0 -5.1330310098883274 -4.0118252675406438 0 0 0 0 12.994120914738199 -8.9234169777948225 0 -8.9234169777948225 0.32241208745353589 0 0 0 0 26.834725873249425 4.6347901426824549 0 4.6347901426824549 -7.1997227343410044 0 0 0 0 39.147767368409404 8.9347466377233786 0 8.9347466377233786 -15.245668944234467 0 0 0 0 32.940466661821119 2.0856397546453991 0 2.0856397546453991 -21.988942500886196 0 0 0 0 31.426343517398045 -5.1280690365912349 0 -5.1280690365912349 -9.5921296962445037 0 0 0 0 22.522989972005284 8.3259628975659048 0 8.3259628975659048 -10.658654001720249 0 0 0 0 45.018685044118683 -14.891880801753814 0 -14.891880801753814 5.7357284453428292 0 0 0 0 91.162710480555688 -23.468125872370365 0 -23.468125872370365 -2.1082456675758294 0 0 0 0 40.757996738226211 -9.6225974175858937 0 -9.6225974175858937 -0.77874392499916212 0 0 0 0 30.967177868517098 -4.4090606612016856 0 -4.4090606612016856 -7.3251745296108721 0 0 0 0 31.485303976692247 2.5769276134565331 0 2.5769276134565331 -5.8327577958614256 0 0 0 0 20.504477850465541 3.1891578867738364 0 3.1891578867738364 -11.15749063340067 0 0 0 0 65.574939723725038 -14.047687531295196 0 -14.047687531295196 -9.5160157350874215 0 0 0 0 65.875375889925294 -3.9461014441335607 0 -3.9461014441335607 1.1739274296633084 0 0 0 0 43.552951866768126 -19.22865508799805 0 -19.22865508799805 0.57861889554078516 0 0 0 0 56.737172493998514 -10.386329133451909 0 -10.386329133451909 -4.804392217003624 0 0 0 0 66.573785847955151 -19.915739840847891 0 -19.915739840847891 3.9586179562061261 0 0 0 0 106.27311553078471 -18.515792220419826 0 -18.515792220419826 -17.193918663870136 0 0 0 0 23.748844324029051 2.0637366464311526 0 2.0637366464311526 -6.2669561385027919 0 0 0 0 34.384315104236066 -0.06489906072863505 0 -0.06489906072863505 -8.1213303698914387 0 0 0 0 63.690028551820433 9.4460118878741923 0 9.4460118878741923 -12.262997625296521 0 0 0 0 14.671353867548532 5.2843227787063825 0 5.2843227787063825 -0.18235817745880922 0 0 0 0 17.638447427030165 11.074776904701164 0 11.074776904701164 -10.263390307694923 0 0 0 0 36.848672423249809 3.8457937636103452 0 3.8457937636103452 -4.3260289992540493 0 0 0 0 23.367148966316169 2.7144789443171646 0 2.7144789443171646 -7.7577961477203736 0 0 0 0 1.5416571849083152 2.575886001884939 0 2.575886001884939 -1.7647220286697767 0 0 0 0 28.704817901089882 5.8001308715347477 0 5.8001308715347477 -3.2442219227814348 0 0 0 0 30.440493510433953 23.574873045861295 0 23.574873045861295 -20.694138422506512 0 0 0 0 17.280864864674641 4.0555981844133839 0 4.0555981844133839 -3.4480712810218392 0 0 0 0 32.336700377485613 2.2246605822456331 0 2.2246605822456331 -9.2186350886504442 0 0 0 0 8.8579713963074607 9.2542204962569414 0 9.2542204962569414 -5.4661961369854524 0 0 0 0 42.808810894674025 -5.8563890103405356 0 -5.8563890103405356 -2.7276951701642247 0 0 0 0 18.100904460086721 13.408911108042128 0 13.408911108042128 -12.66929143666734 0 0 0 0 14.956329245134777 3.0089874980877482 0 3.0089874980877482 -5.4702181662114313 0 0 0 0 33.306886983696053 -7.408781987214434 0 -7.408781987214434 -1.1520660055946141 0 0 0 0 13.257719514625229 0.69679596673891986 0 0.69679596673891986 -3.8982951580079046 0 0 0 0 50.467635188506392 -9.4734131718832941 0 -9.4734131718832941 -8.2501904426198962 0 0 0 0 30.26581485423776 -1.7450105017524038 0 -1.7450105017524038 -5.2207764108898118 0 0 0 0 27.062187348972657 -7.4581827537294885 0 -7.4581827537294885 1.7289325692836428 0 0 0 0 19.665935285624915 7.591332690736464 0 7.591332690736464 -10.039632407087723 0 0 0 0 48.68544320122237 -6.5762611109967111 0 -6.5762611109967111 -9.7154168222677981 0 0 0 0 49.718932788804523 -13.108342355180866 0 -13.108342355180866 -4.9294302774433163 0 0 0 0 45.695869402825338 -9.198033983762798 0 -9.198033983762798 -7.5063815438916208 0 0 0 0 62.292183342004137 -6.9653984963897528 0 -6.9653984963897528 -10.955708217543361 0 0 0 0 61.089444777666358 -1.0168970124068437 0 -1.0168970124068437 -15.914682217400696 0 0 0 0 48.463767670053358 29.076316839823448 0 29.076316839823448 -10.944299953612472 0 0 0 0 20.909968559088156 10.80062669724019 0 10.80062669724019 -6.8117079310867794 0 0 0 0 52.608972044326038 12.586219460240955 0 12.586219460240955 12.380215753989432 0 0 0 0 5.31195600943642 6.9744273300937607 0 6.9744273300937607 -2.8864214679254712 0 0 0 0 79.584866521236336 18.985443908974958 0 18.985443908974958 -45.802835687645711 0 0 0 0 51.71365753433831 -1.2816676162594831 0 -1.2816676162594831 -2.9132245583655276 0 0 0 0 87.740593459076081 -9.8695894549174596 0 -9.8695894549174596 -15.114676151140571 0 0 0 0 3.2177788032386569 -0.4070933410647708 0 -0.4070933410647708 0.02089969716304374 0 0 0 0 42.37244993161039 3.9299424969254115 0 3.9299424969254115 -5.6192456238599107 0 0 0 0 49.424706666457496 21.833257828206797 0 21.833257828206797 -15.116998882856251 0 0 0 0 18.601802280790306 14.90980844392524 0 14.90980844392524 -7.8650439100074694 0 0 0 0 47.595319221948557 7.184739254348429 0 7.184739254348429 -15.3292488595348 0 0 0 0 6.6586940450004306 0.96631122117727941 0 0.96631122117727941 -2.8438745930721816 0 0 0 0 8.474425913339882 3.2003449130051553 0 3.2003449130051553 1.8397320527915859 0 0 0 0 16.250285113033442 20.708429900512442 0 20.708429900512442 -13.821674639252706 0 0 0 0 26.057712041307756 0.98164671950290838 0 0.98164671950290838 -4.3549310566715018 0 0 0 0 17.560184875605501 15.701898917980543 0 15.701898917980543 -9.3481914751855584 0 0 0 0 41.7191775071351 10.277212186348152 0 10.277212186348152 -24.033816815670434 0 0 0 0 59.674108986479041 -12.846698149962322 0 -12.846698149962322 0.47001214945100855 0 0 0 0 36.386361200420652 18.952402886947084 0 18.952402886947084 -12.278022984855852 0 0 0 0 35.761816992135394 12.657388091796371 0 12.657388091796371 -13.544427108901404 0 0 0 0 33.299103752021892 2.1363530910875426 0 2.1363530910875426 -11.462325129765759 0 0 0 0 20.038620169785467 6.7672847278206234 0 6.7672847278206234 -8.0314353675503654 0 0 0 0 87.040696530668356 -2.132393201429295 0 -2.132393201429295 -6.7776764572154207 0 0 0 0 28.02105675153928 5.0941474699869111 0 5.0941474699869111 -13.094069061212476 0 0 0 0 43.244224944758471 7.8485886888515628 0 7.8485886888515628 -11.783004091307248 0 0 0 0 33.934962585834 16.008868773437825 0 16.008868773437825 -27.59052510347874 0 0 0 0 28.777547722635063 19.652718167335479 0 19.652718167335479 -22.147358244029647 0 0 0 0 73.528327227453701 0.20808731336364872 0 0.20808731336364872 -5.3367833920710837 0 0 0 0 70.950098910518136 -5.5411851877254321 0 -5.5411851877254321 -1.6299898806064448 0 0 0 0 -4.4135549802629939 11.271924063394607 0 11.271924063394607 -7.7511275340295436 0 0 0 0 -1.1128173528686602 40.509475087622377 0 40.509475087622377 -45.139734914483597 0 0 0 0 2.4947087477230525 15.767346789953535 0 15.767346789953535 -15.576550572672204 0 0 0 0 36.168638540882966 16.221724440125399 0 16.221724440125399 -14.002690799796255 0 0 0 0 31.521402071094599 28.427653125255574 0 28.427653125255574 -41.168466008250107 0 0 0 0 17.310762542998287 33.524115082150701 0 33.524115082150701 -27.176609044527758 0 0 0 0 -39.237995938914537 35.871668985830183 0 35.871668985830183 4.2542924442268486 0 0 0 0 1.9455776385760721 2.4437459091015405 0 2.4437459091015405 1.4590736874297345 0 0 0 0 44.878260866837081 -34.903497333136102 0 -34.903497333136102 -8.2026948224302032 0 0 0 0 25.951352181653419 -11.729352604533915 0 -11.729352604533915 9.8471679006148634 0 0 0 0 -37.065326469008141 35.303713097028776 0 35.303713097028776 -24.25144111663576 0 0 0 0 73.194769679845194 -7.1277057930687988 0 -7.1277057930687988 -56.4620828776915 0 0 0 0 5.7059813425672843 4.7134977874782109 0 4.7134977874782109 2.1351199509373249 0 0 0 0 -8.6254405156287248 35.398966055720052 0 35.398966055720052 -30.161207033374012 0 0 0 0 9.0582069084268451 5.0388343975124084 0 5.0388343975124084 2.4151693595066668 0 0 0 0 15.360975232511919 11.444982664925078 0 11.444982664925078 -2.9397501233841581 0 0 0 0 34.062302890744832 6.5066365728405344 0 6.5066365728405344 -7.4046148482464105 0 0 0 0 38.894580863909141 -8.4181559198915465 0 -8.4181559198915465 -4.3544518198732476 0 0 0 0 802.26415641976973 -72.088122741488462 0 -72.088122741488462 -65.998599078117422 0 0 0 0 0.15476397682370902 0.98111834378815388 0 0.98111834378815388 0.99941493111573365 0 0 0 0 252.26361204596105 8.1857055134676173 0 8.1857055134676173 -18.954353338204314 0 0 0 0 273.90558383460666 -45.996265634726939 0 -45.996265634726939 65.703011509920046 0 0 0 0 412.20965068584064 -35.287283982003288 0 -35.287283982003288 -89.139944917255121 0 0 0 0 0.72339475800777286 -0.16397436364757922 0 -0.16397436364757922 1.4376575318017508 0 0 0 0 497.37284611414998 -7.9066612937886021 0 -7.9066612937886021 -130.59190524189478 0 0 0 0 70.251542016173516 -8.0452800505381674 0 -8.0452800505381674 39.028088684498698 0 0 0 0 378.54997494511872 193.29798728717165 0 193.29798728717165 49.800248466286348 0 0 0 0 70.27798018473095 -196.47622518885282 0 -196.47622518885282 -89.557108524711111 0 0 0 0 1.4611816166014151 -2.218868069813416 0 -2.218868069813416 1.5323882783037677 0 0 0 0 2.2872113393350446 -206.376939083987 0 -206.376939083987 182.13735627346705 0 0 0 0 25.432049176659348 -3.9579573158804919 0 -3.9579573158804919 1.4086562938829843 0 0 0 0 16.00479341009779 -1.7882863634699624 0 -1.7882863634699624 0.97045873010140704 0 0 0 0 29.397136519189189 -6.1185437198712975 0 -6.1185437198712975 -4.3821756714114599 0 0 0 0 59.994540931482334 15.871419282395038 0 15.871419282395038 8.9535663913197823 0 0 0 0 5.9794652824697145 -2.4775123948748794 0 -2.4775123948748794 2.317985635648534 0 0 0 0 24.964248298336315 19.851011761639711 0 19.851011761639711 -132.99111156268759 0 0 0 0 100.87063738660072 123.89667229152292 0 123.89667229152292 -22.343198306714839 0 0 0 0 2.1222757169525721 67.746280461384458 0 67.746280461384458 -26.693134172835471 0 0 0 0 5.4491127660560679 -0.13221778875560508 0 -0.13221778875560508 -2.8099474108836908 0 0 0 0 -17.913360211598956 26.465840037361886 0 26.465840037361886 -4.8009190991447213 0 0 0 0 -15.120552828910675 64.068780722637982 0 64.068780722637982 36.758455242275886 0 0 0 0 -180.18710767207722 73.746788106069289 0 73.746788106069289 123.83763347963486 0 0 0 0 -16.15344324696207 52.673793363384448 0 52.673793363384448 49.825614667629452 0 0 0 0 177.58220504412748 157.04356837875366 0 157.04356837875366 76.497996470032831 0 0 0 0 43.920464045262179 -26.804010182080219 0 -26.804010182080219 109.28963291240711 0 0 0 0 -460.80633178219023 20.577908844172725 0 20.577908844172725 120.84579866851982 0 0 0 0 517.9592066079108 -139.94314945733504 0 -139.94314945733504 -44.758902461185244 0 0 0 0 518.03592479121653 -153.327357810183 0 -153.327357810183 30.278224588889316 0 0 0 0 547.61088624876356 -119.24058528216256 0 -119.24058528216256 -111.03307623125511 0 0 0 0 1021.8948791886046 -298.05278817459612 0 -298.05278817459612 -51.360669848711296 0 0 0 0 14.382498841261601 4.3680888353529532 0 4.3680888353529532 1.7279590571692829 0 0 0 0 604.81463850884393 -552.8190009959651 0 -552.8190009959651 435.0820092419508 0 0 0 0 757.58824865227211 429.78573473693359 0 429.78573473693359 254.62475242960954 0 0 0 0 1253.6959009714074 -225.56889305928689 0 -225.56889305928689 -165.02816065903869 0 0 0 0 601.65235858353162 467.45483164617735 0 467.45483164617735 171.4254570506655 0 0 0 0 91.445193671172319 228.1245727402179 0 228.1245727402179 408.19008704713178 0 0 0 0 -49.495083284114003 164.72693158086793 0 164.72693158086793 7.9880943936377662 0 0 0 0 -53.194445757748895 -101.5469755635803 0 -101.5469755635803 -140.77763188552308 0 0 0 0 -8.6235349542675976 -294.9123271595663 0 -294.9123271595663 696.52572386568318 0 0 0 0 -701.55607443135295 -325.06937419090991 0 -325.06937419090991 176.00887782325481 0 0 0 0 246.78607250870584 22.739186403560325 0 22.739186403560325 37.654201209074699 0 0 0 0 344.77872164141968 25.502630812868347 0 25.502630812868347 -0.93632025793067442 0 0 0 0 4.5979863644983334 -7.699708642009246 0 -7.699708642009246 8.7343861839667767 0 0 0 0 343.41901084396642 77.625505279406298 0 77.625505279406298 94.337314026886361 0 0 0 0 323.74103781579129 -106.81259349228185 0 -106.81259349228185 -118.50585331416323 0 0 0 0 -0.012193533686356728 -1.311013986540855 0 -1.311013986540855 4.0609146518631647 0 0 0 0 259.04154351016587 -3.7328020013537753 0 -3.7328020013537753 2.7362629866055386 0 0 0 0 150.38494688428355 -56.487201660627932 0 -56.487201660627932 38.39314831165575 0 0 0 0 9.182658657814045 -36.11417342027562 0 -36.11417342027562 1.9778784868985895 0 0 0 0 -11.900753050713391 -13.35407328149887 0 -13.35407328149887 19.233034572418546 0 0 0 0 5.5325426410747811 9.0621444611121031 0 9.0621444611121031 10.329875757910765 0 0 0 0 17.420170817110375 55.374854908107864 0 55.374854908107864 -115.60347157537672 0 0 0 0 35.996805865739134 -7.0266790146256426 0 -7.0266790146256426 2.3108916208784649 0 0 0 0 36.04376241058435 36.938693043584863 0 36.938693043584863 -14.552389844056052 0 0 0 0 7.3782130993563442 -6.0244217590252447 0 -6.0244217590252447 14.715181436790317 0 0 0 0 4.4279653372109387 4.617752531490769 0 4.617752531490769 -1.1370684699896429 0 0 0 0 57.457815542772323 -12.100152024229374 0 -12.100152024229374 -23.956915777745962 0 0 0 0 28.655642959089164 -7.7239242472378464 0 -7.7239242472378464 -2.8260338529198634 0 0 0 0 70.42178326163139 -15.657862267922155 0 -15.657862267922155 -9.8183872123518086 0 0 0 0 0.019214352550678965 0.61906351133457127 0 0.61906351133457127 0.29690488521827874 0 0 0 0 29.068356936447344 13.074611737976966 0 13.074611737976966 -0.55350116011413775 0 0 0 0 33.40689816785698 -12.831800949846183 0 -12.831800949846183 -2.2711492166627067 0 0 0 0 43.650578791698308 -4.5136755087032725 0 -4.5136755087032725 -5.4094226055940453 0 0 0 0 3.2778036627423632 -0.63721853839047338 0 -0.63721853839047338 0.81201753478779182 0 0 0 0 23.091536589099178 -9.7669751409421224 0 -9.7669751409421224 2.5988564436174784 0 0 0 0 17.909470583575398 -3.2081818890983413 0 -3.2081818890983413 3.6219389436191705 0 0 0 0 30.597504942521482 1.3597564082915596 0 1.3597564082915596 -0.65109241909703996 0 0 0 0 26.230233957894143 14.576061471710091 0 14.576061471710091 0.012975411447087026 0 0 0 0 16.014690859202801 -20.366588486772798 0 -20.366588486772798 -5.8675801887920898 0 0 0 0 5.1668835814852034 -1.3155844274536683 0 -1.3155844274536683 -0.55358026730368337 0 0 0 0 17.810370310009375 12.177968083567066 0 12.177968083567066 2.1989264651274425 0 0 0 0 82.918672060469362 -47.45474017068409 0 -47.45474017068409 0.88346433253173018 0 0 0 0 98.737452463312366 -27.396384643732745 0 -27.396384643732745 -16.263339010798518 0 0 0 0 33.040974259863106 12.248156859644951 0 12.248156859644951 -1.8063699944395921 0 0 0 0 17.185444273883604 0.32903131403963926 0 0.32903131403963926 -0.97533445192311774 0 0 0 0 24.091021721182187 -7.854271340390369 0 -7.854271340390369 -8.7892876798578072 0 0 0 0 20.119777909000241 -0.39108486241515195 0 -0.39108486241515195 -7.5850306273239285 0 0 0 0 67.540991957531332 -32.676074361883366 0 -32.676074361883366 42.192477460213013 0 0 0 0 25.634569361293643 14.590117426578777 0 14.590117426578777 -7.6328150108517887 0 0 0 0 34.075436518876813 -14.014149479258776 0 -14.014149479258776 -15.386047165691707 0 0 0 0 9.0701948382995674 -1.2583088514938998 0 -1.2583088514938998 -2.3847718583582314 0 0 0 0 21.727426029995286 -0.93468003507905451 0 -0.93468003507905451 -3.6118982822717953 0 0 0 0 42.153131985787013 2.7323479019187289 0 2.7323479019187289 -9.1648517352878116 0 0 0 0 9.3515139134230161 -2.6631031994159859 0 -2.6631031994159859 -5.3568356938791872 0 0 0 0 25.899337530151115 0.99410026119142003 0 0.99410026119142003 -3.1618575064649121 0 0 0 0 26.50838523693119 -0.78136567642877708 0 -0.78136567642877708 -0.85968242644082693 0 0 0 0 9.8109412165600034 4.0384376288231225 0 4.0384376288231225 -3.7054921571326425 0 0 0 0 16.727519639939359 -0.035063427994499463 0 -0.035063427994499463 -6.1209734574983319 0 0 0 0 13.978030847626634 1.5091062684694982 0 1.5091062684694982 -2.252022459814905 0 0 0 0 -1.4868383368880986 -0.20387114961842379 0 -0.20387114961842379 1.2284182292598205 0 0 0 0 117.88669944512606 299.9167963770451 0 299.9167963770451 -345.76309561060589 0 0 0 0 38.199153626017278 77.431181518202266 0 77.431181518202266 5.678849745891057 0 0 0 0 96.062936194126451 31.501657360195168 0 31.501657360195168 -315.32992884789383 0 0 0 0 149.13527548752609 -104.04025899768749 0 -104.04025899768749 22.201189139466805 0 0 0 0 -19.280215457950362 -8.06420298112198 0 -8.06420298112198 -31.299635424626103 0 0 0 0 -242.26276317991642 -146.52974601446476 0 -146.52974601446476 45.70324181288106 0 0 0 0 42.812310269095178 -353.63572695526045 0 -353.63572695526045 125.39587076546741 0 0 0 0 650.13875861161659 -258.54023576031159 0 -258.54023576031159 -249.37546222182209 0 0 0 0 -556.25290519015107 -266.20471493224568 0 -266.20471493224568 131.7481835342096 0 0 0 0 595.31883303821189 222.3082390764057 0 222.3082390764057 -46.350021638040744 0 0 0 0 0.84824313000653806 -2.0254232518882471 0 -2.0254232518882471 4.2193363690156396 0 0 0 0 0.88696450811937044 -1.1247991934553552 0 -1.1247991934553552 3.4465505213476639 0 0 0 0 573.66886036475546 93.524852878865204 0 93.524852878865204 -100.62485198086162 0 0 0 0 95.849202201000523 -138.66606645394575 0 -138.66606645394575 250.55983822494181 0 0 0 0 
</DataArray>
<DataArray type="Float64" Name="cross_section_updated" format="ascii">
1 1 1 1 1 0.010105529579770837 1 1 1 1 0.010315452495331029 1 1 1 1 1 1 1 1 0.010226137542904501 1 1 1 1 1 1 1 0.011021145138204928 1 1 1 1 0.011429272795152714 1 1 1 1 0.011806984790148974 1 1 0.014750314137323785 1 1 1 0.009995265684136119 1 1 0.014823333274727749 1 0.0088913465208066769 1 1 1 1 1 1 0.0099998226632379492 1 1 0.014112020050167616 0.013484561404218741 1 1 1 1 1 1 1 1 1 1 1 0.0095401695120943715 1 0.0099101442294830498 1 1 1 1 1 1 1 1 1 1 1 1 1 1 1 1 1 1 1 1 1 1 1 1 1 1 1 1 1 1 1 1 1 1 1 1 1 1 1 1 1 1 1 1 1 1 1 1 1 1 1 0.0125405049292566 0.010052716584075392 1 1 1 1 1 1 1 0.01045525691388598 0.010079245318082786 1 1 1 1 1 1 1 1 1 1 1 1 0.0096178585188318559 1 1 0.0096662451851765949 1 0.0098719270913844633 1 1 1 1 1 1 1 1 1 1 1 1 1 1 1 1 1 1 1 1 1 1 1 1 1 1 1 1 1 0.010134459387964511 1 1 1 1 0.01016138417701932 1 1 1 1 1 1 0.010006386479348981 1 1 1 0.011425433574966552 1 1 0.010701500501890794 1 1 1 1 1 1 1 1 0.0097267829835821877 1 1 0.0099523495475205316 1 0.0099307766609492785 1 0.010185585070984566 1 1 1 0.0099702196865671631 1 1 1 1 1 1 1 1 1 0.00995104167025972 1 1 0.0094331073055370224 1 1 0.0089263631566619817 1 1 1 1 1 1 1 1 1 1 0.01195966006980265 1 1 1 1 1 1 1 1 1 1 1 1 1 1 1 0.011036814128115082 1 1 0.0099951100380957347 0.010088799301130623 1 1 1 0.010160384966291625 0.01279535458048911 1 1 1 1 1 1 1 1 1 1 0.010050080178678637 1 1 1 0.010017219136243774 1 1 1 1 1 1 1 1 1 1 1 1 1 1 1 0.010923584646816954 1 1 1 0.010045456556505563 1 1 1 1 1 1 1 1 1 1 1 1 1 1 1 0.0090948957552699789 1 1 1 1 0.006751216595065267 1 1 1 1 1 1 1 1 1 1 1 1 1 1 1 1 1 1 1 1 1 1 1 1 1 1 1 1 0.0084315904002195442 0.011027890478990627 1 1 1 1 1 1 1 1 1 1 1 1 0.010444840802434492 1 0.0135631885982067 0.0090440818335183262 1 0.011302392440054338 1 0.010996134394831873 1 1 1 1 1 1 1 1 0.010261290821573073 1 1 1 1 1 1 1 1 0.010894744984350169 0.010018581362686317 0.012165848905903835 1 1 1 1 1 0.012831231657386291 1 1 1 0.011746730658558141 1 0.011507769880891933 1 1 1 1 1 1 1 1 1 1 0.013464595443164008 1 1 1 1 1 1 1 1 0.019756847142447728 1 1 0.018797242824854246 1 0.0093483428874672758 1 1 1 0.003675114634936574 1 1 1 1 1 1 1 1 1 0.019151376027140975 1 1 1 1 1 1 0.018399942561991268 1 1 1 1 1 1 1 1 1 0.010664796660233237 1 1 1 1 1 1 1 1 1 1 0.016204954269921586 1 1 1 1 1 1 1 1 1 1 0.012550413279593359 1 1 1 1 1 1 1 1 1 1 1 1 1 1 1 1 1 1 1 1 1 1 1 1 1 0.0098472791429497636 1 0.010825374048857002 0.009851730029499739 1 0.011894242866545994 0.012341594816283753 0.010570266933108792 1 1 1 1 1 0.011676898085593652 1 1 1 0.0099628671261119094 1 0.014642757509407286 1 1 1 1 1 1 1 0.020435491238388635 0.0074643500499864245 1 1 1 0.0059319680943304264 1 1 1 0.010109474027744342 1 1 1 1 0.0097558277863932768 1 1 1 0.012156751226436016 1 1 1 0.0094874183276899646 1 0.019456482245730038 1 1 1 1 0.011499832785211845 0.01147917676491932 1 1 1 1 0.011829344226778284 1 1 0.010126829608679732 1 0.013888166081507329 1 0.0083405205160303909 1 1 1 1 1 1 0.0086952721235603915 0.020922780365606103 1 1 1 1 1 1 1 1 1 1 1 1 0.015537073879405078 1 1 1 1 1 1 1 1 0.0078533158767468362 1 1 1 1 1 1 1 1 1 1 1 1 1 1 1 1 1 1 1 1 1 0.018172039887765737 1 1 0.00990322139440784 0.018390577205738307 1 1 1 1 0.0097666223908710534 1 1 0.010931150149120846 1 1 1 1 1 0.019676252454961102 1 1 1 1 1 1 1 1 1 1 1 1 1 1 1 1 1 1 0.019383242309744336 1 1 1 1 1 1 1 0.013218828286464347 1 1 1 1 1 1 1 0.011975181683914418 1 0.010047453221742154 0.0063355344666011608 0.0099238392789128896 1 1 1 1 1 1 1 1 0.0079616682648803762 1 0.0093351564645973804 1 1 1 1 1 1 1 1 0.010311147592787936 1 1 1 1 1 0.010976442515158674 1 1 1 1 1 0.0093591334703001065 0.01024235198199289 1 0.0086940723858030255 1 1 1 1 1 0.0099939303473098404 1 1 1 0.0088691293101903403 1 1 0.011738548419026419 1 0.01091172405407855 1 1 1 1 0.0080420596848851285 1 1 0.0097881862771104777 1 0.008949477683550297 1 1 1 1 1 1 1 0.0099624135916530545 1 1 1 1 1 1 1 0.011541348060747244 1 1 1 1 0.013277170073767205 1 1 1 1 1 1 1 1 1 1 1 1 1 0.011645720516964787 0.010328115507671142 1 1 0.010000283727689067 1 1 1 1 1 1 1 1 1 1 0.0099177879733137533 1 1 1 0.0099591344876324601 1 1 1 1 1 1 1 1 1 1 1 1 1 1 1 1 1 1 1 1 0.010034289999387882 1 1 1 1 1 1 1 1 1 1 1 1 1 1 1 1 1 1 1 1 1 1 1 1 1 1 1 1 1 1 1 1 1 0.0087613941778329554 1 1 1 1 1 1 1 1 1 1 1 1 1 1 1 1 1 1 1 1 1 0.015261983032187133 1 1 0.010560561064728875 1 0.010119968670920765 1 1 1 1 0.012555284367942229 1 1 1 0.016370596906388084 1 1 1 1 1 1 1 1 1 1 1 1 1 1 1 1 1 1 1 1 1 1 1 1 1 1 1 1 1 1 1 1 1 1 1 1 1 1 1 1 1 1 1 1 1 1 1 1 1 1 1 1 1 1 1 1 1 1 0.0098021588516004048 1 1 1 1 1 1 1 1 0.010688538181132964 1 1 1 1 1 1 1 1 1 0.010749098238119375 1 1 1 1 1 1 1 1 0.0093332876347200985 1 1 0.0099929718577764261 1 1 1 1 1 0.010082170579215111 1 1 0.010455990793749226 1 1 0.013503970535561812 1 0.0086857981972293802 1 1 1 1 1 1 1 1 1 0.010904206579936035 1 1 0.011675936302063929 1 0.009909024483516304 1 1 1 1 1 1 1 1 0.011518992878500264 1 1 1 1 0.010283805358299775 1 1 1 1 1 1 1 0.010319048737993247 1 1 1 1 1 1 1 0.011816030048374931 1 1 0.012640885454900982 1 0.010034860804857174 1 0.0098083480275431133 1 0.011576922062628371 1 0.010893874518838793 0.010003681377189145 1 1 1 0.0096880416354582725 1 1 1 0.011502311587052578 0.011688512974199112 0.011986855178351345 1 1 1 1 1 1 0.010590469896881713 0.010417725785474157 1 1 1 1 1 1 1 1 1 1 1 0.010854196218267035 1 1 1 1 1 1 1 0.010267925478351382 1 1 0.010528707669623442 1 0.0090554335588728108 1 1 1 0.011286553704028385 1 1 1 0.011286143968860619 1 1 1 1 1 1 1 0.0098350408809203867 1 1 1 1 1 1 1 1 1 1 1 1 1 1 1 1 1 1 1 1 1 0.011826440675853528 1 1 1 1 1 1 1 0.010188377771498745 1 1 1 1 0.010692564603937565 0.010381803293028524 0.012587975204419167 1 1 1 1 0.01024648496545188 1 1 1 1 1 1 1 1 1 1 1 1 1 1 1 1 1 1 1 1 1 1 1 0.012057649962420199 1 1 0.010730875440448717 1 1 1 1 1 1 1 1 1 1 1 1 1 1 1 1 1 1 1 1 1 0.013023032236035572 0.012745321538291221 1 1 1 1 1 1 1 0.010597779895282461 1 1 1 0.011171776888711522 1 1 1 1 1 1 1 1 1 1 1 0.010134894054757183 1 1 1 1 1 1 1 1 1 0.017951685304068217 1 1 1 1 1 1 1 1 0.013261580213390493 1 1 1 1 1 1 1 1 1 1 1 1 1 1 1 1 1 1 1 1 1 1 0.0087125466187178268 1 1 1 1 0.0096435710675566756 1 1 1 1 1 1 1 1 0.012210284564674977 1 1 1 1 1 1 1 1 1 1 1 1 0.0090605274695061411 1 1 1 0.0072869627351976728 1 1 1 1 1 1 1 1 1 1 0.0099098027809023104 1 1 1 1 1 1 1 1 0.010077169121388433 1 1 1 1 1 1 1 1 1 1 1 1 1 1 1 0.012151027774671131 1 0.012235549075071092 1 0.010927570161906545 1 1 0.013009468621843785 1 1 1 1 1 1 1 1 1 1 1 1 1 1 1 1 1 1 1 1 1 1 1 0.010796564533574013 1 1 1 0.016510345325917268 1 1 1 1 1 0.016445625546063273 1 1 1 0.016551822288150213 1 1 1 1 0.00076186565690791741 1 1 1 1 1 1 1 0.0088176542916961805 0.0083559763415631799 0.014744546377465145 1 0.0096462963170836653 1 1 0.0099262219662692806 1 1 1 1 1 1 1 1 0.013444747977446164 1 1 1 1 0.020119482200709801 1 1 1 1 1 1 0.0077144692639423548 1 1 1 1 0.0026773280750865217 1 1 1 1 1 0.0095608671645745352 1 1 1 1 1 0.021295786901459703 1 1 1 1 0.013160822501287681 0.01810955152024861 1 1 1 0.016223755323597915 1 0.015632625641387548 1 0.013181828149263171 1 1 1 1 1 0.017190638468161948 1 0.014078984347400949 1 1 1 1 1 0.010019763131531675 1 0.012283827356064966 1 1 1 1 1 1 1 1 1 1 1 1 1 1 1 1 0.010464632772917809 1 0.010996851598174996 1 1 1 1 1 1 1 1 1 1 1 1 1 1 1 1 1 1 1 0.010050186047502236 0.010380805324169981 1 1 0.018358938105369482 1 1 1 1 0.014058104317610178 1 1 0.0099115186451530102 1 1 1 0.016395589957809455 1 1 1 0.019172780330784414 1 0.011395332950267482 1 1 1 0.0098679991890436997 1 1 1 1 1 1 1 1 0.01027838129510485 1 1 1 1 1 0.017769741333085346 0.010193246290264078 1 1 0.018345312308244599 1 1 1 0.011193254116838766 1 1 1 1 0.010294887762004854 1 1 1 1 1 1 1 1 0.010682679719775169 1 1 1 1 1 1 1 0.0099935661115253989 1 1 1 1 1 1 1 1 1 1 1 1 1 1 1 1 1 1 1 1 1 1 1 1 1 1 1 0.01148478435902392 1 1 1 1 1 1 1 1 1 1 1 1 1 1 1 1 1 1 1 1 1 1 0.014111089663621987 1 1 1 1 1 1 1 1 1 1 1 1 1 1 1 1 1 1 1 1 1 1 1 1 1 1 1 1 1 1 1 1 1 1 1 1 1 1 1 1 0.0094200107124130777 1 1 1 1 1 1 1 1 1 1 1 1 0.01020600605568095 0.0099021692455394123 1 1 1 1 1 1 1 0.011019245885741547 1 1 1 1 1 1 1 1 1 1 1 0.011548978233578283 1 1 0.011064227296006993 1 1 1 1 1 1 1 1 0.012543254228820805 1 1 1 1 1 1 1 1 1 1 1 1 0.011174545805744517 1 1 1 1 1 1 1 1 0.013074214720505246 1 1 1 1 1 0.011273108228615875 1 1 1 1 1 0.010861614504691227 0.019216892937130328 1 1 1 1 0.017677096318834028 1 0.013116499975542022 1 0.013795273117419887 1 1 1 0.010342245700378592 1 0.014271317307620412 0.013879092256576069 1 1 1 1 1 1 1 1 1 1 0.012177828937561301 1 1 0.011649735948431765 0.010699181484002427 1 1 0.011344744711030702 0.014592283171923464 0.0099002629738660138 1 1 1 1 1 1 1 0.011164150096437475 1 1 1 1 1 1 0.018662569276774541 1 1 1 1 1 1 1 1 1 1 0.01037253005657722 0.010321331381638687 1 1 1 1 1 1 1 1 1 1 0.020380632322554059 0.010422085040113258 1 1 1 1 1 1 1 1 1 0.02012851960018109 1 1 1 1 1 0.019831101322440953 1 1 1 0.019169993359885673 1 1 1 1 1 1 1 0.010132720238644697 1 1 1 1 1 1 1 0.010937787692904441 1 1 1 0.010453930951828011 1 1 1 1 1 1 1 1 1 0.010483856741076431 1 1 1 1 1 1 0.010015403208270405 1 1 1 1 0.01005876118519561 1 1 1 1 0.018921706105396972 0.018475245829745933 1 1 1 1 0.008284425042845182 1 1 1 0.010059375858423172 1 0.013064772977633834 1 1 1 0.013934955216614824 1 1 1 1 0.010010955957458035 1 1 1 1 0.015418558927851381 0.010000114129937742 1 0.01579832751683443 1 1 1 1 1 1 1 1 1 1 1 1 1 1 1 1 1 1 1 1 1 1 1 1 0.0099438342742389843 0.0099905496247613412 1 1 1 1 1 1 1 1 1 1 1 1 1 1 1 1 1 1 1 0.01047375301220442 1 1 0.0099960873090392914 1 1 0.011221165378273119 1 0.013011531516030815 1 1 0.010212121947768984 1 1 1 1 1 0.0089129758070985547 0.009305154308114608 1 1 1 1 1 0.010010305906428298 0.0098600613054109151 1 0.0090567634554990575 0.013463900857717167 1 1 1 0.010375716649393969 0.015569211699290583 1 1 1 1 1 1 1 1 1 0.013766197187221895 1 0.014787930933510562 1 1 1 0.010515819437213657 1 1 1 1 1 0.018250007039829763 1 1 1 0.011000842488923086 0.014003153994815908 1 1 0.014682396480964444 1 0.0099793925744211184 1 1 0.012888029598317094 1 1 1 0.019415155070337749 1 0.019044144875675989 1 1 1 1 0.012190189358255235 1 1 1 1 0.0099996383392777135 1 1 1 1 0.0098204924227558391 0.014186643390317989 1 1 0.011967581200299081 1 1 1 1 1 1 0.010152750196219229 1 1 0.009321284524615215 1 1 1 0.0094059143077728242 1 1 1 0.01007788742659739 0.010507430149928552 1 1 1 1 1 1 0.010349802554929533 1 1 1 1 0.01139728405446124 1 1 1 1 1 1 0.010158009064147577 1 0.016476711922389996 0.013296321849716998 1 1 0.0099409754734698721 1 1 1 1 1 1 1 1 1 0.017762220986089684 1 1 0.013696250172303623 1 1 1 0.011837945870142376 1 0.013911505493547626 1 1 1 1 1 1 1 0.010637584314069299 0.012195204411921292 1 1 1 0.010233467424782207 1 1 1 1 1 1 1 1 1 0.0097502741953577228 1 1 1 1 1 1 1 1 0.010695157262707256 1 1 1 1 1 1 1 1 1 1 1 1 1 1 0.012360745352174187 1 1 1 0.010789041736690133 1 1 1 1 0.012040207314640523 1 1 0.016401318453358946 1 1 1 1 1 1 1 1 1 1 1 1 1 1 1 1 0.01011400037189665 1 1 1 1 1 1 1 1 1 1 1 1 1 1 1 1 1 1 0.010162855780433369 1 1 1 0.010434002737005158 1 1 1 1 1 1 0.013799002571249434 0.010666037893480154 0.011138666659517397 1 1 1 1 1 1 1 1 1 1 1 1 1 0.013958854503991156 1 1 1 1 1 0.010104776652343916 1 1 1 1 1 0.01062172501211253 1 1 1 1 1 0.010258426592372766 1 1 1 1 1 0.013503483565132438 1 1 1 1 1 1 0.013504477442672903 1 0.011455456740086797 1 1 1 1 0.010489203298851835 1 0.013642753536127976 1 1 1 1 1 1 0.010104166170381991 1 0.011010294618821137 1 1 1 0.012469077532348933 1 0.013058304518181105 1 1 0.011036563416595415 1 1 1 1 1 1 1 1 1 1 0.013437583770054943 0.010538290518515989 1 0.011754019557982012 1 1 0.0097497065969672694 1 0.010082478385156026 1 1 1 0.012906041368157779 1 0.012006111183198311 1 1 0.010329168457994623 1 0.011118667971350315 0.011896235125688201 1 1 1 0.010036926245072318 1 0.010682775818945462 1 1 1 1 0.010690859227827081 0.010638327281693932 1 1 1 0.011226382890329453 1 1 1 1 1 0.01188244656490222 1 0.010853839244938518 1 1 1 1 1 1 0.010339413903347812 1 1 1 1 0.010151238730952153 1 1 1 1 1 1 1 1 1 1 1 1 1 1 0.010038359663231654 1 1 1 1 1 1 1 1 1 0.010137150315151838 1 1 1 1 1 0.015562427747355695 1 1 1 1 1 0.017166581233886195 1 1 0.0076979621072747906 1 1 1 1 1 1 0.011258039056659532 1 1 1 1 0.009957495704262978 1 1 1 1 1 1 0.011255801559105888 1 0.010337770111970061 1 1 0.011577363099144977 1 1 0.011603238894480783 1 1 1 1 0.010533369521650411 1 1 1 1 1 1 1 1 1 1 1 0.010405684553439043 1 1 1 1 1 1 1 0.010555729573757075 1 1 1 0.012093222825890964 0.012542607743304464 1 1 1 0.010507953417051796 1 1 0.0099296758397213747 0.011695741187924817 1 1 1 1 0.0099998590742379368 0.010639090376064454 1 1 0.012221525076693471 1 0.012914000016515235 1 1 1 1 0.0099963134946146684 1 0.010056736728039514 1 1 1 1 1 1 1 1 1 1 0.010311060397868881 1 1 1 1 1 1 0.0098760895957198253 1 1 1 0.015302634303139911 1 1 1 1 1 0.014560711333837843 1 1 1 1 0.0082520209187289355 1 1 1 1 0.010369322554205619 1 1 1 0.01102563272585895 1 1 1 1 1 1 1 1 0.013768951507158241 1 1 0.0081387643315408518 1 1 0.010004501838565993 1 0.0090614549341536694 1 1 1 1 1 1 1 1 1 1 1 1 1 0.010579827848232047 1 1 0.0088546670938108377 1 0.0094508697651191215 1 1 1 1 1 1 1 1 1 1 1 1 1 0.010669428364585745 1 1 1 1 1 1 1 1 1 1 1 1 1 1 1 0.0090172478314641952 1 1 1 0.0095265849838165762 0.00987850649294293 1 1 0.0099906803935664087 1 1 0.009978050247126051 1 1 1 1 1 1 1 1 1 0.0099873557487095838 1 1 1 1 1 1 1 1 1 1 1 1 1 1 1 0.012087205249752049 1 1 0.010363101638942229 1 1 1 1 0.01171719104031365 1 0.010002314546161096 0.010247537942448015 0.012358004802105763 1 1 1 0.015551141426061788 1 1 1 1 0.010028680366138056 1 1 0.010652205991486811 1 0.012116352639019942 1 0.011976661341963887 0.010489868319960365 1 1 1 1 1 1 1 1 1 1 1 1 1 1 1 1 1 1 1 1 1 1 0.010358261403973366 1 1 1 1 0.013500242451122236 1 1 1 1 1 1 1 1 1 1 1 1 0.010636948289811019 1 1 1 1 1 1 1 1 1 1 0.010434373013764471 1 1 1 1 1 1 1 1 1 1 1 1 1 0.0096798118210488053 1 1 0.011478845606639757 1 1 1 1 1 1 1 0.011346010627673223 0.0089849291179235277 1 1 0.010840429445440149 1 1 1 1 0.010268074853775403 1 1 0.011868906135126325 1 1 1 1 1 1 1 1 1 1 1 1 1 1 0.010505521049265405 1 1 1 1 1 1 1 1 0.011564859269619129 1 1 1 1 1 1 1 1 1 1 1 1 1 1 1 1 0.010126822853909779 1 1 0.011444222846624372 0.010018174186027099 1 1 1 0.0099736860382653742 1 1 1 0.010498590592784365 1 1 0.010358714053370074 1 1 0.010022375291282935 0.010056804382259135 1 1 1 1 0.0093977550186987065 1 1 1 0.01000554964976802 1 1 1 1 0.010837324809385887 1 1 1 1 0.010757677262290155 1 0.0099948787623799842 1 0.0099198422080588322 1 1 1 1 1 1 0.012913525104952479 1 1 1 0.012298049409708633 1 1 1 0.010237467719682111 1 1 0.011009518102536121 1 0.010021037332323927 1 1 1 0.010066926929140083 1 0.01055312447525094 0.011447153391042774 1 1 1 1 0.01016740613218127 1 1 1 0.010187961901848147 1 1 1 1 1 1 1 1 1 1 1 1 1 1 1 1 1 1 0.01030961176853148 1 1 1 1 1 1 1 0.0096757137483136496 1 0.0099994364713394748 0.01261539822615209 0.010370324160501456 1 1 1 1 0.012250914135665071 0.010932055504919158 0.010010231701158737 1 1 1 1 1 1 1 1 1 1 1 1 1 1 0.015938007239055765 1 1 1 0.010088183352836767 1 1 0.013804217124032861 1 1 1 1 1 1 0.01273597261642216 1 1 1 1 1 1 1 1 0.012917515771237811 0.0090151467738391784 1 1 1 1 1 0.014445977572516616 0.012376468860338087 1 0.010631740012032242 0.0090680260016621824 1 1 0.0134302879479248 1 0.0090610901524756909 1 1 1 1 1 1 1 1 1 1 0.010758147677484052 0.010016088598324618 1 1 1 1 1 1 1 1 1 0.0098930045587841912 0.01282981604334197 1 1 1 0.012774810709528198 1 1 1 1 1 1 1 1 1 1 1 1 1 1 1 1 1 1 1 1 1 1 1 1 1 1 1 0.01780537897755758 1 1 1 0.012494168417929732 1 0.011403781014080329 1 1 1 1 1 0.014537109587703323 1 0.013060266648976991 1 1 1 1 1 0.013442416631930895 1 0.013140700287831958 0.009147836905917018 0.013733940183264917 1 1 1 1 1 1 1 1 1 1 1 1 1 1 0.0096820182704727975 1 1 1 1 0.010841087206456192 1 1 1 1 1 1 1 1 1 1 1 0.012238031404986867 1 1 1 1 1 1 1 1 1 1 1 1 1 1 1 1 1 1 1 1 1 1 1 1 1 1 1 1 1 1 1 1 1 1 1 0.010073206383680457 1 1 1 1 1 1 1 1 1 1 1 1 1 1 1 1 0.010009227850569635 1 1 1 0.0099890888662914328 1 1 1 1 1 1 0.0099798707286111767 1 1 1 1 1 1 1 1 0.010356499713353687 1 1 1 1 1 1 1 1 1 1 1 1 1 0.010797878941594265 1 1 1 1 1 1 1 1 1 1 0.010441727441440255 1 1 1 0.010016392358797664 1 1 0.010000464427045046 1 1 1 1 1 1 1 1 1 1 1 0.012223050235284555 1 1 1 1 1 0.0099915200256511984 1 1 1 1 1 0.014572141890117664 0.011552461455198421 1 0.009923012910552774 0.017530682863241505 1 1 1 1 1 1 1 1 1 1 1 1 0.013342997896601962 1 1 1 1 1 0.0099198595559729028 1 1 1 1 1 1 1 0.012588538807257015 0.012494890260781891 1 1 0.01146483046910373 1 1 0.013799724692953617 1 0.012211834507484295 1 0.012159664822987162 1 1 1 1 1 1 0.011366118301900442 0.014610567289138572 1 1 0.020672228270285888 1 1 1 0.0098013755847736507 1 1 1 1 1 1 1 1 1 0.011683099002704977 1 1 1 0.011402000939249406 1 1 0.00831731828964603 1 1 1 0.010731865992951641 1 1 1 1 1 1 1 1 0.0094435737184523066 1 1 1 1 1 1 1 1 1 1 1 1 1 1 1 1 1 1 1 1 0.01055381204386098 1 1 1 1 0.010315618974185389 1 1 1 1 1 1 1 1 1 1 1 1 1 1 1 0.011375029421072561 1 1 1 1 1 1 1 1 1 1 1 1 1 1 0.013586510702659024 1 1 1 1 1 0.009988115765442793 1 0.0092701913537911636 0.012464639201026334 1 1 1 0.011953553423363607 1 1 1 1 1 1 1 1 1 1 1 1 1 1 0.011714691518448919 1 1 1 1 1 1 1 1 1 1 1 1 1 1 1 1 1 1 0.010884582895531283 1 1 1 1 1 1 0.01098256802985674 1 1 1 1 1 1 0.0108112226635014 1 1 1 1 1 1 1 1 1 1 1 1 1 1 1 1 1 1 1 1 1 1 1 1 1 1 1 1 1 1 1 1 1 1 1 1 1 1 1 1 1 1 1 1 1 1 1 1 1 0.010144962415150298 1 1 1 1 1 1 1 1 1 1 1 1 1 1 1 1 1 1 0.010466844269315548 1 1 0.010024346235847911 1 1 0.011309503505155796 1 1 0.010591924287909515 1 1 1 1 1 1 1 1 1 1 1 1 1 1 1 1 1 1 1 1 1 1 1 1 1 1 1 1 1 1 1 1 1 1 1 1 0.010378948216579182 1 1 1 1 1 1 1 1 1 1 1 1 1 1 0.012824708388255172 1 1 1 1 1 1 1 1 1 1 1 1 1 1 1 1 1 1 1 1 1 1 1 1 1 0.01126494934619536 1 1 1 1 1 1 0.011261208792790224 1 1 1 1 1 1 1 1 0.012565118395145923 1 0.01601121733828624 1 1 1 1 1 1 1 1 0.010001018716703485 1 0.011136648256675912 1 1 1 1 0.0098058763127040986 0.010001205331457062 1 1 1 1 0.010734788012766183 1 1 1 1 0.01000064207416825 1 0.01017723018095599 1 1 1 1 0.0099965875495096786 1 0.010247828650460231 1 1 1 1 0.010382606929095687 1 1 1 1 1 0.010018795271630569 1 0.018088512962267357 0.0090039410088090487 1 1 0.012539312206937742 1 1 1 1 0.01396327461335313 1 1 0.0099584123423895939 1 0.010087999422684922 1 1 1 1 1 1 1 1 1 1 1 1 1 1 1 1 1 1 1 1 1 0.010645543723722874 1 1 1 1 1 1 1 1 1 1 1 1 1 1 1 0.010000954868600625 1 1 0.0098902106623517533 1 1 1 1 1 1 1 1 1 1 1 1 1 0.010017622666110872 1 1 1 1 1 1 1 1 1 1 1 1 1 1 1 1 1 0.0096249232135305861 1 1 1 1 1 1 1 1 1 1 1 1 1 0.0092781045381904667 1 1 0.013766428448451627 1 1 1 1 1 1 1 1 0.009975088821383751 1 1 1 1 1 0.013746480214577778 1 1 0.013580978915730499 1 0.01396574717885072 1 1 1 1 1 1 1 1 1 0.01399666315496173 1 1 0.01398179601286096 1 1 1 0.009786794603929708 0.011008806186838936 1 1 1 1 0.010116857234820482 1 1 1 0.010109502233518319 1 1 1 1 1 1 1 1 1 1 1 1 1 1 1 1 1 1 0.011869509062630929 1 1 1 1 1 1 1 0.01431072833575435 1 1 1 1 1 1 1 1 1 1 0.013028745481779305 1 1 1 1 1 1 1 1 1 1 1 1 0.010330522856406926 1 1 1 1 1 0.010564417990682919 1 1 1 0.0097499936612429339 1 1 1 1 1 1 1 1 1 0.015225184848700092 1 1 1 1 0.0097771528943746168 1 1 0.013649662669422781 1 1 1 1 1 1 1 1 1 0.0096428187459168327 1 0.010357030727917865 1 1 1 1 1 1 1 1 1 1 0.0098233021711478866 1 0.010782455595360875 1 1 1 1 1 1 1 0.013331986285532834 1 1 1 1 0.01275179468986838 1 1 1 1 1 1 1 1 1 1 1 0.011608180078988646 1 1 1 1 1 1 1 0.0087986458198019545 1 1 0.0099996252915046536 0.01778344327499571 1 1 0.01586447157501392 1 1 0.012179894510315377 1 1 1 1 1 1 1 1 1 1 1 1 1 1 0.010193309961145073 1 1 1 1 1 0.010136014003101082 0.0090693874282157371 0.02004266144337986 1 1 1 1 1 1 0.0092672664648389205 1 1 1 0.01708176681247842 1 1 0.019280906085016383 1 1 1 1 1 1 1 1 1 1 1 1 1 1 1 1 1 1 1 1 1 1 1 1 1 1 1 1 1 1 1 1 1 1 0.010610724693922867 1 1 1 1 1 1 1 1 1 1 1 1 1 1 1 1 1 1 1 1 1 1 1 1 1 1 1 1 1 1 1 1 0.010122285156514654 1 1 1 1 1 1 1 1 1 1 0.012582043844267369 1 1 1 0.014817870903124492 1 1 0.012239497159538346 1 1 1 1 1 1 1 1 1 1 1 1 1 1 0.010579089870555208 1 1 1 1 1 1 1 1 0.017380996598487356 1 1 1 1 1 0.016718211803105152 1 1 1 1 1 1 1 1 0.012916378688358881 1 1 1 1 1 1 1 0.010122420146036848 1 1 1 1 1 1 1 1 1 1 1 1 1 0.009808829466439772 1 1 1 1 1 1 1 1 1 1 1 1 1 1 1 1 1 1 1 1 1 1 1 1 1 1 1 1 1 1 1 1 1 1 1 1 1 1 1 1 1 1 1 1 1 1 1 1 1 1 1 1 1 1 1 1 1 0.0097015122424850674 1 1 1 1 1 1 1 0.0098926827760452921 1 1 1 1 1 0.009989816541613232 0.016600598835271825 1 1 1 1 1 1 1 1 1 1 1 1 1 1 1 1 1 1 0.02342324252347032 0.0079864803462798908 1 0.021200625072895891 1 1 1 0.010130238928460837 1 1 1 1 1 0.019449165233597777 0.010837181259648604 1 1 1 0.012476551542235117 1 0.017765069150403632 1 1 0.0094673544022991218 1 0.010955783750568115 1 1 1 0.010126478872876703 1 1 0.01000072827921027 0.0078827871778216832 1 0.013639844361376762 1 1 0.013191620275902182 1 1 1 1 0.010560155960541776 1 0.009302831028252535 1 1 1 1 1 0.0099533659695344549 1 1 1 1 1 1 1 1 1 1 1 0.010632486748222966 1 0.011121298481620729 1 0.011243211442145839 1 1 1 1 1 1 1 1 1 1 1 1 1 1 1 1 1 1 1 1 1 1 0.0099731661142162982 0.013448659124587817 1 1 1 0.0081202800100626631 1 1 0.0099506619503943045 1 1 0.0093670486340535451 1 1 1 1 1 1 1 1 1 1 1 1 1 1 0.011027988483324192 1 1 1 1 1 1 1 1 1 1 1 1 1 1 1 1 1 1 1 1 1 1 1 1 1 1 1 1 1 1 1 1 1 1 1 1 1 1 1 1 1 1 0.0099413499347469157 1 1 0.0085931543837462123 1 1 1 1 1 1 0.0093747133630502216 1 0.0076102242780652519 1 1 1 0.0099370018583558456 1 0.0078691090443091406 1 1 1 1 1 1 1 1 0.046949580412489152 0.011198323372373812 1 1 1 1 1 1 0.022243127423015228 1 0.0076820836885267401 1 1 0.028014191944246831 1 0.021414345011604097 1 1 1 1 0.009462679231800615 0.0074940582098359122 1 1 1 1 1 1 0.0082068657322216555 1 1 1 1 1 1 1 1 0.010164483244345495 1 1 1 1 1 1 1 1 1 1 1 1 1 0.0099683898565552705 1 1 1 0.012361914844468681 1 1 1 1 0.010840449138584157 0.0067335598801882088 1 1 1 1 0.0062896446659462986 1 0.0071364321292216835 1 1 0.012734370321131287 1 1 0.010201869403574414 1 0.010314275391377546 1 1 1 1 0.0098020015206280314 1 1 1 0.0090225503050447992 1 1 1 1 1 1 1 0.012497913188854548 1 1 1 1 1 1 1 1 0.010226430538099716 1 1 0.011243955271753269 0.010894429482139905 1 1 1 1 0.010485695525392615 1 1 1 1 1 1 1 1 1 1 1 1 0.014043670530282621 1 1 1 1 1 1 1 1 1 1 1 1 1 1 1 1 1 1 1 1 1 1 1 1 1 1 1 1 1 1 1 1 1 1 1 0.033891962020881509 1 1 1 0.0099896969539519515 1 0.029945742270293486 1 1 1 1 1 1 1 1 1 1 1 1 1 1 1 1 1 0.031342593831819171 1 1 1 1 1 1 0.010132660507075061 1 1 1 1 1 0.010499354743106483 1 1 1 1 0.011463682160818542 1 1 1 1 1 1 1 0.012194775749532483 1 1 1 1 0.013552711955256831 1 0.010203234840606694 1 1 1 0.011360820699598003 1 1 0.021499475414771676 1 1 1 0.0037846673233250519 0.010797194611550842 0.014300798714819266 1 1 1 1 1 1 0.012425276593669982 1 1 1 1 1 1 1 1 0.014328910824552076 1 1 1 1 1 0.020337766906031639 1 1 0.012868758730660962 1 0.010892716861703282 1 1 1 1 1 1 0.012163145534676631 1 1 1 1 1 1 1 0.012937635005771065 1 1 0.012263106474810419 1 1 0.011545757341428075 1 1 1 1 1 1 1 1 1 1 1 1 1 1 1 1 1 1 1 1 1 1 1 1 1 1 1 1 1 1 1 1 1 0.011202376271526137 1 1 1 1 0.018536981051275568 1 1 1 1 1 1 0.016558036704709268 1 1 1 1 0.012427769740702626 1 1 1 1 1 1 0.0091699595344032596 1 1 1 0.0075200034712946265 1 1 1 1 1 1 1 1 1 1 1 1 1 0.013554028268908544 1 1 1 1 1 1 1 1 1 1 1 1 1 1 0.017346257414304223 1 1 1 0.018440909593934907 1 1 1 1 1 0.0059126686254466401 0.010145177851366583 1 1 1 1 1 1 1 1 0.018600990027557086 1 1 0.010535417859118176 1 1 0.015069507394783823 1 1 1 1 0.01049102090304781 1 1 1 0.0076283682758809257 0.017179268170791476 1 1 1 1 1 1 0.035899807602530975 1 0.0075285305894949375 1 1 1 1 1 1 1 1 1 1 1 1 1 0.0050161488140074376 1 1 1 1 1 1 1 1 0.035942119642545386 1 0.013759607231337095 1 1 1 1 0.025809228528124291 1 0.026364919199963803 1 1 1 1 1 1 1 0.017958956893160915 1 0.017389360242727882 1 1 0.010007918102905543 1 1 1 1 0.026558830398719584 1 1 1 1 1 1 1 1 1 1 1 1 1 1 1 1 1 1 1 1 1 1 1 1 1 1 1 1 1 1 1 1 1 1 1 1 1 1 1 1 1 1 1 1 1 1 0.010199033176691205 1 1 1 1 1 1 1 1 1 1 1 1 1 1 1 1 0.012369086765230672 1 1 0.010041328907441941 1 1 0.015813954186325654 0.016198525825988859 1 1 1 0.0096666610263034455 1 1 1 1 1 1 1 1 1 1 1 1 1 1 0.012417867996059413 0.014471122739051627 1 0.013710184821421379 0.0082906605233341573 1 0.0094025495393307689 0.010155810531735992 1 1 1 1 1 1 1 0.019621828860766289 1 1 1 0.013714753673739276 1 1 1 0.01104182173653045 0.010095622133203091 1 1 0.010908269964509451 1 0.0099984518801169518 0.01510861362619526 1 1 0.011667380328344622 0.013045168691208385 1 1 0.0099834930655321591 1 1 1 1 1 1 1 1 0.010087770737383581 1 1 0.009791369281409357 1 0.0091247782959106277 1 0.012922098821244401 1 1 1 1 1 1 1 1 1 1 1 1 0.010334289312596782 1 1 1 1 1 1 1 1 1 1 1 0.013035629184306542 1 1 1 1 1 1 1 0.015538157715707761 0.011531029425523611 1 1 0.014067091402048921 1 1 1 1 1 0.010873117645473159 1 1 1 1 1 1 1 1 1 1 1 1 1 1 1 1 1 1 1 0.010566538209486298 1 1 1 1 1 1 1 1 1 1 0.011343315548823377 1 1 1 1 1 1 1 1 1 1 1 1 1 0.0093178256793110936 1 1 1 1 0.0099436945154795404 0.010012631089075331 1 1 1 1 1 1 1 1 1 1 1 1 1 0.01004449661519809 1 1 1 0.009849895987478886 1 1 1 1 1 1 1 1 1 1 1 1 1 1 1 1 1 1 1 1 1 1 1 1 1 1 1 1 1 1 1 1 1 1 0.011508781485073193 1 1 0.011908321926483875 1 1 1 1 1 1 1 1 1 1 1 1 1 1 1 1 1 1 1 1 1 1 0.011228198514098644 1 1 1 1 1 1 1 1 1 1 1 1 1 1 1 1 1 0.013266388569165722 1 1 1 1 1 1 1 1 1 0.015828418373156281 1 1 1 1 1 1 1 1 1 1 0.022602241830096327 1 1 1 0.012988230226057912 1 0.030315197404735084 1 1 1 1 0.010534310798122486 1 1 1 1 1 1 1 1 0.028821146990975904 1 1 1 1 1 1 0.03633636227249256 1 1 1 1 1 1 1 0.010453641647294672 1 1 1 1 0.010317104850555193 1 1 1 1 1 1 0.043446632551579011 1 1 1 0.012578230660412446 1 1 0.040366932608908529 1 1 0.011379907288038633 1 1 1 1 1 1 1 1 1 1 1 1 0.010514730517642543 1 1 1 1 1 0.010968372164937217 1 1 1 1 1 1 1 1 1 1 1 1 1 1 1 1 1 1 1 1 1 1 1 1 1 1 0.010550900811830641 1 1 1 1 0.01023379596127545 1 1 1 1 1 1 1 1 1 1 1 1 1 1 1 1 1 1 1 1 1 1 1 1 1 1 1 1 1 1 1 1 1 1 1 1 1 1 1 1 1 1 1 1 1 1 1 1 1 1 1 1 1 1 1 1 1 1 1 1 1 1 1 1 1 1 1 1 1 1 1 1 0.016987936546376283 1 1 1 1 1 1 1 1 1 1 1 1 1 1 1 1 1 1 1 1 1 1 1 1 1 1 1 1 1 1 1 1 1 1 1 1 1 1 1 1 1 1 1 1 1 1 1 1 1 1 1 1 1 1 1 1 1 1 1 1 0.0097661431161957558 1 0.01101880263016917 1 1 1 0.010465200498798455 1 1 0.0099372262892803709 1 1 1 1 1 1 1 1 1 1 1 1 0.010660630431198873 1 1 1 1 1 1 1 1 1 1 1 1 1 1 0.011787399599816189 1 1 1 1 1 1 1 1 1 1 1 1 1 1 1 1 1 1 1 1 1 1 1 1 1 1 0.0099174256828929077 1 1 1 1 1 1 1 1 1 1 1 1 1 1 1 1 1 1 1 1 1 1 1 1 1 1 1 1 1 1 1 1 1 1 1 1 1 1 1 1 1 1 0.010414067768752495 1 1 1 0.010205300308430733 1 1 1 1 1 0.010974789261777633 1 1 1 0.011261899624669124 1 1 1 1 1 1 1 1 1 1 1 1 1 1 1 1 0.011019347762948786 1 1 1 1 1 1 1 1 1 1 1 1 1 1 1 1 1 0.010084521879783528 1 1 1 1 1 1 1 0.010566519033546924 1 0.010070728166407011 1 1 1 1 1 1 1 1 1 1 1 1 1 1 1 1 1 1 1 1 1 1 1 1 1 1 0.0098849943174001247 0.017225331574562536 1 1 1 1 1 1 1 0.0096677725331098894 1 1 1 1 1 1 1 1 1 1 1 1 0.010133772578707779 1 1 1 1 1 1 1 1 1 1 1 0.017617092803730812 1 0.015588260174476971 1 1 1 1 0.017488903571172665 0.01577219400777052 1 1 1 1 1 1 1 1 0.016996646799262105 1 1 1 0.0091912692970557361 1 0.0097432132531810427 1 1 1 1 1 1 1 1 1 1 1 1 0.0087847742362432771 1 1 1 0.018055957522883144 1 1 0.01001699428253308 0.021702255721715198 1 1 0.0099348707224488735 1 1 1 1 1 1 1 1 1 1 1 1 0.02802074649712229 1 1 1 1 0.011807346131538627 1 1 0.010022052794191107 0.014337646481334794 1 1 1 1 1 1 1 1 1 1 1 1 0.005269820391176348 1 1 0.0029485681139823725 1 1 1 1 0.01450389922963906 1 1 0.0077018242389570273 1 1 0.013165862965017512 0.012274014259423781 1 0.0098642740423631713 1 1 1 1 1 1 1 0.014743958148311934 1 1 1 1 1 1 1 1 1 1 1 1 0.010140203806351115 1 0.010061701636905536 1 1 1 1 1 1 1 1 1 1 0.013721707168734477 1 1 1 1 1 1 0.0097014975836235903 1 1 1 1 1 1 1 1 1 0.009536910796265315 0.0099974330207305666 1 1 1 1 1 1 1 0.012664800404049449 1 1 1 0.008381087165587409 1 0.010971863459794649 1 1 1 1 1 1 1 1 1 1 1 1 0.010108703760108764 1 1 0.010425531242505498 1 1 1 1 1 0.010056234178724147 1 1 1 1 1 0.012568027041512227 1 1 1 1 0.0093919093030568491 1 1 0.0066190767904492865 1 1 1 0.0070845970861946866 1 0.010838082896810736 1 1 1 0.010100346669698354 1 1 1 1 1 1 1 1 1 0.010940383407740683 1 1 0.0099324116738214591 0.010995560661505281 1 1 1 1 0.010013562255225893 1 1 1 1 1 1 1 1 0.0099816417721417111 1 1 1 1 1 0.0099705309828132735 1 1 1 1 0.009830895109041466 1 1 1 1 1 1 1 1 1 1 0.0099776541489844245 1 1 1 1 1 1 1 1 1 1 1 1 1 1 1 1 1 0.010473281775960335 1 1 1 1 1 1 1 0.010760737984298177 1 1 1 1 1 1 1 1 1 1 1 1 1 1 1 1 0.014164610390812571 1 1 1 1 0.014471048739179 1 0.012133848444175237 1 1 1 1 1 1 1 1 1 1 1 1 0.02536106982708532 1 1 1 0.030845185654863432 1 1 0.015611157737641558 1 1 1 1 1 1 0.01622608448350487 1 1 0.014371435305533815 1 1 1 0.011571128730094625 1 1 1 1 1 1 1 1 1 0.032364818514733031 1 1 1 1 1 1 1 1 0.031124584547407762 1 1 1 1 1 1 1 0.011643917069827748 1 1 1 1 1 1 1 1 1 1 1 1 1 1 1 1 1 1 1 1 1 1 1 1 0.011189147096168688 1 1 1 1 1 1 1 1 1 1 1 1 1 1 1 1 1 0.013420376949829537 1 1 1 1 0.018449186204460215 1 1 1 1 1 0.018420196669418177 1 1 1 1 0.0099974056107919682 1 1 0.0095793359827219364 1 1 0.010002619819531707 0.009617381207558371 1 1 1 1 0.010006104084300617 1 1 1 0.011334718989983594 1 0.013274035511576224 1 0.0099138751471389962 1 0.01658948464820496 1 1 0.019370560142755854 0.0099326916681256698 1 0.008909420419078596 1 0.022302527017740464 1 1 1 1 0.010924504501025098 1 1 1 1 1 1 1 1 1 1 1 1 1 1 1 1 1 1 1 1 1 0.0069938117601064404 1 1 1 1 0.010018091653090403 1 1 0.016065779153070801 1 1 1 1 1 1 1 1 1 1 1 0.0084521319779025297 1 1 1 0.0089098957964163228 1 1 1 1 1 0.010156766548246758 1 1 1 1 1 0.010002838743872387 1 1 1 1 0.011010036305544731 1 1 0.010767341136228889 1 1 1 1 1 1 1 0.010050006219009549 1 1 0.017594231768391887 1 0.0092462978724718332 1 1 0.011494767871516209 1 1 1 1 1 1 1 1 1 1 1 1 0.0099116004092878532 1 0.010422840318159408 1 1 1 0.010326015152157938 1 0.0099766003738398813 1 0.014179824465990988 1 1 0.011567158993011577 1 1 1 1 1 0.022368186857868025 1 1 1 1 1 1 1 1 1 1 1 1 1 0.012346368319404284 1 1 1 1 1 1 1 1 1 1 1 0.010197261720062901 1 1 1 1 1 1 1 1 1 0.020271735768561325 1 1 1 1 1 1 1 1 1 1 1 1 1 1 1 1 1 1 1 1 1 1 1 1 1 1 1 1 1 1 1 1 0.013109137782688955 1 1 1 1 1 1 1 1 1 1 1 0.01182318059456427 1 1 1 1 0.015988082432195457 1 1 0.0093394278210266347 1 1 1 1 1 1 1 1 0.0068289813879333569 1 1 0.01521417219863456 1 1 1 0.014606273276685055 1 1 1 1 1 1 1 1 1 1 1 1 1 0.012607145257544278 1 1 0.01410174480761677 1 0.010196153204933637 1 1 1 1 1 0.0090585943027893731 1 1 1 1 0.016409150811092347 1 1 0.0073907898028249472 1 1 1 1 1 1 1 1 1 1 1 1 0.019764446044110401 1 1 0.016416297498823965 1 1 1 1 1 1 1 1 1 1 0.010245642387529718 0.023845797083549267 1 1 1 1 1 0.010142337665705721 1 1 1 1 1 1 1 1 1 1 1 1 1 1 1 1 1 1 0.0091119921049042721 1 1 0.007409683364614254 1 1 1 1 0.010661073133021661 1 1 0.0083792956384947381 0.010147092177597617 1 1 1 1 1 1 1 0.0080610578129850889 1 1 1 1 1 1 1 1 1 1 1 1 1 1 1 1 1 1 1 1 1 1 1 1 1 1 1 1 1 1 1 1 1 0.0084009292404511708 1 1 1 1 1 1 1 1 0.016799648151440603 0.0095284527591833791 1 1 1 0.012375524471166464 1 1 1 1 1 1 1 1 1 1 1 0.010822453798297511 1 1 1 1 1 1 1 1 1 0.010681005318202574 1 1 1 1 1 0.012117334806062609 1 1 1 1 1 1 1 1 1 1 1 1 1 1 1 1 1 1 1 1 1 1 1 1 1 1 1 1 1 1 1 1 1 1 0.021054670070585164 1 1 0.011294881007765101 1 1 1 1 1 1 1 1 1 1 1 1 1 1 1 1 1 1 1 1 0.010791307321018366 1 1 1 1 1 1 1 1 1 1 1 1 0.01025350750248516 1 1 1 1 1 1 1 1 1 1 0.01282552479148755 0.010460082374843117 1 1 1 1 1 1 1 1 1 0.011489377351872717 1 1 1 1 1 1 1 0.011389127020105957 0.017405670364370809 1 1 1 1 1 0.018636273317998605 1 0.011553623866132305 1 1 1 1 0.0090590813464335035 1 1 0.010872618547929732 1 1 0.019766804601362355 1 1 1 1 1 1 1 1 1 1 1 1 0.010019971391837246 1 1 1 1 1 1 1 1 1 1 0.015868234569030901 1 0.01047304898453482 1 1 1 1 0.01544175460573865 1 1 1 1 0.011445691651882178 1 1 1 0.016469525987603199 1 1 1 1 0.0099900103099588924 1 1 1 0.012650101022513471 1 1 1 0.013199493324141064 1 1 1 0.01796490854524406 1 1 0.015246517031902112 1 1 0.014576822729839239 1 1 1 1 1 1 1 1 1 0.013227545621620176 1 1 1 1 1 1 1 0.013212485395986018 1 1 1 1 1 1 1 1 1 0.0112468396305471 1 1 1 1 1 0.010178990374229578 1 1 1 1 1 0.010603453790890255 1 0.012707243092361485 1 1 1 0.012089379707432893 1 1 1 0.011248303476579461 1 1 1 1 0.012792496831529927 1 1 1 1 1 1 0.011834308181202902 1 1 0.011772810499205848 1 1 0.014158567629814031 1 1 1 1 1 1 1 1 0.014947367572312849 1 1 1 1 1 0.013511702232484601 1 1 1 1 1 1 1 1 1 0.015215240435468323 1 1 1 1 1 1 1 1 1 1 1 1 0.010016632074188982 1 1 1 1 1 1 1 1 1 1 1 0.0108215229168347 1 1 1 1 1 1 1 1 1 1 0.012703407782571195 1 1 1 1 1 0.011139059490933613 1 1 1 1 1 1 1 1 1 1 0.010890618081384591 1 1 1 1 1 1 1 1 1 1 1 1 0.008895186171319373 1 1 1 0.010663544196735528 1 1 1 1 1 1 1 1 1 1 1 1 1 0.0096209436860848901 1 1 1 1 0.0091948437027526975 1 0.0095739000166678127 1 1 1 1 1 1 0.012780163937568957 1 0.014104270687425683 1 1 0.012839816383678286 1 1 1 1 0.016253262959822469 0.009996167205825579 1 1 0.012568722806527644 1 1 1 1 1 0.011451632242865238 1 1 1 1 1 0.019598669274770591 1 0.012681923428932158 1 1 1 0.014496006546082895 1 0.0094872466702132091 1 1 1 1 0.0077832840288362889 1 0.010716342942729974 0.010191436403010372 1 1 1 1 1 1 0.010075388914526308 1 1 1 1 1 1 1 1 1 0.018888291514169264 1 1 1 1 1 1 1 0.010512339658245974 1 1 0.017829678277657846 1 1 1 1 1 1 1 0.010189751528009883 1 1 1 1 1 1 1 0.0097465459260685627 1 1 1 1 1 1 1 1 1 0.012458386270827945 1 1 1 0.010426928644950107 1 1 1 1 1 1 0.012046299724966583 0.010088420652137593 1 0.010550575395109743 1 0.013946910379577787 1 0.0094031411820338015 1 1 1 1 1 1 1 0.0098798617222722596 1 1 1 0.013509629629155995 1 1 1 1 1 1 1 1 1 1 1 1 1 1 1 1 1 0.011005052492276499 0.010745266194709172 0.010665368169373551 1 1 0.011329780502484371 1 0.011112859080907464 1 1 0.0099252604372573813 1 1 1 1 1 0.011818575277352588 1 1 1 1 1 1 1 1 1 1 1 1 1 1 1 0.010151558252280325 1 1 1 0.010120510616540915 1 1 1 1 1 1 1 1 1 1 1 1 1 1 1 1 1 1 1 1 1 1 1 1 1 0.010151613046673188 1 1 1 1 1 1 1 1 1 1 1 1 1 1 0.010375215403838289 1 1 1 1 1 1 1 1 1 1 1 1 1 0.0099932476358615494 1 1 1 1 1 0.009963714322065987 1 1 1 1 1 1 1 1 1 0.0099705610858697464 0.015906637142728011 1 1 1 1 1 0.012334737662879527 1 1 1 1 1 1 1 1 1 1 1 1 1 1 1 1 1 1 1 1 1 1 1 1 1 1 1 1 0.013259271456758898 0.010175197940521914 1 1 1 1 1 1 1 1 1 1 1 1 1 1 1 1 1 1 1 1 1 1 1 1 1 1 1 1 1 1 1 1 1 1 1 1 1 1 1 1 1 1 1 1 1 1 1 1 1 1 1 1 1 0.017738243969010838 1 1 1 1 1 1 0.012961417069352124 1 1 1 1 1 1 1 1 1 1 1 1 1 1 1 1 1 1 0.017919520562754684 1 0.012006655820662598 1 1 1 0.016236554687292994 1 1 1 1 1 1 0.010324757499321473 1 1 1 0.010034956839450762 1 1 1 1 0.010626960889710629 1 1 0.0055768219824793713 0.018383692706218299 1 1 1 1 1 0.011004458308151346 1 1 1 1 1 0.01098799872624024 0.012022027213603431 1 0.012095427601031709 1 1 1 1 1 1 1 1 1 0.010557024893342974 1 1 0.010922054625928216 1 1 0.010553412700552371 0.012184397438069341 1 1 1 1 1 1 1 1 1 1 1 1 1 1 0.011058681644892775 1 1 1 0.012103942020687064 1 1 1 1 0.010643027757843922 1 1 1 0.012757593501433524 1 1 0.0088426169745928034 1 1 0.01413873310937162 1 0.012732206069140198 1 1 1 0.011595815048982857 1 1 1 1 0.011565483140674369 1 1 1 1 0.011295337716958521 1 0.011722812608761211 1 1 1 1 1 0.010271866875252104 1 1 1 1 1 1 0.010672935691445838 1 1 1 0.010226903666908864 1 1 1 1 1 1 1 1 1 1 1 1 1 1 1 1 1 0.011291461395839626 1 1 1 1 1 1 1 1 1 0.010912393825955095 1 1 1 1 1 1 1 1 1 1 1 1 1 1 1 1 0.010287456208337839 1 1 1 1 1 1 0.01196227074327046 1 1 1 1 1 1 0.0099468194169565205 1 1 1 1 1 0.0099541763184947014 1 1 1 1 1 1 1 1 1 1 1 1 0.0093197198865803653 1 1 1 1 1 1 0.0099702972474462505 1 1 1 1 1 1 1 1 1 1 1 1 1 1 0.010042683165512059 1 1 1 1 1 1 1 1 1 1 1 1 1 1 1 1 1 1 0.010278584383909863 1 1 0.0079402972846214798 1 1 1 1 1 1 1 0.013207408005888314 1 1 1 1 1 1 1 1 1 1 1 1 0.0099468198828385219 1 0.010048863260424515 1 1 1 1 1 1 1 1 1 1 1 1 1 0.015759225884196513 1 1 0.013447444227096372 1 1 1 1 1 1 1 1 1 1 1 1 0.014073166309633491 1 1 0.0093597915380327183 0.0083486023170304992 1 1 1 1 1 1 1 1 1 1 1 1 1 1 0.010208378287640157 1 1 1 1 1 0.0100844274844097 1 0.01068115667512666 1 1 1 1 1 1 0.013748414304340503 1 1 1 0.014183289110995284 1 1 1 1 1 1 1 0.011950991911161824 1 1 1 1 1 0.010702064815677276 1 1 1 1 1 1 1 1 1 1 1 1 1 1 1 1 1 1 1 0.010497597468953158 1 1 1 1 1 0.011105642962008232 1 1 1 1 0.010225730593701056 1 0.010586629835936084 1 1 1 1 1 1 1 1 1 1 1 0.010235057082527612 1 1 1 1 0.021726201370727959 1 1 1 0.0098414828785062282 1 1 1 1 1 1 1 1 1 1 1 1 0.019469319184922618 1 1 1 1 0.0098248824531341379 1 1 1 1 1 1 1 1 1 1 1 1 0.012604297504435702 1 1 1 1 1 1 1 1 1 1 1 1 1 1 1 1 0.010328445310548641 1 1 1 1 0.019189540974944012 1 1 1 1 1 1 1 1 1 1 1 1 1 1 1 1 1 1 1 0.010937606976034825 1 1 1 0.011470893763367199 1 1 1 1 0.01002394123125358 1 1 1 1 1 0.011435241307771064 0.010050597873975615 1 1 1 1 1 1 1 1 1 1 1 1 1 1 1 1 1 1 1 1 1 1 1 1 1 1 1 1 1 1 1 1 1 1 1 1 1 1 1 1 1 1 1 0.010908856201686886 1 1 0.010309792927822374 1 1 1 1 1 1 1 1 1 1 1 1 0.016952142791479947 1 1 1 1 1 1 1 1 1 1 1 1 1 1 1 1 0.0097191436557188052 1 1 1 1 0.0092185423120881849 1 1 0.013271868187201177 1 1 1 1 0.016023586481538683 1 1 0.0099142508868658476 1 1 1 1 1 1 1 1 0.012185968124662334 1 1 1 1 1 1 1 1 1 1 0.0083540863897456283 1 1 1 1 1 1 1 1 1 0.0098237792813725341 1 1 1 1 1 1 1 1 1 1 1 1 0.01297963942481334 1 1 1 1 1 1 1 1 0.016755182001563881 0.014290577105674275 1 1 1 0.019024576148954975 1 1 1 1 0.014588837033523566 0.0099323921273289338 1 1 1 1 1 1 1 1 1 1 1 1 1 1 1 1 1 0.013842147569922492 1 1 1 1 1 1 1 1 1 1 1 1 1 1 1 1 1 1 1 1 1 1 1 1 1 1 1 0.010813533502844939 1 1 1 1 1 1 1 1 1 1 1 1 1 0.013191382990837941 1 1 1 1 1 1 1 1 1 1 1 1 1 1 1 1 1 1 1 1 1 1 1 1 1 1 1 1 1 1 1 1 1 1 1 1 1 1 1 1 1 1 1 1 1 1 1 1 1 1 1 1 1 0.015451285326254574 0.010120145012792243 0.015132279516521255 1 1 1 1 1 1 0.0099746948814374917 0.019955286636166782 1 1 1 1 1 1 1 0.017482484452007424 0.017572633889301262 1 1 1 0.0091451776434055068 1 0.010079617289291267 1 1 0.0076266075888345077 1 0.012359116825747661 1 1 0.0096736529687681729 0.010045359229450948 1 1 0.0075379368311749469 1 0.012821743338147985 1 0.0059502478968829209 1 1 1 1 0.0098888609728602812 1 1 1 1 1 1 1 1 1 1 1 1 1 1 1 1 1 0.012416597606867419 1 1 1 1 1 1 1 1 1 1 1 1 0.010235068555936221 1 1 1 0.0093968445762350125 1 1 0.0098709158622303991 1 0.011485353754105618 1 1 1 1 1 1 1 1 1 1 1 1 1 1 1 1 0.016623041331307348 1 1 1 1 1 1 1 1 1 1 1 0.0099735165452277015 0.010421163221547366 1 1 0.010769199637081171 1 1 1 1 1 1 1 1 0.010876803117744183 1 0.010871257177224807 1 1 1 1 1 0.0094688021013714044 1 1 1 0.0089747374783508155 1 1 1 1 1 1 1 1 0.016626181508860347 1 1 0.010010384774553023 0.0072413765707559519 1 0.0081161364852150118 1 1 1 1 0.01267772024781004 1 1 1 1 0.012221864812723783 1 1 0.013620006370069077 1 1 1 1 1 1 1 1 1 1 1 0.012501572338789506 1 0.010872900552962798 1 1 1 1 1 1 0.0080463156839732236 1 1 1 1 1 1 1 1 1 1 1 1 1 1 1 1 1 1 1 1 1 1 1 1 1 1 1 1 1 1 1 1 1 1 1 1 1 1 0.014759684372226205 1 1 1 1 1 0.010282511272053818 1 1 1 1 0.010797530939399416 1 1 1 1 1 1 1 1 1 1 1 1 1 1 1 0.010134058718099566 1 1 1 1 1 1 1 1 1 0.0079266659527445892 1 1 1 1 1 1 1 1 1 1 1 0.013974477839524581 1 0.0067908305057621209 1 1 0.018710192392276066 1 1 1 1 1 1 1 1 1 0.0085192035309645895 1 1 1 0.010171338018953612 1 0.010006152429969484 1 1 1 1 1 0.0099773754842418308 1 1 1 0.013189706231219567 1 1 1 1 1 1 1 1 1 1 1 1 0.014136491950515624 1 1 1 1 1 0.010645456774755722 1 1 0.011370243264847708 1 1 1 1 1 1 1 1 1 1 1 1 0.01503672481709737 1 1 1 0.012491271722919901 1 0.012323500663260333 0.010783798156295351 1 0.012705396660087596 0.0069242526055433486 1 0.01355016384086653 1 1 0.0099819313519273582 0.017228866188966331 1 0.010207187337940026 1 1 0.011952395751870242 1 0.0099815195801788714 1 1 1 1 1 1 0.0069999174788045364 1 1 0.012845446398091924 1 0.013262947606682153 0.014176545377758483 1 0.010837878894276341 0.01074855768970882 1 1 0.0080396785047175678 0.012184609343180195 1 0.0081749009273207746 0.01251464955766652 1 1 0.011212227907591596 1 1 0.012793656345999965 1 1 1 1 1 1 1 1 1 1 0.0078192477612195679 1 1 1 0.010481535284241433 1 1 1 1 1 1 0.010145196978160178 1 1 1 1 1 0.0088301891505812857 1 0.0081476592370778381 0.010022132701177902 1 1 1 1 1 0.011067205283411891 1 1 1 1 1 1 0.010101969878651943 1 1 0.013719592256771081 1 1 1 1 1 1 1 1 0.013327193819687288 0.009074788249528204 1 0.010001774619867218 1 1 0.010320877642511585 1 1 1 1 1 1 1 0.012025576101603134 1 1 1 1 0.01067756544391792 1 1 0.0090408941122462096 1 1 0.0098126814798771295 1 1 1 1 1 1 1 1 1 1 1 1 1 1 1 1 0.0099593611785423128 1 0.01051468212472171 1 0.015666639873675867 1 1 1 0.010131899257970549 1 1 0.010109805463094085 0.010601047530889446 0.014220332630011991 1 1 1 0.022249673617993133 1 1 1 1 1 0.023319759810681 1 1 1 1 1 1 1 1 1 1 1 1 1 1 1 1 0.010335875623708458 1 1 1 1 1 0.010123425020981791 1 1 1 0.011668643453769886 1 1 1 1 0.011287042934742503 1 0.010378307938772466 1 1 1 1 1 1 1 1 0.0098333857078006237 1 1 0.010000678903075036 1 1 1 0.015211719464128 0.010060605880666663 1 0.014759025229724295 1 0.0094831456798220928 1 1 1 0.014612570478715512 1 1 0.010006394934809102 1 1 1 1 0.0099978813588828697 1 1 1 1 0.0097294352791855495 0.010132511553972538 1 1 1 0.0091131266820757718 1 1 0.013389803490107202 1 1 1 0.015477721319291237 1 0.010731687439621863 1 1 1 1 1 1 0.014176272124961033 1 1 0.013994746414371989 1 1 1 0.013638022166802845 1 0.0112413949732073 0.0089378906490142369 1 1 1 0.010796355382221507 1 0.009466448976711327 1 0.01421045567025811 1 1 0.010478546585490691 1 0.012392718477971586 1 0.0084784131722976629 1 1 1 0.0099821628253803293 0.011186935262586704 1 0.010158506019560899 1 1 1 1 1 1 0.010138473416636849 1 1 1 1 0.011280082014230346 1 1 1 1 1 1 1 1 1 1 1 1 1 1 1 1 1 0.010991028063821922 0.016255297268011112 1 1 0.015897600977384664 0.0099239825771317864 1 1 0.01044762293987465 1 0.012416680441384999 1 1 1 1 1 1 1 1 1 1 1 0.010787556058268264 1 1 1 1 1 1 1 1 1 1 0.011263933889657001 1 0.013270031674918614 1 0.010482571734376576 1 1 1 1 1 1 1 0.013459774312099215 1 1 1 1 1 0.011013331944959938 1 1 1 1 1 1 0.010402654467012426 1 1 1 1 1 1 1 0.010521329675167217 1 1 1 1 1 1 1 1 1 1 1 1 1 1 1 1 1 0.013168960260192389 1 1 0.011783223839327894 1 1 1 1 1 1 1 0.010099386234101761 1 1 1 1 1 1 1 1 1 1 1 1 1 1 1 1 0.0092688030488032383 1 1 0.0099253596615426175 1 1 0.010666935051572804 1 1 1 1 0.013024338115182749 1 1 1 0.010068867193272789 1 1 0.011221183318970214 1 1 1 0.016393279136575699 1 1 1 1 1 0.011343480069093102 1 0.01060003296179577 0.010054522637861323 0.016264995131116018 1 1 1 1 1 1 1 1 0.01671613962361259 1 1 1 1 1 1 1 1 1 1 1 0.018268506061813253 1 1 1 0.010123816005787163 1 1 1 1 1 1 1 1 1 1 1 1 0.013675941329045108 0.013839203977489757 1 0.011800832047074293 0.016518610149342326 1 1 1 1 1 0.011674657926261944 0.010298802964661109 1 1 1 0.011849361630308319 1 1 0.010377743863386732 1 0.0198534101459336 1 1 1 1 0.015352429838198303 0.010159406739496217 1 0.014989844454053304 0.0099518353126420087 1 1 1 0.0099855205522423121 1 1 1 1 1 1 0.010047390428231814 1 1 1 1 0.010053229776295268 1 0.0099880993938740448 1 1 1 1 1 1 1 1 1 0.009958778125112918 1 0.010941678282667709 0.011506706489907757 0.009964363768565479 1 0.0099890013260909016 1 1 1 1 0.011107694022275849 1 1 1 0.010083298208108844 0.016182383511749103 0.010264790103781221 0.014969924626308348 0.010405559089377854 1 1 1 1 1 1 1 0.010019930434527513 1 1 1 1 1 1 1 1 1 1 1 1 1 0.010019906931846132 1 1 1 1 1 1 1 1 1 1 1 1 1 1 1 1 1 1 1 1 1 0.014521842832312545 1 1 1 1 1 1 1 1 1 1 0.016980836611883536 1 0.0063669172624732321 0.011803739976855594 0.0099567013966361858 1 1 0.013083432699209295 1 1 1 1 1 1 1 1 1 1 1 1 0.010746911619961098 0.011154876860281139 1 1 1 1 1 1 0.016938067203753536 1 1 1 0.012070265937047945 1 1 0.0099778638172973895 0.012915321047907508 1 1 1 1 1 1 1 1 1 0.013661382914626914 0.016045942378810948 1 1 1 1 1 1 1 1 1 1 1 1 1 0.010506761815298596 1 1 1 1 1 0.011000692047807466 1 1 1 0.01138534204470671 0.009867182757429897 1 1 0.010890754151839866 1 1 1 0.0099658099779930918 1 1 1 1 1 1 1 0.0099661583652075128 1 1 1 1 0.01337871866985578 1 1 1 1 0.013982093951593482 1 1 1 0.014209958181800222 1 1 1 1 1 1 1 0.0145032193391278 0.010006495462083147 1 1 1 1 0.010033900991910255 1 1 1 1 1 1 1 0.013236419586831361 1 1 1 1 0.013559926191132277 1 1 1 0.015388752538387243 1 1 1 0.012133947097431166 1 1 0.01370110456986124 1 1 1 1 0.010339725389474468 1 1 1 1 1 1 1 1 1 1 0.0096293285104550944 1 1 1 0.012232226016233035 1 1 1 1 1 1 1 1 1 1 1 1 0.012355487524881924 1 1 1 1 1 1 0.014041512440814049 1 0.010412462707025588 1 0.012175972515529574 1 1 1 0.0087573760021412341 1 1 0.016805379494271768 1 1 1 1 0.017183830023566712 1 1 1 1 1 1 1 1 1 0.012326124713215104 1 0.010326223818826016 1 1 1 1 1 0.010113723736350787 1 1 1 0.017459511716768406 1 1 1 1 1 0.012304807722885544 1 0.017628004105436461 1 0.016642776245947805 1 1 0.011696047664038804 1 1 1 1 1 0.01539620154269988 1 1 0.015554756767167312 1 1 1 1 1 0.015595445891801684 1 1 1 1 1 1 1 1 0.01545217092576495 1 1 1 1 1 1 1 1 1 1 1 0.010212414050666184 1 0.014957856029342461 1 0.0106978145948363 1 0.014297867082476698 1 1 1 1 0.011410687477067197 1 0.010941788639406569 1 1 1 1 1 1 1 1 1 1 1 1 0.010924053316714234 1 1 0.010320924008624117 1 1 0.011637037520853585 1 1 1 1 1 1 1 1 0.010655949053247953 1 0.011565804664297439 1 1 1 1 1 0.010483472216247737 1 0.011963027141222727 1 1 0.010092141570692532 1 0.023012162697386193 1 1 1 0.022093787986681761 1 1 1 1 1 1 1 1 1 0.023589969730956513 1 1 1 1 1 1 1 1 1 1 1 0.010177987960644825 1 1 1 1 1 1 0.010222460514749081 1 0.015453631661318194 1 1 0.010022209111608487 1 1 1 1 1 1 0.0099999661489640814 1 1 0.018406866600955724 1 0.010578025589184321 1 0.018655168244173802 0.01708597261573281 1 1 1 0.023105395142109443 1 0.014550360684161844 1 1 1 0.018586901070974195 0.010979950177207858 0.014924686057848389 0.010853189481060763 1 1 1 0.015285805630149321 1 0.01699278143752234 1 0.015026823360893126 1 0.018353110707278734 0.014975208732253036 1 1 1 0.019806986697953756 1 1 1 0.010959350819378851 1 1 1 0.020525304092173936 1 0.01014527087505146 1 1 1 0.015036469083588236 0.0079685893195660731 0.016638601355217948 1 1 0.010024245895984609 1 1 1 1 1 1 1 1 1 1 1 1 0.0097387502280875844 1 1 1 1 1 0.0092322553818111105 1 1 1 1 1 1 1 1 1 1 1 1 1 1 1 1 1 1 1 1 1 1 1 1 1 1 1 1 1 1 1 1 1 1 1 1 1 1 1 1 1 1 1 1 1 1 1 1 1 1 1 1 1 1 1 1 1 1 1 1 1 0.01009214575174967 1 1 1 1 1 1 1 1 1 1 1 1 1 0.010610097277869832 1 1 1 1 1 0.011697751123894234 1 1 1 1 1 1 1 1 1 1 1 1 1 1 1 1 1 1 0.010879011209270045 1 1 1 1 1 1 1 1 0.01000862158309075 1 0.010001081870568942 0.0095442872754895897 1 1 1 0.010650235851593819 0.011089201513193602 1 1 1 1 1 1 1 1 0.0091693718752679856 0.010216809921418896 1 1 1 0.0081883874191778887 1 0.010749316060331825 0.013704037812930607 1 1 0.011335938563150358 1 1 1 1 1 1 0.010115382742496645 1 1 1 1 1 1 0.0097453520698941448 1 0.022856319710514838 1 0.019465999156569002 1 1 1 1 0.012237583639983391 1 1 0.010002260374556118 1 1 1 1 1 1 0.0086796833275155603 1 1 1 1 0.0040901510034983355 0.023994768863923426 1 1 1 0.012962465663831814 1 1 1 1 0.0089084522667273458 1 1 1 0.023481223048834213 1 0.011106798418121521 1 1 1 0.0091889600780998663 1 1 1 1 0.0095539180602680004 0.0097403476321057669 1 1 1 1 1 1 1 1 1 1 1 1 1 0.014350462980518182 1 1 1 1 1 1 1 1 1 1 0.0064261345461462966 0.016679120339058676 1 1 1 1 0.011836775386744488 1 1 1 1 1 0.014512968676051296 1 1 1 1 1 1 1 0.015462650854182778 1 1 1 0.0094814416350747378 1 1 1 1 1 0.010037289109069432 1 1 1 0.010223077471448789 1 1 1 1 1 1 1 1 0.012298043447006036 1 0.011627543702815346 1 1 1 1 1 0.011707839806245429 1 1 1 1 1 1 1 1 0.012556651274169514 0.010036474606861264 1 1 0.0092345290951459796 0.013639403345550794 1 1 1 0.0096069362228439516 0.012440304867811381 1 1 0.010032204068757464 1 0.010558943337845862 0.0091375390022962692 1 0.011373270282619035 1 1 1 0.010632590176627044 0.0090754523337856809 1 0.011887992260978995 1 0.015297585844056282 1 1 1 1 1 1 1 1 1 1 1 1 1 1 0.0099975986097704788 1 1 1 1 1 1 0.0099903917319862524 0.013474514354546467 1 0.010035936537442626 1 1 1 0.010576024550979371 1 1 0.012368001039247442 1 0.010968070673922864 1 1 1 1 1 1 1 1 1 0.010714942505737568 1 1 1 1 1 1 1 1 1 1 1 1 1 1 1 0.014374281471575545 1 1 1 0.013040410884790611 1 1 1 1 1 1 1 1 0.011595008238473165 1 1 1 1 0.010602367579369101 1 1 1 1 1 1 1 1 1 1 0.01093185931192074 1 1 1 0.013305238534650987 0.011998691616628447 1 1 1 0.010456575990713946 1 1 1 1 1 1 1 1 1 1 1 1 1 0.011913583070573712 1 1 1 1 1 1 1 1 1 1 0.013305842332200522 1 1 1 1 1 0.01721516224318044 1 1 1 1 1 1 1 1 1 1 1 1 0.016768927404617755 1 1 1 0.018006706228297364 1 1 0.017429632914840502 1 1 1 1 1 1 0.00980146534722302 0.023518788634279954 1 1 0.010067560942767992 1 1 1 0.0098376720893016342 1 1 1 1 1 1 1 1 1 1 0.012059941459282063 1 0.010276903654372801 1 1 1 1 1 1 1 1 0.010120385948309538 1 1 1 1 1 1 1 1 1 1 1 1 1 1 0.010158443892476414 1 1 1 0.0092748511397731746 1 0.010244801486192704 0.012528295970077642 1 1 1 1 1 1 1 0.012731850764049903 1 1 1 0.014938757419192726 1 1 1 1 1 1 1 1 1 1 1 1 1 0.026147242728871003 0.016312222791271334 1 1 0.010107156989079767 1 1 1 0.011641386044108954 1 1 0.0063492761288736757 1 1 1 1 1 0.026441000429544469 1 1 1 1 1 1 1 1 1 1 1 0.0091454100403998359 1 0.0080640262469714764 1 1 1 1 1 1 1 1 1 1 1 0.018957869934542446 1 0.013510766319248066 1 0.0072630032369339157 1 0.020559138964630158 0.0073555678825840036 1 1 1 1 0.0089803668999580005 1 1 1 1 1 1 1 1 1 1 1 0.0087149513517437716 1 1 1 1 1 1 0.010503668079108007 0.0096974112946341829 1 1 1 0.010708411678051073 1 1 1 1 1 1 1 1 1 1 1 1 1 1 1 1 0.0087343239315097639 1 1 1 1 1 1 1 1 1 1 1 1 1 1 1 1 1 0.0092070442840285569 1 1 1 1 1 1 1 1 1 1 1 0.0077134086047525472 1 0.010519415047108838 1 1 1 1 1 1 1 1 1 1 1 1 0.0098590221250318029 1 1 1 0.010256962608688842 1 0.0082681460544246077 1 1 1 0.011255881612713389 1 1 0.009656540789591524 1 1 1 1 0.0092080909610163016 1 1 1 1 1 1 1 1 1 1 0.0071341996292276786 1 1 1 1 1 1 1 1 1 1 0.010003483948780773 1 1 0.026449265174343838 1 1 1 0.0060184637043643177 1 1 1 0.010038474147465358 1 0.0089908617418568825 0.019862728174868272 1 1 0.01663843587008405 1 1 1 1 1 0.02189605947851073 1 1 0.010022327154454795 1 1 1 0.011477389181638256 1 1 1 1 1 1 1 1 0.011661037609663905 1 1 1 1 1 1 1 1 1 1 1 1 1 1 1 1 1 1 1 1 1 1 1 1 1 1 1 1 1 1 0.010157469036466995 1 1 1 0.012276045226126707 1 1 1 0.013573823303500886 1 1 1 1 0.018355799095571439 1 1 1 1 1 0.009966256421621883 1 1 1 1 1 0.010791450086740749 1 1 1 1 1 1 1 1 1 1 1 1 1 0.01029516852103827 1 0.015452344274973624 1 1 0.010288791566368874 1 1 0.011130709947930424 1 0.013022938504388147 0.015752374433525208 1 1 1 1 1 0.0087992357810486605 0.016355546503629369 1 1 1 0.010862485695590157 1 1 1 1 1 0.017818599470941044 0.0099910259926968264 1 1 1 1 1 1 1 0.016171859219735303 1 1 1 1 1 1 1 1 1 1 1 1 1 1 1 1 1 1 1 1 1 1 1 1 1 1 1 1 1 1 1 1 1 1 1 0.010143853003836035 1 1 0.01118130917642657 1 1 1 1 1 1 1 1 1 1 1 1 1 1 1 1 1 1 1 1 1 1 1 1 1 1 1 1 1 1 1 0.0098524978212748918 1 1 1 0.0093516905659652479 1 1 1 1 1 0.0097399763006638419 1 1 0.011879325056455522 0.011551292679326142 1 1 1 1 1 1 1 1 0.013031302808875463 1 1 1 1 1 1 0.012498270079578499 1 1 1 1 1 1 1 1 1 1 1 1 1 1 1 1 0.0099041538524595029 0.013553644653144362 1 0.008394864812249006 1 1 1 1 1 0.0094289077761914638 1 1 1 1 1 1 1 1 1 1 1 1 1 1 1 1 1 1 1 1 1 1 1 1 1 1 1 1 1 0.010425955242976147 0.012735401506216066 1 1 1 1 1 1 0.011339248146364295 1 1 1 1 1 1 1 1 1 1 1 1 1 1 1 1 1 1 1 1 1 1 1 1 1 1 1 1 1 1 1 1 1 1 1 1 1 1 1 1 1 1 1 1 1 1 1 1 1 1 1 1 1 1 1 1 1 1 1 1 1 1 1 1 1 1 1 1 1 1 1 1 1 1 1 1 1 1 1 1 1 1 1 1 1 0.010319277217307144 1 1 1 1 1 1 1 1 1 1 1 1 1 1 1 1 1 0.010591821723191999 1 1 1 1 1 1 0.012698186811440217 1 1 1 0.0099831172186704425 1 1 1 1 1 1 1 1 1 1 0.0099303108467525859 1 1 1 1 1 1 1 1 1 1 1 1 1 1 1 1 1 1 1 0.010153410737091294 0.0097018222564552691 1 1 1 1 1 1 1 1 1 1 1 1 1 1 1 1 1 1 1 1 1 1 1 1 1 1 0.0095614473568576379 1 1 0.009321006027122514 1 1 1 1 1 1 0.0097383003115690259 1 1 1 0.0099230075228342231 1 1 1 0.0099510066564718769 1 1 1 1 1 1 0.0097243017418888571 1 1 1 0.011470695726808871 1 1 1 1 1 1 1 1 1 1 1 1 1 1 1 1 1 1 1 1 1 1 1 1 1 1 1 1 1 0.011422993431573361 1 1 1 1 1 0.011515416805624443 1 1 1 0.022420664031618322 1 1 1 0.011611586269990983 1 1 1 1 1 1 1 0.013502499498616129 1 1 1 1 1 1 1 1 1 1 1 1 1 1 0.013528170476645528 1 0.021315291374834185 1 0.0084707961749204089 1 1 1 1 0.0075507928939395515 1 1 0.027294122156885467 1 1 1 1 1 1 1 0.012030761946637327 1 1 1 1 1 1 0.0099663741506940233 1 1 0.0094419289268479444 1 1 1 1 0.0110757529530504 1 1 1 1 1 1 1 1 1 1 1 1 1 1 0.01978175498338821 1 0.0099384113538302874 1 1 0.0087012840556669954 1 1 0.008008195819538818 1 0.0087296965143920414 1 1 1 0.0099951504214999126 1 1 1 0.02068541104368465 1 1 1 1 0.01517933975136287 0.017755556180826366 1 1 1 1 0.017371400213357854 1 0.0096474031294459441 1 1 0.013763552651048448 1 0.014767068750639795 1 0.0095291293058424008 1 0.011520737222474348 1 0.010061137998453073 1 0.0090355198592261664 1 0.014872747203463843 0.010019481687493965 1 0.01264101212231436 1 0.01109081932209377 0.011524615215547835 1 1 1 0.012103065724758368 0.0095174862097113337 0.010001800499838584 1 0.010120736967006393 1 0.010067018304227649 0.011826407074801787 1 1 0.0091133274927819238 0.010726890944549306 1 1 1 0.012581573790250159 0.011212458418943078 0.01050657279611358 1 1 1 1 1 1 1 1 1 1 0.010857457039782499 1 0.0092007276520086403 0.0099994483841424793 1 1 1 1 0.010290328215187217 1 0.010920970219662001 0.0094550976833417469 0.013471542152820905 0.010032779160152884 1 1 1 0.010613695501635495 1 1 1 1 1 1 1 1 0.0097390393668133728 1 1 1 0.010000615734332292 1 1 0.010608788231587837 1 0.010039981953654542 0.010630028048420254 1 0.012067792492448189 1 1 1 1 0.011905959481717399 1 0.010737817817646447 1 0.009610786029362231 0.014342965585696792 1 1 1 1 0.010027322580097696 1 1 1 1 0.010211882985272308 1 0.010370671025393222 1 1 1 1 0.01078555909473637 1 0.010950842932312656 1 1 1 1 0.010055204493778799 1 1 1 0.010147350245528469 1 1 1 1 0.01030722793052679 1 1 0.011498492285247592 1 1 0.010720368734131454 1 1 1 0.0099922632217072614 1 1 1 1 1 1 1 1 1 1 1 0.011557912361639529 1 1 1 1 1 1 1 1 1 1 1 0.011347450170670445 1 1 0.010400790555063349 1 1 1 1 0.01159227786691551 1 1 1 1 0.010282038279184998 1 1 1 0.01002620762359907 1 1 1 0.01008495724802537 1 1 1 1 1 0.0099587879012354632 1 1 1 1 1 1 0.011849750691479793 1 0.011623259633146074 1 0.0099986706952759873 1 1 0.0094803559890121944 1 1 0.010095147435796606 0.011524732691988667 0.011216732294485469 0.0098792034763647927 1 1 1 1 1 1 1 1 1 1 0.010515123895811402 0.010340143077424729 1 1 
</DataArray>
</CellData>
</Piece>
</UnstructuredGrid>
</VTKFile>
